CrCl3 1x1 + H S3 top-Cr (D3, U=0) (a=6.0
    1.000000000000000     
     6.0462744985246628    0.0000000000000000    0.0000000000000000
    -3.0231372492623314    5.2362273139763751    0.0000000000000000
     0.0000000000000000    0.0000000000000000   20.0000000000000000
   Cr   Cl   H 
     2     6     1
Direct
     0.3333333333333357    0.6666666666666643    0.4963895613230179
     0.6666666666666643    0.3333333333333357    0.5059045117163695
     0.3661841848935232    0.0079259636549828    0.4337733527844508
     0.9920740363450171    0.3582582212385403    0.4337733527844508
     0.6417417787614598    0.6338158151064769    0.4337733527844508
     0.6538324268194915    0.9820610825316231    0.5635052952032591
     0.0179389174683770    0.6717713442878683    0.5635052952032591
     0.3282286557121317    0.3461675731805086    0.5635052952032591
     0.6666666666666643    0.3333333333333357    0.5833699829974842
 
  0.00000000E+00  0.00000000E+00  0.00000000E+00
  0.00000000E+00  0.00000000E+00  0.00000000E+00
  0.00000000E+00  0.00000000E+00  0.00000000E+00
  0.00000000E+00  0.00000000E+00  0.00000000E+00
  0.00000000E+00  0.00000000E+00  0.00000000E+00
  0.00000000E+00  0.00000000E+00  0.00000000E+00
  0.00000000E+00  0.00000000E+00  0.00000000E+00
  0.00000000E+00  0.00000000E+00  0.00000000E+00
  0.00000000E+00  0.00000000E+00  0.00000000E+00
