 running   16 mpi-ranks, with    1 threads/rank, on    1 nodes
 distrk:  each k-point on   16 cores,    1 groups
 distr:  one band on    4 cores,    4 groups
 vasp.6.5.1 10Mar25 (build Feb 13 2026 23:13:13) complex                        
  
 POSCAR found type information on POSCAR CrClH 
 POSCAR found :  3 types and       9 ions
 scaLAPACK will be used
 LDA part: xc-table for (Slater+PW92), standard interpolation
 POSCAR, INCAR and KPOINTS ok, starting setup
 FFT: planning ... GRIDC
 FFT: planning ... GRID_SOFT
 FFT: planning ... GRID
 WAVECAR not read
 entering main loop
       N       E                     dE             d eps       ncg     rms          rms(c)
DAV:   1     0.533694960160E+03    0.53369E+03   -0.15709E+04   720   0.924E+02
DAV:   2     0.911831032394E+02   -0.44251E+03   -0.42280E+03   952   0.251E+02
DAV:   3    -0.367758635610E+02   -0.12796E+03   -0.12504E+03  1080   0.135E+02
DAV:   4    -0.453072681542E+02   -0.85314E+01   -0.84185E+01   980   0.479E+01
DAV:   5    -0.455691038348E+02   -0.26184E+00   -0.26101E+00  1048   0.847E+00    0.233E+01
DAV:   6    -0.451476936841E+02    0.42141E+00   -0.54677E+01  1076   0.750E+01    0.261E+01
DAV:   7    -0.409644938538E+02    0.41832E+01   -0.17312E+01  1000   0.104E+02    0.115E+01
DAV:   8    -0.407244924676E+02    0.24000E+00   -0.58090E+00  1104   0.248E+01    0.689E+00
DAV:   9    -0.404281264645E+02    0.29637E+00   -0.13738E+00  1120   0.156E+01    0.382E+00
DAV:  10    -0.403936388113E+02    0.34488E-01   -0.27966E-01  1088   0.740E+00    0.134E+00
DAV:  11    -0.405171307483E+02   -0.12349E+00   -0.53381E-02  1072   0.217E+00    0.756E-01
DAV:  12    -0.405964387156E+02   -0.79308E-01   -0.20548E-02  1080   0.220E+00    0.327E-01
DAV:  13    -0.406531367924E+02   -0.56698E-01   -0.51861E-03  1044   0.730E-01    0.205E-01
DAV:  14    -0.407259346032E+02   -0.72798E-01   -0.67360E-03   964   0.425E-01    0.134E-01
DAV:  15    -0.407514595985E+02   -0.25525E-01   -0.14250E-03   960   0.190E-01    0.106E-01
DAV:  16    -0.407773537716E+02   -0.25894E-01   -0.14743E-03   932   0.148E-01    0.729E-02
DAV:  17    -0.408086893516E+02   -0.31336E-01   -0.31357E-03   824   0.166E-01    0.360E-02
DAV:  18    -0.408121322613E+02   -0.34429E-02   -0.29390E-04   884   0.650E-02    0.231E-02
DAV:  19    -0.408131727298E+02   -0.10405E-02   -0.86502E-05   912   0.378E-02    0.104E-02
DAV:  20    -0.408135178251E+02   -0.34510E-03   -0.30039E-05   860   0.202E-02    0.631E-03
DAV:  21    -0.408135860718E+02   -0.68247E-04   -0.46135E-06   804   0.905E-03    0.305E-03
DAV:  22    -0.408136466976E+02   -0.60626E-04   -0.26398E-06   656   0.569E-03    0.150E-03
DAV:  23    -0.408136899121E+02   -0.43214E-04   -0.16577E-06   664   0.472E-03    0.141E-03
DAV:  24    -0.408137106821E+02   -0.20770E-04   -0.46521E-07   540   0.283E-03    0.106E-03
DAV:  25    -0.408137270968E+02   -0.16415E-04   -0.65389E-07   568   0.282E-03    0.558E-04
DAV:  26    -0.408137368539E+02   -0.97571E-05   -0.35659E-07   524   0.231E-03    0.368E-04
DAV:  27    -0.408137408881E+02   -0.40342E-05   -0.13198E-07   480   0.211E-03    0.326E-04
DAV:  28    -0.408137436741E+02   -0.27859E-05   -0.93212E-08   460   0.141E-03    0.177E-04
DAV:  29    -0.408137471691E+02   -0.34950E-05   -0.12802E-07   464   0.150E-03    0.152E-04
DAV:  30    -0.408137482702E+02   -0.11012E-05   -0.65154E-08   468   0.139E-03    0.145E-04
DAV:  31    -0.408137488411E+02   -0.57088E-06   -0.42470E-08   432   0.951E-04
   1 F= -.42239119E+02 E0= -.42239119E+02  d E =-.422391E+02  mag=     5.0000
 curvature:   0.00 expect dE= 0.000E+00 dE for cont linesearch  0.000E+00
 trial: gam= 0.00000 g(F)=  0.978E-03 g(S)=  0.000E+00 ort = 0.000E+00 (trialstep = 0.100E+01)
 search vector abs. value=  0.978E-03
 bond charge predicted
       N       E                     dE             d eps       ncg     rms          rms(c)
DAV:   1    -0.408134744699E+02    0.27380E-03   -0.81629E-02   720   0.116E+00    0.180E-01
DAV:   2    -0.408139989269E+02   -0.52446E-03   -0.60228E-03  1076   0.682E-01    0.126E-01
DAV:   3    -0.408139646869E+02    0.34240E-04   -0.21108E-04  1116   0.231E-01    0.684E-02
DAV:   4    -0.408139523663E+02    0.12321E-04   -0.53567E-05  1056   0.134E-01    0.611E-02
DAV:   5    -0.408139411163E+02    0.11250E-04   -0.29105E-05  1120   0.782E-02    0.440E-02
DAV:   6    -0.408139330356E+02    0.80807E-05   -0.22807E-05  1108   0.442E-02    0.150E-02
DAV:   7    -0.408139345889E+02   -0.15533E-05   -0.25885E-06   616   0.186E-02    0.345E-03
DAV:   8    -0.408139386624E+02   -0.40735E-05   -0.66512E-07   448   0.951E-03    0.311E-03
DAV:   9    -0.408139424008E+02   -0.37384E-05   -0.32482E-07   472   0.789E-03    0.395E-03
DAV:  10    -0.408139464666E+02   -0.40658E-05   -0.23688E-07   476   0.400E-03    0.190E-03
DAV:  11    -0.408139499915E+02   -0.35249E-05   -0.15124E-07   480   0.278E-03    0.136E-03
DAV:  12    -0.408139534885E+02   -0.34970E-05   -0.11264E-07   468   0.241E-03    0.613E-04
DAV:  13    -0.408139550983E+02   -0.16098E-05   -0.59658E-08   480   0.184E-03    0.318E-04
DAV:  14    -0.408139558913E+02   -0.79302E-06   -0.30377E-08   480   0.123E-03
   2 F= -.42239887E+02 E0= -.42239887E+02  d E =-.768348E-03  mag=     5.0000
 trial-energy change:   -0.000768  1 .order   -0.000759   -0.000978   -0.000541
 step:   1.9962(harm=  2.2391)  dis= 0.00483  next Energy=   -42.240165 (dE=-0.105E-02)
 bond charge predicted
       N       E                     dE             d eps       ncg     rms          rms(c)
DAV:   1    -0.408132499038E+02    0.70519E-03   -0.81028E-02   720   0.116E+00    0.180E-01
DAV:   2    -0.408137710686E+02   -0.52116E-03   -0.59803E-03  1088   0.680E-01    0.126E-01
DAV:   3    -0.408137361371E+02    0.34931E-04   -0.21110E-04  1104   0.232E-01    0.682E-02
DAV:   4    -0.408137231877E+02    0.12949E-04   -0.53660E-05  1052   0.135E-01    0.610E-02
DAV:   5    -0.408137118710E+02    0.11317E-04   -0.29166E-05  1120   0.782E-02    0.439E-02
DAV:   6    -0.408137043568E+02    0.75142E-05   -0.22484E-05  1100   0.440E-02    0.149E-02
DAV:   7    -0.408137064984E+02   -0.21417E-05   -0.25652E-06   596   0.188E-02    0.342E-03
DAV:   8    -0.408137111920E+02   -0.46936E-05   -0.67410E-07   448   0.957E-03    0.310E-03
DAV:   9    -0.408137154343E+02   -0.42423E-05   -0.33787E-07   472   0.797E-03    0.395E-03
DAV:  10    -0.408137196039E+02   -0.41696E-05   -0.24786E-07   476   0.403E-03    0.195E-03
DAV:  11    -0.408137234640E+02   -0.38600E-05   -0.15449E-07   472   0.283E-03    0.136E-03
DAV:  12    -0.408137274260E+02   -0.39621E-05   -0.11639E-07   472   0.239E-03    0.602E-04
DAV:  13    -0.408137288853E+02   -0.14592E-05   -0.61418E-08   480   0.182E-03    0.350E-04
DAV:  14    -0.408137299200E+02   -0.10347E-05   -0.32478E-08   476   0.132E-03    0.300E-04
DAV:  15    -0.408137311522E+02   -0.12322E-05   -0.23349E-08   468   0.978E-04    0.138E-04
DAV:  16    -0.408137323205E+02   -0.11683E-05   -0.22135E-08   472   0.718E-04    0.187E-04
DAV:  17    -0.408137328580E+02   -0.53756E-06   -0.13266E-08   480   0.734E-04
   3 F= -.42240222E+02 E0= -.42240222E+02  d E =-.110345E-02  mag=     5.0000
 curvature:  -1.08 expect dE=-0.191E-03 dE for cont linesearch -0.132E-04
 ZBRENT: extrapolating
 opt :   2.2484  next Energy=   -42.240236 (dE=-0.112E-02)
 bond charge predicted
       N       E                     dE             d eps       ncg     rms          rms(c)
DAV:   1    -0.408135754366E+02    0.15688E-03   -0.51911E-03   764   0.293E-01    0.451E-02
DAV:   2    -0.408136086052E+02   -0.33169E-04   -0.38615E-04  1076   0.173E-01    0.321E-02
DAV:   3    -0.408136072149E+02    0.13903E-05   -0.13466E-05  1088   0.585E-02    0.172E-02
DAV:   4    -0.408136061577E+02    0.10572E-05   -0.27654E-06   620   0.339E-02    0.157E-02
DAV:   5    -0.408136051091E+02    0.10486E-05   -0.15475E-06   504   0.202E-02    0.113E-02
DAV:   6    -0.408136045237E+02    0.58540E-06   -0.58995E-06   796   0.148E-02
   4 F= -.42240235E+02 E0= -.42240235E+02  d E =-.111624E-02  mag=     5.0000
 curvature:  -1.13 expect dE=-0.236E-03 dE for cont linesearch -0.317E-08
 trial: gam= 0.21598 g(F)=  0.210E-03 g(S)=  0.000E+00 ort =-0.166E-05 (trialstep = 0.125E+01)
 search vector abs. value=  0.254E-03
 bond charge predicted
       N       E                     dE             d eps       ncg     rms          rms(c)
DAV:   1    -0.408134385250E+02    0.16658E-03   -0.36403E-02   720   0.800E-01    0.120E-01
DAV:   2    -0.408136355029E+02   -0.19698E-03   -0.19921E-03  1012   0.301E-01    0.592E-02
DAV:   3    -0.408136604029E+02   -0.24900E-04   -0.60244E-05  1112   0.950E-02    0.350E-02
DAV:   4    -0.408136522308E+02    0.81721E-05   -0.12773E-05  1112   0.537E-02    0.260E-02
DAV:   5    -0.408136379036E+02    0.14327E-04   -0.11139E-05  1000   0.489E-02    0.172E-02
DAV:   6    -0.408136225053E+02    0.15398E-04   -0.74536E-06   992   0.327E-02    0.538E-03
DAV:   7    -0.408136249839E+02   -0.24786E-05   -0.10762E-06   452   0.100E-02    0.294E-03
DAV:   8    -0.408136316916E+02   -0.67077E-05   -0.45842E-07   464   0.515E-03    0.233E-03
DAV:   9    -0.408136413513E+02   -0.96596E-05   -0.29477E-07   480   0.380E-03    0.130E-03
DAV:  10    -0.408136452682E+02   -0.39170E-05   -0.11467E-07   480   0.294E-03    0.878E-04
DAV:  11    -0.408136500645E+02   -0.47963E-05   -0.87188E-08   476   0.183E-03    0.641E-04
DAV:  12    -0.408136549608E+02   -0.48962E-05   -0.58937E-08   476   0.196E-03    0.448E-04
DAV:  13    -0.408136585793E+02   -0.36185E-05   -0.55703E-08   480   0.127E-03    0.331E-04
DAV:  14    -0.408136610372E+02   -0.24579E-05   -0.35507E-08   476   0.118E-03    0.192E-04
DAV:  15    -0.408136649917E+02   -0.39545E-05   -0.56420E-08   476   0.961E-04    0.249E-04
DAV:  16    -0.408136681747E+02   -0.31830E-05   -0.58664E-08   488   0.115E-03    0.211E-04
DAV:  17    -0.408136696828E+02   -0.15081E-05   -0.45695E-08   480   0.106E-03    0.178E-04
DAV:  18    -0.408136704077E+02   -0.72492E-06   -0.31891E-08   480   0.941E-04
   5 F= -.42240363E+02 E0= -.42240363E+02  d E =-.127852E-03  mag=     5.0000
 trial-energy change:   -0.000128  1 .order   -0.000123   -0.000261    0.000015
 step:   1.1876(harm=  1.1816)  dis= 0.00160  next Energy=   -42.240363 (dE=-0.128E-03)
 bond charge predicted
       N       E                     dE             d eps       ncg     rms          rms(c)
DAV:   1    -0.408136737017E+02   -0.40189E-05   -0.89811E-05   788   0.398E-02    0.599E-03
DAV:   2    -0.408136738687E+02   -0.16699E-06   -0.45837E-06   764   0.156E-02
   6 F= -.42240363E+02 E0= -.42240363E+02  d E =-.128242E-03  mag=     5.0000
 curvature:  -0.71 expect dE=-0.976E-04 dE for cont linesearch -0.392E-07
 trial: gam= 0.64556 g(F)=  0.137E-03 g(S)=  0.000E+00 ort = 0.374E-05 (trialstep = 0.124E+01)
 search vector abs. value=  0.248E-03
 bond charge predicted
       N       E                     dE             d eps       ncg     rms          rms(c)
DAV:   1    -0.408136905948E+02   -0.16893E-04   -0.34603E-02   720   0.764E-01    0.974E-02
DAV:   2    -0.408138682718E+02   -0.17768E-03   -0.22153E-03  1016   0.311E-01    0.474E-02
DAV:   3    -0.408138883793E+02   -0.20108E-04   -0.40121E-05  1016   0.662E-02    0.299E-02
DAV:   4    -0.408138786264E+02    0.97530E-05   -0.42290E-06   720   0.311E-02    0.239E-02
DAV:   5    -0.408138668744E+02    0.11752E-04   -0.75172E-06   864   0.257E-02    0.173E-02
DAV:   6    -0.408138494462E+02    0.17428E-04   -0.83487E-06  1024   0.253E-02    0.620E-03
DAV:   7    -0.408138545524E+02   -0.51062E-05   -0.88769E-07   440   0.107E-02    0.287E-03
DAV:   8    -0.408138636913E+02   -0.91389E-05   -0.61274E-07   488   0.512E-03    0.142E-03
DAV:   9    -0.408138688541E+02   -0.51629E-05   -0.21589E-07   476   0.304E-03    0.138E-03
DAV:  10    -0.408138722143E+02   -0.33602E-05   -0.85791E-08   480   0.309E-03    0.101E-03
DAV:  11    -0.408138761803E+02   -0.39660E-05   -0.55784E-08   480   0.125E-03    0.788E-04
DAV:  12    -0.408138840179E+02   -0.78376E-05   -0.76983E-08   484   0.127E-03    0.456E-04
DAV:  13    -0.408138904513E+02   -0.64333E-05   -0.77751E-08   496   0.129E-03    0.229E-04
DAV:  14    -0.408138945133E+02   -0.40620E-05   -0.71505E-08   480   0.129E-03    0.255E-04
DAV:  15    -0.408138968984E+02   -0.23851E-05   -0.52848E-08   480   0.126E-03    0.205E-04
DAV:  16    -0.408138994868E+02   -0.25884E-05   -0.60066E-08   472   0.108E-03    0.149E-04
DAV:  17    -0.408139019876E+02   -0.25008E-05   -0.83248E-08   508   0.121E-03    0.648E-05
DAV:  18    -0.408139024191E+02   -0.43156E-06   -0.42007E-08   480   0.119E-03
   7 F= -.42240501E+02 E0= -.42240501E+02  d E =-.137958E-03  mag=     5.0000
 trial-energy change:   -0.000138  1 .order   -0.000142   -0.000172   -0.000112
 step:   3.5214(harm=  3.5214)  dis= 0.00493  next Energy=   -42.240608 (dE=-0.245E-03)
 reached required accuracy - stopping structural energy minimisation
