33
Lattice="12.092548997049326 0.0 0.0 -6.046274498524663 10.47245462795275 0.0 0.0 0.0 20.0" Properties=species:S:1:pos:R:3:momenta:R:3 pbc="T T T"
Cr      -0.01045981       3.35032700       9.98946337       0.00000000       0.00000000       0.00000000
Cr       3.02373801       1.65946726      10.02080480       0.00000000       0.00000000       0.00000000
Cr       6.12040194       3.44732701      10.02080480       0.00000000       0.00000000       0.00000000
Cr       9.07921474       1.66553589      10.00102988       0.00000000       0.00000000       0.00000000
Cr      -2.95886651       8.67861927      10.00102988       0.00000000       0.00000000       0.00000000
Cr       0.02725575       6.96676401      10.08775061       0.00000000       0.00000000       0.00000000
Cr       3.02238926       8.69600515      10.08775061       0.00000000       0.00000000       0.00000000
Cr       6.17317336       6.92044928       9.98946337       0.00000000       0.00000000       0.00000000
Cl      -0.82494031       5.22976313       8.73410185       0.00000000       0.00000000       0.00000000
Cl       4.99711927       1.81719016       8.71160732       0.00000000       0.00000000       0.00000000
Cl       2.01179883       3.32959510       8.70432557       0.00000000       0.00000000       0.00000000
Cl       0.86320715       5.21339060      11.58474458       0.00000000       0.00000000       0.00000000
Cl      10.12876304       3.28505531      11.36664935       0.00000000       0.00000000       0.00000000
Cl       1.10197463       1.73083711      11.38447843       0.00000000       0.00000000       0.00000000
Cl       5.17999839       5.15875597       8.70432557       0.00000000       0.00000000       0.00000000
Cl      10.94104893       1.70146056       8.57476874       0.00000000       0.00000000       0.00000000
Cl       8.01428921       3.30225870       8.64295140       0.00000000       0.00000000       0.00000000
Cl       7.01947553       5.14730784      11.38447843       0.00000000       0.00000000       0.00000000
Cl       4.13240780       3.31491436      11.49449949       0.00000000       0.00000000       0.00000000
Cl       7.12886725       1.79619463      11.38140926       0.00000000       0.00000000       0.00000000
Cl      -3.84384728      10.41923324       8.64295140       0.00000000       0.00000000       0.00000000
Cl       2.01254511       6.98662425       8.80572609       0.00000000       0.00000000       0.00000000
Cl      -0.96602165       8.60107245       8.70672767       0.00000000       0.00000000       0.00000000
Cl      -2.09684655      10.43299912      11.38140926       0.00000000       0.00000000       0.00000000
Cl      -4.88618563       8.57944349      11.36664935       0.00000000       0.00000000       0.00000000
Cl      -1.92513461       7.06171446      11.40858373       0.00000000       0.00000000       0.00000000
Cl       2.10367533      10.37336283       8.70672767       0.00000000       0.00000000       0.00000000
Cl      -3.92089528       7.08418590       8.57476874       0.00000000       0.00000000       0.00000000
Cl       4.95277418       8.56552814       8.73410185       0.00000000       0.00000000       0.00000000
Cl       3.91635493      10.43430002      11.40858373       0.00000000       0.00000000       0.00000000
Cl       1.07818450       8.60498430      11.45774389       0.00000000       0.00000000       0.00000000
Cl       4.12287947       7.09536330      11.58474458       0.00000000       0.00000000       0.00000000
Co       3.03885506       5.20900326      11.94056859       0.00000000       0.00000000       0.00000000
