CrCl3 2x2 + Ni S3 top-Cr (D3, U=0) (a_2x
   1.0000000000000000     
    12.0925489970493256    0.0000000000000000    0.0000000000000000
    -6.0462744985246628   10.4724546279527502    0.0000000000000000
     0.0000000000000000    0.0000000000000000   20.0000000000000000
   Cr   Cl   Ni
     8    24     1
Direct
  0.1679153507565450  0.3336740919050120  0.5005594062221660
  0.3305674221743087  0.1643697957740151  0.4997844479021321
  0.6666666666666714  0.3333333333333286  0.4888887538752988
  0.8356302042259849  0.1661976264003079  0.4997844479021321
  0.1657587411484811  0.8320846492434552  0.5005594062221660
  0.3333333333333286  0.6666666666666714  0.5005466058921267
  0.6663259080949882  0.8342412588515188  0.5005594062221660
  0.8338023735996920  0.6694325778256912  0.4997844479021321
  0.1781072631310989  0.5001000694752119  0.4329206439027329
  0.4927793348941291  0.1715537848256949  0.4286697498838776
  0.3258085494744085  0.3254476763289857  0.4339589262714963
  0.3232258387311721  0.5006924853457161  0.5685397485094695
  0.0006613044751039  0.3233942832215400  0.5681458640557607
  0.1772403690269197  0.1776902588069652  0.5687458047114863
  0.6787744499315663  0.5072206651058712  0.4286697498838776
  0.0059366629219537  0.1774466712327652  0.4322000800806409
  0.8284462151743052  0.3212255500684341  0.4286697498838776
  0.8278743333171051  0.4976450742924339  0.5712898586460678
  0.5023549257075660  0.3302292590246712  0.5712898586460678
  0.6697707409753288  0.1721256666828948  0.5712898586460678
  0.1715100083108116 -0.0059366629219537  0.4322000800806409
  0.4998999305247882  0.6780071936558876  0.4329206439027329
  0.3219928063441127  0.8218927368689012  0.4329206439027329
  0.3227329787464361 -0.0006613044751039  0.5681458640557607
  0.0004498897800455  0.8227596309730807  0.5687458047114863
  0.1774666466145444  0.6767741612688279  0.5685397485094695
  0.6745523236710146  0.0003608731454230  0.4339589262714963
 -0.0003608731454230  0.6741914505255913  0.4339589262714963
  0.8225533287672342  0.8284899916891885  0.4322000800806409
  0.8223097411930346 -0.0004498897800455  0.5687458047114863
  0.4993075146542833  0.8225333533854556  0.5685397485094695
  0.6766057167784599  0.6772670212535645  0.5681458640557607
  0.6666666666666714  0.3333333333333286  0.6211210496750836

  0.00000000E+00  0.00000000E+00  0.00000000E+00
  0.00000000E+00  0.00000000E+00  0.00000000E+00
  0.00000000E+00  0.00000000E+00  0.00000000E+00
  0.00000000E+00  0.00000000E+00  0.00000000E+00
  0.00000000E+00  0.00000000E+00  0.00000000E+00
  0.00000000E+00  0.00000000E+00  0.00000000E+00
  0.00000000E+00  0.00000000E+00  0.00000000E+00
  0.00000000E+00  0.00000000E+00  0.00000000E+00
  0.00000000E+00  0.00000000E+00  0.00000000E+00
  0.00000000E+00  0.00000000E+00  0.00000000E+00
  0.00000000E+00  0.00000000E+00  0.00000000E+00
  0.00000000E+00  0.00000000E+00  0.00000000E+00
  0.00000000E+00  0.00000000E+00  0.00000000E+00
  0.00000000E+00  0.00000000E+00  0.00000000E+00
  0.00000000E+00  0.00000000E+00  0.00000000E+00
  0.00000000E+00  0.00000000E+00  0.00000000E+00
  0.00000000E+00  0.00000000E+00  0.00000000E+00
  0.00000000E+00  0.00000000E+00  0.00000000E+00
  0.00000000E+00  0.00000000E+00  0.00000000E+00
  0.00000000E+00  0.00000000E+00  0.00000000E+00
  0.00000000E+00  0.00000000E+00  0.00000000E+00
  0.00000000E+00  0.00000000E+00  0.00000000E+00
  0.00000000E+00  0.00000000E+00  0.00000000E+00
  0.00000000E+00  0.00000000E+00  0.00000000E+00
  0.00000000E+00  0.00000000E+00  0.00000000E+00
  0.00000000E+00  0.00000000E+00  0.00000000E+00
  0.00000000E+00  0.00000000E+00  0.00000000E+00
  0.00000000E+00  0.00000000E+00  0.00000000E+00
  0.00000000E+00  0.00000000E+00  0.00000000E+00
  0.00000000E+00  0.00000000E+00  0.00000000E+00
  0.00000000E+00  0.00000000E+00  0.00000000E+00
  0.00000000E+00  0.00000000E+00  0.00000000E+00
  0.00000000E+00  0.00000000E+00  0.00000000E+00
