Cr8Cl24                                 
   1.0000000000000000     
    12.1682323165561677    0.0016454480897831    0.0000000000000000
    -6.1314979671184711   10.5521182477466997    0.0000000000000000
     0.0000000000000000    0.0000000000000000   17.6887664794999999
  Cr              Cl              Ni            
     8    24     1
Direct
     0.1553337509885822    0.3420720851210746    0.3374869698798264
     0.1560423870584557    0.8418639792564306    0.3375044789918178
     0.6584120669809934    0.3399300259913147    0.3383811824466960
     0.6568194341992779    0.8460881120966945    0.3353744862120465
     0.8261835910092259    0.1751546144103457    0.3373296912622550
     0.8231146851003288    0.6758470324272281    0.3355688187914367
     0.3233978527826196    0.1745468475578633    0.3398476964191062
     0.3234264307047852    0.6795492643831622    0.3361996443947888
     0.1682626925634381    0.5090773219061617    0.2640156591851408
     0.1696724233238811    0.0092595850867809    0.2632432293219367
     0.6595268294272429    0.5041676715640975    0.2592556096110386
     0.6721772437706903    0.0122551623402245    0.2605410421207139
     0.3288600672482431    0.3445611585429376    0.2651539651544184
     0.3098638799341984    0.8311375447875093    0.2614254815594066
     0.8131606657192592    0.3276428671365323    0.2622410806434559
     0.8099463114066268    0.8295801760252459    0.2625252059475898
     0.9927992958371519    0.1884983331602257    0.2612094778886842
     0.9916310753924478    0.6903101843301158    0.2604738224428615
     0.4896759402522122    0.1843423628959258    0.2668971430280322
     0.4889660463369410    0.6903970072684515    0.2591229289426806
     0.9909374753973310    0.3286253434728295    0.4138441607443824
     0.9895552806124357    0.8285388852479514    0.4125626124041730
     0.4923408037115209    0.3293346937895265    0.4205392962603156
     0.4908756214245358    0.8342621247304933    0.4098407958993562
     0.3255925057761644    0.5130356317033460    0.4089702773382555
     0.3076335753372490    0.0051982752747648    0.4145690067157872
     0.8132679731754493    0.5103327360463439    0.4092234163867161
     0.8118581431612881    0.0060950711232124    0.4115255909910260
     0.1690226393823266    0.1890865011777052    0.4115664065138560
     0.1698252597077357    0.6873023162887506    0.4120706618112564
     0.6745092316092709    0.1863956180553004    0.4140070162100358
     0.6516341057776032    0.6726799212387107    0.4086614456688267
     0.5024532118904830    0.4891972585627542    0.3420617418120742

  0.00000000E+00  0.00000000E+00  0.00000000E+00
  0.00000000E+00  0.00000000E+00  0.00000000E+00
  0.00000000E+00  0.00000000E+00  0.00000000E+00
  0.00000000E+00  0.00000000E+00  0.00000000E+00
  0.00000000E+00  0.00000000E+00  0.00000000E+00
  0.00000000E+00  0.00000000E+00  0.00000000E+00
  0.00000000E+00  0.00000000E+00  0.00000000E+00
  0.00000000E+00  0.00000000E+00  0.00000000E+00
  0.00000000E+00  0.00000000E+00  0.00000000E+00
  0.00000000E+00  0.00000000E+00  0.00000000E+00
  0.00000000E+00  0.00000000E+00  0.00000000E+00
  0.00000000E+00  0.00000000E+00  0.00000000E+00
  0.00000000E+00  0.00000000E+00  0.00000000E+00
  0.00000000E+00  0.00000000E+00  0.00000000E+00
  0.00000000E+00  0.00000000E+00  0.00000000E+00
  0.00000000E+00  0.00000000E+00  0.00000000E+00
  0.00000000E+00  0.00000000E+00  0.00000000E+00
  0.00000000E+00  0.00000000E+00  0.00000000E+00
  0.00000000E+00  0.00000000E+00  0.00000000E+00
  0.00000000E+00  0.00000000E+00  0.00000000E+00
  0.00000000E+00  0.00000000E+00  0.00000000E+00
  0.00000000E+00  0.00000000E+00  0.00000000E+00
  0.00000000E+00  0.00000000E+00  0.00000000E+00
  0.00000000E+00  0.00000000E+00  0.00000000E+00
  0.00000000E+00  0.00000000E+00  0.00000000E+00
  0.00000000E+00  0.00000000E+00  0.00000000E+00
  0.00000000E+00  0.00000000E+00  0.00000000E+00
  0.00000000E+00  0.00000000E+00  0.00000000E+00
  0.00000000E+00  0.00000000E+00  0.00000000E+00
  0.00000000E+00  0.00000000E+00  0.00000000E+00
  0.00000000E+00  0.00000000E+00  0.00000000E+00
  0.00000000E+00  0.00000000E+00  0.00000000E+00
  0.00000000E+00  0.00000000E+00  0.00000000E+00
