 running   16 mpi-ranks, with    1 threads/rank, on    1 nodes
 distrk:  each k-point on   16 cores,    1 groups
 distr:  one band on    4 cores,    4 groups
 vasp.6.6.1 17Jul2026 (build Sep  1 2026 13:17:54) complex                       
 POSCAR found type information on POSCAR CrClNi
 POSCAR found :  3 types and      33 ions
 Reading from existing POTCAR
 scaLAPACK will be used
 Reading from existing POTCAR
 LDA part: xc-table for (Slater+PW92), standard interpolation
 POSCAR, INCAR and KPOINTS ok, starting setup
 FFT: planning ... GRIDC
 FFT: planning ... GRID_SOFT
 FFT: planning ... GRID
 WAVECAR not read
 entering main loop
       N       E                     dE             d eps       ncg     rms          rms(c)
DAV:   1     0.213957267738E+04    0.21396E+04   -0.66587E+04  7816   0.958E+02
DAV:   2     0.405055776190E+03   -0.17345E+04   -0.16203E+04  9096   0.255E+02
DAV:   3    -0.130938759729E+03   -0.53599E+03   -0.51920E+03 11472   0.143E+02
DAV:   4    -0.174384258618E+03   -0.43445E+02   -0.42673E+02 11832   0.556E+01
DAV:   5    -0.175211283913E+03   -0.82703E+00   -0.81407E+00 11928   0.999E+00    0.404E+01
DAV:   6    -0.203156351945E+03   -0.27945E+02   -0.26791E+02 11308   0.681E+01    0.889E+01
DAV:   7    -0.165551317857E+03    0.37605E+02   -0.24496E+01 12096   0.452E+01    0.325E+01
DAV:   8    -0.158371065102E+03    0.71803E+01   -0.19332E+01  9620   0.602E+01    0.172E+01
DAV:   9    -0.162182755257E+03   -0.38117E+01   -0.30535E+01 11604   0.142E+01    0.561E+01
DAV:  10    -0.159933870574E+03    0.22489E+01   -0.13835E+01 12564   0.191E+01    0.136E+01
DAV:  11    -0.160406273768E+03   -0.47240E+00   -0.20855E+00 12532   0.882E+00    0.120E+01
DAV:  12    -0.160224466007E+03    0.18181E+00   -0.35940E-01 11476   0.496E+00    0.108E+01
DAV:  13    -0.159847149648E+03    0.37732E+00   -0.21459E-01 13016   0.384E+00    0.957E+00
DAV:  14    -0.159459197078E+03    0.38795E+00   -0.25598E-01 13256   0.312E+00    0.763E+00
DAV:  15    -0.159310407224E+03    0.14879E+00   -0.18214E-01 13380   0.144E+00    0.592E+00
DAV:  16    -0.159305187822E+03    0.52194E-02   -0.12316E-02  9632   0.409E-01    0.590E+00
DAV:  17    -0.159253360413E+03    0.51827E-01   -0.50061E-02 12896   0.494E-01    0.504E+00
DAV:  18    -0.159247342411E+03    0.60180E-02   -0.27472E-03  9216   0.207E-01    0.502E+00
DAV:  19    -0.159256796416E+03   -0.94540E-02   -0.13959E-03 12336   0.138E-01    0.512E+00
DAV:  20    -0.159273842419E+03   -0.17046E-01   -0.33750E-02 12044   0.113E+00    0.438E+00
DAV:  21    -0.159234378456E+03    0.39464E-01   -0.13749E-01 12744   0.144E+00    0.316E+00
DAV:  22    -0.159236846018E+03   -0.24676E-02   -0.16736E-02 11080   0.667E-01    0.283E+00
DAV:  23    -0.159242767509E+03   -0.59215E-02   -0.43516E-03 12344   0.337E-01    0.263E+00
DAV:  24    -0.159250999411E+03   -0.82319E-02   -0.22650E-03 12636   0.292E-01    0.244E+00
DAV:  25    -0.159283095540E+03   -0.32096E-01   -0.21828E-02 11976   0.114E+00    0.180E+00
DAV:  26    -0.159292186590E+03   -0.90911E-02   -0.11313E-02 12116   0.573E-01    0.146E+00
DAV:  27    -0.159302981677E+03   -0.10795E-01   -0.58649E-03 12628   0.500E-01    0.114E+00
DAV:  28    -0.159309123691E+03   -0.61420E-02   -0.42801E-03 12308   0.418E-01    0.876E-01
DAV:  29    -0.159316470600E+03   -0.73469E-02   -0.62612E-03 12508   0.407E-01    0.484E-01
DAV:  30    -0.159321010046E+03   -0.45394E-02   -0.21783E-03 11872   0.277E-01    0.888E-01
DAV:  31    -0.159320295295E+03    0.71475E-03   -0.53219E-04  9448   0.936E-02    0.903E-01
DAV:  32    -0.159320148011E+03    0.14728E-03   -0.93487E-05 12744   0.557E-02    0.106E+00
DAV:  33    -0.159323229125E+03   -0.30811E-02   -0.88269E-04 10888   0.145E-01    0.788E-01
DAV:  34    -0.159329604600E+03   -0.63755E-02   -0.93440E-04 11828   0.173E-01    0.449E-01
DAV:  35    -0.159333409905E+03   -0.38053E-02   -0.76290E-04 11572   0.144E-01    0.329E-01
DAV:  36    -0.159334864141E+03   -0.14542E-02   -0.37095E-04 12340   0.102E-01    0.174E-01
DAV:  37    -0.159335397978E+03   -0.53384E-03   -0.16338E-04 12208   0.474E-02    0.121E-01
DAV:  38    -0.159335739468E+03   -0.34149E-03   -0.38714E-05 11120   0.320E-02    0.102E-01
DAV:  39    -0.159336206550E+03   -0.46708E-03   -0.47647E-05 11160   0.355E-02    0.460E-02
DAV:  40    -0.159336733790E+03   -0.52724E-03   -0.59289E-05 11116   0.392E-02    0.358E-02
DAV:  41    -0.159337061402E+03   -0.32761E-03   -0.22645E-05 10908   0.237E-02    0.460E-02
DAV:  42    -0.159337241072E+03   -0.17967E-03   -0.63610E-06  7716   0.125E-02    0.472E-02
DAV:  43    -0.159337449405E+03   -0.20833E-03   -0.13731E-05 10532   0.168E-02    0.193E-02
DAV:  44    -0.159337496717E+03   -0.47312E-04   -0.24619E-06  6132   0.677E-03    0.197E-02
DAV:  45    -0.159337522739E+03   -0.26022E-04   -0.23979E-06  5724   0.595E-03    0.111E-02
DAV:  46    -0.159337537661E+03   -0.14922E-04   -0.13978E-06  4808   0.565E-03    0.734E-03
DAV:  47    -0.159337553224E+03   -0.15563E-04   -0.11031E-06  5464   0.481E-03    0.397E-03
DAV:  48    -0.159337556083E+03   -0.28587E-05   -0.53344E-07  4752   0.330E-03    0.340E-03
DAV:  49    -0.159337560556E+03   -0.44729E-05   -0.25943E-07  4592   0.189E-03    0.437E-03
DAV:  50    -0.159337565480E+03   -0.49241E-05   -0.17920E-07  4648   0.171E-03    0.349E-03
DAV:  51    -0.159337571710E+03   -0.62302E-05   -0.13968E-07  4572   0.188E-03    0.278E-03
DAV:  52    -0.159337576318E+03   -0.46075E-05   -0.11255E-07  4756   0.131E-03    0.345E-03
DAV:  53    -0.159337577993E+03   -0.16752E-05   -0.61012E-08  4756   0.872E-04    0.262E-03
DAV:  54    -0.159337579847E+03   -0.18537E-05   -0.35018E-08  4536   0.794E-04    0.699E-04
DAV:  55    -0.159337581755E+03   -0.19085E-05   -0.39799E-08  4544   0.629E-04    0.855E-04
DAV:  56    -0.159337582695E+03   -0.93933E-06   -0.22441E-08  4636   0.615E-04
