 running   16 mpi-ranks, with    1 threads/rank, on    1 nodes
 distrk:  each k-point on   16 cores,    1 groups
 distr:  one band on    4 cores,    4 groups
 vasp.6.6.1 17Jul2026 (build Sep  1 2026 13:17:54) complex                       
 POSCAR found type information on POSCAR CrClNi
 POSCAR found :  3 types and      33 ions
 Reading from existing POTCAR
 scaLAPACK will be used
 Reading from existing POTCAR
 LDA part: xc-table for (Slater+PW92), standard interpolation
 found WAVECAR, reading the header
 POSCAR, INCAR and KPOINTS ok, starting setup
 FFT: planning ... GRIDC
 FFT: planning ... GRID_SOFT
 FFT: planning ... GRID
 reading WAVECAR
 the WAVECAR file was read successfully
 initial charge from wavefunction
 entering main loop
       N       E                     dE             d eps       ncg     rms          rms(c)
DAV:   1    -0.144672342331E+03   -0.14467E+03   -0.33004E+00 11388   0.980E+00    0.365E+00
RMM:   2    -0.144962453054E+03   -0.29011E+00   -0.21472E+00  8088   0.462E+00    0.102E+01
RMM:   3    -0.144725229407E+03    0.23722E+00   -0.59739E-01  8352   0.256E+00    0.300E+00
RMM:   4    -0.144746358309E+03   -0.21129E-01   -0.16688E-01  8804   0.123E+00    0.363E+00
RMM:   5    -0.144722855991E+03    0.23502E-01   -0.58105E-02  8914   0.696E-01    0.123E+00
RMM:   6    -0.144732424855E+03   -0.95689E-02   -0.20026E-02  9105   0.475E-01    0.712E-01
RMM:   7    -0.144739005901E+03   -0.65810E-02   -0.79342E-03  9582   0.268E-01    0.885E-01
RMM:   8    -0.144742802319E+03   -0.37964E-02   -0.38974E-03  8470   0.201E-01    0.428E-01
RMM:   9    -0.144747566176E+03   -0.47639E-02   -0.18059E-03  9811   0.110E-01    0.168E-01
RMM:  10    -0.144751911766E+03   -0.43456E-02   -0.43147E-04  9179   0.636E-02    0.140E-01
RMM:  11    -0.144755426236E+03   -0.35145E-02   -0.14633E-04  9125   0.348E-02    0.637E-02
RMM:  12    -0.144758905903E+03   -0.34797E-02   -0.58976E-05  8570   0.246E-02    0.533E-02
RMM:  13    -0.144761151380E+03   -0.22455E-02   -0.36445E-05  8019   0.181E-02    0.344E-02
RMM:  14    -0.144761927079E+03   -0.77570E-03   -0.17692E-05  7690   0.109E-02    0.291E-02
RMM:  15    -0.144762538442E+03   -0.61136E-03   -0.57594E-06  6378   0.766E-03    0.224E-02
RMM:  16    -0.144763636109E+03   -0.10977E-02   -0.10555E-05  7316   0.833E-03    0.151E-02
RMM:  17    -0.144764268579E+03   -0.63247E-03   -0.58711E-06  6776   0.705E-03    0.105E-02
RMM:  18    -0.144764516768E+03   -0.24819E-03   -0.30822E-06  5602   0.500E-03    0.622E-03
RMM:  19    -0.144764993923E+03   -0.47715E-03   -0.57567E-06  6370   0.550E-03    0.669E-03
RMM:  20    -0.144765338360E+03   -0.34444E-03   -0.52470E-06  6023   0.472E-03    0.473E-03
RMM:  21    -0.144765550597E+03   -0.21224E-03   -0.48431E-06  6113   0.468E-03    0.370E-03
RMM:  22    -0.144765613824E+03   -0.63228E-04   -0.24552E-06  5278   0.358E-03    0.207E-03
RMM:  23    -0.144765614906E+03   -0.10819E-05   -0.23159E-06  5337   0.342E-03    0.270E-03
RMM:  24    -0.144765607872E+03    0.70346E-05   -0.69722E-07  4470   0.289E-03    0.172E-03
RMM:  25    -0.144765608111E+03   -0.23979E-06   -0.40718E-07  4080   0.168E-03
   1 F= -.15093274E+03 E0= -.15092444E+03  d E =-.150933E+03  mag=    24.0000
 curvature:   0.00 expect dE= 0.000E+00 dE for cont linesearch  0.000E+00
 trial: gam= 0.00000 g(F)=  0.884E-01 g(S)=  0.000E+00 ort = 0.000E+00 (trialstep = 0.100E+01)
 search vector abs. value=  0.884E-01
 bond charge predicted
       N       E                     dE             d eps       ncg     rms          rms(c)
DAV:   1    -0.144817557714E+03   -0.51950E-01   -0.49603E+00  7924   0.454E+00    0.170E+00
RMM:   2    -0.144850129524E+03   -0.32572E-01   -0.28085E-01  7798   0.241E+00    0.308E+00
RMM:   3    -0.144865099950E+03   -0.14970E-01   -0.19298E-01  9965   0.121E+00    0.305E+00
RMM:   4    -0.144849859987E+03    0.15240E-01   -0.30685E-02  8330   0.626E-01    0.798E-01
RMM:   5    -0.144852772513E+03   -0.29125E-02   -0.46654E-03  9193   0.213E-01    0.555E-01
RMM:   6    -0.144852076645E+03    0.69587E-03   -0.87825E-04  8869   0.925E-02    0.451E-01
RMM:   7    -0.144851364675E+03    0.71197E-03   -0.23701E-03  9235   0.977E-02    0.305E-01
RMM:   8    -0.144851482935E+03   -0.11826E-03   -0.38463E-03  9930   0.125E-01    0.135E-01
