CrCl3 2x2 Clean Substrate (no_vdw, U=0) (a_2x2=12.0925A, c=20.0000A)
1.0
   12.0925489970493256    0.0000000000000000    0.0000000000000000
   -6.0462744985246628   10.4724546279527502    0.0000000000000000
    0.0000000000000000    0.0000000000000000   20.0000000000000000
  Cr  Cl
  8  24
Direct
    0.1666666666666679    0.3333333333333321    0.5000000000000000
    0.3333333333333321    0.1666666666666679    0.5000000000000000
    0.6666666666666679    0.3333333333333321    0.5000000000000000
    0.8333333333333321    0.1666666666666679    0.5000000000000000
    0.1666666666666679    0.8333333333333321    0.5000000000000000
    0.3333333333333321    0.6666666666666679    0.5000000000000000
    0.6666666666666679    0.8333333333333321    0.5000000000000000
    0.8333333333333321    0.6666666666666679    0.5000000000000000
    0.1796500984318077    0.5000000000000000    0.4332138067400734
    0.5000000000000000    0.1796500984318077    0.4332138067400734
    0.3203499015681922    0.3203499015681922    0.4332138067400734
    0.3203499015681922    0.5000000000000000    0.5667861932599265
    0.0000000000000000    0.3203499015681922    0.5667861932599265
    0.1796500984318077    0.1796500984318077    0.5667861932599265
    0.6796500984318077    0.5000000000000000    0.4332138067400734
    0.0000000000000000    0.1796500984318077    0.4332138067400734
    0.8203499015681922    0.3203499015681922    0.4332138067400734
    0.8203499015681922    0.5000000000000000    0.5667861932599265
    0.5000000000000000    0.3203499015681922    0.5667861932599265
    0.6796500984318077    0.1796500984318077    0.5667861932599265
    0.1796500984318077    0.0000000000000000    0.4332138067400734
    0.5000000000000000    0.6796500984318077    0.4332138067400734
    0.3203499015681922    0.8203499015681922    0.4332138067400734
    0.3203499015681922    0.0000000000000000    0.5667861932599265
    0.0000000000000000    0.8203499015681922    0.5667861932599265
    0.1796500984318077    0.6796500984318077    0.5667861932599265
    0.6796500984318077    0.0000000000000000    0.4332138067400734
    0.0000000000000000    0.6796500984318077    0.4332138067400734
    0.8203499015681922    0.8203499015681922    0.4332138067400734
    0.8203499015681922    0.0000000000000000    0.5667861932599265
    0.5000000000000000    0.8203499015681922    0.5667861932599265
    0.6796500984318077    0.6796500984318077    0.5667861932599265
