 running on   32 total cores
 distrk:  each k-point on   32 cores,    1 groups
 distr:  one band on    4 cores,    8 groups
 vasp.6.2.0 18Jan21 (build Jul 28 2023 11:58:00) complex                         
 POSCAR found type information on POSCAR CrClCo
 POSCAR found :  3 types and      33 ions
 scaLAPACK will be used
 LDA part: xc-table for Pade appr. of Perdew
 POSCAR, INCAR and KPOINTS ok, starting setup
 FFT: planning ...
 WAVECAR not read
 entering main loop
       N       E                     dE             d eps       ncg     rms          rms(c)
DAV:   1     0.213735151798E+04    0.21374E+04   -0.66151E+04  8072   0.929E+02
DAV:   2     0.391572305769E+03   -0.17458E+04   -0.16335E+04  9640   0.245E+02
DAV:   3    -0.117589874087E+03   -0.50916E+03   -0.49611E+03 11672   0.138E+02
DAV:   4    -0.151979461645E+03   -0.34390E+02   -0.33799E+02 11912   0.493E+01
DAV:   5    -0.152610802970E+03   -0.63134E+00   -0.62918E+00 12184   0.844E+00    0.396E+01
DAV:   6    -0.145900801160E+03    0.67100E+01   -0.15189E+02 13000   0.603E+01    0.383E+01
DAV:   7    -0.145017294687E+03    0.88351E+00   -0.19934E+01 11232   0.437E+01    0.227E+01
DAV:   8    -0.145436220733E+03   -0.41893E+00   -0.69665E+00 13456   0.200E+01    0.128E+01
DAV:   9    -0.146041158565E+03   -0.60494E+00   -0.27333E+00 13312   0.127E+01    0.141E+01
DAV:  10    -0.145550842967E+03    0.49032E+00   -0.36275E+00  9744   0.215E+01    0.760E+00
DAV:  11    -0.145789901905E+03   -0.23906E+00   -0.58354E-01 10776   0.942E+00    0.305E+00
DAV:  12    -0.145800238338E+03   -0.10336E-01   -0.17924E-01 12592   0.287E+00    0.214E+00
DAV:  13    -0.145839039849E+03   -0.38802E-01   -0.35528E-02 13400   0.154E+00    0.161E+00
DAV:  14    -0.145886394463E+03   -0.47355E-01   -0.38182E-02 11488   0.280E+00    0.587E-01
DAV:  15    -0.145938757441E+03   -0.52363E-01   -0.33107E-02 12536   0.812E-01    0.509E-01
DAV:  16    -0.145969691182E+03   -0.30934E-01   -0.62973E-03 12968   0.365E-01    0.467E-01
DAV:  17    -0.145991841306E+03   -0.22150E-01   -0.14553E-03 12408   0.530E-01    0.300E-01
DAV:  18    -0.146026367901E+03   -0.34527E-01   -0.40714E-03 12536   0.693E-01    0.119E-01
DAV:  19    -0.146042480873E+03   -0.16113E-01   -0.33056E-03 12728   0.302E-01    0.815E-02
DAV:  20    -0.146044785008E+03   -0.23041E-02   -0.10200E-03  9608   0.132E-01    0.873E-02
DAV:  21    -0.146045108295E+03   -0.32329E-03   -0.89275E-05 12456   0.431E-02    0.652E-02
DAV:  22    -0.146046417222E+03   -0.13089E-02   -0.48597E-05 10560   0.288E-02    0.457E-02
DAV:  23    -0.146048096994E+03   -0.16798E-02   -0.86733E-05 10896   0.513E-02    0.260E-02
DAV:  24    -0.146048471559E+03   -0.37457E-03   -0.32300E-05 11296   0.271E-02    0.188E-02
DAV:  25    -0.146048733604E+03   -0.26204E-03   -0.20381E-05 11504   0.353E-02    0.146E-02
DAV:  26    -0.146048881955E+03   -0.14835E-03   -0.21287E-05 11616   0.293E-02    0.131E-02
DAV:  27    -0.146048965906E+03   -0.83951E-04   -0.23514E-05 10808   0.384E-02    0.113E-02
DAV:  28    -0.146049029761E+03   -0.63855E-04   -0.19067E-05 10736   0.277E-02    0.986E-03
DAV:  29    -0.146049088957E+03   -0.59196E-04   -0.14275E-05 10152   0.331E-02    0.854E-03
DAV:  30    -0.146049158639E+03   -0.69682E-04   -0.20355E-05 10480   0.363E-02    0.784E-03
DAV:  31    -0.146049173357E+03   -0.14718E-04   -0.15160E-05 10304   0.254E-02    0.627E-03
DAV:  32    -0.146049184976E+03   -0.11619E-04   -0.74128E-06  9064   0.227E-02    0.493E-03
DAV:  33    -0.146049190535E+03   -0.55589E-05   -0.87550E-06  9488   0.244E-02    0.457E-03
DAV:  34    -0.146049200461E+03   -0.99260E-05   -0.71598E-06  9160   0.132E-02    0.370E-03
DAV:  35    -0.146049211157E+03   -0.10697E-04   -0.14217E-06  6240   0.608E-03    0.277E-03
DAV:  36    -0.146049219859E+03   -0.87014E-05   -0.42831E-07  5640   0.485E-03    0.224E-03
DAV:  37    -0.146049230222E+03   -0.10363E-04   -0.13567E-06  6560   0.895E-03    0.196E-03
DAV:  38    -0.146049241905E+03   -0.11683E-04   -0.22215E-06  7056   0.561E-03    0.171E-03
DAV:  39    -0.146049245803E+03   -0.38975E-05   -0.73221E-07  5896   0.305E-03    0.153E-03
DAV:  40    -0.146049247373E+03   -0.15699E-05   -0.18607E-07  5584   0.228E-03    0.146E-03
DAV:  41    -0.146049248574E+03   -0.12011E-05   -0.12175E-07  5408   0.319E-03    0.130E-03
DAV:  42    -0.146049248964E+03   -0.38992E-06   -0.47340E-07  6152   0.290E-03
   1 F= -.15222750E+03 E0= -.15222731E+03  d E =-.152227E+03  mag=    28.9968
 curvature:   0.00 expect dE= 0.000E+00 dE for cont linesearch  0.000E+00
 trial: gam= 0.00000 g(F)=  0.478E-01 g(S)=  0.000E+00 ort = 0.000E+00 (trialstep = 0.100E+01)
 search vector abs. value=  0.478E-01
 bond charge predicted
       N       E                     dE             d eps       ncg     rms          rms(c)
DAV:   1    -0.146043694248E+03    0.55543E-02   -0.44823E+00  8056   0.432E+00    0.148E+00
DAV:   2    -0.146080826379E+03   -0.37132E-01   -0.27169E-01 11296   0.190E+00    0.793E-01
DAV:   3    -0.146085934395E+03   -0.51080E-02   -0.10433E-02 10608   0.438E-01    0.447E-01
DAV:   4    -0.146085379984E+03    0.55441E-03   -0.11015E-03 12920   0.123E-01    0.323E-01
DAV:   5    -0.146084895356E+03    0.48463E-03   -0.96298E-04  9896   0.938E-02    0.202E-01
DAV:   6    -0.146085119930E+03   -0.22457E-03   -0.11916E-03  9912   0.100E-01    0.719E-02
DAV:   7    -0.146085306803E+03   -0.18687E-03   -0.23578E-04 11392   0.607E-02    0.356E-02
DAV:   8    -0.146085470087E+03   -0.16328E-03   -0.23543E-05 12808   0.219E-02    0.225E-02
DAV:   9    -0.146085574828E+03   -0.10474E-03   -0.17123E-05 10880   0.163E-02    0.131E-02
DAV:  10    -0.146085603618E+03   -0.28789E-04   -0.27239E-06  7464   0.813E-03    0.643E-03
DAV:  11    -0.146085623564E+03   -0.19946E-04   -0.22422E-06  6568   0.534E-03    0.518E-03
DAV:  12    -0.146085639537E+03   -0.15973E-04   -0.11358E-06  6176   0.429E-03    0.398E-03
DAV:  13    -0.146085655274E+03   -0.15737E-04   -0.11587E-06  5984   0.366E-03    0.290E-03
DAV:  14    -0.146085674310E+03   -0.19036E-04   -0.13879E-06  6392   0.411E-03    0.248E-03
DAV:  15    -0.146085687662E+03   -0.13352E-04   -0.12586E-06  6320   0.351E-03    0.129E-03
DAV:  16    -0.146085694597E+03   -0.69351E-05   -0.56511E-07  5736   0.272E-03    0.147E-03
DAV:  17    -0.146085698999E+03   -0.44013E-05   -0.34164E-07  5360   0.201E-03    0.815E-04
DAV:  18    -0.146085703607E+03   -0.46081E-05   -0.26881E-07  5616   0.172E-03    0.871E-04
DAV:  19    -0.146085707803E+03   -0.41964E-05   -0.27724E-07  5664   0.174E-03    0.711E-04
DAV:  20    -0.146085710046E+03   -0.22428E-05   -0.24156E-07  5360   0.151E-03    0.623E-04
DAV:  21    -0.146085711175E+03   -0.11295E-05   -0.11119E-07  5288   0.120E-03    0.544E-04
DAV:  22    -0.146085712437E+03   -0.12619E-05   -0.87098E-08  5496   0.140E-03    0.522E-04
DAV:  23    -0.146085713038E+03   -0.60094E-06   -0.10171E-07  5344   0.147E-03
   2 F= -.15226054E+03 E0= -.15226054E+03  d E =-.330413E-01  mag=    29.0000
 trial-energy change:   -0.033041  1 .order   -0.032994   -0.047809   -0.018180
 step:   1.6136(harm=  1.6136)  dis= 0.01977  next Energy=  -152.266068 (dE=-0.386E-01)
 bond charge predicted
       N       E                     dE             d eps       ncg     rms          rms(c)
DAV:   1    -0.146077751640E+03    0.79608E-02   -0.16883E+00  8152   0.265E+00    0.909E-01
DAV:   2    -0.146091425674E+03   -0.13674E-01   -0.10080E-01 11256   0.116E+00    0.480E-01
DAV:   3    -0.146093415360E+03   -0.19897E-02   -0.40930E-03 10680   0.280E-01    0.274E-01
DAV:   4    -0.146093194928E+03    0.22043E-03   -0.42080E-04 12808   0.784E-02    0.197E-01
DAV:   5    -0.146092984148E+03    0.21078E-03   -0.36001E-04 10120   0.595E-02    0.124E-01
DAV:   6    -0.146093069296E+03   -0.85148E-04   -0.45352E-04  9888   0.625E-02    0.458E-02
DAV:   7    -0.146093155805E+03   -0.86510E-04   -0.95326E-05 11432   0.369E-02    0.220E-02
DAV:   8    -0.146093242470E+03   -0.86664E-04   -0.90561E-06 10640   0.146E-02    0.139E-02
DAV:   9    -0.146093300406E+03   -0.57936E-04   -0.83241E-06  9704   0.109E-02    0.815E-03
DAV:  10    -0.146093311967E+03   -0.11562E-04   -0.12123E-06  6336   0.553E-03    0.379E-03
DAV:  11    -0.146093321642E+03   -0.96748E-05   -0.96910E-07  5752   0.363E-03    0.350E-03
DAV:  12    -0.146093329596E+03   -0.79542E-05   -0.65791E-07  5664   0.364E-03    0.269E-03
DAV:  13    -0.146093337921E+03   -0.83243E-05   -0.73429E-07  5752   0.286E-03    0.182E-03
DAV:  14    -0.146093346456E+03   -0.85355E-05   -0.66545E-07  5848   0.296E-03    0.202E-03
DAV:  15    -0.146093351717E+03   -0.52604E-05   -0.49969E-07  5440   0.242E-03    0.770E-04
DAV:  16    -0.146093356428E+03   -0.47116E-05   -0.40963E-07  5696   0.199E-03    0.132E-03
DAV:  17    -0.146093358562E+03   -0.21342E-05   -0.21575E-07  5352   0.163E-03    0.456E-04
DAV:  18    -0.146093360566E+03   -0.20039E-05   -0.14524E-07  5184   0.115E-03    0.724E-04
DAV:  19    -0.146093363512E+03   -0.29454E-05   -0.16112E-07  5592   0.137E-03    0.463E-04
DAV:  20    -0.146093364383E+03   -0.87106E-06   -0.11792E-07  5432   0.106E-03
   3 F= -.15226608E+03 E0= -.15226608E+03  d E =-.385810E-01  mag=    29.0000
 curvature:  -0.81 expect dE=-0.939E-02 dE for cont linesearch -0.169E-06
 trial: gam= 0.24548 g(F)=  0.116E-01 g(S)=  0.000E+00 ort =-0.100E-03 (trialstep = 0.112E+01)
 search vector abs. value=  0.145E-01
 bond charge predicted
       N       E                     dE             d eps       ncg     rms          rms(c)
DAV:   1    -0.146092669186E+03    0.69433E-03   -0.17029E+00  7992   0.254E+00    0.843E-01
DAV:   2    -0.146105503005E+03   -0.12834E-01   -0.12908E-01 11432   0.134E+00    0.499E-01
DAV:   3    -0.146105821757E+03   -0.31875E-03   -0.29504E-03 11392   0.272E-01    0.304E-01
DAV:   4    -0.146105638405E+03    0.18335E-03   -0.34038E-04 12072   0.719E-02    0.237E-01
DAV:   5    -0.146105436329E+03    0.20208E-03   -0.54258E-04  9376   0.612E-02    0.143E-01
DAV:   6    -0.146105473523E+03   -0.37194E-04   -0.37014E-04 11344   0.496E-02    0.394E-02
DAV:   7    -0.146105497806E+03   -0.24283E-04   -0.27323E-05 11328   0.222E-02    0.210E-02
DAV:   8    -0.146105517430E+03   -0.19624E-04   -0.64083E-06  9184   0.925E-03    0.148E-02
DAV:   9    -0.146105531647E+03   -0.14217E-04   -0.26096E-06  6928   0.552E-03    0.103E-02
DAV:  10    -0.146105542602E+03   -0.10956E-04   -0.26511E-06  6864   0.528E-03    0.541E-03
DAV:  11    -0.146105551047E+03   -0.84446E-05   -0.88120E-07  6016   0.529E-03    0.402E-03
DAV:  12    -0.146105557599E+03   -0.65518E-05   -0.82639E-07  6088   0.444E-03    0.317E-03
DAV:  13    -0.146105560931E+03   -0.33328E-05   -0.68420E-07  5912   0.338E-03    0.299E-03
DAV:  14    -0.146105564481E+03   -0.35494E-05   -0.26106E-07  5560   0.365E-03    0.220E-03
DAV:  15    -0.146105567447E+03   -0.29666E-05   -0.52555E-07  6064   0.411E-03    0.171E-03
DAV:  16    -0.146105569274E+03   -0.18268E-05   -0.83700E-07  6416   0.290E-03    0.145E-03
DAV:  17    -0.146105570036E+03   -0.76171E-06   -0.20628E-07  5208   0.160E-03
   4 F= -.15227544E+03 E0= -.15227544E+03  d E =-.936613E-02  mag=    29.0000
 trial-energy change:   -0.009366  1 .order   -0.009404   -0.013036   -0.005772
 step:   2.0699(harm=  2.0149)  dis= 0.01636  next Energy=  -152.277855 (dE=-0.118E-01)
 bond charge predicted
       N       E                     dE             d eps       ncg     rms          rms(c)
DAV:   1    -0.146101176812E+03    0.43925E-02   -0.12123E+00  8048   0.214E+00    0.712E-01
DAV:   2    -0.146110209348E+03   -0.90325E-02   -0.90825E-02 11408   0.112E+00    0.416E-01
DAV:   3    -0.146110449363E+03   -0.24001E-03   -0.20758E-03 11312   0.226E-01    0.254E-01
DAV:   4    -0.146110319996E+03    0.12937E-03   -0.23883E-04 12088   0.598E-02    0.197E-01
DAV:   5    -0.146110176292E+03    0.14370E-03   -0.37817E-04  9416   0.513E-02    0.120E-01
DAV:   6    -0.146110202388E+03   -0.26096E-04   -0.25714E-04 11312   0.415E-02    0.333E-02
DAV:   7    -0.146110222014E+03   -0.19626E-04   -0.18824E-05 11368   0.182E-02    0.174E-02
DAV:   8    -0.146110237957E+03   -0.15943E-04   -0.40212E-06  8032   0.808E-03    0.125E-02
DAV:   9    -0.146110249248E+03   -0.11291E-04   -0.21627E-06  6544   0.520E-03    0.871E-03
DAV:  10    -0.146110257943E+03   -0.86957E-05   -0.19431E-06  6208   0.490E-03    0.495E-03
DAV:  11    -0.146110264288E+03   -0.63445E-05   -0.93674E-07  6016   0.482E-03    0.360E-03
DAV:  12    -0.146110269978E+03   -0.56900E-05   -0.52645E-07  5840   0.485E-03    0.310E-03
DAV:  13    -0.146110273111E+03   -0.31335E-05   -0.10212E-06  6312   0.365E-03    0.288E-03
DAV:  14    -0.146110275897E+03   -0.27858E-05   -0.21687E-07  5496   0.337E-03    0.228E-03
DAV:  15    -0.146110278521E+03   -0.26238E-05   -0.34006E-07  5792   0.456E-03    0.182E-03
DAV:  16    -0.146110280294E+03   -0.17728E-05   -0.11453E-06  6520   0.389E-03    0.154E-03
DAV:  17    -0.146110281612E+03   -0.13188E-05   -0.47456E-07  5640   0.231E-03    0.135E-03
DAV:  18    -0.146110282092E+03   -0.47977E-06   -0.81224E-08  5112   0.147E-03
   5 F= -.15227775E+03 E0= -.15227775E+03  d E =-.116712E-01  mag=    29.0000
 curvature:  -1.25 expect dE=-0.243E-02 dE for cont linesearch -0.432E-05
 trial: gam= 0.18981 g(F)=  0.195E-02 g(S)=  0.000E+00 ort =-0.224E-03 (trialstep = 0.131E+01)
 search vector abs. value=  0.238E-02
 bond charge predicted
       N       E                     dE             d eps       ncg     rms          rms(c)
DAV:   1    -0.146108480040E+03    0.18016E-02   -0.38900E-01  8176   0.123E+00    0.423E-01
DAV:   2    -0.146111702931E+03   -0.32229E-02   -0.23902E-02 11248   0.491E-01    0.200E-01
DAV:   3    -0.146112289209E+03   -0.58628E-03   -0.63477E-04 11136   0.103E-01    0.104E-01
DAV:   4    -0.146112263543E+03    0.25666E-04   -0.63115E-05 11904   0.272E-02    0.786E-02
DAV:   5    -0.146112262434E+03    0.11088E-05   -0.93767E-05 10992   0.290E-02    0.513E-02
DAV:   6    -0.146112290876E+03   -0.28442E-04   -0.50719E-05 10888   0.222E-02    0.183E-02
DAV:   7    -0.146112308587E+03   -0.17711E-04   -0.68797E-06  8800   0.105E-02    0.135E-02
DAV:   8    -0.146112319266E+03   -0.10679E-04   -0.22205E-06  6584   0.809E-03    0.998E-03
DAV:   9    -0.146112324036E+03   -0.47698E-05   -0.28444E-06  6896   0.711E-03    0.714E-03
DAV:  10    -0.146112324596E+03   -0.55999E-06   -0.17866E-06  6328   0.635E-03
   6 F= -.15227983E+03 E0= -.15227983E+03  d E =-.208238E-02  mag=    29.0000
 trial-energy change:   -0.002082  1 .order   -0.002064   -0.002499   -0.001629
 step:   3.1884(harm=  3.7712)  dis= 0.00948  next Energy=  -152.281050 (dE=-0.330E-02)
 bond charge predicted
       N       E                     dE             d eps       ncg     rms          rms(c)
DAV:   1    -0.146105938982E+03    0.63851E-02   -0.79566E-01  7976   0.176E+00    0.604E-01
DAV:   2    -0.146112620028E+03   -0.66810E-02   -0.48822E-02 11192   0.703E-01    0.289E-01
DAV:   3    -0.146113746426E+03   -0.11264E-02   -0.12961E-03 11288   0.149E-01    0.150E-01
DAV:   4    -0.146113692207E+03    0.54219E-04   -0.13039E-04 11904   0.391E-02    0.113E-01
DAV:   5    -0.146113690022E+03    0.21843E-05   -0.19171E-04 10952   0.414E-02    0.736E-02
DAV:   6    -0.146113743044E+03   -0.53022E-04   -0.10559E-04 10880   0.320E-02    0.264E-02
DAV:   7    -0.146113774217E+03   -0.31172E-04   -0.15083E-05 10056   0.151E-02    0.197E-02
DAV:   8    -0.146113792726E+03   -0.18509E-04   -0.47135E-06  8008   0.108E-02    0.142E-02
DAV:   9    -0.146113801879E+03   -0.91531E-05   -0.54902E-06  8528   0.101E-02    0.101E-02
DAV:  10    -0.146113802993E+03   -0.11146E-05   -0.30531E-06  7248   0.832E-03    0.589E-03
DAV:  11    -0.146113804528E+03   -0.15348E-05   -0.19827E-06  6216   0.660E-03    0.370E-03
DAV:  12    -0.146113807092E+03   -0.25641E-05   -0.11987E-06  5792   0.449E-03    0.233E-03
DAV:  13    -0.146113808652E+03   -0.15601E-05   -0.41077E-07  5304   0.289E-03    0.166E-03
DAV:  14    -0.146113809510E+03   -0.85745E-06   -0.16122E-07  5144   0.188E-03
   7 F= -.15228137E+03 E0= -.15228137E+03  d E =-.362435E-02  mag=    29.0000
 curvature:  -2.23 expect dE=-0.355E-02 dE for cont linesearch -0.132E-03
 ZBRENT: extrapolating
 opt :   4.0007  next Energy=  -152.281525 (dE=-0.378E-02)
 bond charge predicted
       N       E                     dE             d eps       ncg     rms          rms(c)
DAV:   1    -0.146112455919E+03    0.13527E-02   -0.14901E-01  8000   0.762E-01    0.262E-01
DAV:   2    -0.146113657449E+03   -0.12015E-02   -0.91254E-03 11248   0.303E-01    0.123E-01
DAV:   3    -0.146113907552E+03   -0.25010E-03   -0.24237E-04 11112   0.637E-02    0.645E-02
DAV:   4    -0.146113897200E+03    0.10352E-04   -0.23686E-05 11920   0.166E-02    0.488E-02
DAV:   5    -0.146113896731E+03    0.46868E-06   -0.36685E-05 11000   0.180E-02    0.318E-02
DAV:   6    -0.146113909165E+03   -0.12433E-04   -0.19352E-05 10872   0.137E-02    0.112E-02
DAV:   7    -0.146113917507E+03   -0.83427E-05   -0.21391E-06  6424   0.648E-03    0.841E-03
DAV:   8    -0.146113922820E+03   -0.53123E-05   -0.11941E-06  5896   0.562E-03    0.647E-03
DAV:   9    -0.146113924792E+03   -0.19719E-05   -0.15219E-06  5648   0.477E-03    0.462E-03
DAV:  10    -0.146113925393E+03   -0.60102E-06   -0.70049E-07  5584   0.403E-03
   8 F= -.15228151E+03 E0= -.15228151E+03  d E =-.376493E-02  mag=    29.0000
 curvature:  -2.58 expect dE=-0.604E-02 dE for cont linesearch -0.272E-05
 trial: gam= 1.19932 g(F)=  0.234E-02 g(S)=  0.000E+00 ort =-0.501E-04 (trialstep = 0.781E+00)
 search vector abs. value=  0.565E-02
 bond charge predicted
       N       E                     dE             d eps       ncg     rms          rms(c)
DAV:   1    -0.146112231281E+03    0.16935E-02   -0.32216E-01  7952   0.110E+00    0.365E-01
DAV:   2    -0.146114833625E+03   -0.26023E-02   -0.22526E-02 11176   0.500E-01    0.182E-01
DAV:   3    -0.146115125639E+03   -0.29201E-03   -0.51831E-04 11192   0.108E-01    0.105E-01
DAV:   4    -0.146115105605E+03    0.20034E-04   -0.56367E-05 11944   0.283E-02    0.804E-02
DAV:   5    -0.146115099059E+03    0.65462E-05   -0.66764E-05 10792   0.244E-02    0.563E-02
DAV:   6    -0.146115121657E+03   -0.22598E-04   -0.59947E-05 10736   0.244E-02    0.238E-02
DAV:   7    -0.146115135646E+03   -0.13989E-04   -0.12188E-05  9928   0.144E-02    0.164E-02
DAV:   8    -0.146115143415E+03   -0.77690E-05   -0.37516E-06  7048   0.102E-02    0.125E-02
DAV:   9    -0.146115148231E+03   -0.48167E-05   -0.28095E-06  6576   0.787E-03    0.895E-03
DAV:  10    -0.146115150732E+03   -0.25002E-05   -0.33448E-06  7296   0.867E-03    0.405E-03
DAV:  11    -0.146115152144E+03   -0.14121E-05   -0.18290E-06  6328   0.545E-03    0.259E-03
DAV:  12    -0.146115153187E+03   -0.10432E-05   -0.63204E-07  5400   0.327E-03    0.152E-03
DAV:  13    -0.146115153844E+03   -0.65713E-06   -0.20433E-07  5144   0.207E-03
   9 F= -.15228314E+03 E0= -.15228314E+03  d E =-.162298E-02  mag=    29.0000
 trial-energy change:   -0.001623  1 .order   -0.001605   -0.001780   -0.001431
 step:   2.4306(harm=  3.9877)  dis= 0.01226  next Energy=  -152.284815 (dE=-0.330E-02)
 bond charge predicted
       N       E                     dE             d eps       ncg     rms          rms(c)
DAV:   1    -0.146103435271E+03    0.11718E-01   -0.14384E+00  7904   0.233E+00    0.775E-01
DAV:   2    -0.146115269327E+03   -0.11834E-01   -0.10096E-01 11200   0.106E+00    0.390E-01
DAV:   3    -0.146116396217E+03   -0.11269E-02   -0.23260E-03 11216   0.229E-01    0.223E-01
DAV:   4    -0.146116306405E+03    0.89812E-04   -0.25361E-04 11944   0.601E-02    0.170E-01
DAV:   5    -0.146116272631E+03    0.33774E-04   -0.27748E-04 10848   0.492E-02    0.119E-01
DAV:   6    -0.146116357215E+03   -0.84584E-04   -0.26557E-04 10736   0.506E-02    0.489E-02
DAV:   7    -0.146116403766E+03   -0.46550E-04   -0.54725E-05 10496   0.299E-02    0.333E-02
DAV:   8    -0.146116429848E+03   -0.26082E-04   -0.16328E-05 10216   0.193E-02    0.250E-02
DAV:   9    -0.146116446621E+03   -0.16772E-04   -0.94098E-06  8008   0.149E-02    0.182E-02
DAV:  10    -0.146116456910E+03   -0.10289E-04   -0.14366E-05 10064   0.183E-02    0.782E-03
DAV:  11    -0.146116461472E+03   -0.45620E-05   -0.63481E-06  7656   0.998E-03    0.453E-03
DAV:  12    -0.146116464481E+03   -0.30093E-05   -0.16116E-06  6088   0.552E-03    0.287E-03
DAV:  13    -0.146116466281E+03   -0.17996E-05   -0.62724E-07  5400   0.350E-03    0.213E-03
DAV:  14    -0.146116467476E+03   -0.11956E-05   -0.24577E-07  5296   0.229E-03    0.155E-03
DAV:  15    -0.146116468237E+03   -0.76073E-06   -0.13636E-07  5216   0.162E-03
  10 F= -.15228528E+03 E0= -.15228528E+03  d E =-.376854E-02  mag=    29.0000
 curvature:  -3.77 expect dE=-0.383E-02 dE for cont linesearch -0.403E-03
 ZBRENT: increasing intervall
 opt :   5.7308  next Energy=  -152.284353 (dE=-0.284E-02)
 bond charge predicted
       N       E                     dE             d eps       ncg     rms          rms(c)
DAV:   1    -0.146061529756E+03    0.54938E-01   -0.57528E+00  7904   0.466E+00    0.157E+00
DAV:   2    -0.146109501629E+03   -0.47972E-01   -0.40672E-01 11216   0.212E+00    0.827E-01
DAV:   3    -0.146113676918E+03   -0.41753E-02   -0.93876E-03 11240   0.465E-01    0.452E-01
DAV:   4    -0.146113287678E+03    0.38924E-03   -0.10712E-03 11952   0.123E-01    0.342E-01
DAV:   5    -0.146113131609E+03    0.15607E-03   -0.97916E-04 11096   0.923E-02    0.240E-01
DAV:   6    -0.146113416822E+03   -0.28521E-03   -0.10551E-03 10856   0.101E-01    0.939E-02
DAV:   7    -0.146113565047E+03   -0.14822E-03   -0.23430E-04 10464   0.599E-02    0.642E-02
DAV:   8    -0.146113644996E+03   -0.79949E-04   -0.56795E-05 10664   0.351E-02    0.491E-02
DAV:   9    -0.146113695552E+03   -0.50557E-04   -0.30877E-05 10192   0.262E-02    0.368E-02
DAV:  10    -0.146113734925E+03   -0.39373E-04   -0.52472E-05 10968   0.380E-02    0.140E-02
DAV:  11    -0.146113749913E+03   -0.14988E-04   -0.26111E-05 10296   0.196E-02    0.950E-03
DAV:  12    -0.146113758235E+03   -0.83219E-05   -0.46477E-06  7296   0.980E-03    0.570E-03
DAV:  13    -0.146113763431E+03   -0.51963E-05   -0.17279E-06  6416   0.583E-03    0.445E-03
DAV:  14    -0.146113766984E+03   -0.35523E-05   -0.74533E-07  5624   0.395E-03    0.271E-03
DAV:  15    -0.146113769044E+03   -0.20604E-05   -0.50736E-07  5512   0.288E-03    0.186E-03
DAV:  16    -0.146113770305E+03   -0.12612E-05   -0.20556E-07  5288   0.233E-03    0.146E-03
DAV:  17    -0.146113771198E+03   -0.89274E-06   -0.13888E-07  5160   0.175E-03
  11 F= -.15228424E+03 E0= -.15228424E+03  d E =-.272245E-02  mag=    29.0000
 curvature:   8.71 expect dE= 0.431E-01 dE for cont linesearch  0.306E-02
 ZBRENT: bracketing found
 ZBRENT: interpolating
 opt :   3.6026  next Energy=  -152.285737 (dE=-0.422E-02)
 bond charge predicted
       N       E                     dE             d eps       ncg     rms          rms(c)
DAV:   1    -0.146094675227E+03    0.19095E-01   -0.23938E+00  7904   0.301E+00    0.993E-01
DAV:   2    -0.146114495963E+03   -0.19821E-01   -0.16939E-01 11248   0.139E+00    0.513E-01
DAV:   3    -0.146116274525E+03   -0.17786E-02   -0.38488E-03 11168   0.297E-01    0.286E-01
DAV:   4    -0.146116111660E+03    0.16287E-03   -0.43303E-04 11960   0.768E-02    0.217E-01
DAV:   5    -0.146116044236E+03    0.67423E-04   -0.52772E-04 10976   0.675E-02    0.146E-01
DAV:   6    -0.146116172663E+03   -0.12843E-03   -0.40457E-04 10616   0.609E-02    0.587E-02
DAV:   7    -0.146116238892E+03   -0.66229E-04   -0.75017E-05 10496   0.359E-02    0.420E-02
DAV:   8    -0.146116275096E+03   -0.36204E-04   -0.23488E-05 10608   0.231E-02    0.320E-02
DAV:   9    -0.146116303574E+03   -0.28479E-04   -0.16318E-05  9456   0.197E-02    0.225E-02
DAV:  10    -0.146116321377E+03   -0.17803E-04   -0.22341E-05 10112   0.231E-02    0.110E-02
DAV:  11    -0.146116327348E+03   -0.59705E-05   -0.11185E-05  9040   0.135E-02    0.637E-03
DAV:  12    -0.146116331530E+03   -0.41823E-05   -0.24764E-06  6464   0.710E-03    0.422E-03
DAV:  13    -0.146116333891E+03   -0.23615E-05   -0.83990E-07  5544   0.403E-03    0.289E-03
DAV:  14    -0.146116335748E+03   -0.18564E-05   -0.50637E-07  5296   0.271E-03    0.184E-03
DAV:  15    -0.146116336659E+03   -0.91110E-06   -0.22295E-07  5224   0.207E-03
  12 F= -.15228574E+03 E0= -.15228574E+03  d E =-.422499E-02  mag=    29.0000
 curvature:  -1.29 expect dE=-0.212E-02 dE for cont linesearch -0.105E-06
 trial: gam= 0.69904 g(F)=  0.164E-02 g(S)=  0.000E+00 ort =-0.214E-04 (trialstep = 0.134E+01)
 search vector abs. value=  0.437E-02
 bond charge predicted
       N       E                     dE             d eps       ncg     rms          rms(c)
DAV:   1    -0.146111989260E+03    0.43465E-02   -0.72563E-01  7904   0.168E+00    0.523E-01
DAV:   2    -0.146117577475E+03   -0.55882E-02   -0.52987E-02 11176   0.758E-01    0.252E-01
DAV:   3    -0.146118072106E+03   -0.49463E-03   -0.10689E-03 10520   0.127E-01    0.152E-01
DAV:   4    -0.146118024734E+03    0.47371E-04   -0.13323E-04 11208   0.353E-02    0.121E-01
DAV:   5    -0.146118027837E+03   -0.31023E-05   -0.16774E-04 11176   0.457E-02    0.823E-02
DAV:   6    -0.146118076025E+03   -0.48188E-04   -0.12085E-04 10600   0.375E-02    0.445E-02
DAV:   7    -0.146118122896E+03   -0.46872E-04   -0.28146E-05 11232   0.251E-02    0.299E-02
DAV:   8    -0.146118164580E+03   -0.41683E-04   -0.27695E-05 10256   0.257E-02    0.218E-02
DAV:   9    -0.146118186555E+03   -0.21975E-04   -0.15407E-05 10112   0.174E-02    0.154E-02
DAV:  10    -0.146118196333E+03   -0.97778E-05   -0.69223E-06  7712   0.126E-02    0.831E-03
DAV:  11    -0.146118200275E+03   -0.39424E-05   -0.29067E-06  6696   0.803E-03    0.404E-03
DAV:  12    -0.146118202985E+03   -0.27095E-05   -0.20970E-06  6496   0.535E-03    0.222E-03
DAV:  13    -0.146118204535E+03   -0.15497E-05   -0.52057E-07  5400   0.321E-03    0.169E-03
DAV:  14    -0.146118205390E+03   -0.85553E-06   -0.19785E-07  5184   0.214E-03
  13 F= -.15228775E+03 E0= -.15228775E+03  d E =-.201543E-02  mag=    29.0000
 ZBRENT: can't locate minimum, use default step
 trial-energy change:   -0.002015  1 .order   -0.002011   -0.002182   -0.001840
 step:   5.3799(harm=  8.5672)  dis= 0.02518  next Energy=  -152.291615 (dE=-0.588E-02)
 bond charge predicted
       N       E                     dE             d eps       ncg     rms          rms(c)
DAV:   1    -0.146065232694E+03    0.52972E-01   -0.65269E+00  7904   0.503E+00    0.158E+00
DAV:   2    -0.146116843930E+03   -0.51611E-01   -0.48012E-01 11176   0.229E+00    0.786E-01
DAV:   3    -0.146120506083E+03   -0.36622E-02   -0.96412E-03 10864   0.388E-01    0.458E-01
DAV:   4    -0.146120093378E+03    0.41271E-03   -0.12347E-03 11296   0.112E-01    0.362E-01
DAV:   5    -0.146120080863E+03    0.12515E-04   -0.13815E-03 11416   0.132E-01    0.248E-01
DAV:   6    -0.146120462739E+03   -0.38188E-03   -0.10596E-03 10688   0.112E-01    0.131E-01
DAV:   7    -0.146120787824E+03   -0.32509E-03   -0.25725E-04 11408   0.755E-02    0.876E-02
DAV:   8    -0.146121056615E+03   -0.26879E-03   -0.22784E-04 10872   0.756E-02    0.663E-02
DAV:   9    -0.146121201891E+03   -0.14528E-03   -0.13571E-04 11024   0.518E-02    0.475E-02
DAV:  10    -0.146121274720E+03   -0.72830E-04   -0.69997E-05 10768   0.401E-02    0.245E-02
DAV:  11    -0.146121299779E+03   -0.25059E-04   -0.37079E-05 10360   0.274E-02    0.114E-02
DAV:  12    -0.146121315755E+03   -0.15976E-04   -0.14672E-05  9552   0.155E-02    0.695E-03
DAV:  13    -0.146121323968E+03   -0.82130E-05   -0.28632E-06  6848   0.800E-03    0.479E-03
DAV:  14    -0.146121328566E+03   -0.45977E-05   -0.94363E-07  5736   0.532E-03    0.284E-03
DAV:  15    -0.146121331815E+03   -0.32495E-05   -0.98807E-07  5880   0.378E-03    0.226E-03
DAV:  16    -0.146121333845E+03   -0.20293E-05   -0.32389E-07  5352   0.259E-03    0.192E-03
DAV:  17    -0.146121335191E+03   -0.13462E-05   -0.14855E-07  5264   0.210E-03    0.168E-03
DAV:  18    -0.146121336539E+03   -0.13476E-05   -0.10626E-07  5120   0.216E-03    0.155E-03
DAV:  19    -0.146121337703E+03   -0.11641E-05   -0.12702E-07  5272   0.302E-03    0.141E-03
DAV:  20    -0.146121338751E+03   -0.10481E-05   -0.47869E-07  5872   0.266E-03    0.135E-03
DAV:  21    -0.146121339516E+03   -0.76522E-06   -0.26223E-07  5264   0.198E-03
  14 F= -.15229131E+03 E0= -.15229131E+03  d E =-.556891E-02  mag=    29.0000
 curvature:  -9.28 expect dE=-0.326E-01 dE for cont linesearch -0.283E-03
 trial: gam= 1.83614 g(F)=  0.351E-02 g(S)=  0.000E+00 ort = 0.365E-03 (trialstep = 0.480E+00)
 search vector abs. value=  0.196E-01
 bond charge predicted
       N       E                     dE             d eps       ncg     rms          rms(c)
DAV:   1    -0.146119761916E+03    0.15768E-02   -0.41363E-01  8016   0.127E+00    0.404E-01
DAV:   2    -0.146122901385E+03   -0.31395E-02   -0.30902E-02 11192   0.586E-01    0.196E-01
DAV:   3    -0.146123234544E+03   -0.33316E-03   -0.61327E-04 10864   0.980E-02    0.119E-01
DAV:   4    -0.146123202482E+03    0.32062E-04   -0.79236E-05 11232   0.271E-02    0.934E-02
DAV:   5    -0.146123199010E+03    0.34725E-05   -0.97309E-05 11376   0.358E-02    0.639E-02
DAV:   6    -0.146123223648E+03   -0.24639E-04   -0.69374E-05 10640   0.284E-02    0.352E-02
DAV:   7    -0.146123257124E+03   -0.33475E-04   -0.15411E-05 10432   0.188E-02    0.245E-02
DAV:   8    -0.146123294213E+03   -0.37090E-04   -0.17436E-05  9472   0.213E-02    0.177E-02
DAV:   9    -0.146123317435E+03   -0.23221E-04   -0.12253E-05  9864   0.161E-02    0.117E-02
DAV:  10    -0.146123328384E+03   -0.10949E-04   -0.61323E-06  7664   0.118E-02    0.660E-03
DAV:  11    -0.146123331062E+03   -0.26782E-05   -0.24252E-06  6880   0.745E-03    0.343E-03
DAV:  12    -0.146123332349E+03   -0.12869E-05   -0.16516E-06  6360   0.482E-03    0.242E-03
DAV:  13    -0.146123333336E+03   -0.98743E-06   -0.35381E-07  5272   0.285E-03
  15 F= -.15229318E+03 E0= -.15229318E+03  d E =-.187569E-02  mag=    29.0000
 ZBRENT: can't locate minimum, use default step
 trial-energy change:   -0.001876  1 .order   -0.001878   -0.002006   -0.001750
 step:   1.9208(harm=  3.7657)  dis= 0.01581  next Energy=  -152.299173 (dE=-0.787E-02)
 bond charge predicted
       N       E                     dE             d eps       ncg     rms          rms(c)
DAV:   1    -0.146095480175E+03    0.27852E-01   -0.37217E+00  7904   0.381E+00    0.122E+00
DAV:   2    -0.146124708944E+03   -0.29229E-01   -0.27885E-01 11208   0.176E+00    0.598E-01
DAV:   3    -0.146126972205E+03   -0.22633E-02   -0.54953E-03 10840   0.292E-01    0.355E-01
DAV:   4    -0.146126708805E+03    0.26340E-03   -0.71801E-04 11080   0.817E-02    0.280E-01
DAV:   5    -0.146126672610E+03    0.36195E-04   -0.87338E-04 11376   0.107E-01    0.189E-01
DAV:   6    -0.146126875544E+03   -0.20293E-03   -0.58885E-04 10704   0.825E-02    0.102E-01
DAV:   7    -0.146127095384E+03   -0.21984E-03   -0.13034E-04 11352   0.535E-02    0.698E-02
DAV:   8    -0.146127326572E+03   -0.23119E-03   -0.14380E-04 11120   0.595E-02    0.509E-02
DAV:   9    -0.146127461710E+03   -0.13514E-03   -0.94871E-05 11176   0.430E-02    0.362E-02
DAV:  10    -0.146127531806E+03   -0.70095E-04   -0.49483E-05 10792   0.320E-02    0.203E-02
DAV:  11    -0.146127547446E+03   -0.15641E-04   -0.22708E-05 10056   0.212E-02    0.935E-03
DAV:  12    -0.146127553713E+03   -0.62669E-05   -0.90587E-06  8200   0.125E-02    0.630E-03
DAV:  13    -0.146127557658E+03   -0.39448E-05   -0.24045E-06  6536   0.708E-03    0.391E-03
DAV:  14    -0.146127560888E+03   -0.32301E-05   -0.94417E-07  5720   0.507E-03    0.226E-03
DAV:  15    -0.146127563502E+03   -0.26141E-05   -0.88144E-07  5784   0.352E-03    0.198E-03
DAV:  16    -0.146127565152E+03   -0.16499E-05   -0.17902E-07  5168   0.213E-03    0.164E-03
DAV:  17    -0.146127566559E+03   -0.14066E-05   -0.10855E-07  5160   0.189E-03    0.152E-03
DAV:  18    -0.146127567578E+03   -0.10193E-05   -0.94688E-08  5232   0.201E-03    0.135E-03
DAV:  19    -0.146127568423E+03   -0.84497E-06   -0.12148E-07  5504   0.271E-03
  16 F= -.15229705E+03 E0= -.15229705E+03  d E =-.573792E-02  mag=    29.0000
 curvature:  -6.04 expect dE=-0.110E-01 dE for cont linesearch -0.848E-03
 ZBRENT: increasing intervall
 opt :   4.8021  next Energy=  -152.296093 (dE=-0.479E-02)
 bond charge predicted
       N       E                     dE             d eps       ncg     rms          rms(c)
DAV:   1    -0.145997960370E+03    0.12961E+00   -0.14885E+01  7904   0.762E+00    0.248E+00
DAV:   2    -0.146116654687E+03   -0.11869E+00   -0.11258E+00 11176   0.355E+00    0.126E+00
DAV:   3    -0.146124690534E+03   -0.80358E-02   -0.21776E-02 10816   0.586E-01    0.714E-01
DAV:   4    -0.146123555577E+03    0.11350E-02   -0.29597E-03 11224   0.171E-01    0.562E-01
DAV:   5    -0.146123255270E+03    0.30031E-03   -0.32728E-03 11288   0.201E-01    0.372E-01
DAV:   6    -0.146123911594E+03   -0.65632E-03   -0.21508E-03 10720   0.153E-01    0.185E-01
DAV:   7    -0.146124570692E+03   -0.65910E-03   -0.42992E-04 11256   0.947E-02    0.120E-01
DAV:   8    -0.146125201497E+03   -0.63081E-03   -0.40476E-04 11304   0.100E-01    0.901E-02
DAV:   9    -0.146125583310E+03   -0.38181E-03   -0.25692E-04 10904   0.702E-02    0.673E-02
DAV:  10    -0.146125818019E+03   -0.23471E-03   -0.14173E-04 11128   0.540E-02    0.376E-02
DAV:  11    -0.146125878926E+03   -0.60906E-04   -0.81722E-05 10840   0.409E-02    0.185E-02
DAV:  12    -0.146125897256E+03   -0.18330E-04   -0.36343E-05 10472   0.239E-02    0.122E-02
DAV:  13    -0.146125906818E+03   -0.95616E-05   -0.74908E-06  8432   0.122E-02    0.764E-03
DAV:  14    -0.146125914175E+03   -0.73572E-05   -0.21021E-06  6360   0.819E-03    0.432E-03
DAV:  15    -0.146125920612E+03   -0.64374E-05   -0.19123E-06  6864   0.539E-03    0.339E-03
DAV:  16    -0.146125924831E+03   -0.42190E-05   -0.37721E-07  5464   0.328E-03    0.291E-03
DAV:  17    -0.146125928567E+03   -0.37358E-05   -0.21377E-07  5608   0.355E-03    0.264E-03
DAV:  18    -0.146125931374E+03   -0.28068E-05   -0.53955E-07  5672   0.371E-03    0.243E-03
DAV:  19    -0.146125933387E+03   -0.20131E-05   -0.50654E-07  5768   0.445E-03    0.225E-03
DAV:  20    -0.146125934942E+03   -0.15551E-05   -0.91487E-07  6272   0.432E-03    0.212E-03
DAV:  21    -0.146125935140E+03   -0.19764E-06   -0.32636E-07  5496   0.591E-03
  17 F= -.15229458E+03 E0= -.15229458E+03  d E =-.327750E-02  mag=    29.0000
 curvature:   6.78 expect dE= 0.749E-01 dE for cont linesearch  0.479E-02
 ZBRENT: bracketing found
 ZBRENT: interpolating
 opt :   2.8092  next Energy=  -152.297781 (dE=-0.647E-02)
 bond charge predicted
       N       E                     dE             d eps       ncg     rms          rms(c)
DAV:   1    -0.146067866781E+03    0.58068E-01   -0.71198E+00  7904   0.528E+00    0.167E+00
DAV:   2    -0.146124116296E+03   -0.56250E-01   -0.53787E-01 11168   0.246E+00    0.840E-01
DAV:   3    -0.146128090077E+03   -0.39738E-02   -0.10395E-02 11064   0.416E-01    0.490E-01
DAV:   4    -0.146127532863E+03    0.55721E-03   -0.13150E-03 11592   0.112E-01    0.379E-01
DAV:   5    -0.146127296186E+03    0.23668E-03   -0.18267E-03 11000   0.134E-01    0.245E-01
DAV:   6    -0.146127620030E+03   -0.32384E-03   -0.10160E-03 10768   0.984E-02    0.119E-01
DAV:   7    -0.146127933172E+03   -0.31314E-03   -0.15358E-04 11184   0.577E-02    0.860E-02
DAV:   8    -0.146128227938E+03   -0.29477E-03   -0.14918E-04 11168   0.583E-02    0.673E-02
DAV:   9    -0.146128470908E+03   -0.24297E-03   -0.12303E-04 11296   0.545E-02    0.420E-02
DAV:  10    -0.146128614291E+03   -0.14338E-03   -0.12155E-04 11008   0.463E-02    0.242E-02
DAV:  11    -0.146128639719E+03   -0.25427E-04   -0.44274E-05 11000   0.296E-02    0.128E-02
DAV:  12    -0.146128649302E+03   -0.95838E-05   -0.15540E-05  8944   0.151E-02    0.108E-02
DAV:  13    -0.146128652659E+03   -0.33569E-05   -0.15107E-06  6008   0.615E-03    0.666E-03
DAV:  14    -0.146128657931E+03   -0.52716E-05   -0.21688E-06  6528   0.730E-03    0.333E-03
DAV:  15    -0.146128661804E+03   -0.38733E-05   -0.16721E-06  5888   0.516E-03    0.192E-03
DAV:  16    -0.146128664358E+03   -0.25543E-05   -0.32341E-07  5208   0.224E-03    0.140E-03
DAV:  17    -0.146128666385E+03   -0.20267E-05   -0.16903E-07  5192   0.193E-03    0.124E-03
DAV:  18    -0.146128667913E+03   -0.15276E-05   -0.93466E-08  5232   0.138E-03    0.914E-04
DAV:  19    -0.146128669260E+03   -0.13468E-05   -0.78480E-08  5264   0.127E-03    0.771E-04
DAV:  20    -0.146128670147E+03   -0.88735E-06   -0.78258E-08  5208   0.100E-03
  18 F= -.15229790E+03 E0= -.15229790E+03  d E =-.659609E-02  mag=    29.0000
 curvature:  -1.04 expect dE=-0.322E-02 dE for cont linesearch -0.267E-05
 trial: gam= 0.87997 g(F)=  0.309E-02 g(S)=  0.000E+00 ort = 0.224E-03 (trialstep = 0.946E+00)
 search vector abs. value=  0.186E-01
 bond charge predicted
       N       E                     dE             d eps       ncg     rms          rms(c)
DAV:   1    -0.146118719426E+03    0.99498E-02   -0.15294E+00  7904   0.244E+00    0.791E-01
DAV:   2    -0.146130588402E+03   -0.11869E-01   -0.11569E-01 11176   0.114E+00    0.384E-01
DAV:   3    -0.146131592295E+03   -0.10039E-02   -0.22131E-03 10648   0.188E-01    0.230E-01
DAV:   4    -0.146131486939E+03    0.10536E-03   -0.27924E-04 11568   0.531E-02    0.180E-01
DAV:   5    -0.146131473932E+03    0.13007E-04   -0.36687E-04 11240   0.621E-02    0.120E-01
DAV:   6    -0.146131555459E+03   -0.81528E-04   -0.21839E-04 10600   0.469E-02    0.590E-02
DAV:   7    -0.146131632706E+03   -0.77246E-04   -0.39459E-05 10800   0.307E-02    0.383E-02
DAV:   8    -0.146131695444E+03   -0.62738E-04   -0.46732E-05 10608   0.308E-02    0.302E-02
DAV:   9    -0.146131736284E+03   -0.40840E-04   -0.23844E-05 10440   0.222E-02    0.206E-02
DAV:  10    -0.146131759674E+03   -0.23391E-04   -0.18310E-05  9184   0.190E-02    0.105E-02
DAV:  11    -0.146131765101E+03   -0.54266E-05   -0.83043E-06  8352   0.132E-02    0.513E-03
DAV:  12    -0.146131768573E+03   -0.34719E-05   -0.39306E-06  6944   0.791E-03    0.372E-03
DAV:  13    -0.146131770160E+03   -0.15872E-05   -0.80705E-07  5400   0.398E-03    0.213E-03
DAV:  14    -0.146131771610E+03   -0.14499E-05   -0.36278E-07  5240   0.262E-03    0.126E-03
DAV:  15    -0.146131772478E+03   -0.86810E-06   -0.18643E-07  5304   0.199E-03
  19 F= -.15230047E+03 E0= -.15230047E+03  d E =-.256966E-02  mag=    29.0000
 trial-energy change:   -0.002570  1 .order   -0.002564   -0.003105   -0.002024
 step:   2.5859(harm=  2.7164)  dis= 0.02019  next Energy=  -152.302254 (dE=-0.435E-02)
 bond charge predicted
       N       E                     dE             d eps       ncg     rms          rms(c)
DAV:   1    -0.146095162706E+03    0.36609E-01   -0.45954E+00  7904   0.423E+00    0.138E+00
DAV:   2    -0.146131330379E+03   -0.36168E-01   -0.34893E-01 11176   0.198E+00    0.676E-01
DAV:   3    -0.146133951623E+03   -0.26212E-02   -0.66094E-03 10680   0.327E-01    0.399E-01
DAV:   4    -0.146133619931E+03    0.33169E-03   -0.84376E-04 11776   0.939E-02    0.312E-01
DAV:   5    -0.146133540249E+03    0.79681E-04   -0.10801E-03 11096   0.103E-01    0.206E-01
DAV:   6    -0.146133739692E+03   -0.19944E-03   -0.62414E-04 10640   0.783E-02    0.950E-02
DAV:   7    -0.146133921189E+03   -0.18150E-03   -0.10841E-04 11096   0.485E-02    0.597E-02
DAV:   8    -0.146134062167E+03   -0.14098E-03   -0.10125E-04 10808   0.455E-02    0.466E-02
DAV:   9    -0.146134156515E+03   -0.94348E-04   -0.53391E-05 10464   0.329E-02    0.327E-02
DAV:  10    -0.146134216862E+03   -0.60347E-04   -0.41410E-05 10560   0.287E-02    0.172E-02
DAV:  11    -0.146134231643E+03   -0.14781E-04   -0.22242E-05 10248   0.211E-02    0.852E-03
DAV:  12    -0.146134239304E+03   -0.76611E-05   -0.92392E-06  8480   0.116E-02    0.569E-03
DAV:  13    -0.146134242764E+03   -0.34598E-05   -0.13537E-06  6056   0.559E-03    0.354E-03
DAV:  14    -0.146134245252E+03   -0.24886E-05   -0.63474E-07  5312   0.371E-03    0.219E-03
DAV:  15    -0.146134247101E+03   -0.18493E-05   -0.47504E-07  5592   0.280E-03    0.152E-03
DAV:  16    -0.146134248154E+03   -0.10526E-05   -0.16979E-07  5232   0.192E-03    0.119E-03
DAV:  17    -0.146134249001E+03   -0.84701E-06   -0.84969E-08  5176   0.160E-03
  20 F= -.15230200E+03 E0= -.15230200E+03  d E =-.409325E-02  mag=    29.0000
 curvature:  -7.67 expect dE=-0.136E-01 dE for cont linesearch -0.479E-04
 trial: gam= 0.22794 g(F)=  0.177E-02 g(S)=  0.000E+00 ort =-0.341E-03 (trialstep = 0.127E+01)
 search vector abs. value=  0.258E-02
 bond charge predicted
       N       E                     dE             d eps       ncg     rms          rms(c)
DAV:   1    -0.146133243856E+03    0.10043E-02   -0.38426E-01  7904   0.124E+00    0.423E-01
DAV:   2    -0.146136187579E+03   -0.29437E-02   -0.27696E-02 11096   0.549E-01    0.198E-01
DAV:   3    -0.146136619157E+03   -0.43158E-03   -0.60216E-04 11208   0.100E-01    0.116E-01
DAV:   4    -0.146136584927E+03    0.34230E-04   -0.58000E-05 12008   0.244E-02    0.876E-02
DAV:   5    -0.146136555681E+03    0.29246E-04   -0.92034E-05 10400   0.269E-02    0.611E-02
DAV:   6    -0.146136562586E+03   -0.69051E-05   -0.65343E-05 11040   0.201E-02    0.204E-02
DAV:   7    -0.146136579488E+03   -0.16902E-04   -0.58588E-06  8848   0.835E-03    0.957E-03
DAV:   8    -0.146136598219E+03   -0.18731E-04   -0.85624E-07  5496   0.438E-03    0.517E-03
DAV:   9    -0.146136611459E+03   -0.13240E-04   -0.85209E-07  5528   0.382E-03    0.322E-03
DAV:  10    -0.146136622592E+03   -0.11133E-04   -0.65326E-07  5480   0.326E-03    0.259E-03
DAV:  11    -0.146136630655E+03   -0.80624E-05   -0.53067E-07  5440   0.311E-03    0.203E-03
DAV:  12    -0.146136637147E+03   -0.64922E-05   -0.39779E-07  5520   0.271E-03    0.166E-03
DAV:  13    -0.146136641689E+03   -0.45416E-05   -0.31159E-07  5416   0.225E-03    0.122E-03
DAV:  14    -0.146136643700E+03   -0.20110E-05   -0.24205E-07  5400   0.176E-03    0.101E-03
DAV:  15    -0.146136644884E+03   -0.11842E-05   -0.14348E-07  5312   0.162E-03    0.829E-04
DAV:  16    -0.146136645495E+03   -0.61148E-06   -0.11833E-07  5472   0.162E-03
  21 F= -.15230383E+03 E0= -.15230383E+03  d E =-.183357E-02  mag=    29.0000
 trial-energy change:   -0.001834  1 .order   -0.001837   -0.002152   -0.001522
 step:   4.3503(harm=  4.3503)  dis= 0.01113  next Energy=  -152.305671 (dE=-0.367E-02)
 bond charge predicted
       N       E                     dE             d eps       ncg     rms          rms(c)
DAV:   1    -0.146120013449E+03    0.16631E-01   -0.22406E+00  7904   0.300E+00    0.103E+00
DAV:   2    -0.146137798996E+03   -0.17786E-01   -0.16157E-01 11160   0.133E+00    0.484E-01
DAV:   3    -0.146139844140E+03   -0.20451E-02   -0.34931E-03 11120   0.239E-01    0.280E-01
DAV:   4    -0.146139659824E+03    0.18432E-03   -0.34434E-04 12008   0.588E-02    0.213E-01
DAV:   5    -0.146139497908E+03    0.16192E-03   -0.52466E-04 10432   0.642E-02    0.147E-01
DAV:   6    -0.146139539635E+03   -0.41727E-04   -0.37423E-04 11104   0.478E-02    0.486E-02
DAV:   7    -0.146139603118E+03   -0.63483E-04   -0.34426E-05 10504   0.199E-02    0.218E-02
DAV:   8    -0.146139669304E+03   -0.66186E-04   -0.62762E-06  9504   0.977E-03    0.108E-02
DAV:   9    -0.146139722224E+03   -0.52920E-04   -0.25538E-06  7032   0.602E-03    0.632E-03
DAV:  10    -0.146139766671E+03   -0.44447E-04   -0.26205E-06  6688   0.525E-03    0.477E-03
DAV:  11    -0.146139793139E+03   -0.26468E-04   -0.10449E-06  5944   0.476E-03    0.376E-03
DAV:  12    -0.146139819841E+03   -0.26702E-04   -0.95144E-07  6032   0.434E-03    0.263E-03
DAV:  13    -0.146139834463E+03   -0.14622E-04   -0.10419E-06  6112   0.362E-03    0.225E-03
DAV:  14    -0.146139841732E+03   -0.72694E-05   -0.57335E-07  5808   0.299E-03    0.156E-03
DAV:  15    -0.146139844706E+03   -0.29739E-05   -0.50995E-07  5536   0.257E-03    0.124E-03
DAV:  16    -0.146139845614E+03   -0.90834E-06   -0.26981E-07  5472   0.202E-03
  22 F= -.15230565E+03 E0= -.15230565E+03  d E =-.365794E-02  mag=    29.0000
 curvature:  -3.32 expect dE=-0.844E-02 dE for cont linesearch -0.845E-08
 trial: gam= 1.36040 g(F)=  0.254E-02 g(S)=  0.000E+00 ort =-0.256E-05 (trialstep = 0.667E+00)
 search vector abs. value=  0.731E-02
 bond charge predicted
       N       E                     dE             d eps       ncg     rms          rms(c)
DAV:   1    -0.146138956684E+03    0.88802E-03   -0.29552E-01  8080   0.111E+00    0.365E-01
DAV:   2    -0.146141175955E+03   -0.22193E-02   -0.20311E-02 11184   0.462E-01    0.172E-01
DAV:   3    -0.146141699909E+03   -0.52395E-03   -0.52235E-04 10680   0.897E-02    0.948E-02
DAV:   4    -0.146141667650E+03    0.32259E-04   -0.45048E-05 12056   0.220E-02    0.724E-02
DAV:   5    -0.146141639508E+03    0.28142E-04   -0.80608E-05  9712   0.230E-02    0.485E-02
DAV:   6    -0.146141646343E+03   -0.68353E-05   -0.50079E-05 11272   0.180E-02    0.160E-02
DAV:   7    -0.146141666761E+03   -0.20418E-04   -0.34527E-06  7512   0.678E-03    0.913E-03
DAV:   8    -0.146141695037E+03   -0.28275E-04   -0.12725E-06  5568   0.518E-03    0.511E-03
DAV:   9    -0.146141710919E+03   -0.15882E-04   -0.11768E-06  5584   0.442E-03    0.270E-03
DAV:  10    -0.146141725475E+03   -0.14557E-04   -0.90302E-07  5624   0.364E-03    0.233E-03
DAV:  11    -0.146141734495E+03   -0.90196E-05   -0.58938E-07  5392   0.315E-03    0.164E-03
DAV:  12    -0.146141743055E+03   -0.85605E-05   -0.35618E-07  5416   0.249E-03    0.130E-03
DAV:  13    -0.146141749435E+03   -0.63794E-05   -0.30071E-07  5456   0.190E-03    0.855E-04
DAV:  14    -0.146141752839E+03   -0.34038E-05   -0.19517E-07  5288   0.149E-03    0.820E-04
DAV:  15    -0.146141755253E+03   -0.24142E-05   -0.13063E-07  5240   0.133E-03    0.633E-04
DAV:  16    -0.146141756884E+03   -0.16314E-05   -0.11857E-07  5560   0.121E-03    0.565E-04
DAV:  17    -0.146141757663E+03   -0.77827E-06   -0.11519E-07  5224   0.115E-03
  23 F= -.15230707E+03 E0= -.15230707E+03  d E =-.142010E-02  mag=    29.0000
 trial-energy change:   -0.001420  1 .order   -0.001419   -0.001692   -0.001147
 step:   2.0713(harm=  2.0713)  dis= 0.00917  next Energy=  -152.308281 (dE=-0.263E-02)
 bond charge predicted
       N       E                     dE             d eps       ncg     rms          rms(c)
DAV:   1    -0.146131597710E+03    0.10159E-01   -0.13100E+00  7904   0.233E+00    0.769E-01
DAV:   2    -0.146141916939E+03   -0.10319E-01   -0.90104E-02 11096   0.973E-01    0.365E-01
DAV:   3    -0.146143865236E+03   -0.19483E-02   -0.23068E-03 11040   0.189E-01    0.200E-01
DAV:   4    -0.146143743717E+03    0.12152E-03   -0.19651E-04 12048   0.459E-02    0.152E-01
DAV:   5    -0.146143636836E+03    0.10688E-03   -0.34984E-04  9808   0.472E-02    0.103E-01
DAV:   6    -0.146143674904E+03   -0.38068E-04   -0.21839E-04 11240   0.367E-02    0.337E-02
DAV:   7    -0.146143736682E+03   -0.61778E-04   -0.17550E-05 10648   0.142E-02    0.177E-02
DAV:   8    -0.146143812849E+03   -0.76167E-04   -0.35345E-06  7552   0.785E-03    0.841E-03
DAV:   9    -0.146143874762E+03   -0.61912E-04   -0.39664E-06  7824   0.626E-03    0.441E-03
DAV:  10    -0.146143919663E+03   -0.44901E-04   -0.16258E-06  6160   0.422E-03    0.308E-03
DAV:  11    -0.146143948712E+03   -0.29049E-04   -0.90665E-07  5776   0.390E-03    0.277E-03
DAV:  12    -0.146143969570E+03   -0.20858E-04   -0.57770E-07  5632   0.296E-03    0.178E-03
DAV:  13    -0.146143988430E+03   -0.18860E-04   -0.56520E-07  5848   0.260E-03    0.143E-03
DAV:  14    -0.146143999097E+03   -0.10667E-04   -0.47050E-07  5504   0.226E-03    0.119E-03
DAV:  15    -0.146144007340E+03   -0.82426E-05   -0.44308E-07  5696   0.220E-03    0.885E-04
DAV:  16    -0.146144010516E+03   -0.31762E-05   -0.35031E-07  5400   0.198E-03    0.745E-04
DAV:  17    -0.146144011609E+03   -0.10927E-05   -0.22373E-07  5272   0.149E-03    0.536E-04
DAV:  18    -0.146144012243E+03   -0.63482E-06   -0.13153E-07  5256   0.128E-03
  24 F= -.15230829E+03 E0= -.15230829E+03  d E =-.263203E-02  mag=    29.0000
 curvature:  -2.98 expect dE=-0.294E-02 dE for cont linesearch -0.123E-07
 trial: gam= 0.40797 g(F)=  0.985E-03 g(S)=  0.000E+00 ort = 0.549E-05 (trialstep = 0.948E+00)
 search vector abs. value=  0.221E-02
 bond charge predicted
       N       E                     dE             d eps       ncg     rms          rms(c)
DAV:   1    -0.146143503627E+03    0.50798E-03   -0.18028E-01  8200   0.847E-01    0.274E-01
DAV:   2    -0.146144746432E+03   -0.12428E-02   -0.13589E-02 11224   0.392E-01    0.136E-01
DAV:   3    -0.146144977911E+03   -0.23148E-03   -0.29355E-04 11376   0.837E-02    0.817E-02
DAV:   4    -0.146144959654E+03    0.18257E-04   -0.29314E-05 12024   0.207E-02    0.603E-02
DAV:   5    -0.146144945734E+03    0.13920E-04   -0.34117E-05  8976   0.143E-02    0.424E-02
DAV:   6    -0.146144947979E+03   -0.22453E-05   -0.36442E-05 11320   0.144E-02    0.137E-02
DAV:   7    -0.146144959798E+03   -0.11819E-04   -0.32227E-06  7400   0.653E-03    0.594E-03
DAV:   8    -0.146144969731E+03   -0.99328E-05   -0.62770E-07  5376   0.465E-03    0.384E-03
DAV:   9    -0.146144975264E+03   -0.55333E-05   -0.37424E-07  5360   0.258E-03    0.212E-03
DAV:  10    -0.146144980674E+03   -0.54099E-05   -0.16337E-07  5152   0.176E-03    0.175E-03
DAV:  11    -0.146144985961E+03   -0.52866E-05   -0.13514E-07  5408   0.147E-03    0.118E-03
DAV:  12    -0.146144992446E+03   -0.64852E-05   -0.19134E-07  5528   0.166E-03    0.867E-04
DAV:  13    -0.146144995693E+03   -0.32471E-05   -0.20907E-07  5432   0.150E-03    0.720E-04
DAV:  14    -0.146144996364E+03   -0.67065E-06   -0.86263E-08  5312   0.107E-03
  25 F= -.15230912E+03 E0= -.15230912E+03  d E =-.832138E-03  mag=    29.0000
 ZBRENT: can't locate minimum, use default step
 trial-energy change:   -0.000832  1 .order   -0.000832   -0.000936   -0.000728
 step:   3.7913(harm=  4.2722)  dis= 0.00909  next Energy=  -152.310396 (dE=-0.211E-02)
 bond charge predicted
       N       E                     dE             d eps       ncg     rms          rms(c)
DAV:   1    -0.146133270144E+03    0.11726E-01   -0.16224E+00  7904   0.254E+00    0.823E-01
DAV:   2    -0.146145310834E+03   -0.12041E-01   -0.12257E-01 11096   0.118E+00    0.415E-01
DAV:   3    -0.146146722278E+03   -0.14114E-02   -0.26370E-03 11376   0.255E-01    0.245E-01
DAV:   4    -0.146146573541E+03    0.14874E-03   -0.27034E-04 11976   0.635E-02    0.181E-01
DAV:   5    -0.146146437487E+03    0.13605E-03   -0.32174E-04  9112   0.437E-02    0.125E-01
DAV:   6    -0.146146470632E+03   -0.33145E-04   -0.31137E-04 11400   0.425E-02    0.397E-02
DAV:   7    -0.146146535029E+03   -0.64397E-04   -0.30041E-05 10944   0.189E-02    0.144E-02
DAV:   8    -0.146146582015E+03   -0.46986E-04   -0.45694E-06  8568   0.101E-02    0.817E-03
DAV:   9    -0.146146617116E+03   -0.35100E-04   -0.12684E-06  5952   0.585E-03    0.572E-03
DAV:  10    -0.146146654221E+03   -0.37105E-04   -0.95740E-07  5688   0.365E-03    0.365E-03
DAV:  11    -0.146146693250E+03   -0.39029E-04   -0.13564E-06  6352   0.418E-03    0.300E-03
DAV:  12    -0.146146712850E+03   -0.19600E-04   -0.12064E-06  6152   0.391E-03    0.200E-03
DAV:  13    -0.146146722599E+03   -0.97490E-05   -0.37187E-07  5560   0.270E-03    0.169E-03
DAV:  14    -0.146146730458E+03   -0.78589E-05   -0.31893E-07  5600   0.216E-03    0.130E-03
DAV:  15    -0.146146738769E+03   -0.83106E-05   -0.43228E-07  5952   0.279E-03    0.105E-03
DAV:  16    -0.146146740633E+03   -0.18638E-05   -0.56142E-07  5784   0.229E-03    0.876E-04
DAV:  17    -0.146146740984E+03   -0.35099E-06   -0.16489E-07  5584   0.145E-03
  26 F= -.15231040E+03 E0= -.15231040E+03  d E =-.210949E-02  mag=    29.0000
 curvature:  -4.67 expect dE=-0.404E-02 dE for cont linesearch -0.357E-04
 trial: gam= 0.75700 g(F)=  0.865E-03 g(S)=  0.000E+00 ort = 0.130E-03 (trialstep = 0.144E+01)
 search vector abs. value=  0.233E-02
 bond charge predicted
       N       E                     dE             d eps       ncg     rms          rms(c)
DAV:   1    -0.146143936266E+03    0.28044E-02   -0.44349E-01  7984   0.133E+00    0.433E-01
DAV:   2    -0.146147101524E+03   -0.31653E-02   -0.31946E-02 11192   0.579E-01    0.206E-01
DAV:   3    -0.146147558184E+03   -0.45666E-03   -0.65103E-04 11128   0.105E-01    0.120E-01
DAV:   4    -0.146147507648E+03    0.50536E-04   -0.68484E-05 11936   0.273E-02    0.906E-02
DAV:   5    -0.146147450579E+03    0.57069E-04   -0.89322E-05 10232   0.251E-02    0.619E-02
DAV:   6    -0.146147441838E+03    0.87409E-05   -0.71305E-05 11376   0.210E-02    0.206E-02
DAV:   7    -0.146147470293E+03   -0.28455E-04   -0.67588E-06  8920   0.889E-03    0.952E-03
DAV:   8    -0.146147505965E+03   -0.35672E-04   -0.85851E-07  5680   0.524E-03    0.532E-03
DAV:   9    -0.146147533632E+03   -0.27667E-04   -0.10768E-06  5824   0.399E-03    0.309E-03
DAV:  10    -0.146147558007E+03   -0.24375E-04   -0.93272E-07  5672   0.356E-03    0.271E-03
DAV:  11    -0.146147572467E+03   -0.14460E-04   -0.71938E-07  5368   0.339E-03    0.206E-03
DAV:  12    -0.146147587059E+03   -0.14592E-04   -0.53973E-07  5704   0.316E-03    0.181E-03
DAV:  13    -0.146147595604E+03   -0.85447E-05   -0.49704E-07  5448   0.245E-03    0.125E-03
DAV:  14    -0.146147600653E+03   -0.50490E-05   -0.29726E-07  5496   0.205E-03    0.115E-03
DAV:  15    -0.146147603880E+03   -0.32272E-05   -0.24571E-07  5280   0.183E-03    0.948E-04
DAV:  16    -0.146147606091E+03   -0.22103E-05   -0.21082E-07  5528   0.198E-03    0.893E-04
DAV:  17    -0.146147606589E+03   -0.49866E-06   -0.26740E-07  5448   0.168E-03
  27 F= -.15231146E+03 E0= -.15231146E+03  d E =-.105931E-02  mag=    29.0000
 trial-energy change:   -0.001059  1 .order   -0.001060   -0.001386   -0.000734
 step:   3.0599(harm=  3.0599)  dis= 0.00734  next Energy=  -152.311870 (dE=-0.147E-02)
 reached required accuracy - stopping structural energy minimisation
Note: The following floating-point exceptions are signalling: IEEE_OVERFLOW_FLAG IEEE_UNDERFLOW_FLAG IEEE_DENORMAL
Note: The following floating-point exceptions are signalling: IEEE_OVERFLOW_FLAG IEEE_UNDERFLOW_FLAG IEEE_DENORMAL
Note: The following floating-point exceptions are signalling: IEEE_OVERFLOW_FLAG IEEE_UNDERFLOW_FLAG IEEE_DENORMAL
Note: The following floating-point exceptions are signalling: IEEE_OVERFLOW_FLAG IEEE_UNDERFLOW_FLAG IEEE_DENORMAL
Note: The following floating-point exceptions are signalling: IEEE_OVERFLOW_FLAG IEEE_UNDERFLOW_FLAG IEEE_DENORMAL
Note: The following floating-point exceptions are signalling: IEEE_OVERFLOW_FLAG IEEE_UNDERFLOW_FLAG IEEE_DENORMAL
Note: The following floating-point exceptions are signalling: IEEE_OVERFLOW_FLAG IEEE_UNDERFLOW_FLAG IEEE_DENORMAL
Note: The following floating-point exceptions are signalling: IEEE_OVERFLOW_FLAG IEEE_UNDERFLOW_FLAG IEEE_DENORMAL
Note: The following floating-point exceptions are signalling: IEEE_OVERFLOW_FLAG IEEE_UNDERFLOW_FLAG IEEE_DENORMAL
Note: The following floating-point exceptions are signalling: IEEE_OVERFLOW_FLAG IEEE_UNDERFLOW_FLAG IEEE_DENORMAL
Note: The following floating-point exceptions are signalling: IEEE_OVERFLOW_FLAG IEEE_UNDERFLOW_FLAG IEEE_DENORMAL
Note: The following floating-point exceptions are signalling: IEEE_OVERFLOW_FLAG IEEE_UNDERFLOW_FLAG IEEE_DENORMAL
Note: The following floating-point exceptions are signalling: IEEE_OVERFLOW_FLAG IEEE_UNDERFLOW_FLAG IEEE_DENORMAL
Note: The following floating-point exceptions are signalling: IEEE_OVERFLOW_FLAG IEEE_UNDERFLOW_FLAG IEEE_DENORMAL
Note: The following floating-point exceptions are signalling: IEEE_OVERFLOW_FLAG IEEE_UNDERFLOW_FLAG IEEE_DENORMAL
Note: The following floating-point exceptions are signalling: IEEE_OVERFLOW_FLAG IEEE_UNDERFLOW_FLAG IEEE_DENORMAL
Note: The following floating-point exceptions are signalling: IEEE_OVERFLOW_FLAG IEEE_UNDERFLOW_FLAG IEEE_DENORMAL
Note: The following floating-point exceptions are signalling: IEEE_OVERFLOW_FLAG IEEE_UNDERFLOW_FLAG IEEE_DENORMAL
Note: The following floating-point exceptions are signalling: IEEE_OVERFLOW_FLAG IEEE_UNDERFLOW_FLAG IEEE_DENORMAL
Note: The following floating-point exceptions are signalling: IEEE_OVERFLOW_FLAG IEEE_UNDERFLOW_FLAG IEEE_DENORMAL
Note: The following floating-point exceptions are signalling: IEEE_OVERFLOW_FLAG IEEE_UNDERFLOW_FLAG IEEE_DENORMAL
Note: The following floating-point exceptions are signalling: IEEE_OVERFLOW_FLAG IEEE_UNDERFLOW_FLAG IEEE_DENORMAL
Note: The following floating-point exceptions are signalling: IEEE_OVERFLOW_FLAG IEEE_UNDERFLOW_FLAG IEEE_DENORMAL
Note: The following floating-point exceptions are signalling: IEEE_OVERFLOW_FLAG IEEE_UNDERFLOW_FLAG IEEE_DENORMAL
Note: The following floating-point exceptions are signalling: IEEE_OVERFLOW_FLAG IEEE_UNDERFLOW_FLAG IEEE_DENORMAL
Note: The following floating-point exceptions are signalling: IEEE_OVERFLOW_FLAG IEEE_UNDERFLOW_FLAG IEEE_DENORMAL
Note: The following floating-point exceptions are signalling: IEEE_OVERFLOW_FLAG IEEE_UNDERFLOW_FLAG IEEE_DENORMAL
Note: The following floating-point exceptions are signalling: IEEE_OVERFLOW_FLAG IEEE_UNDERFLOW_FLAG IEEE_DENORMAL
Note: The following floating-point exceptions are signalling: IEEE_OVERFLOW_FLAG IEEE_UNDERFLOW_FLAG IEEE_DENORMAL
Note: The following floating-point exceptions are signalling: IEEE_OVERFLOW_FLAG IEEE_UNDERFLOW_FLAG IEEE_DENORMAL
Note: The following floating-point exceptions are signalling: IEEE_OVERFLOW_FLAG IEEE_UNDERFLOW_FLAG IEEE_DENORMAL
Note: The following floating-point exceptions are signalling: IEEE_OVERFLOW_FLAG IEEE_UNDERFLOW_FLAG IEEE_DENORMAL
