CrCl3 2x2 + Co S1 top-Cl (D3, U=0) (a_2x
   1.0000000000000000     
    12.0925489970493256    0.0000000000000000    0.0000000000000000
    -6.0462744985246628   10.4724546279527502    0.0000000000000000
     0.0000000000000000    0.0000000000000000   20.0000000000000000
   Cr   Cl   Co
     8    24     1
Direct
  0.1618562247429417  0.3219405767878009  0.5018740961977760
  0.3274025730932487  0.1567146916094841  0.5020101644350030
  0.6725974269067512  0.3293121185162211  0.5020101644350030
  0.8330214309878228  0.1611511795851827  0.5003947831317979
  0.1669785690121771  0.8281297485973458  0.5003947831317979
  0.3347342787408423  0.6670021328869268  0.5020797495275038
  0.6652657212591576  0.8322678541460703  0.5020797495275038
  0.8381437752570590  0.6600843520448734  0.5018740961977760
  0.1807325216216647  0.4946875728371710  0.4381414165481574
  0.5000000000000000  0.1756211623564124  0.4381003624701621
  0.3216560976546445  0.3163260182710533  0.4377198421918096
  0.3195973944797548  0.4943640441769431  0.5750666342483551
 -0.0017100672774526  0.3142843098093685  0.5681735048612814
  0.1721898983152791  0.1667235446680171  0.5689019712418641
  0.6783439023453554  0.4946699206164092  0.4377198421918095
 -0.0033915507488820  0.1702452449734859  0.4335174117373525
  0.8239170987519122  0.3157460689691361  0.4335607974976706
  0.8278101016847210  0.4945336463527378  0.5689019712418641
  0.5000000000000000  0.3141096527333656  0.5752169351577976
  0.6800634779069098  0.1731956000093394  0.5682992345050276
  0.1760829012480878 -0.0081710297827761  0.4335607974976706
  0.5000000000000000  0.6722513839728795  0.4379327228339005
  0.3218556831963283  0.8190675147367448  0.4337637613119988
  0.3199365220930898 -0.0068678778975705  0.5682992345050276
  0.0017100672774526  0.8159943770868214  0.5681735048612814
  0.1788971436884937  0.6750718585332517  0.5682903036001421
  0.6781443168036718 -0.0027881684595836  0.4337637613119988
  0.0033915507488820  0.6736367957223681  0.4335174117373525
  0.8192674783783352  0.8139550512155060  0.4381414165481574
  0.8211028563115061 -0.0038252851552423  0.5682903036001421
  0.5000000000000000  0.8217113110800587  0.5691917366654426
  0.6804026055202445  0.6747666496971875  0.5750666342483551
  0.5000000000000000  0.4944378808712035  0.5952570940611425

  0.00000000E+00  0.00000000E+00  0.00000000E+00
  0.00000000E+00  0.00000000E+00  0.00000000E+00
  0.00000000E+00  0.00000000E+00  0.00000000E+00
  0.00000000E+00  0.00000000E+00  0.00000000E+00
  0.00000000E+00  0.00000000E+00  0.00000000E+00
  0.00000000E+00  0.00000000E+00  0.00000000E+00
  0.00000000E+00  0.00000000E+00  0.00000000E+00
  0.00000000E+00  0.00000000E+00  0.00000000E+00
  0.00000000E+00  0.00000000E+00  0.00000000E+00
  0.00000000E+00  0.00000000E+00  0.00000000E+00
  0.00000000E+00  0.00000000E+00  0.00000000E+00
  0.00000000E+00  0.00000000E+00  0.00000000E+00
  0.00000000E+00  0.00000000E+00  0.00000000E+00
  0.00000000E+00  0.00000000E+00  0.00000000E+00
  0.00000000E+00  0.00000000E+00  0.00000000E+00
  0.00000000E+00  0.00000000E+00  0.00000000E+00
  0.00000000E+00  0.00000000E+00  0.00000000E+00
  0.00000000E+00  0.00000000E+00  0.00000000E+00
  0.00000000E+00  0.00000000E+00  0.00000000E+00
  0.00000000E+00  0.00000000E+00  0.00000000E+00
  0.00000000E+00  0.00000000E+00  0.00000000E+00
  0.00000000E+00  0.00000000E+00  0.00000000E+00
  0.00000000E+00  0.00000000E+00  0.00000000E+00
  0.00000000E+00  0.00000000E+00  0.00000000E+00
  0.00000000E+00  0.00000000E+00  0.00000000E+00
  0.00000000E+00  0.00000000E+00  0.00000000E+00
  0.00000000E+00  0.00000000E+00  0.00000000E+00
  0.00000000E+00  0.00000000E+00  0.00000000E+00
  0.00000000E+00  0.00000000E+00  0.00000000E+00
  0.00000000E+00  0.00000000E+00  0.00000000E+00
  0.00000000E+00  0.00000000E+00  0.00000000E+00
  0.00000000E+00  0.00000000E+00  0.00000000E+00
  0.00000000E+00  0.00000000E+00  0.00000000E+00
