       N       E                     dE             d eps       ncg     rms          rms(c)
DAV:   1     0.212043813038E+04    0.21204E+04   -0.64540E+04  3120   0.909E+02
DAV:   2     0.414052648947E+03   -0.17064E+04   -0.15943E+04  3712   0.242E+02
DAV:   3    -0.112282867985E+03   -0.52634E+03   -0.51350E+03  4480   0.137E+02
DAV:   4    -0.151084223081E+03   -0.38801E+02   -0.38135E+02  4648   0.515E+01
DAV:   5    -0.151846212738E+03   -0.76199E+00   -0.75694E+00  4712   0.914E+00    0.416E+01
DAV:   6    -0.151770573152E+03    0.75640E-01   -0.16325E+02  5176   0.714E+01    0.557E+01
DAV:   7    -0.143525616484E+03    0.82450E+01   -0.43839E+01  4160   0.542E+01    0.343E+01
DAV:   8    -0.144430541605E+03   -0.90493E+00   -0.13038E+01  5288   0.348E+01    0.325E+01
DAV:   9    -0.143846753334E+03    0.58379E+00   -0.10026E+01  3848   0.338E+01    0.232E+01
DAV:  10    -0.142454462629E+03    0.13923E+01   -0.24173E+00  4776   0.148E+01    0.143E+01
DAV:  11    -0.143485838454E+03   -0.10314E+01   -0.14765E+00  5040   0.115E+01    0.856E+00
DAV:  12    -0.143546459757E+03   -0.60621E-01   -0.28084E-01  3968   0.231E+00    0.790E+00
DAV:  13    -0.143711868212E+03   -0.16541E+00   -0.28941E-01  5008   0.320E+00    0.688E+00
DAV:  14    -0.144067983699E+03   -0.35612E+00   -0.13589E+00  5232   0.420E+00    0.349E+00
DAV:  15    -0.144247715319E+03   -0.17973E+00   -0.14618E-01  4760   0.267E+00    0.356E+00
DAV:  16    -0.144310872119E+03   -0.63157E-01   -0.17074E-01  4864   0.250E+00    0.443E+00
DAV:  17    -0.144373230859E+03   -0.62359E-01   -0.55074E-02  5160   0.250E+00    0.302E+00
DAV:  18    -0.144401397497E+03   -0.28167E-01   -0.34700E-02  4656   0.163E+00    0.238E+00
DAV:  19    -0.144418544762E+03   -0.17147E-01   -0.39368E-02  4944   0.170E+00    0.219E+00
DAV:  20    -0.144433085156E+03   -0.14540E-01   -0.14537E-02  4536   0.997E-01    0.160E+00
DAV:  21    -0.144442284371E+03   -0.91992E-02   -0.87722E-03  4880   0.832E-01    0.129E+00
DAV:  22    -0.144452108619E+03   -0.98242E-02   -0.59320E-03  4664   0.432E-01    0.628E-01
DAV:  23    -0.144457484687E+03   -0.53761E-02   -0.12991E-03  4336   0.134E-01    0.502E-01
DAV:  24    -0.144468364146E+03   -0.10879E-01   -0.54096E-04  4968   0.155E-01    0.265E-01
DAV:  25    -0.144485313044E+03   -0.16949E-01   -0.12272E-03  4592   0.185E-01    0.984E-02
DAV:  26    -0.144491777860E+03   -0.64648E-02   -0.53438E-04  4256   0.118E-01    0.945E-02
DAV:  27    -0.144494026469E+03   -0.22486E-02   -0.20905E-04  3816   0.559E-02    0.111E-01
DAV:  28    -0.144496092185E+03   -0.20657E-02   -0.48399E-05  4536   0.290E-02    0.726E-02
DAV:  29    -0.144499036458E+03   -0.29443E-02   -0.60283E-05  3856   0.278E-02    0.662E-02
DAV:  30    -0.144502141378E+03   -0.31049E-02   -0.10375E-04  3816   0.270E-02    0.361E-02
DAV:  31    -0.144503284275E+03   -0.11429E-02   -0.46313E-05  4112   0.235E-02    0.173E-02
DAV:  32    -0.144503616335E+03   -0.33206E-03   -0.10082E-05  3664   0.121E-02    0.745E-03
DAV:  33    -0.144503870724E+03   -0.25439E-03   -0.93535E-06  3408   0.168E-02    0.364E-02
DAV:  34    -0.144503979624E+03   -0.10890E-03   -0.60233E-06  3064   0.134E-02    0.356E-03
DAV:  35    -0.144504002473E+03   -0.22849E-04   -0.25709E-06  2560   0.461E-03    0.379E-03
DAV:  36    -0.144504009295E+03   -0.68222E-05   -0.59252E-07  2312   0.411E-03    0.426E-03
DAV:  37    -0.144504016071E+03   -0.67753E-05   -0.72905E-07  2336   0.497E-03    0.531E-03
DAV:  38    -0.144504021508E+03   -0.54376E-05   -0.11860E-06  2336   0.587E-03    0.418E-03
DAV:  39    -0.144504023916E+03   -0.24080E-05   -0.12531E-06  2400   0.530E-03    0.273E-03
DAV:  40    -0.144504027798E+03   -0.38821E-05   -0.11337E-06  2360   0.524E-03    0.282E-03
DAV:  41    -0.144504031381E+03   -0.35826E-05   -0.13365E-06  2312   0.501E-03    0.213E-03
DAV:  42    -0.144504034005E+03   -0.26244E-05   -0.10132E-06  2176   0.388E-03    0.219E-03
DAV:  43    -0.144504035924E+03   -0.19187E-05   -0.32566E-07  1968   0.303E-03    0.130E-03
DAV:  44    -0.144504037325E+03   -0.14010E-05   -0.32697E-07  2072   0.201E-03    0.138E-03
DAV:  45    -0.144504037773E+03   -0.44839E-06   -0.73968E-08  1928   0.981E-04
   1 F= -.15056315E+03 E0= -.15054550E+03  d E =-.150563E+03  mag=    27.0002
       N       E                     dE             d eps       ncg     rms          rms(c)
DAV:   1    -0.144494937159E+03    0.91002E-02   -0.10510E+00  3144   0.197E+00    0.755E-01
DAV:   2    -0.144504551142E+03   -0.96140E-02   -0.35893E-02  4344   0.950E-01    0.199E+00
DAV:   3    -0.144503773271E+03    0.77787E-03   -0.15207E-02  4480   0.104E+00    0.985E-01
DAV:   4    -0.144504983193E+03   -0.12099E-02   -0.16312E-03  4560   0.386E-01    0.286E-01
DAV:   5    -0.144504901605E+03    0.81587E-04   -0.36498E-04  4480   0.121E-01    0.198E-01
DAV:   6    -0.144504752820E+03    0.14879E-03   -0.25824E-04  4480   0.123E-01    0.140E-01
DAV:   7    -0.144504603697E+03    0.14912E-03   -0.12449E-04  4488   0.699E-02    0.610E-02
DAV:   8    -0.144504698632E+03   -0.94935E-04   -0.20610E-05  4320   0.296E-02    0.223E-02
DAV:   9    -0.144504809343E+03   -0.11071E-03   -0.50426E-06  3064   0.137E-02    0.245E-02
DAV:  10    -0.144504937241E+03   -0.12790E-03   -0.35564E-06  2936   0.108E-02    0.929E-03
DAV:  11    -0.144505065371E+03   -0.12813E-03   -0.35855E-06  3000   0.607E-03    0.335E-03
DAV:  12    -0.144505107511E+03   -0.42140E-04   -0.57516E-07  2312   0.384E-03    0.403E-03
DAV:  13    -0.144505157300E+03   -0.49789E-04   -0.47290E-07  2264   0.245E-03    0.186E-03
DAV:  14    -0.144505226777E+03   -0.69477E-04   -0.92436E-07  2432   0.236E-03    0.251E-03
DAV:  15    -0.144505278833E+03   -0.52056E-04   -0.69633E-07  2352   0.264E-03    0.278E-03
DAV:  16    -0.144505306367E+03   -0.27534E-04   -0.55494E-07  2280   0.231E-03    0.134E-03
DAV:  17    -0.144505314002E+03   -0.76349E-05   -0.29939E-07  2096   0.161E-03    0.120E-03
DAV:  18    -0.144505331014E+03   -0.17012E-04   -0.34451E-07  2216   0.160E-03    0.168E-03
DAV:  19    -0.144505344588E+03   -0.13574E-04   -0.41690E-07  2304   0.176E-03    0.891E-04
DAV:  20    -0.144505349188E+03   -0.46006E-05   -0.30033E-07  2232   0.152E-03    0.650E-04
DAV:  21    -0.144505350172E+03   -0.98364E-06   -0.20757E-07  2120   0.135E-03
   2 F= -.15056463E+03 E0= -.15054692E+03  d E =-.148488E-02  mag=    27.0000
       N       E                     dE             d eps       ncg     rms          rms(c)
DAV:   1    -0.144503196581E+03    0.21526E-02   -0.21391E-01  3264   0.886E-01    0.333E-01
DAV:   2    -0.144504675558E+03   -0.14790E-02   -0.61102E-03  4416   0.326E-01    0.443E-01
DAV:   3    -0.144505425111E+03   -0.74955E-03   -0.21182E-03  4336   0.444E-01    0.800E-01
DAV:   4    -0.144505126023E+03    0.29909E-03   -0.71125E-04  4368   0.277E-01    0.673E-02
DAV:   5    -0.144505169438E+03   -0.43416E-04   -0.80635E-05  4392   0.345E-02    0.986E-02
DAV:   6    -0.144505128185E+03    0.41254E-04   -0.63832E-05  4280   0.646E-02    0.135E-01
DAV:   7    -0.144505070257E+03    0.57928E-04   -0.35321E-05  4488   0.449E-02    0.107E-02
DAV:   8    -0.144505085013E+03   -0.14756E-04   -0.34986E-06  3104   0.117E-02    0.156E-02
DAV:   9    -0.144505125173E+03   -0.40160E-04   -0.16388E-06  2336   0.893E-03    0.187E-02
DAV:  10    -0.144505162799E+03   -0.37626E-04   -0.14200E-06  2424   0.793E-03    0.371E-03
DAV:  11    -0.144505200001E+03   -0.37202E-04   -0.12174E-06  2320   0.478E-03    0.532E-03
DAV:  12    -0.144505218643E+03   -0.18642E-04   -0.64776E-07  2016   0.370E-03    0.341E-03
DAV:  13    -0.144505234096E+03   -0.15453E-04   -0.40072E-07  2128   0.242E-03    0.142E-03
DAV:  14    -0.144505261835E+03   -0.27739E-04   -0.54842E-07  2288   0.170E-03    0.199E-03
DAV:  15    -0.144505277555E+03   -0.15720E-04   -0.31008E-07  2136   0.183E-03    0.960E-04
DAV:  16    -0.144505284197E+03   -0.66429E-05   -0.20334E-07  1952   0.137E-03    0.645E-04
DAV:  17    -0.144505289884E+03   -0.56864E-05   -0.15215E-07  2024   0.972E-04    0.490E-04
DAV:  18    -0.144505297270E+03   -0.73863E-05   -0.13937E-07  2136   0.964E-04    0.110E-03
DAV:  19    -0.144505305720E+03   -0.84498E-05   -0.21105E-07  2216   0.111E-03    0.617E-04
DAV:  20    -0.144505307373E+03   -0.16534E-05   -0.11506E-07  1952   0.104E-03    0.323E-04
DAV:  21    -0.144505308202E+03   -0.82895E-06   -0.68508E-08  1944   0.632E-04
   3 F= -.15056516E+03 E0= -.15054747E+03  d E =-.200667E-02  mag=    27.0000
       N       E                     dE             d eps       ncg     rms          rms(c)
DAV:   1    -0.144505494077E+03   -0.18670E-03   -0.42302E-01  3040   0.132E+00    0.698E-01
DAV:   2    -0.144512963767E+03   -0.74697E-02   -0.50848E-02  4472   0.144E+00    0.305E+00
DAV:   3    -0.144508211608E+03    0.47522E-02   -0.36127E-02  4384   0.139E+00    0.663E-01
DAV:   4    -0.144509002520E+03   -0.79091E-03   -0.10788E-03  4312   0.230E-01    0.273E-01
DAV:   5    -0.144508927333E+03    0.75187E-04   -0.14344E-04  4384   0.603E-02    0.109E-01
DAV:   6    -0.144508929374E+03   -0.20410E-05   -0.96178E-05  4472   0.525E-02    0.107E-01
DAV:   7    -0.144508939365E+03   -0.99915E-05   -0.49088E-05  4392   0.315E-02    0.314E-02
DAV:   8    -0.144508957429E+03   -0.18063E-04   -0.71445E-06  3528   0.136E-02    0.264E-02
DAV:   9    -0.144508964758E+03   -0.73290E-05   -0.16088E-06  2328   0.107E-02    0.568E-03
DAV:  10    -0.144508971719E+03   -0.69610E-05   -0.11484E-06  2120   0.480E-03    0.452E-03
DAV:  11    -0.144508975314E+03   -0.35955E-05   -0.62871E-07  1904   0.343E-03    0.681E-03
DAV:  12    -0.144508976848E+03   -0.15344E-05   -0.27482E-07  1936   0.245E-03    0.278E-03
DAV:  13    -0.144508978587E+03   -0.17389E-05   -0.10991E-07  1888   0.166E-03    0.415E-03
DAV:  14    -0.144508981232E+03   -0.26446E-05   -0.11069E-07  2128   0.192E-03    0.194E-03
DAV:  15    -0.144508983011E+03   -0.17792E-05   -0.10849E-07  1976   0.120E-03    0.784E-04
DAV:  16    -0.144508983615E+03   -0.60427E-06   -0.58519E-08  1960   0.905E-04
   4 F= -.15056826E+03 E0= -.15055080E+03  d E =-.310079E-02  mag=    27.0000
       N       E                     dE             d eps       ncg     rms          rms(c)
DAV:   1    -0.144492032663E+03    0.16950E-01   -0.26201E+00  3040   0.328E+00    0.163E+00
DAV:   2    -0.144531050465E+03   -0.39018E-01   -0.32960E-01  4496   0.327E+00    0.629E+00
DAV:   3    -0.144512136883E+03    0.18914E-01   -0.28598E-01  4408   0.314E+00    0.161E+00
DAV:   4    -0.144514105874E+03   -0.19690E-02   -0.57347E-03  4416   0.575E-01    0.693E-01
DAV:   5    -0.144513642515E+03    0.46336E-03   -0.84835E-04  4416   0.149E-01    0.309E-01
DAV:   6    -0.144513603003E+03    0.39511E-04   -0.57878E-04  4496   0.112E-01    0.242E-01
DAV:   7    -0.144513654863E+03   -0.51860E-04   -0.25663E-04  4360   0.697E-02    0.921E-02
DAV:   8    -0.144513712788E+03   -0.57925E-04   -0.43066E-05  4568   0.369E-02    0.338E-02
DAV:   9    -0.144513753015E+03   -0.40227E-04   -0.10210E-05  4072   0.178E-02    0.118E-02
DAV:  10    -0.144513775574E+03   -0.22559E-04   -0.27459E-06  2592   0.787E-03    0.147E-02
DAV:  11    -0.144513791473E+03   -0.15900E-04   -0.19669E-06  2216   0.556E-03    0.134E-02
DAV:  12    -0.144513800602E+03   -0.91290E-05   -0.80262E-07  2112   0.440E-03    0.904E-03
DAV:  13    -0.144513806925E+03   -0.63227E-05   -0.47198E-07  2232   0.357E-03    0.206E-03
DAV:  14    -0.144513814456E+03   -0.75304E-05   -0.44337E-07  2096   0.237E-03    0.155E-03
DAV:  15    -0.144513818015E+03   -0.35599E-05   -0.18117E-07  2016   0.184E-03    0.130E-03
DAV:  16    -0.144513822910E+03   -0.48948E-05   -0.15435E-07  2160   0.172E-03    0.134E-03
DAV:  17    -0.144513825529E+03   -0.26183E-05   -0.12661E-07  2024   0.125E-03    0.124E-03
DAV:  18    -0.144513829289E+03   -0.37606E-05   -0.14253E-07  2160   0.150E-03    0.117E-03
DAV:  19    -0.144513832025E+03   -0.27359E-05   -0.15346E-07  2152   0.120E-03    0.815E-04
DAV:  20    -0.144513833521E+03   -0.14961E-05   -0.12431E-07  2096   0.111E-03    0.635E-04
DAV:  21    -0.144513834325E+03   -0.80429E-06   -0.91798E-08  2040   0.875E-04
   5 F= -.15057144E+03 E0= -.15055462E+03  d E =-.628627E-02  mag=    27.0000
       N       E                     dE             d eps       ncg     rms          rms(c)
DAV:   1    -0.144511369676E+03    0.24638E-02   -0.11568E+00  3040   0.208E+00    0.112E+00
DAV:   2    -0.144527919397E+03   -0.16550E-01   -0.10556E-01  4472   0.231E+00    0.481E+00
DAV:   3    -0.144516510515E+03    0.11409E-01   -0.10810E-01  4400   0.224E+00    0.970E-01
DAV:   4    -0.144518402340E+03   -0.18918E-02   -0.25177E-03  4360   0.334E-01    0.484E-01
DAV:   5    -0.144518205597E+03    0.19674E-03   -0.32570E-04  4424   0.110E-01    0.189E-01
DAV:   6    -0.144518234348E+03   -0.28750E-04   -0.22591E-04  4408   0.696E-02    0.121E-01
DAV:   7    -0.144518292147E+03   -0.57799E-04   -0.10113E-04  4368   0.411E-02    0.478E-02
DAV:   8    -0.144518324775E+03   -0.32628E-04   -0.15107E-05  4552   0.241E-02    0.121E-02
DAV:   9    -0.144518368766E+03   -0.43991E-04   -0.39727E-06  2976   0.131E-02    0.255E-02
DAV:  10    -0.144518413069E+03   -0.44304E-04   -0.37401E-06  2952   0.107E-02    0.109E-02
DAV:  11    -0.144518442130E+03   -0.29061E-04   -0.80993E-07  2296   0.497E-03    0.150E-02
DAV:  12    -0.144518470331E+03   -0.28200E-04   -0.70468E-07  2328   0.550E-03    0.452E-03
DAV:  13    -0.144518496345E+03   -0.26014E-04   -0.96546E-07  2264   0.282E-03    0.281E-03
DAV:  14    -0.144518514712E+03   -0.18368E-04   -0.38003E-07  2280   0.298E-03    0.134E-03
DAV:  15    -0.144518528470E+03   -0.13757E-04   -0.46716E-07  2208   0.177E-03    0.163E-03
DAV:  16    -0.144518535312E+03   -0.68425E-05   -0.19773E-07  2200   0.181E-03    0.126E-03
DAV:  17    -0.144518543167E+03   -0.78551E-05   -0.19441E-07  2120   0.115E-03    0.707E-04
DAV:  18    -0.144518551054E+03   -0.78872E-05   -0.20874E-07  2176   0.135E-03    0.887E-04
DAV:  19    -0.144518554615E+03   -0.35606E-05   -0.15898E-07  2256   0.126E-03    0.935E-04
DAV:  20    -0.144518556360E+03   -0.17452E-05   -0.10645E-07  2072   0.114E-03    0.510E-04
DAV:  21    -0.144518557255E+03   -0.89499E-06   -0.70816E-08  2080   0.715E-04
   6 F= -.15057413E+03 E0= -.15055788E+03  d E =-.268290E-02  mag=    27.0000
       N       E                     dE             d eps       ncg     rms          rms(c)
DAV:   1    -0.144519076688E+03   -0.52033E-03   -0.11385E-01  3176   0.653E-01    0.356E-01
DAV:   2    -0.144520527899E+03   -0.14512E-02   -0.86663E-03  4448   0.732E-01    0.140E+00
DAV:   3    -0.144519486490E+03    0.10414E-02   -0.40786E-03  4352   0.700E-01    0.293E-01
DAV:   4    -0.144519737906E+03   -0.25142E-03   -0.25426E-04  4280   0.107E-01    0.133E-01
DAV:   5    -0.144519720454E+03    0.17452E-04   -0.35868E-05  4432   0.356E-02    0.464E-02
DAV:   6    -0.144519726275E+03   -0.58207E-05   -0.22019E-05  4120   0.266E-02    0.422E-02
DAV:   7    -0.144519734255E+03   -0.79805E-05   -0.10699E-05  4336   0.150E-02    0.101E-02
DAV:   8    -0.144519741204E+03   -0.69488E-05   -0.96333E-07  2304   0.598E-03    0.690E-03
DAV:   9    -0.144519748337E+03   -0.71332E-05   -0.80906E-07  2240   0.539E-03    0.714E-03
DAV:  10    -0.144519753978E+03   -0.56407E-05   -0.72133E-07  1976   0.414E-03    0.480E-03
DAV:  11    -0.144519756867E+03   -0.28887E-05   -0.29994E-07  1936   0.177E-03    0.643E-03
DAV:  12    -0.144519761624E+03   -0.47576E-05   -0.10421E-07  2080   0.191E-03    0.374E-03
DAV:  13    -0.144519768825E+03   -0.72009E-05   -0.13841E-07  2128   0.119E-03    0.383E-03
DAV:  14    -0.144519774430E+03   -0.56046E-05   -0.90210E-08  2144   0.173E-03    0.800E-04
DAV:  15    -0.144519776043E+03   -0.16134E-05   -0.89699E-08  1992   0.812E-04    0.630E-04
DAV:  16    -0.144519777016E+03   -0.97248E-06   -0.27354E-08  1904   0.757E-04
   7 F= -.15057428E+03 E0= -.15055824E+03  d E =-.283942E-02  mag=    27.0000
       N       E                     dE             d eps       ncg     rms          rms(c)
DAV:   1    -0.144519989043E+03   -0.21300E-03   -0.53734E-02  3120   0.427E-01    0.207E-01
DAV:   2    -0.144520470797E+03   -0.48175E-03   -0.30655E-03  4408   0.427E-01    0.805E-01
DAV:   3    -0.144520115895E+03    0.35490E-03   -0.12953E-03  4344   0.399E-01    0.146E-01
DAV:   4    -0.144520265795E+03   -0.14990E-03   -0.89880E-05  4184   0.569E-02    0.801E-02
DAV:   5    -0.144520262469E+03    0.33261E-05   -0.13333E-05  4376   0.263E-02    0.256E-02
DAV:   6    -0.144520270442E+03   -0.79730E-05   -0.10351E-05  4104   0.192E-02    0.213E-02
DAV:   7    -0.144520277577E+03   -0.71354E-05   -0.26765E-06  2552   0.112E-02    0.724E-03
DAV:   8    -0.144520282325E+03   -0.47471E-05   -0.13396E-06  2256   0.748E-03    0.772E-03
DAV:   9    -0.144520285434E+03   -0.31096E-05   -0.91860E-07  1936   0.542E-03    0.454E-03
DAV:  10    -0.144520288157E+03   -0.27230E-05   -0.47780E-07  2040   0.290E-03    0.251E-03
DAV:  11    -0.144520289119E+03   -0.96203E-06   -0.19127E-07  1976   0.184E-03
   8 F= -.15057498E+03 E0= -.15055903E+03  d E =-.693230E-03  mag=    27.0000
       N       E                     dE             d eps       ncg     rms          rms(c)
DAV:   1    -0.144518601320E+03    0.16868E-02   -0.48363E-01  3040   0.128E+00    0.599E-01
DAV:   2    -0.144523265884E+03   -0.46646E-02   -0.26629E-02  4376   0.121E+00    0.233E+00
DAV:   3    -0.144520630965E+03    0.26349E-02   -0.11514E-02  4408   0.115E+00    0.475E-01
DAV:   4    -0.144521255536E+03   -0.62457E-03   -0.75251E-04  4264   0.175E-01    0.248E-01
DAV:   5    -0.144521227534E+03    0.28002E-04   -0.11093E-04  4416   0.747E-02    0.787E-02
DAV:   6    -0.144521275985E+03   -0.48451E-04   -0.90988E-05  4384   0.482E-02    0.522E-02
DAV:   7    -0.144521312891E+03   -0.36906E-04   -0.31760E-05  4368   0.261E-02    0.144E-02
DAV:   8    -0.144521332898E+03   -0.20006E-04   -0.23406E-06  2592   0.948E-03    0.729E-03
DAV:   9    -0.144521350481E+03   -0.17584E-04   -0.13743E-06  2320   0.674E-03    0.157E-02
DAV:  10    -0.144521361139E+03   -0.10658E-04   -0.99512E-07  2184   0.604E-03    0.910E-03
DAV:  11    -0.144521373824E+03   -0.12685E-04   -0.66475E-07  2144   0.239E-03    0.107E-02
DAV:  12    -0.144521385120E+03   -0.11295E-04   -0.19374E-07  2296   0.384E-03    0.238E-03
DAV:  13    -0.144521400526E+03   -0.15406E-04   -0.43635E-07  2192   0.176E-03    0.128E-03
DAV:  14    -0.144521405985E+03   -0.54596E-05   -0.10027E-07  2232   0.170E-03    0.169E-03
DAV:  15    -0.144521407487E+03   -0.15013E-05   -0.53483E-08  1952   0.783E-04    0.995E-04
DAV:  16    -0.144521414598E+03   -0.71111E-05   -0.70626E-08  2136   0.121E-03    0.657E-04
DAV:  17    -0.144521419553E+03   -0.49553E-05   -0.11755E-07  2248   0.969E-04    0.115E-03
DAV:  18    -0.144521420960E+03   -0.14065E-05   -0.50482E-08  2064   0.969E-04    0.559E-04
DAV:  19    -0.144521422162E+03   -0.12027E-05   -0.36725E-08  2104   0.439E-04    0.387E-04
DAV:  20    -0.144521422949E+03   -0.78659E-06   -0.18455E-08  2016   0.575E-04
   9 F= -.15057643E+03 E0= -.15056079E+03  d E =-.214377E-02  mag=    27.0000
       N       E                     dE             d eps       ncg     rms          rms(c)
DAV:   1    -0.144510355121E+03    0.11067E-01   -0.19361E+00  3040   0.256E+00    0.112E+00
DAV:   2    -0.144526172284E+03   -0.15817E-01   -0.99435E-02  4416   0.220E+00    0.406E+00
DAV:   3    -0.144519365974E+03    0.68063E-02   -0.44232E-02  4352   0.211E+00    0.986E-01
DAV:   4    -0.144521398972E+03   -0.20330E-02   -0.26628E-03  4360   0.354E-01    0.510E-01
DAV:   5    -0.144521217781E+03    0.18119E-03   -0.40042E-04  4496   0.141E-01    0.191E-01
DAV:   6    -0.144521384672E+03   -0.16689E-03   -0.35157E-04  4328   0.733E-02    0.835E-02
DAV:   7    -0.144521497131E+03   -0.11246E-03   -0.12223E-04  4336   0.445E-02    0.283E-02
DAV:   8    -0.144521539675E+03   -0.42544E-04   -0.10100E-05  4088   0.229E-02    0.314E-02
DAV:   9    -0.144521585399E+03   -0.45723E-04   -0.57410E-06  3024   0.952E-03    0.279E-02
DAV:  10    -0.144521620819E+03   -0.35420E-04   -0.13272E-06  2376   0.959E-03    0.117E-02
DAV:  11    -0.144521665717E+03   -0.44899E-04   -0.15796E-06  2360   0.529E-03    0.591E-03
DAV:  12    -0.144521685113E+03   -0.19396E-04   -0.10308E-06  2312   0.395E-03    0.752E-03
DAV:  13    -0.144521704775E+03   -0.19663E-04   -0.40094E-07  2248   0.421E-03    0.189E-03
DAV:  14    -0.144521720674E+03   -0.15898E-04   -0.46142E-07  2192   0.202E-03    0.169E-03
DAV:  15    -0.144521734070E+03   -0.13397E-04   -0.23330E-07  2192   0.187E-03    0.192E-03
DAV:  16    -0.144521744027E+03   -0.99566E-05   -0.23819E-07  2200   0.174E-03    0.742E-04
DAV:  17    -0.144521752406E+03   -0.83787E-05   -0.21614E-07  2192   0.139E-03    0.904E-04
DAV:  18    -0.144521754684E+03   -0.22788E-05   -0.10279E-07  2248   0.124E-03    0.531E-04
DAV:  19    -0.144521757170E+03   -0.24855E-05   -0.84778E-08  2136   0.709E-04    0.606E-04
DAV:  20    -0.144521760400E+03   -0.32303E-05   -0.11035E-07  2104   0.834E-04    0.598E-04
DAV:  21    -0.144521760807E+03   -0.40690E-06   -0.41614E-08  2104   0.752E-04
  10 F= -.15057664E+03 E0= -.15056166E+03  d E =-.235493E-02  mag=    27.0000
       N       E                     dE             d eps       ncg     rms          rms(c)
DAV:   1    -0.144519943087E+03    0.18173E-02   -0.34577E-01  3064   0.108E+00    0.505E-01
DAV:   2    -0.144522561869E+03   -0.26188E-02   -0.18797E-02  4416   0.102E+00    0.148E+00
DAV:   3    -0.144521370450E+03    0.11914E-02   -0.66134E-03  4496   0.916E-01    0.320E-01
DAV:   4    -0.144521750410E+03   -0.37996E-03   -0.49286E-04  4296   0.143E-01    0.136E-01
DAV:   5    -0.144521764951E+03   -0.14541E-04   -0.89999E-05  4496   0.638E-02    0.798E-02
DAV:   6    -0.144521812538E+03   -0.47587E-04   -0.70315E-05  4336   0.683E-02    0.784E-02
DAV:   7    -0.144521845928E+03   -0.33390E-04   -0.39025E-05  4632   0.431E-02    0.257E-02
DAV:   8    -0.144521864338E+03   -0.18411E-04   -0.64945E-06  3448   0.179E-02    0.170E-02
DAV:   9    -0.144521876148E+03   -0.11810E-04   -0.15205E-06  2384   0.130E-02    0.161E-02
DAV:  10    -0.144521889208E+03   -0.13060E-04   -0.11417E-06  2320   0.532E-03    0.128E-02
DAV:  11    -0.144521897387E+03   -0.81798E-05   -0.70278E-07  2296   0.317E-03    0.159E-02
DAV:  12    -0.144521904996E+03   -0.76090E-05   -0.44648E-07  2328   0.652E-03    0.271E-03
DAV:  13    -0.144521915055E+03   -0.10058E-04   -0.34908E-07  2312   0.172E-03    0.411E-03
DAV:  14    -0.144521918785E+03   -0.37301E-05   -0.12414E-07  2200   0.155E-03    0.309E-03
DAV:  15    -0.144521923018E+03   -0.42327E-05   -0.71403E-08  2296   0.125E-03    0.120E-03
DAV:  16    -0.144521926233E+03   -0.32151E-05   -0.63676E-08  2216   0.107E-03    0.641E-04
DAV:  17    -0.144521929352E+03   -0.31192E-05   -0.79757E-08  2224   0.566E-04    0.556E-04
DAV:  18    -0.144521932197E+03   -0.28453E-05   -0.54493E-08  2264   0.624E-04    0.450E-04
DAV:  19    -0.144521934390E+03   -0.21930E-05   -0.67681E-08  2256   0.518E-04    0.290E-04
DAV:  20    -0.144521934964E+03   -0.57391E-06   -0.25510E-08  2216   0.536E-04
  11 F= -.15057696E+03 E0= -.15056170E+03  d E =-.268149E-02  mag=    27.0000
       N       E                     dE             d eps       ncg     rms          rms(c)
DAV:   1    -0.144522320131E+03   -0.38574E-03   -0.25852E-02  3184   0.293E-01    0.147E-01
DAV:   2    -0.144522515299E+03   -0.19517E-03   -0.14772E-03  4488   0.300E-01    0.523E-01
DAV:   3    -0.144522395320E+03    0.11998E-03   -0.63933E-04  4456   0.281E-01    0.102E-01
DAV:   4    -0.144522451997E+03   -0.56678E-04   -0.41254E-05  4272   0.392E-02    0.511E-02
DAV:   5    -0.144522449772E+03    0.22252E-05   -0.55867E-06  3144   0.190E-02    0.170E-02
DAV:   6    -0.144522451264E+03   -0.14921E-05   -0.83882E-06  4032   0.164E-02    0.177E-02
DAV:   7    -0.144522453984E+03   -0.27204E-05   -0.13525E-06  2320   0.997E-03    0.610E-03
DAV:   8    -0.144522458433E+03   -0.44485E-05   -0.66334E-07  2200   0.582E-03    0.557E-03
DAV:   9    -0.144522461128E+03   -0.26951E-05   -0.33297E-07  1960   0.387E-03    0.277E-03
DAV:  10    -0.144522463657E+03   -0.25292E-05   -0.22000E-07  1928   0.168E-03    0.173E-03
DAV:  11    -0.144522463959E+03   -0.30242E-06   -0.74854E-08  2000   0.113E-03
  12 F= -.15057734E+03 E0= -.15056216E+03  d E =-.376872E-03  mag=    27.0000
       N       E                     dE             d eps       ncg     rms          rms(c)
DAV:   1    -0.144522596346E+03   -0.13269E-03   -0.23267E-01  3040   0.879E-01    0.425E-01
DAV:   2    -0.144524575476E+03   -0.19791E-02   -0.12811E-02  4416   0.854E-01    0.150E+00
DAV:   3    -0.144523599272E+03    0.97620E-03   -0.55090E-03  4440   0.810E-01    0.326E-01
DAV:   4    -0.144523879462E+03   -0.28019E-03   -0.34983E-04  4320   0.122E-01    0.158E-01
DAV:   5    -0.144523854874E+03    0.24587E-04   -0.56368E-05  4424   0.556E-02    0.482E-02
DAV:   6    -0.144523872413E+03   -0.17539E-04   -0.45622E-05  4320   0.373E-02    0.438E-02
DAV:   7    -0.144523891113E+03   -0.18700E-04   -0.13717E-05  4344   0.249E-02    0.164E-02
DAV:   8    -0.144523913089E+03   -0.21976E-04   -0.13461E-06  2424   0.651E-03    0.441E-03
DAV:   9    -0.144523932672E+03   -0.19584E-04   -0.57772E-07  2288   0.578E-03    0.118E-02
DAV:  10    -0.144523949730E+03   -0.17057E-04   -0.47064E-07  2264   0.370E-03    0.512E-03
DAV:  11    -0.144523971503E+03   -0.21773E-04   -0.64318E-07  2176   0.197E-03    0.574E-03
DAV:  12    -0.144523978647E+03   -0.71440E-05   -0.18791E-07  2160   0.233E-03    0.294E-03
DAV:  13    -0.144523987447E+03   -0.88000E-05   -0.16839E-07  2128   0.112E-03    0.738E-04
DAV:  14    -0.144523995426E+03   -0.79797E-05   -0.98937E-08  2152   0.110E-03    0.714E-04
DAV:  15    -0.144523999606E+03   -0.41800E-05   -0.64853E-08  2088   0.645E-04    0.454E-04
DAV:  16    -0.144524004669E+03   -0.50625E-05   -0.52604E-08  2136   0.837E-04    0.633E-04
DAV:  17    -0.144524008111E+03   -0.34419E-05   -0.56931E-08  2112   0.577E-04    0.746E-04
DAV:  18    -0.144524011697E+03   -0.35868E-05   -0.59045E-08  2128   0.728E-04    0.446E-04
DAV:  19    -0.144524013385E+03   -0.16875E-05   -0.49710E-08  2128   0.562E-04    0.219E-04
DAV:  20    -0.144524014336E+03   -0.95122E-06   -0.36101E-08  2088   0.558E-04
  13 F= -.15057843E+03 E0= -.15056353E+03  d E =-.147149E-02  mag=    27.0000
       N       E                     dE             d eps       ncg     rms          rms(c)
DAV:   1    -0.144521040550E+03    0.29728E-02   -0.93114E-01  3040   0.176E+00    0.798E-01
DAV:   2    -0.144528166315E+03   -0.71258E-02   -0.48042E-02  4400   0.155E+00    0.263E+00
DAV:   3    -0.144525688610E+03    0.24777E-02   -0.19414E-02  4408   0.149E+00    0.671E-01
DAV:   4    -0.144526393018E+03   -0.70441E-03   -0.12526E-03  4384   0.249E-01    0.324E-01
DAV:   5    -0.144526315750E+03    0.77268E-04   -0.21338E-04  4448   0.108E-01    0.107E-01
DAV:   6    -0.144526387637E+03   -0.71887E-04   -0.17920E-04  4392   0.573E-02    0.712E-02
DAV:   7    -0.144526441409E+03   -0.53772E-04   -0.43053E-05  4376   0.425E-02    0.272E-02
DAV:   8    -0.144526485222E+03   -0.43813E-04   -0.44791E-06  3048   0.888E-03    0.171E-02
DAV:   9    -0.144526538140E+03   -0.52918E-04   -0.12199E-06  2312   0.472E-03    0.172E-02
DAV:  10    -0.144526578135E+03   -0.39996E-04   -0.82396E-07  2304   0.509E-03    0.113E-02
DAV:  11    -0.144526628413E+03   -0.50277E-04   -0.14630E-06  2344   0.382E-03    0.794E-03
DAV:  12    -0.144526645287E+03   -0.16875E-04   -0.52391E-07  2264   0.304E-03    0.483E-03
DAV:  13    -0.144526665072E+03   -0.19785E-04   -0.28338E-07  2208   0.226E-03    0.132E-03
DAV:  14    -0.144526688824E+03   -0.23751E-04   -0.35962E-07  2120   0.176E-03    0.984E-04
DAV:  15    -0.144526699876E+03   -0.11053E-04   -0.17487E-07  2288   0.123E-03    0.110E-03
DAV:  16    -0.144526711985E+03   -0.12109E-04   -0.16114E-07  2104   0.120E-03    0.106E-03
DAV:  17    -0.144526721713E+03   -0.97280E-05   -0.16443E-07  2216   0.108E-03    0.684E-04
DAV:  18    -0.144526732189E+03   -0.10476E-04   -0.24272E-07  2144   0.129E-03    0.975E-04
DAV:  19    -0.144526734926E+03   -0.27366E-05   -0.14427E-07  2336   0.126E-03    0.436E-04
DAV:  20    -0.144526735993E+03   -0.10674E-05   -0.84960E-08  2032   0.739E-04    0.380E-04
DAV:  21    -0.144526736709E+03   -0.71622E-06   -0.46917E-08  2040   0.726E-04
  14 F= -.15058025E+03 E0= -.15056590E+03  d E =-.328955E-02  mag=    27.0000
       N       E                     dE             d eps       ncg     rms          rms(c)
DAV:   1    -0.144507400116E+03    0.19336E-01   -0.37298E+00  3040   0.352E+00    0.140E+00
DAV:   2    -0.144528962212E+03   -0.21562E-01   -0.17205E-01  4384   0.250E+00    0.339E+00
DAV:   3    -0.144528945711E+03    0.16502E-04   -0.53748E-02  4456   0.243E+00    0.124E+00
DAV:   4    -0.144529947163E+03   -0.10015E-02   -0.39371E-03  4464   0.518E-01    0.595E-01
DAV:   5    -0.144529617890E+03    0.32927E-03   -0.76305E-04  4512   0.213E-01    0.257E-01
DAV:   6    -0.144529844978E+03   -0.22709E-03   -0.72698E-04  4200   0.897E-02    0.884E-02
DAV:   7    -0.144530018114E+03   -0.17314E-03   -0.15057E-04  4384   0.527E-02    0.387E-02
DAV:   8    -0.144530124417E+03   -0.10630E-03   -0.14576E-05  4192   0.200E-02    0.645E-02
DAV:   9    -0.144530253150E+03   -0.12873E-03   -0.11041E-05  3520   0.251E-02    0.295E-02
DAV:  10    -0.144530390804E+03   -0.13765E-03   -0.37460E-06  3136   0.109E-02    0.144E-02
DAV:  11    -0.144530495069E+03   -0.10426E-03   -0.26790E-06  2776   0.605E-03    0.569E-03
DAV:  12    -0.144530578954E+03   -0.83886E-04   -0.12094E-06  2296   0.379E-03    0.658E-03
DAV:  13    -0.144530628976E+03   -0.50022E-04   -0.54758E-07  2336   0.441E-03    0.190E-03
DAV:  14    -0.144530691766E+03   -0.62790E-04   -0.13192E-06  2352   0.241E-03    0.155E-03
DAV:  15    -0.144530727538E+03   -0.35772E-04   -0.41666E-07  2336   0.241E-03    0.210E-03
DAV:  16    -0.144530755348E+03   -0.27810E-04   -0.51684E-07  2200   0.217E-03    0.171E-03
DAV:  17    -0.144530766354E+03   -0.11005E-04   -0.29072E-07  2336   0.175E-03    0.179E-03
DAV:  18    -0.144530779618E+03   -0.13265E-04   -0.29315E-07  2152   0.197E-03    0.104E-03
DAV:  19    -0.144530793063E+03   -0.13444E-04   -0.54142E-07  2232   0.183E-03    0.118E-03
DAV:  20    -0.144530794848E+03   -0.17853E-05   -0.23014E-07  2320   0.153E-03    0.779E-04
DAV:  21    -0.144530796138E+03   -0.12899E-05   -0.12819E-07  2120   0.110E-03    0.450E-04
DAV:  22    -0.144530797327E+03   -0.11892E-05   -0.10832E-07  2192   0.116E-03    0.742E-04
DAV:  23    -0.144530797571E+03   -0.24380E-06   -0.91516E-08  2176   0.887E-04
  15 F= -.15058257E+03 E0= -.15056943E+03  d E =-.560543E-02  mag=    27.0000
       N       E                     dE             d eps       ncg     rms          rms(c)
DAV:   1    -0.144434703825E+03    0.96094E-01   -0.14997E+01  3040   0.707E+00    0.228E+00
DAV:   2    -0.144509974515E+03   -0.75271E-01   -0.62539E-01  4376   0.326E+00    0.175E+00
DAV:   3    -0.144530359419E+03   -0.20385E-01   -0.70727E-02  4280   0.226E+00    0.123E+00
DAV:   4    -0.144528842900E+03    0.15165E-02   -0.70111E-03  4536   0.785E-01    0.495E-01
DAV:   5    -0.144529570275E+03   -0.72737E-03   -0.35738E-03  4544   0.356E-01    0.362E-01
DAV:   6    -0.144530490263E+03   -0.91999E-03   -0.26417E-03  4568   0.458E-01    0.269E-01
DAV:   7    -0.144530716610E+03   -0.22635E-03   -0.10182E-03  4528   0.317E-01    0.676E-02
DAV:   8    -0.144531047815E+03   -0.33121E-03   -0.12068E-04  4080   0.553E-02    0.555E-02
DAV:   9    -0.144531333494E+03   -0.28568E-03   -0.25474E-05  4232   0.178E-02    0.444E-02
DAV:  10    -0.144531604772E+03   -0.27128E-03   -0.10822E-05  4312   0.195E-02    0.196E-02
DAV:  11    -0.144531955894E+03   -0.35112E-03   -0.10018E-05  4104   0.148E-02    0.645E-03
DAV:  12    -0.144532117750E+03   -0.16186E-03   -0.18258E-06  2456   0.560E-03    0.460E-03
DAV:  13    -0.144532245458E+03   -0.12771E-03   -0.15946E-06  2432   0.408E-03    0.469E-03
DAV:  14    -0.144532430494E+03   -0.18504E-03   -0.31257E-06  2840   0.444E-03    0.330E-03
DAV:  15    -0.144532545900E+03   -0.11541E-03   -0.17304E-06  2488   0.404E-03    0.295E-03
DAV:  16    -0.144532614217E+03   -0.68317E-04   -0.15788E-06  2376   0.370E-03    0.218E-03
DAV:  17    -0.144532654269E+03   -0.40052E-04   -0.16005E-06  2432   0.314E-03    0.180E-03
DAV:  18    -0.144532663106E+03   -0.88376E-05   -0.59739E-07  2360   0.249E-03    0.156E-03
DAV:  19    -0.144532670074E+03   -0.69681E-05   -0.34082E-07  2176   0.194E-03    0.151E-03
DAV:  20    -0.144532676136E+03   -0.60617E-05   -0.58585E-07  2208   0.277E-03    0.118E-03
DAV:  21    -0.144532676181E+03   -0.45262E-07   -0.42155E-07  2296   0.208E-03
  16 F= -.15058138E+03 E0= -.15057085E+03  d E =-.441169E-02  mag=    27.0000
       N       E                     dE             d eps       ncg     rms          rms(c)
DAV:   1    -0.144491276616E+03    0.41400E-01   -0.66907E+00  3040   0.471E+00    0.163E+00
DAV:   2    -0.144521112791E+03   -0.29836E-01   -0.30501E-01  4344   0.265E+00    0.171E+00
DAV:   3    -0.144530536863E+03   -0.94241E-02   -0.50634E-02  4424   0.212E+00    0.143E+00
DAV:   4    -0.144529351104E+03    0.11858E-02   -0.55799E-03  4440   0.803E-01    0.349E-01
DAV:   5    -0.144529836338E+03   -0.48523E-03   -0.20038E-03  4656   0.283E-01    0.256E-01
DAV:   6    -0.144530552151E+03   -0.71581E-03   -0.10356E-03  4496   0.136E-01    0.202E-01
DAV:   7    -0.144530969885E+03   -0.41773E-03   -0.47350E-04  4480   0.162E-01    0.766E-02
DAV:   8    -0.144531189063E+03   -0.21918E-03   -0.71935E-05  4632   0.669E-02    0.514E-02
DAV:   9    -0.144531444520E+03   -0.25546E-03   -0.41847E-05  4600   0.546E-02    0.619E-02
DAV:  10    -0.144531554318E+03   -0.10980E-03   -0.23835E-05  4424   0.280E-02    0.227E-02
DAV:  11    -0.144531687050E+03   -0.13273E-03   -0.32657E-06  2728   0.675E-03    0.165E-02
DAV:  12    -0.144531919820E+03   -0.23277E-03   -0.70180E-06  3608   0.120E-02    0.788E-03
DAV:  13    -0.144532063443E+03   -0.14362E-03   -0.25660E-06  2568   0.557E-03    0.418E-03
DAV:  14    -0.144532123739E+03   -0.60295E-04   -0.10409E-06  2352   0.317E-03    0.332E-03
DAV:  15    -0.144532211073E+03   -0.87334E-04   -0.15029E-06  2424   0.369E-03    0.300E-03
DAV:  16    -0.144532277306E+03   -0.66234E-04   -0.15025E-06  2400   0.347E-03    0.292E-03
DAV:  17    -0.144532363097E+03   -0.85791E-04   -0.37019E-06  2880   0.411E-03    0.287E-03
DAV:  18    -0.144532388649E+03   -0.25552E-04   -0.88006E-07  2384   0.295E-03    0.255E-03
DAV:  19    -0.144532391325E+03   -0.26758E-05   -0.23396E-07  2392   0.161E-03    0.193E-03
DAV:  20    -0.144532395247E+03   -0.39217E-05   -0.12819E-07  2152   0.143E-03    0.152E-03
DAV:  21    -0.144532402156E+03   -0.69099E-05   -0.32147E-07  2248   0.146E-03    0.726E-04
DAV:  22    -0.144532405662E+03   -0.35059E-05   -0.26470E-07  2256   0.152E-03    0.875E-04
DAV:  23    -0.144532406733E+03   -0.10705E-05   -0.15443E-07  2304   0.131E-03    0.900E-04
DAV:  24    -0.144532407050E+03   -0.31730E-06   -0.97160E-08  2248   0.952E-04
  17 F= -.15058309E+03 E0= -.15057081E+03  d E =-.613031E-02  mag=    27.0000
       N       E                     dE             d eps       ncg     rms          rms(c)
DAV:   1    -0.144532021407E+03    0.38533E-03   -0.77559E-01  3072   0.172E+00    0.634E-01
DAV:   2    -0.144536441099E+03   -0.44197E-02   -0.46032E-02  4368   0.978E-01    0.539E-01
DAV:   3    -0.144537924075E+03   -0.14830E-02   -0.58838E-03  4384   0.685E-01    0.411E-01
DAV:   4    -0.144537694697E+03    0.22938E-03   -0.66460E-04  4480   0.261E-01    0.133E-01
DAV:   5    -0.144537687109E+03    0.75887E-05   -0.26965E-04  4264   0.494E-02    0.895E-02
DAV:   6    -0.144537787586E+03   -0.10048E-03   -0.11450E-04  4432   0.568E-02    0.775E-02
DAV:   7    -0.144537819767E+03   -0.32182E-04   -0.70092E-05  4536   0.782E-02    0.264E-02
DAV:   8    -0.144537854239E+03   -0.34471E-04   -0.10230E-05  3984   0.258E-02    0.109E-02
DAV:   9    -0.144537880245E+03   -0.26007E-04   -0.25882E-06  2752   0.172E-02    0.165E-02
DAV:  10    -0.144537897702E+03   -0.17457E-04   -0.27445E-06  2776   0.874E-03    0.830E-03
DAV:  11    -0.144537909563E+03   -0.11861E-04   -0.10804E-06  2152   0.438E-03    0.370E-03
DAV:  12    -0.144537917225E+03   -0.76619E-05   -0.41833E-07  2240   0.302E-03    0.231E-03
DAV:  13    -0.144537925755E+03   -0.85295E-05   -0.26607E-07  2144   0.252E-03    0.183E-03
DAV:  14    -0.144537929962E+03   -0.42074E-05   -0.12088E-07  2056   0.131E-03    0.124E-03
DAV:  15    -0.144537935168E+03   -0.52057E-05   -0.86909E-08  2120   0.110E-03    0.118E-03
DAV:  16    -0.144537939294E+03   -0.41264E-05   -0.51029E-08  2144   0.102E-03    0.727E-04
DAV:  17    -0.144537944983E+03   -0.56886E-05   -0.56305E-08  2120   0.944E-04    0.741E-04
DAV:  18    -0.144537949288E+03   -0.43048E-05   -0.63447E-08  2160   0.837E-04    0.550E-04
DAV:  19    -0.144537952659E+03   -0.33715E-05   -0.73433E-08  2152   0.853E-04    0.624E-04
DAV:  20    -0.144537953642E+03   -0.98309E-06   -0.70919E-08  2224   0.771E-04
  18 F= -.15058434E+03 E0= -.15057295E+03  d E =-.124142E-02  mag=    27.0000
       N       E                     dE             d eps       ncg     rms          rms(c)
DAV:   1    -0.144536783475E+03    0.11692E-02   -0.25571E-02  3240   0.312E-01    0.111E-01
DAV:   2    -0.144536879722E+03   -0.96247E-04   -0.15163E-03  4368   0.167E-01    0.819E-02
DAV:   3    -0.144536968908E+03   -0.89186E-04   -0.15581E-04  4320   0.104E-01    0.709E-02
DAV:   4    -0.144536961492E+03    0.74159E-05   -0.18947E-05  4168   0.448E-02    0.229E-02
DAV:   5    -0.144536960704E+03    0.78812E-06   -0.81635E-06  3840   0.131E-02
  19 F= -.15058440E+03 E0= -.15057283E+03  d E =-.130234E-02  mag=    27.0000
       N       E                     dE             d eps       ncg     rms          rms(c)
DAV:   1    -0.144537387209E+03   -0.42572E-03   -0.48057E-02  3176   0.420E-01    0.139E-01
DAV:   2    -0.144537592334E+03   -0.20513E-03   -0.25720E-03  4360   0.202E-01    0.812E-02
DAV:   3    -0.144537735866E+03   -0.14353E-03   -0.20388E-04  4248   0.105E-01    0.691E-02
DAV:   4    -0.144537729567E+03    0.62986E-05   -0.22559E-05  4280   0.451E-02    0.267E-02
DAV:   5    -0.144537731808E+03   -0.22410E-05   -0.10728E-05  4208   0.183E-02    0.216E-02
DAV:   6    -0.144537733207E+03   -0.13989E-05   -0.10001E-05  3984   0.109E-02    0.101E-02
DAV:   7    -0.144537733611E+03   -0.40382E-06   -0.12512E-06  2376   0.749E-03
  20 F= -.15058502E+03 E0= -.15057364E+03  d E =-.619901E-03  mag=    27.0000
       N       E                     dE             d eps       ncg     rms          rms(c)
DAV:   1    -0.144536632294E+03    0.11009E-02   -0.42943E-01  3064   0.125E+00    0.404E-01
DAV:   2    -0.144538864067E+03   -0.22318E-02   -0.22028E-02  4304   0.571E-01    0.223E-01
DAV:   3    -0.144539587209E+03   -0.72314E-03   -0.14151E-03  4136   0.244E-01    0.155E-01
DAV:   4    -0.144539560670E+03    0.26540E-04   -0.16037E-04  4416   0.106E-01    0.824E-02
DAV:   5    -0.144539566315E+03   -0.56449E-05   -0.88811E-05  4632   0.515E-02    0.624E-02
DAV:   6    -0.144539582888E+03   -0.16574E-04   -0.91350E-05  4432   0.424E-02    0.236E-02
DAV:   7    -0.144539603205E+03   -0.20316E-04   -0.10047E-05  3584   0.116E-02    0.103E-02
DAV:   8    -0.144539622507E+03   -0.19302E-04   -0.15419E-06  2256   0.599E-03    0.726E-03
DAV:   9    -0.144539644998E+03   -0.22491E-04   -0.14296E-06  2192   0.387E-03    0.494E-03
DAV:  10    -0.144539660884E+03   -0.15886E-04   -0.93176E-07  2312   0.389E-03    0.367E-03
DAV:  11    -0.144539673486E+03   -0.12601E-04   -0.62711E-07  1952   0.357E-03    0.179E-03
DAV:  12    -0.144539686085E+03   -0.12599E-04   -0.44142E-07  2040   0.257E-03    0.181E-03
DAV:  13    -0.144539692198E+03   -0.61129E-05   -0.19762E-07  1976   0.229E-03    0.109E-03
DAV:  14    -0.144539699169E+03   -0.69715E-05   -0.11604E-07  1976   0.111E-03    0.894E-04
DAV:  15    -0.144539705883E+03   -0.67140E-05   -0.76441E-08  1944   0.995E-04    0.746E-04
DAV:  16    -0.144539712460E+03   -0.65769E-05   -0.77186E-08  2056   0.803E-04    0.583E-04
DAV:  17    -0.144539719557E+03   -0.70964E-05   -0.10733E-07  2072   0.942E-04    0.631E-04
DAV:  18    -0.144539724699E+03   -0.51422E-05   -0.99746E-08  2104   0.984E-04    0.559E-04
DAV:  19    -0.144539728466E+03   -0.37673E-05   -0.13493E-07  2088   0.981E-04    0.473E-04
DAV:  20    -0.144539728514E+03   -0.48367E-07   -0.10903E-07  2112   0.983E-04
  21 F= -.15058655E+03 E0= -.15057572E+03  d E =-.215142E-02  mag=    27.0000
       N       E                     dE             d eps       ncg     rms          rms(c)
DAV:   1    -0.144529641422E+03    0.10087E-01   -0.17189E+00  3040   0.250E+00    0.759E-01
DAV:   2    -0.144539174343E+03   -0.95329E-02   -0.86646E-02  4288   0.102E+00    0.373E-01
DAV:   3    -0.144541555939E+03   -0.23816E-02   -0.33127E-03  3904   0.261E-01    0.206E-01
DAV:   4    -0.144541518154E+03    0.37785E-04   -0.46389E-04  4704   0.106E-01    0.148E-01
DAV:   5    -0.144541559694E+03   -0.41539E-04   -0.40409E-04  4480   0.678E-02    0.990E-02
DAV:   6    -0.144541615927E+03   -0.56233E-04   -0.13092E-04  4296   0.399E-02    0.315E-02
DAV:   7    -0.144541656918E+03   -0.40991E-04   -0.21898E-05  4456   0.369E-02    0.250E-02
DAV:   8    -0.144541698229E+03   -0.41311E-04   -0.57567E-06  3368   0.174E-02    0.126E-02
DAV:   9    -0.144541756555E+03   -0.58326E-04   -0.47464E-06  3240   0.969E-03    0.853E-03
DAV:  10    -0.144541793170E+03   -0.36615E-04   -0.26218E-06  2800   0.517E-03    0.447E-03
DAV:  11    -0.144541825644E+03   -0.32474E-04   -0.66721E-07  2304   0.485E-03    0.264E-03
DAV:  12    -0.144541852982E+03   -0.27338E-04   -0.56137E-07  2144   0.244E-03    0.186E-03
DAV:  13    -0.144541867545E+03   -0.14563E-04   -0.22059E-07  2120   0.216E-03    0.139E-03
DAV:  14    -0.144541886655E+03   -0.19110E-04   -0.20477E-07  2104   0.151E-03    0.127E-03
DAV:  15    -0.144541906005E+03   -0.19350E-04   -0.20913E-07  2144   0.143E-03    0.103E-03
DAV:  16    -0.144541922310E+03   -0.16304E-04   -0.23831E-07  2256   0.136E-03    0.992E-04
DAV:  17    -0.144541942326E+03   -0.20016E-04   -0.46483E-07  2248   0.195E-03    0.919E-04
DAV:  18    -0.144541948729E+03   -0.64035E-05   -0.45554E-07  2240   0.181E-03    0.828E-04
DAV:  19    -0.144541947734E+03    0.99587E-06   -0.25832E-07  2088   0.146E-03
  22 F= -.15058780E+03 E0= -.15057797E+03  d E =-.340336E-02  mag=    27.0000
       N       E                     dE             d eps       ncg     rms          rms(c)
DAV:   1    -0.144541900721E+03    0.48008E-04   -0.18883E-03  3272   0.828E-02    0.245E-02
DAV:   2    -0.144541902106E+03   -0.13850E-05   -0.96873E-05  4304   0.349E-02    0.132E-02
DAV:   3    -0.144541912890E+03   -0.10783E-04   -0.31753E-06  2472   0.127E-02    0.794E-03
DAV:   4    -0.144541912886E+03    0.36434E-08   -0.69930E-07  2216   0.664E-03
  23 F= -.15058780E+03 E0= -.15057794E+03  d E =-.340192E-02  mag=    27.0000
       N       E                     dE             d eps       ncg     rms          rms(c)
DAV:   1    -0.144541863589E+03    0.49301E-04   -0.26478E-03  3200   0.105E-01    0.349E-02
DAV:   2    -0.144541879485E+03   -0.15896E-04   -0.15038E-04  4280   0.435E-02    0.196E-02
DAV:   3    -0.144541886327E+03   -0.68415E-05   -0.72036E-06  3544   0.203E-02    0.131E-02
DAV:   4    -0.144541885533E+03    0.79382E-06   -0.72642E-07  2208   0.863E-03
  24 F= -.15058796E+03 E0= -.15057809E+03  d E =-.165426E-03  mag=    27.0000
       N       E                     dE             d eps       ncg     rms          rms(c)
DAV:   1    -0.144541524717E+03    0.36161E-03   -0.23835E-02  3184   0.315E-01    0.104E-01
DAV:   2    -0.144541690036E+03   -0.16532E-03   -0.13585E-03  4280   0.132E-01    0.616E-02
DAV:   3    -0.144541731036E+03   -0.41000E-04   -0.69040E-05  4336   0.650E-02    0.410E-02
DAV:   4    -0.144541725765E+03    0.52712E-05   -0.93802E-06  4208   0.268E-02    0.237E-02
DAV:   5    -0.144541721014E+03    0.47512E-05   -0.35912E-06  2856   0.766E-03    0.185E-02
DAV:   6    -0.144541715809E+03    0.52047E-05   -0.12189E-05  4128   0.131E-02    0.757E-03
DAV:   7    -0.144541720332E+03   -0.45225E-05   -0.16144E-06  2344   0.933E-03    0.455E-03
DAV:   8    -0.144541725498E+03   -0.51666E-05   -0.59103E-07  1976   0.593E-03    0.281E-03
DAV:   9    -0.144541730290E+03   -0.47914E-05   -0.63226E-07  2152   0.283E-03    0.229E-03
DAV:  10    -0.144541732525E+03   -0.22357E-05   -0.24769E-07  1936   0.212E-03    0.169E-03
DAV:  11    -0.144541733474E+03   -0.94847E-06   -0.86373E-08  1920   0.119E-03
  25 F= -.15058825E+03 E0= -.15057833E+03  d E =-.456567E-03  mag=    27.0000
       N       E                     dE             d eps       ncg     rms          rms(c)
DAV:   1    -0.144540259378E+03    0.14731E-02   -0.95952E-02  3088   0.631E-01    0.215E-01
DAV:   2    -0.144540994569E+03   -0.73519E-03   -0.56168E-03  4216   0.271E-01    0.128E-01
DAV:   3    -0.144541141410E+03   -0.14684E-03   -0.30092E-04  4352   0.145E-01    0.867E-02
DAV:   4    -0.144541122692E+03    0.18718E-04   -0.46012E-05  4544   0.648E-02    0.434E-02
DAV:   5    -0.144541110822E+03    0.11870E-04   -0.16000E-05  4176   0.126E-02    0.335E-02
DAV:   6    -0.144541097337E+03    0.13484E-04   -0.23310E-05  4224   0.263E-02    0.149E-02
DAV:   7    -0.144541106859E+03   -0.95211E-05   -0.64438E-06  3528   0.187E-02    0.777E-03
DAV:   8    -0.144541116716E+03   -0.98578E-05   -0.12538E-06  2272   0.105E-02    0.374E-03
DAV:   9    -0.144541126860E+03   -0.10144E-04   -0.11736E-06  2096   0.369E-03    0.318E-03
DAV:  10    -0.144541131942E+03   -0.50818E-05   -0.42146E-07  1944   0.262E-03    0.230E-03
DAV:  11    -0.144541136925E+03   -0.49837E-05   -0.18018E-07  1960   0.164E-03    0.199E-03
DAV:  12    -0.144541147047E+03   -0.10121E-04   -0.18831E-07  2144   0.174E-03    0.131E-03
DAV:  13    -0.144541155624E+03   -0.85774E-05   -0.24913E-07  2152   0.153E-03    0.855E-04
DAV:  14    -0.144541160499E+03   -0.48750E-05   -0.15827E-07  2080   0.150E-03    0.972E-04
DAV:  15    -0.144541160982E+03   -0.48305E-06   -0.76549E-08  1984   0.107E-03
  26 F= -.15058810E+03 E0= -.15057808E+03  d E =-.306759E-03  mag=    27.0000
       N       E                     dE             d eps       ncg     rms          rms(c)
DAV:   1    -0.144541202909E+03   -0.42410E-04   -0.40263E-02  3152   0.409E-01    0.139E-01
DAV:   2    -0.144541507579E+03   -0.30467E-03   -0.23554E-03  4264   0.174E-01    0.818E-02
DAV:   3    -0.144541583849E+03   -0.76270E-04   -0.12096E-04  4424   0.909E-02    0.543E-02
DAV:   4    -0.144541578787E+03    0.50624E-05   -0.18489E-05  4344   0.400E-02    0.284E-02
DAV:   5    -0.144541575395E+03    0.33916E-05   -0.60262E-06  3472   0.843E-03    0.218E-02
DAV:   6    -0.144541569222E+03    0.61728E-05   -0.13094E-05  4152   0.168E-02    0.967E-03
DAV:   7    -0.144541571514E+03   -0.22921E-05   -0.20399E-06  2472   0.115E-02    0.517E-03
DAV:   8    -0.144541574352E+03   -0.28375E-05   -0.81943E-07  2096   0.682E-03    0.307E-03
DAV:   9    -0.144541577032E+03   -0.26804E-05   -0.75770E-07  2216   0.274E-03    0.261E-03
DAV:  10    -0.144541578652E+03   -0.16197E-05   -0.21701E-07  2000   0.211E-03    0.186E-03
DAV:  11    -0.144541579536E+03   -0.88418E-06   -0.70181E-08  1928   0.113E-03
  27 F= -.15058831E+03 E0= -.15057835E+03  d E =-.511976E-03  mag=    27.0000
       N       E                     dE             d eps       ncg     rms          rms(c)
DAV:   1    -0.144541753419E+03   -0.17477E-03   -0.10326E-03  3184   0.662E-02    0.218E-02
DAV:   2    -0.144541761556E+03   -0.81365E-05   -0.54554E-05  4264   0.257E-02    0.128E-02
DAV:   3    -0.144541766764E+03   -0.52085E-05   -0.19351E-06  2448   0.117E-02    0.764E-03
DAV:   4    -0.144541767753E+03   -0.98853E-06   -0.70028E-07  2032   0.612E-03
  28 F= -.15058841E+03 E0= -.15057846E+03  d E =-.101963E-03  mag=    27.0000
       N       E                     dE             d eps       ncg     rms          rms(c)
DAV:   1    -0.144542201350E+03   -0.43459E-03   -0.92575E-03  3192   0.198E-01    0.654E-02
DAV:   2    -0.144542263104E+03   -0.61753E-04   -0.47915E-04  4296   0.748E-02    0.362E-02
DAV:   3    -0.144542285619E+03   -0.22515E-04   -0.24655E-05  4288   0.320E-02    0.218E-02
DAV:   4    -0.144542283200E+03    0.24191E-05   -0.16951E-06  2448   0.121E-02    0.148E-02
DAV:   5    -0.144542279229E+03    0.39706E-05   -0.22514E-06  2488   0.655E-03    0.117E-02
DAV:   6    -0.144542267876E+03    0.11353E-04   -0.72617E-06  3592   0.799E-03    0.514E-03
DAV:   7    -0.144542268246E+03   -0.37034E-06   -0.91850E-07  2096   0.618E-03
  29 F= -.15058865E+03 E0= -.15057870E+03  d E =-.336395E-03  mag=    27.0000
       N       E                     dE             d eps       ncg     rms          rms(c)
DAV:   1    -0.144542827739E+03   -0.55986E-03   -0.37343E-02  3192   0.398E-01    0.136E-01
DAV:   2    -0.144543100651E+03   -0.27291E-03   -0.19950E-03  4216   0.154E-01    0.721E-02
DAV:   3    -0.144543168897E+03   -0.68246E-04   -0.10190E-04  4344   0.669E-02    0.426E-02
DAV:   4    -0.144543158261E+03    0.10636E-04   -0.11687E-05  4392   0.266E-02    0.261E-02
DAV:   5    -0.144543145953E+03    0.12309E-04   -0.38043E-06  3000   0.106E-02    0.200E-02
DAV:   6    -0.144543121220E+03    0.24732E-04   -0.17250E-05  4032   0.120E-02    0.813E-03
DAV:   7    -0.144543127252E+03   -0.60316E-05   -0.23568E-06  2456   0.879E-03    0.535E-03
DAV:   8    -0.144543138551E+03   -0.11300E-04   -0.80642E-07  2120   0.572E-03    0.359E-03
DAV:   9    -0.144543152300E+03   -0.13749E-04   -0.96835E-07  2192   0.308E-03    0.244E-03
DAV:  10    -0.144543160006E+03   -0.77060E-05   -0.38550E-07  1936   0.275E-03    0.188E-03
DAV:  11    -0.144543164710E+03   -0.47033E-05   -0.15206E-07  1904   0.183E-03    0.155E-03
DAV:  12    -0.144543172876E+03   -0.81659E-05   -0.11868E-07  2160   0.128E-03    0.104E-03
DAV:  13    -0.144543186758E+03   -0.13883E-04   -0.23897E-07  2184   0.134E-03    0.121E-03
DAV:  14    -0.144543192255E+03   -0.54961E-05   -0.13285E-07  2072   0.125E-03    0.723E-04
DAV:  15    -0.144543193239E+03   -0.98443E-06   -0.61003E-08  2000   0.719E-04
  30 F= -.15058900E+03 E0= -.15057907E+03  d E =-.694204E-03  mag=    27.0000
       N       E                     dE             d eps       ncg     rms          rms(c)
DAV:   1    -0.144543097110E+03    0.95145E-04   -0.14902E-01  3040   0.796E-01    0.269E-01
DAV:   2    -0.144544236421E+03   -0.11393E-02   -0.79120E-03  4248   0.308E-01    0.148E-01
DAV:   3    -0.144544490562E+03   -0.25414E-03   -0.41318E-04  4360   0.140E-01    0.889E-02
DAV:   4    -0.144544459233E+03    0.31329E-04   -0.51104E-05  4568   0.584E-02    0.528E-02
DAV:   5    -0.144544423100E+03    0.36133E-04   -0.20994E-05  4408   0.202E-02    0.396E-02
DAV:   6    -0.144544350065E+03    0.73035E-04   -0.37202E-05  4296   0.215E-02    0.137E-02
DAV:   7    -0.144544363736E+03   -0.13671E-04   -0.93491E-06  3808   0.132E-02    0.701E-03
DAV:   8    -0.144544388859E+03   -0.25123E-04   -0.70305E-07  2264   0.591E-03    0.468E-03
DAV:   9    -0.144544414737E+03   -0.25878E-04   -0.93418E-07  2200   0.399E-03    0.387E-03
DAV:  10    -0.144544439221E+03   -0.24484E-04   -0.66324E-07  2232   0.261E-03    0.236E-03
DAV:  11    -0.144544460521E+03   -0.21300E-04   -0.48070E-07  2144   0.275E-03    0.204E-03
DAV:  12    -0.144544476596E+03   -0.16075E-04   -0.30792E-07  2120   0.217E-03    0.120E-03
DAV:  13    -0.144544494366E+03   -0.17770E-04   -0.32123E-07  2184   0.198E-03    0.139E-03
DAV:  14    -0.144544508830E+03   -0.14464E-04   -0.29422E-07  2184   0.168E-03    0.734E-04
DAV:  15    -0.144544520685E+03   -0.11855E-04   -0.29063E-07  2168   0.140E-03    0.839E-04
DAV:  16    -0.144544526143E+03   -0.54585E-05   -0.16826E-07  1976   0.128E-03    0.623E-04
DAV:  17    -0.144544535717E+03   -0.95731E-05   -0.28561E-07  2256   0.131E-03    0.598E-04
DAV:  18    -0.144544540335E+03   -0.46184E-05   -0.22695E-07  2240   0.146E-03    0.620E-04
DAV:  19    -0.144544541580E+03   -0.12451E-05   -0.18799E-07  2072   0.116E-03    0.461E-04
DAV:  20    -0.144544541285E+03    0.29538E-06   -0.11471E-07  2168   0.109E-03
  31 F= -.15058905E+03 E0= -.15057915E+03  d E =-.739200E-03  mag=    27.0000
       N       E                     dE             d eps       ncg     rms          rms(c)
DAV:   1    -0.144543682458E+03    0.85912E-03   -0.32616E-02  3200   0.372E-01    0.126E-01
DAV:   2    -0.144543917566E+03   -0.23511E-03   -0.17222E-03  4296   0.143E-01    0.690E-02
DAV:   3    -0.144543984143E+03   -0.66577E-04   -0.90118E-05  4376   0.656E-02    0.416E-02
DAV:   4    -0.144543976673E+03    0.74700E-05   -0.11051E-05  4296   0.271E-02    0.248E-02
DAV:   5    -0.144543967396E+03    0.92769E-05   -0.33515E-06  2880   0.966E-03    0.191E-02
DAV:   6    -0.144543943442E+03    0.23954E-04   -0.15969E-05  4080   0.121E-02    0.806E-03
DAV:   7    -0.144543945545E+03   -0.21033E-05   -0.20635E-06  2480   0.896E-03    0.517E-03
DAV:   8    -0.144543952947E+03   -0.74024E-05   -0.72709E-07  2256   0.549E-03    0.333E-03
DAV:   9    -0.144543961798E+03   -0.88507E-05   -0.82203E-07  2248   0.292E-03    0.234E-03
DAV:  10    -0.144543967250E+03   -0.54524E-05   -0.32589E-07  2144   0.250E-03    0.179E-03
DAV:  11    -0.144543970359E+03   -0.31082E-05   -0.11862E-07  1960   0.176E-03    0.144E-03
DAV:  12    -0.144543975400E+03   -0.50413E-05   -0.74699E-08  2192   0.110E-03    0.983E-04
DAV:  13    -0.144543984203E+03   -0.88033E-05   -0.12753E-07  2176   0.999E-04    0.114E-03
DAV:  14    -0.144543988883E+03   -0.46802E-05   -0.85474E-08  2280   0.988E-04    0.638E-04
DAV:  15    -0.144543989578E+03   -0.69465E-06   -0.37427E-08  1984   0.615E-04
  32 F= -.15058914E+03 E0= -.15057923E+03  d E =-.827683E-03  mag=    27.0000
       N       E                     dE             d eps       ncg     rms          rms(c)
DAV:   1    -0.144544133392E+03   -0.14451E-03   -0.78842E-04  3280   0.570E-02    0.176E-02
DAV:   2    -0.144544135094E+03   -0.17018E-05   -0.57405E-05  4232   0.261E-02    0.900E-03
DAV:   3    -0.144544140079E+03   -0.49847E-05   -0.11302E-06  2128   0.635E-03    0.561E-03
DAV:   4    -0.144544139484E+03    0.59532E-06   -0.39588E-07  1936   0.370E-03
  33 F= -.15058921E+03 E0= -.15057931E+03  d E =-.759056E-04  mag=    27.0000
       N       E                     dE             d eps       ncg     rms          rms(c)
DAV:   1    -0.144544514946E+03   -0.37487E-03   -0.70519E-03  3200   0.171E-01    0.504E-02
DAV:   2    -0.144544539752E+03   -0.24806E-04   -0.49854E-04  4160   0.761E-02    0.268E-02
DAV:   3    -0.144544560612E+03   -0.20860E-04   -0.13421E-05  4024   0.180E-02    0.177E-02
DAV:   4    -0.144544556131E+03    0.44807E-05   -0.89482E-07  2352   0.650E-03    0.141E-02
DAV:   5    -0.144544549733E+03    0.63983E-05   -0.14205E-06  2272   0.532E-03    0.118E-02
DAV:   6    -0.144544538157E+03    0.11576E-04   -0.84835E-06  4040   0.736E-03    0.546E-03
DAV:   7    -0.144544540469E+03   -0.23117E-05   -0.70223E-07  2088   0.358E-03    0.277E-03
DAV:   8    -0.144544547281E+03   -0.68126E-05   -0.34199E-07  2192   0.358E-03    0.215E-03
DAV:   9    -0.144544554685E+03   -0.74037E-05   -0.34635E-07  2216   0.246E-03    0.102E-03
DAV:  10    -0.144544559089E+03   -0.44043E-05   -0.22622E-07  2096   0.168E-03    0.110E-03
DAV:  11    -0.144544561046E+03   -0.19568E-05   -0.80570E-08  1960   0.128E-03    0.665E-04
DAV:  12    -0.144544562862E+03   -0.18164E-05   -0.30787E-08  1976   0.681E-04    0.586E-04
DAV:  13    -0.144544566100E+03   -0.32373E-05   -0.28517E-08  2176   0.512E-04    0.433E-04
DAV:  14    -0.144544572830E+03   -0.67300E-05   -0.71576E-08  2176   0.580E-04    0.359E-04
DAV:  15    -0.144544576571E+03   -0.37411E-05   -0.45843E-08  2256   0.667E-04    0.449E-04
DAV:  16    -0.144544577696E+03   -0.11257E-05   -0.26910E-08  1944   0.498E-04    0.183E-04
DAV:  17    -0.144544578669E+03   -0.97231E-06   -0.18822E-08  1952   0.375E-04
  34 F= -.15058943E+03 E0= -.15057955E+03  d E =-.289483E-03  mag=    27.0000
       N       E                     dE             d eps       ncg     rms          rms(c)
DAV:   1    -0.144545146654E+03   -0.56896E-03   -0.28434E-02  3240   0.342E-01    0.106E-01
DAV:   2    -0.144545296138E+03   -0.14948E-03   -0.20598E-03  4184   0.155E-01    0.525E-02
DAV:   3    -0.144545366360E+03   -0.70222E-04   -0.56477E-05  4320   0.384E-02    0.338E-02
DAV:   4    -0.144545355163E+03    0.11198E-04   -0.56438E-06  3608   0.152E-02    0.251E-02
DAV:   5    -0.144545340570E+03    0.14593E-04   -0.43204E-06  3000   0.876E-03    0.201E-02
DAV:   6    -0.144545311546E+03    0.29024E-04   -0.14113E-05  3960   0.102E-02    0.993E-03
DAV:   7    -0.144545312072E+03   -0.52625E-06   -0.17935E-06  2384   0.473E-03
  35 F= -.15058969E+03 E0= -.15057986E+03  d E =-.554530E-03  mag=    27.0000
       N       E                     dE             d eps       ncg     rms          rms(c)
DAV:   1    -0.144545720928E+03   -0.40938E-03   -0.11376E-01  3136   0.685E-01    0.212E-01
DAV:   2    -0.144546446330E+03   -0.72540E-03   -0.83174E-03  4216   0.311E-01    0.105E-01
DAV:   3    -0.144546616298E+03   -0.16997E-03   -0.22391E-04  4344   0.767E-02    0.672E-02
DAV:   4    -0.144546578521E+03    0.37777E-04   -0.25934E-05  4488   0.301E-02    0.489E-02
DAV:   5    -0.144546530581E+03    0.47940E-04   -0.15117E-05  4248   0.168E-02    0.388E-02
DAV:   6    -0.144546468173E+03    0.62408E-04   -0.33115E-05  4376   0.197E-02    0.177E-02
DAV:   7    -0.144546485434E+03   -0.17261E-04   -0.67016E-06  3464   0.106E-02    0.675E-03
DAV:   8    -0.144546528253E+03   -0.42819E-04   -0.94471E-07  2224   0.422E-03    0.412E-03
DAV:   9    -0.144546578903E+03   -0.50650E-04   -0.10138E-06  2296   0.418E-03    0.333E-03
DAV:  10    -0.144546607171E+03   -0.28268E-04   -0.62901E-07  2312   0.276E-03    0.167E-03
DAV:  11    -0.144546638020E+03   -0.30848E-04   -0.52136E-07  2224   0.257E-03    0.204E-03
DAV:  12    -0.144546665773E+03   -0.27753E-04   -0.43541E-07  2264   0.241E-03    0.121E-03
DAV:  13    -0.144546692841E+03   -0.27068E-04   -0.46304E-07  2248   0.178E-03    0.118E-03
DAV:  14    -0.144546713169E+03   -0.20328E-04   -0.32759E-07  2312   0.178E-03    0.877E-04
DAV:  15    -0.144546734452E+03   -0.21283E-04   -0.42050E-07  2304   0.153E-03    0.821E-04
DAV:  16    -0.144546745795E+03   -0.11342E-04   -0.26120E-07  2288   0.151E-03    0.640E-04
DAV:  17    -0.144546754012E+03   -0.82169E-05   -0.23832E-07  2232   0.118E-03    0.515E-04
DAV:  18    -0.144546759585E+03   -0.55736E-05   -0.18591E-07  2304   0.124E-03    0.434E-04
DAV:  19    -0.144546763663E+03   -0.40777E-05   -0.21114E-07  2192   0.106E-03    0.361E-04
DAV:  20    -0.144546764467E+03   -0.80406E-06   -0.15422E-07  2152   0.117E-03
  36 F= -.15059013E+03 E0= -.15058039E+03  d E =-.995381E-03  mag=    27.0000
       N       E                     dE             d eps       ncg     rms          rms(c)
DAV:   1    -0.144546694976E+03    0.68687E-04   -0.11033E-03  3352   0.669E-02    0.195E-02
DAV:   2    -0.144546696615E+03   -0.16389E-05   -0.73147E-05  4280   0.299E-02    0.964E-03
DAV:   3    -0.144546702912E+03   -0.62971E-05   -0.18947E-06  2216   0.769E-03    0.572E-03
DAV:   4    -0.144546702664E+03    0.24794E-06   -0.54659E-07  1976   0.445E-03
  37 F= -.15059022E+03 E0= -.15058048E+03  d E =-.838245E-04  mag=    27.0000
       N       E                     dE             d eps       ncg     rms          rms(c)
DAV:   1    -0.144546431617E+03    0.27130E-03   -0.98636E-03  3248   0.200E-01    0.559E-02
DAV:   2    -0.144546467382E+03   -0.35765E-04   -0.63473E-04  4224   0.878E-02    0.297E-02
DAV:   3    -0.144546489331E+03   -0.21950E-04   -0.20770E-05  3984   0.216E-02    0.185E-02
DAV:   4    -0.144546483809E+03    0.55225E-05   -0.15674E-06  2456   0.740E-03    0.145E-02
DAV:   5    -0.144546475112E+03    0.86965E-05   -0.29591E-06  2656   0.690E-03    0.115E-02
DAV:   6    -0.144546460258E+03    0.14854E-04   -0.56523E-06  3512   0.738E-03    0.535E-03
DAV:   7    -0.144546460627E+03   -0.36886E-06   -0.79291E-07  2248   0.403E-03
  38 F= -.15059035E+03 E0= -.15058061E+03  d E =-.218094E-03  mag=    27.0000
       N       E                     dE             d eps       ncg     rms          rms(c)
DAV:   1    -0.144545696193E+03    0.76406E-03   -0.39767E-02  3200   0.401E-01    0.117E-01
DAV:   2    -0.144545903570E+03   -0.20738E-03   -0.26480E-03  4240   0.180E-01    0.581E-02
DAV:   3    -0.144545963197E+03   -0.59627E-04   -0.87790E-05  4144   0.464E-02    0.357E-02
DAV:   4    -0.144545946779E+03    0.16418E-04   -0.96631E-06  4056   0.184E-02    0.255E-02
DAV:   5    -0.144545927588E+03    0.19192E-04   -0.43501E-06  3104   0.114E-02    0.207E-02
DAV:   6    -0.144545896468E+03    0.31120E-04   -0.15445E-05  4184   0.116E-02    0.104E-02
DAV:   7    -0.144545899010E+03   -0.25419E-05   -0.20773E-06  2384   0.503E-03    0.496E-03
DAV:   8    -0.144545913652E+03   -0.14643E-04   -0.43392E-07  2200   0.422E-03    0.390E-03
DAV:   9    -0.144545936448E+03   -0.22796E-04   -0.57301E-07  2200   0.234E-03    0.191E-03
DAV:  10    -0.144545956194E+03   -0.19746E-04   -0.32816E-07  2296   0.241E-03    0.162E-03
DAV:  11    -0.144545964706E+03   -0.85124E-05   -0.18682E-07  2088   0.189E-03    0.112E-03
DAV:  12    -0.144545977423E+03   -0.12717E-04   -0.17565E-07  2176   0.117E-03    0.105E-03
DAV:  13    -0.144545989549E+03   -0.12126E-04   -0.12360E-07  2232   0.130E-03    0.758E-04
DAV:  14    -0.144546004309E+03   -0.14759E-04   -0.18800E-07  2200   0.114E-03    0.889E-04
DAV:  15    -0.144546015862E+03   -0.11554E-04   -0.18484E-07  2248   0.115E-03    0.635E-04
DAV:  16    -0.144546021077E+03   -0.52150E-05   -0.11818E-07  2240   0.949E-04    0.461E-04
DAV:  17    -0.144546026577E+03   -0.54997E-05   -0.10446E-07  2216   0.880E-04    0.477E-04
DAV:  18    -0.144546034703E+03   -0.81259E-05   -0.23106E-07  2224   0.109E-03    0.375E-04
DAV:  19    -0.144546036449E+03   -0.17461E-05   -0.15345E-07  2152   0.112E-03    0.461E-04
DAV:  20    -0.144546036052E+03    0.39740E-06   -0.10510E-07  2248   0.876E-04
  39 F= -.15059045E+03 E0= -.15058071E+03  d E =-.313958E-03  mag=    27.0000
       N       E                     dE             d eps       ncg     rms          rms(c)
DAV:   1    -0.144546173415E+03   -0.13697E-03   -0.47564E-03  3328   0.139E-01    0.405E-02
DAV:   2    -0.144546188267E+03   -0.14852E-04   -0.31401E-04  4304   0.619E-02    0.201E-02
DAV:   3    -0.144546203034E+03   -0.14766E-04   -0.10232E-05  3448   0.158E-02    0.120E-02
DAV:   4    -0.144546200476E+03    0.25578E-05   -0.10077E-06  2352   0.673E-03    0.922E-03
DAV:   5    -0.144546197456E+03    0.30196E-05   -0.92425E-07  2224   0.446E-03    0.765E-03
DAV:   6    -0.144546189696E+03    0.77597E-05   -0.30573E-06  2712   0.517E-03    0.412E-03
DAV:   7    -0.144546188649E+03    0.10470E-05   -0.84097E-07  2104   0.387E-03    0.209E-03
DAV:   8    -0.144546189829E+03   -0.11796E-05   -0.27534E-07  1872   0.248E-03    0.150E-03
DAV:   9    -0.144546193264E+03   -0.34349E-05   -0.11602E-07  1960   0.152E-03    0.789E-04
DAV:  10    -0.144546197321E+03   -0.40570E-05   -0.77720E-08  2024   0.112E-03    0.554E-04
DAV:  11    -0.144546198766E+03   -0.14455E-05   -0.36495E-08  1936   0.908E-04    0.384E-04
DAV:  12    -0.144546200925E+03   -0.21586E-05   -0.31559E-08  1952   0.501E-04    0.339E-04
DAV:  13    -0.144546203036E+03   -0.21110E-05   -0.21161E-08  1936   0.535E-04    0.263E-04
DAV:  14    -0.144546205023E+03   -0.19870E-05   -0.23687E-08  2024   0.427E-04    0.237E-04
DAV:  15    -0.144546206685E+03   -0.16615E-05   -0.21783E-08  1992   0.405E-04    0.208E-04
DAV:  16    -0.144546207440E+03   -0.75567E-06   -0.13343E-08  1928   0.308E-04
  40 F= -.15059047E+03 E0= -.15058073E+03  d E =-.336460E-03  mag=    27.0000
       N       E                     dE             d eps       ncg     rms          rms(c)
DAV:   1    -0.144546292870E+03   -0.86185E-04   -0.15511E-03  3272   0.797E-02    0.236E-02
DAV:   2    -0.144546297364E+03   -0.44944E-05   -0.10836E-04  4200   0.357E-02    0.115E-02
DAV:   3    -0.144546305186E+03   -0.78213E-05   -0.18920E-06  2176   0.737E-03    0.687E-03
DAV:   4    -0.144546305203E+03   -0.17491E-07   -0.51602E-07  1984   0.372E-03
  41 F= -.15059052E+03 E0= -.15058079E+03  d E =-.466944E-04  mag=    27.0000
       N       E                     dE             d eps       ncg     rms          rms(c)
DAV:   1    -0.144546477493E+03   -0.17231E-03   -0.13865E-02  3176   0.239E-01    0.674E-02
DAV:   2    -0.144546546912E+03   -0.69419E-04   -0.94610E-04  4208   0.105E-01    0.356E-02
DAV:   3    -0.144546582596E+03   -0.35684E-04   -0.20425E-05  3880   0.209E-02    0.223E-02
DAV:   4    -0.144546581606E+03    0.99004E-06   -0.14453E-06  2320   0.585E-03
  42 F= -.15059064E+03 E0= -.15058094E+03  d E =-.169925E-03  mag=    27.0000
       N       E                     dE             d eps       ncg     rms          rms(c)
DAV:   1    -0.144546660093E+03   -0.77497E-04   -0.55117E-02  3232   0.476E-01    0.133E-01
DAV:   2    -0.144546987158E+03   -0.32707E-03   -0.37292E-03  4152   0.209E-01    0.712E-02
DAV:   3    -0.144547078082E+03   -0.90924E-04   -0.80568E-05  3976   0.416E-02    0.451E-02
DAV:   4    -0.144547074655E+03    0.34272E-05   -0.80231E-06  4016   0.111E-02    0.353E-02
DAV:   5    -0.144547076412E+03   -0.17568E-05   -0.20597E-05  3912   0.125E-02    0.232E-02
DAV:   6    -0.144547081450E+03   -0.50379E-05   -0.94954E-06  4208   0.110E-02    0.801E-03
DAV:   7    -0.144547083552E+03   -0.21025E-05   -0.76386E-07  2264   0.701E-03    0.465E-03
DAV:   8    -0.144547085890E+03   -0.23380E-05   -0.54906E-07  2096   0.362E-03    0.192E-03
DAV:   9    -0.144547087238E+03   -0.13471E-05   -0.30416E-07  1936   0.231E-03    0.153E-03
DAV:  10    -0.144547087840E+03   -0.60199E-06   -0.10791E-07  1960   0.152E-03
  43 F= -.15059084E+03 E0= -.15058120E+03  d E =-.369520E-03  mag=    27.0000
       N       E                     dE             d eps       ncg     rms          rms(c)
DAV:   1    -0.144546111758E+03    0.97548E-03   -0.22350E-01  3096   0.957E-01    0.283E-01
DAV:   2    -0.144547547459E+03   -0.14357E-02   -0.15586E-02  4184   0.427E-01    0.137E-01
DAV:   3    -0.144547870076E+03   -0.32262E-03   -0.34402E-04  4064   0.872E-02    0.836E-02
DAV:   4    -0.144547854680E+03    0.15396E-04   -0.37018E-05  4552   0.255E-02    0.631E-02
DAV:   5    -0.144547849682E+03    0.49982E-05   -0.49645E-05  4120   0.208E-02    0.444E-02
DAV:   6    -0.144547860361E+03   -0.10680E-04   -0.33298E-05  4360   0.224E-02    0.175E-02
DAV:   7    -0.144547865797E+03   -0.54360E-05   -0.37195E-06  3064   0.131E-02    0.781E-03
DAV:   8    -0.144547870733E+03   -0.49358E-05   -0.93297E-07  2184   0.526E-03    0.331E-03
DAV:   9    -0.144547873335E+03   -0.26019E-05   -0.46851E-07  1960   0.303E-03    0.272E-03
DAV:  10    -0.144547875299E+03   -0.19642E-05   -0.20386E-07  1944   0.234E-03    0.187E-03
DAV:  11    -0.144547877283E+03   -0.19832E-05   -0.91083E-08  1920   0.137E-03    0.161E-03
DAV:  12    -0.144547879368E+03   -0.20855E-05   -0.76183E-08  1936   0.140E-03    0.105E-03
DAV:  13    -0.144547881625E+03   -0.22571E-05   -0.96109E-08  1960   0.112E-03    0.804E-04
DAV:  14    -0.144547882771E+03   -0.11457E-05   -0.12920E-07  1992   0.944E-04    0.750E-04
DAV:  15    -0.144547883476E+03   -0.70474E-06   -0.21182E-08  1912   0.636E-04
  44 F= -.15059102E+03 E0= -.15058150E+03  d E =-.550787E-03  mag=    27.0000
       N       E                     dE             d eps       ncg     rms          rms(c)
DAV:   1    -0.144549019738E+03   -0.11370E-02   -0.16298E-02  3216   0.260E-01    0.962E-02
DAV:   2    -0.144549098992E+03   -0.79254E-04   -0.70541E-04  4176   0.846E-02    0.452E-02
DAV:   3    -0.144549175498E+03   -0.76505E-04   -0.42291E-05  3816   0.256E-02    0.202E-02
DAV:   4    -0.144549162506E+03    0.12992E-04   -0.31591E-06  2832   0.758E-03    0.149E-02
DAV:   5    -0.144549137138E+03    0.25368E-04   -0.58727E-06  3552   0.809E-03    0.101E-02
DAV:   6    -0.144549116425E+03    0.20713E-04   -0.16910E-06  2344   0.597E-03    0.326E-03
DAV:   7    -0.144549121101E+03   -0.46765E-05   -0.75597E-07  2104   0.390E-03    0.285E-03
DAV:   8    -0.144549130436E+03   -0.93348E-05   -0.28767E-07  2072   0.233E-03    0.209E-03
DAV:   9    -0.144549144354E+03   -0.13918E-04   -0.18903E-07  2136   0.187E-03    0.144E-03
DAV:  10    -0.144549154073E+03   -0.97192E-05   -0.15632E-07  2056   0.145E-03    0.122E-03
DAV:  11    -0.144549162169E+03   -0.80962E-05   -0.12897E-07  2064   0.123E-03    0.811E-04
DAV:  12    -0.144549171030E+03   -0.88605E-05   -0.13599E-07  2112   0.122E-03    0.777E-04
DAV:  13    -0.144549177924E+03   -0.68947E-05   -0.11664E-07  2136   0.120E-03    0.651E-04
DAV:  14    -0.144549182157E+03   -0.42329E-05   -0.92421E-08  2008   0.929E-04    0.560E-04
DAV:  15    -0.144549188422E+03   -0.62644E-05   -0.12403E-07  2192   0.914E-04    0.520E-04
DAV:  16    -0.144549190826E+03   -0.24045E-05   -0.73763E-08  1992   0.837E-04    0.404E-04
DAV:  17    -0.144549194218E+03   -0.33921E-05   -0.11664E-07  2120   0.871E-04    0.428E-04
DAV:  18    -0.144549194933E+03   -0.71468E-06   -0.19730E-07  2048   0.127E-03
  45 F= -.15059114E+03 E0= -.15058169E+03  d E =-.115394E-03  mag=    27.0000
       N       E                     dE             d eps       ncg     rms          rms(c)
DAV:   1    -0.144548831440E+03    0.36278E-03   -0.12047E-03  3344   0.707E-02    0.261E-02
DAV:   2    -0.144548831172E+03    0.26811E-06   -0.52280E-05  4216   0.231E-02    0.124E-02
DAV:   3    -0.144548841065E+03   -0.98934E-05   -0.27090E-06  2600   0.701E-03    0.547E-03
DAV:   4    -0.144548839194E+03    0.18714E-05   -0.48996E-07  2304   0.352E-03    0.419E-03
DAV:   5    -0.144548837003E+03    0.21906E-05   -0.31645E-07  2168   0.293E-03    0.359E-03
DAV:   6    -0.144548832885E+03    0.41182E-05   -0.61743E-07  2184   0.250E-03    0.162E-03
DAV:   7    -0.144548833214E+03   -0.32881E-06   -0.25319E-07  2032   0.249E-03
  46 F= -.15059115E+03 E0= -.15058168E+03  d E =-.125414E-03  mag=    27.0000
       N       E                     dE             d eps       ncg     rms          rms(c)
DAV:   1    -0.144548924174E+03   -0.91289E-04   -0.17006E-02  3120   0.252E-01    0.850E-02
DAV:   2    -0.144548967987E+03   -0.43812E-04   -0.65586E-04  4280   0.872E-02    0.445E-02
DAV:   3    -0.144549049583E+03   -0.81596E-04   -0.39866E-05  4400   0.386E-02    0.254E-02
DAV:   4    -0.144549044678E+03    0.49053E-05   -0.39698E-06  2976   0.168E-02    0.163E-02
DAV:   5    -0.144549033879E+03    0.10799E-04   -0.32379E-06  2832   0.859E-03    0.117E-02
DAV:   6    -0.144549014577E+03    0.19302E-04   -0.58540E-06  3016   0.656E-03    0.514E-03
DAV:   7    -0.144549015915E+03   -0.13384E-05   -0.90082E-07  2176   0.667E-03    0.283E-03
DAV:   8    -0.144549023423E+03   -0.75074E-05   -0.35059E-07  2120   0.312E-03    0.188E-03
DAV:   9    -0.144549031935E+03   -0.85127E-05   -0.26034E-07  2056   0.187E-03    0.151E-03
DAV:  10    -0.144549036594E+03   -0.46588E-05   -0.12231E-07  1952   0.168E-03    0.121E-03
DAV:  11    -0.144549041378E+03   -0.47839E-05   -0.81787E-08  2112   0.137E-03    0.944E-04
DAV:  12    -0.144549049450E+03   -0.80714E-05   -0.12601E-07  2104   0.947E-04    0.579E-04
DAV:  13    -0.144549053723E+03   -0.42732E-05   -0.82177E-08  2096   0.828E-04    0.493E-04
DAV:  14    -0.144549054950E+03   -0.12277E-05   -0.36725E-08  1960   0.693E-04    0.291E-04
DAV:  15    -0.144549056606E+03   -0.16561E-05   -0.27603E-08  1936   0.435E-04    0.330E-04
DAV:  16    -0.144549059344E+03   -0.27378E-05   -0.36233E-08  2184   0.493E-04    0.266E-04
DAV:  17    -0.144549062339E+03   -0.29945E-05   -0.57580E-08  2112   0.574E-04    0.224E-04
DAV:  18    -0.144549063352E+03   -0.10130E-05   -0.35834E-08  2088   0.584E-04    0.242E-04
DAV:  19    -0.144549063822E+03   -0.46974E-06   -0.28628E-08  2040   0.432E-04
  47 F= -.15059135E+03 E0= -.15058191E+03  d E =-.202996E-03  mag=    27.0000
       N       E                     dE             d eps       ncg     rms          rms(c)
DAV:   1    -0.144548345276E+03    0.71808E-03   -0.13461E-01  3120   0.709E-01    0.239E-01
DAV:   2    -0.144548843830E+03   -0.49855E-03   -0.52140E-03  4208   0.244E-01    0.123E-01
DAV:   3    -0.144549234944E+03   -0.39111E-03   -0.30848E-04  4376   0.105E-01    0.708E-02
DAV:   4    -0.144549191448E+03    0.43496E-04   -0.37567E-05  4648   0.460E-02    0.443E-02
DAV:   5    -0.144549130071E+03    0.61377E-04   -0.18565E-05  4320   0.217E-02    0.309E-02
DAV:   6    -0.144549066621E+03    0.63450E-04   -0.20957E-05  4000   0.140E-02    0.111E-02
DAV:   7    -0.144549092772E+03   -0.26151E-04   -0.32311E-06  2648   0.793E-03    0.552E-03
DAV:   8    -0.144549140830E+03   -0.48058E-04   -0.14666E-06  2240   0.535E-03    0.455E-03
DAV:   9    -0.144549180901E+03   -0.40071E-04   -0.10907E-06  2280   0.347E-03    0.350E-03
DAV:  10    -0.144549200156E+03   -0.19256E-04   -0.46123E-07  2096   0.321E-03    0.250E-03
DAV:  11    -0.144549232786E+03   -0.32630E-04   -0.40666E-07  2120   0.228E-03    0.202E-03
DAV:  12    -0.144549268793E+03   -0.36007E-04   -0.48318E-07  2208   0.243E-03    0.183E-03
DAV:  13    -0.144549297833E+03   -0.29040E-04   -0.49269E-07  2280   0.196E-03    0.126E-03
DAV:  14    -0.144549314400E+03   -0.16566E-04   -0.32652E-07  2208   0.194E-03    0.973E-04
DAV:  15    -0.144549325081E+03   -0.10681E-04   -0.23385E-07  2120   0.137E-03    0.778E-04
DAV:  16    -0.144549342314E+03   -0.17233E-04   -0.29643E-07  2176   0.141E-03    0.756E-04
DAV:  17    -0.144549362865E+03   -0.20552E-04   -0.61110E-07  2240   0.180E-03    0.714E-04
DAV:  18    -0.144549366182E+03   -0.33167E-05   -0.26566E-07  2320   0.177E-03    0.643E-04
DAV:  19    -0.144549367910E+03   -0.17275E-05   -0.17555E-07  2112   0.102E-03    0.449E-04
DAV:  20    -0.144549368478E+03   -0.56879E-06   -0.97480E-08  2048   0.107E-03
  48 F= -.15059156E+03 E0= -.15058218E+03  d E =-.418302E-03  mag=    27.0000
       N       E                     dE             d eps       ncg     rms          rms(c)
DAV:   1    -0.144549276472E+03    0.91438E-04   -0.97489E-03  3224   0.181E-01    0.581E-02
DAV:   2    -0.144549262522E+03    0.13950E-04   -0.31639E-04  4200   0.588E-02    0.307E-02
DAV:   3    -0.144549331624E+03   -0.69101E-04   -0.22840E-05  4144   0.269E-02    0.162E-02
DAV:   4    -0.144549329511E+03    0.21120E-05   -0.18128E-06  2424   0.119E-02    0.108E-02
DAV:   5    -0.144549326094E+03    0.34175E-05   -0.14677E-06  2336   0.688E-03    0.771E-03
DAV:   6    -0.144549320440E+03    0.56536E-05   -0.45400E-06  2992   0.559E-03    0.396E-03
DAV:   7    -0.144549321317E+03   -0.87704E-06   -0.43676E-07  2344   0.431E-03
  49 F= -.15059163E+03 E0= -.15058226E+03  d E =-.664702E-04  mag=    27.0000
       N       E                     dE             d eps       ncg     rms          rms(c)
DAV:   1    -0.144548717306E+03    0.60313E-03   -0.64693E-02  3112   0.467E-01    0.150E-01
DAV:   2    -0.144548826002E+03   -0.10870E-03   -0.21162E-03  4208   0.151E-01    0.784E-02
DAV:   3    -0.144549115194E+03   -0.28919E-03   -0.14862E-04  4120   0.672E-02    0.412E-02
DAV:   4    -0.144549102353E+03    0.12841E-04   -0.15933E-05  4376   0.300E-02    0.267E-02
DAV:   5    -0.144549086115E+03    0.16238E-04   -0.92722E-06  4112   0.167E-02    0.174E-02
DAV:   6    -0.144549069840E+03    0.16275E-04   -0.84976E-06  3640   0.947E-03    0.639E-03
DAV:   7    -0.144549082280E+03   -0.12440E-04   -0.78427E-07  2384   0.517E-03    0.376E-03
DAV:   8    -0.144549107583E+03   -0.25303E-04   -0.75147E-07  2168   0.345E-03    0.288E-03
DAV:   9    -0.144549122901E+03   -0.15318E-04   -0.44888E-07  2200   0.213E-03    0.185E-03
DAV:  10    -0.144549132574E+03   -0.96723E-05   -0.17995E-07  1960   0.180E-03    0.150E-03
DAV:  11    -0.144549142114E+03   -0.95400E-05   -0.11985E-07  2120   0.125E-03    0.122E-03
DAV:  12    -0.144549161380E+03   -0.19266E-04   -0.20804E-07  2168   0.141E-03    0.108E-03
DAV:  13    -0.144549180686E+03   -0.19306E-04   -0.32975E-07  2224   0.147E-03    0.852E-04
DAV:  14    -0.144549186459E+03   -0.57728E-05   -0.16934E-07  2168   0.146E-03    0.729E-04
DAV:  15    -0.144549190054E+03   -0.35957E-05   -0.10079E-07  1960   0.944E-04    0.629E-04
DAV:  16    -0.144549197984E+03   -0.79299E-05   -0.16535E-07  2152   0.119E-03    0.718E-04
DAV:  17    -0.144549203419E+03   -0.54343E-05   -0.23475E-07  2152   0.130E-03    0.508E-04
DAV:  18    -0.144549203709E+03   -0.29057E-06   -0.16488E-07  2184   0.119E-03
  50 F= -.15059176E+03 E0= -.15058242E+03  d E =-.192764E-03  mag=    27.0000
       N       E                     dE             d eps       ncg     rms          rms(c)
DAV:   1    -0.144549300918E+03   -0.97500E-04   -0.80402E-04  3288   0.551E-02    0.178E-02
DAV:   2    -0.144549293198E+03    0.77206E-05   -0.30190E-05  4216   0.173E-02    0.877E-03
DAV:   3    -0.144549307103E+03   -0.13905E-04   -0.13247E-06  2112   0.573E-03    0.403E-03
DAV:   4    -0.144549307393E+03   -0.29007E-06   -0.35214E-07  2048   0.385E-03
  51 F= -.15059179E+03 E0= -.15058246E+03  d E =-.305887E-04  mag=    27.0000
       N       E                     dE             d eps       ncg     rms          rms(c)
DAV:   1    -0.144549552094E+03   -0.24499E-03   -0.72140E-03  3152   0.165E-01    0.529E-02
DAV:   2    -0.144549541286E+03    0.10808E-04   -0.26761E-04  4184   0.513E-02    0.265E-02
DAV:   3    -0.144549602536E+03   -0.61250E-04   -0.14392E-05  3880   0.171E-02    0.129E-02
DAV:   4    -0.144549601467E+03    0.10697E-05   -0.98389E-07  2368   0.725E-03    0.923E-03
DAV:   5    -0.144549600857E+03    0.60974E-06   -0.11705E-06  2296   0.675E-03
  52 F= -.15059185E+03 E0= -.15058255E+03  d E =-.931943E-04  mag=    27.0000
       N       E                     dE             d eps       ncg     rms          rms(c)
DAV:   1    -0.144549930656E+03   -0.32919E-03   -0.28753E-02  3200   0.329E-01    0.107E-01
DAV:   2    -0.144549967642E+03   -0.36987E-04   -0.10728E-03  4168   0.104E-01    0.542E-02
DAV:   3    -0.144550147613E+03   -0.17997E-03   -0.61767E-05  4040   0.390E-02    0.265E-02
DAV:   4    -0.144550143959E+03    0.36547E-05   -0.51670E-06  3336   0.180E-02    0.174E-02
DAV:   5    -0.144550142258E+03    0.17003E-05   -0.39560E-06  3200   0.101E-02    0.121E-02
DAV:   6    -0.144550142966E+03   -0.70776E-06   -0.71820E-06  3320   0.732E-03
  53 F= -.15059187E+03 E0= -.15058264E+03  d E =-.116800E-03  mag=    27.0000
       N       E                     dE             d eps       ncg     rms          rms(c)
DAV:   1    -0.144550176645E+03   -0.34387E-04   -0.16034E-03  3288   0.750E-02    0.235E-02
DAV:   2    -0.144550178597E+03   -0.19521E-05   -0.70172E-05  4184   0.275E-02    0.116E-02
DAV:   3    -0.144550198022E+03   -0.19425E-04   -0.26848E-06  2104   0.959E-03    0.578E-03
DAV:   4    -0.144550201016E+03   -0.29944E-05   -0.65810E-07  2176   0.603E-03    0.432E-03
DAV:   5    -0.144550204816E+03   -0.37997E-05   -0.38859E-07  2112   0.287E-03    0.309E-03
DAV:   6    -0.144550211872E+03   -0.70554E-05   -0.48387E-07  2112   0.262E-03    0.224E-03
DAV:   7    -0.144550215334E+03   -0.34622E-05   -0.24671E-07  2120   0.227E-03    0.952E-04
DAV:   8    -0.144550218033E+03   -0.26995E-05   -0.95760E-08  1952   0.171E-03    0.933E-04
DAV:   9    -0.144550221134E+03   -0.31009E-05   -0.67899E-08  2096   0.104E-03    0.622E-04
DAV:  10    -0.144550223155E+03   -0.20210E-05   -0.61044E-08  1920   0.655E-04    0.576E-04
DAV:  11    -0.144550224555E+03   -0.14002E-05   -0.23451E-08  1928   0.653E-04    0.417E-04
DAV:  12    -0.144550226936E+03   -0.23811E-05   -0.48705E-08  2128   0.609E-04    0.431E-04
DAV:  13    -0.144550228448E+03   -0.15113E-05   -0.30020E-08  2000   0.646E-04    0.365E-04
DAV:  14    -0.144550229788E+03   -0.13398E-05   -0.61025E-08  2072   0.643E-04    0.345E-04
DAV:  15    -0.144550230167E+03   -0.37916E-06   -0.53778E-08  2056   0.762E-04
  54 F= -.15059195E+03 E0= -.15058272E+03  d E =-.729851E-04  mag=    27.0000
       N       E                     dE             d eps       ncg     rms          rms(c)
DAV:   1    -0.144550243239E+03   -0.13452E-04   -0.14404E-02  3208   0.224E-01    0.669E-02
DAV:   2    -0.144550252926E+03   -0.96871E-05   -0.59537E-04  4232   0.809E-02    0.344E-02
DAV:   3    -0.144550329776E+03   -0.76849E-04   -0.25094E-05  4072   0.244E-02    0.179E-02
DAV:   4    -0.144550330222E+03   -0.44655E-06   -0.17577E-06  2520   0.958E-03
  55 F= -.15059200E+03 E0= -.15058281E+03  d E =-.130387E-03  mag=    27.0000
