Cr8Cl24                                 
   1.00000000000000     
    12.2092909193533465    0.0111018667517055    0.0000000000000000
    -6.0950311049460471   10.5791850380812260    0.0000000000000000
     0.0000000000000000    0.0000000000000000   17.6887664794999999
   Cr   Cl   Fe
     8    24     1
Direct
     0.1544185468713692    0.3393649883209591    0.3373726277526075
     0.1584739083402056    0.8415272303882091    0.3373622564300405
     0.6604959123334453    0.3395219550235566    0.3373670011504828
     0.6606051991452233    0.8455588433476748    0.3373353686797032
     0.8252262728783037    0.1747803217610411    0.3373647792858705
     0.8294891133349580    0.6768881929204937    0.3374858360698028
     0.3231132361055558    0.1705426353157833    0.3372397045221120
     0.3234073016334378    0.6766164031860882    0.3373482391909235
     0.1692360458293365    0.5080813429186790    0.2649678677965781
     0.1712338871617618    0.0052807333276732    0.2604572840877637
     0.6636830278680321    0.5070789819327999    0.2602385249358932
     0.6741753079872481    0.0109983081954255    0.2605596170529552
     0.3206740360139761    0.3364787203350872    0.2603679619300223
     0.3097199614653050    0.8278143949632550    0.2607635405302844
     0.8116141890285107    0.3261690653994904    0.2607752528202028
     0.8142668233781052    0.8304345729339317    0.2647933031604239
     0.9890797532900848    0.1878154789570630    0.2605020148390054
     0.9945260287130395    0.6904744776297633    0.2606317722604956
     0.4919309124134301    0.1850446853411967    0.2649973704537132
     0.4912348368556394    0.6795972818308940    0.2602313948882511
     0.9889780181106431    0.3257795078344969    0.4141950341379470
     0.9946981440675771    0.8287076245145499    0.4142788616130559
     0.4929142053582680    0.3362263529171869    0.4144869328371286
     0.4919139943941175    0.8307516289831582    0.4097810584832189
     0.3204563602237371    0.5088036136103824    0.4145669036126804
     0.3094769537919007    0.0054819115786486    0.4141022360154381
     0.8149385190030927    0.5080645042273204    0.4097385352058893
     0.8120960596746016    0.0108650477157042    0.4142211480609959
     0.1695908123261987    0.1857561132478196    0.4099489627089454
     0.1722494080041983    0.6903140671411165    0.4139621009073124
     0.6738589791388279    0.1884370429353126    0.4139523280794037
     0.6635581499281784    0.6794089484388550    0.4143824844942188
     0.4919962543317169    0.5079993548263388    0.3374617430066138
 
  0.00000000E+00  0.00000000E+00  0.00000000E+00
  0.00000000E+00  0.00000000E+00  0.00000000E+00
  0.00000000E+00  0.00000000E+00  0.00000000E+00
  0.00000000E+00  0.00000000E+00  0.00000000E+00
  0.00000000E+00  0.00000000E+00  0.00000000E+00
  0.00000000E+00  0.00000000E+00  0.00000000E+00
  0.00000000E+00  0.00000000E+00  0.00000000E+00
  0.00000000E+00  0.00000000E+00  0.00000000E+00
  0.00000000E+00  0.00000000E+00  0.00000000E+00
  0.00000000E+00  0.00000000E+00  0.00000000E+00
  0.00000000E+00  0.00000000E+00  0.00000000E+00
  0.00000000E+00  0.00000000E+00  0.00000000E+00
  0.00000000E+00  0.00000000E+00  0.00000000E+00
  0.00000000E+00  0.00000000E+00  0.00000000E+00
  0.00000000E+00  0.00000000E+00  0.00000000E+00
  0.00000000E+00  0.00000000E+00  0.00000000E+00
  0.00000000E+00  0.00000000E+00  0.00000000E+00
  0.00000000E+00  0.00000000E+00  0.00000000E+00
  0.00000000E+00  0.00000000E+00  0.00000000E+00
  0.00000000E+00  0.00000000E+00  0.00000000E+00
  0.00000000E+00  0.00000000E+00  0.00000000E+00
  0.00000000E+00  0.00000000E+00  0.00000000E+00
  0.00000000E+00  0.00000000E+00  0.00000000E+00
  0.00000000E+00  0.00000000E+00  0.00000000E+00
  0.00000000E+00  0.00000000E+00  0.00000000E+00
  0.00000000E+00  0.00000000E+00  0.00000000E+00
  0.00000000E+00  0.00000000E+00  0.00000000E+00
  0.00000000E+00  0.00000000E+00  0.00000000E+00
  0.00000000E+00  0.00000000E+00  0.00000000E+00
  0.00000000E+00  0.00000000E+00  0.00000000E+00
  0.00000000E+00  0.00000000E+00  0.00000000E+00
  0.00000000E+00  0.00000000E+00  0.00000000E+00
  0.00000000E+00  0.00000000E+00  0.00000000E+00
