 running   36 mpi-ranks, with    1 threads/rank, on    1 nodes
 distrk:  each k-point on   36 cores,    1 groups
 distr:  one band on    6 cores,    6 groups
 vasp.6.5.1 10Mar25 (build Feb 13 2026 23:13:13) complex                        
  
 POSCAR found type information on POSCAR CrClFe
 POSCAR found :  3 types and      33 ions
 scaLAPACK will be used
 LDA part: xc-table for (Slater+PW92), standard interpolation
 found WAVECAR, reading the header
 POSCAR, INCAR and KPOINTS ok, starting setup
 FFT: planning ... GRIDC
 FFT: planning ... GRID_SOFT
 FFT: planning ... GRID
 reading WAVECAR
 the WAVECAR file was read successfully
 initial charge from wavefunction
 entering main loop
       N       E                     dE             d eps       ncg     rms          rms(c)
DAV:   1    -0.147543007630E+03   -0.14754E+03   -0.39268E+00 11742   0.984E+00    0.478E+00
RMM:   2    -0.148606065812E+03   -0.10631E+01   -0.23769E+00  8268   0.502E+00    0.181E+01
RMM:   3    -0.147547356697E+03    0.10587E+01   -0.81282E-01  8550   0.319E+00    0.437E+00
RMM:   4    -0.147721860650E+03   -0.17450E+00   -0.19464E-01  8689   0.144E+00    0.131E+01
RMM:   5    -0.147529061659E+03    0.19280E+00   -0.91053E-02  8698   0.854E-01    0.438E+00
RMM:   6    -0.147603994445E+03   -0.74933E-01   -0.53591E-02  8277   0.934E-01    0.428E+00
RMM:   7    -0.147614132002E+03   -0.10138E-01   -0.14030E-02  9625   0.342E-01    0.416E+00
RMM:   8    -0.147558654826E+03    0.55477E-01   -0.85456E-03  8002   0.372E-01    0.416E+00
RMM:   9    -0.147555346581E+03    0.33082E-02   -0.52126E-03  9100   0.257E-01    0.318E+00
RMM:  10    -0.147569402233E+03   -0.14056E-01   -0.29093E-03  8091   0.206E-01    0.331E+00
RMM:  11    -0.147542902955E+03    0.26499E-01   -0.49131E-03  8773   0.237E-01    0.233E+00
RMM:  12    -0.147547796311E+03   -0.48934E-02   -0.10359E-02 10514   0.291E-01    0.191E+00
RMM:  13    -0.147563008037E+03   -0.15212E-01   -0.40638E-03  9421   0.207E-01    0.175E+00
RMM:  14    -0.147569699334E+03   -0.66913E-02   -0.59732E-03 10207   0.208E-01    0.162E+00
RMM:  15    -0.147585064283E+03   -0.15365E-01   -0.52916E-03 10011   0.192E-01    0.159E+00
RMM:  16    -0.147606148594E+03   -0.21084E-01   -0.26053E-03  8714   0.193E-01    0.107E+00
RMM:  17    -0.147614080557E+03   -0.79320E-02   -0.33861E-03  9167   0.226E-01    0.446E-01
RMM:  18    -0.147619296446E+03   -0.52159E-02   -0.42310E-03  9813   0.214E-01    0.894E-01
RMM:  19    -0.147622446003E+03   -0.31496E-02   -0.64121E-04  9024   0.955E-02    0.588E-01
RMM:  20    -0.147628758702E+03   -0.63127E-02   -0.31604E-04  8280   0.731E-02    0.415E-01
RMM:  21    -0.147634720776E+03   -0.59621E-02   -0.42122E-04  8263   0.747E-02    0.307E-01
RMM:  22    -0.147636003040E+03   -0.12823E-02   -0.67375E-05  8610   0.350E-02    0.289E-01
RMM:  23    -0.147638490613E+03   -0.24876E-02   -0.63904E-05  7778   0.234E-02    0.386E-01
RMM:  24    -0.147640823524E+03   -0.23329E-02   -0.13834E-04  9055   0.346E-02    0.285E-01
RMM:  25    -0.147648117106E+03   -0.72936E-02   -0.43772E-04 10511   0.531E-02    0.213E-01
RMM:  26    -0.147652175578E+03   -0.40585E-02   -0.16377E-04 10013   0.362E-02    0.179E-01
RMM:  27    -0.147652840845E+03   -0.66527E-03   -0.28414E-05  7889   0.206E-02    0.184E-01
RMM:  28    -0.147653526499E+03   -0.68565E-03   -0.14874E-04  9739   0.327E-02    0.168E-01
RMM:  29    -0.147654083052E+03   -0.55655E-03   -0.19844E-04  9864   0.356E-02    0.181E-01
RMM:  30    -0.147654613937E+03   -0.53089E-03   -0.17373E-04  9962   0.338E-02    0.196E-01
RMM:  31    -0.147654991950E+03   -0.37801E-03   -0.11075E-04  9440   0.281E-02    0.182E-01
RMM:  32    -0.147655116937E+03   -0.12499E-03   -0.16557E-04 10086   0.337E-02    0.179E-01
RMM:  33    -0.147655382884E+03   -0.26595E-03   -0.47733E-05  8748   0.218E-02    0.168E-01
RMM:  34    -0.147655398769E+03   -0.15886E-04   -0.47226E-05  8645   0.200E-02    0.147E-01
RMM:  35    -0.147655129951E+03    0.26882E-03   -0.20896E-04 10296   0.363E-02    0.137E-01
RMM:  36    -0.147655183059E+03   -0.53108E-04   -0.16998E-04 10200   0.332E-02    0.122E-01
RMM:  37    -0.147655407515E+03   -0.22446E-03   -0.83858E-05  9345   0.254E-02    0.103E-01
RMM:  38    -0.147654587969E+03    0.81955E-03   -0.80486E-04 12447   0.740E-02    0.136E-01
RMM:  39    -0.147654484183E+03    0.10379E-03   -0.71421E-04 12492   0.645E-02    0.129E-01
RMM:  40    -0.147655396112E+03   -0.91193E-03   -0.11212E-04  9481   0.391E-02    0.657E-02
RMM:  41    -0.147655636393E+03   -0.24028E-03   -0.81855E-05  8974   0.352E-02    0.401E-02
RMM:  42    -0.147655699733E+03   -0.63340E-04   -0.19154E-05  7546   0.140E-02    0.670E-02
RMM:  43    -0.147655769515E+03   -0.69782E-04   -0.11609E-05  7067   0.102E-02    0.606E-02
RMM:  44    -0.147655792990E+03   -0.23475E-04   -0.31116E-05  7917   0.166E-02    0.125E-02
RMM:  45    -0.147655873253E+03   -0.80263E-04   -0.48450E-06  5884   0.948E-03    0.886E-03
RMM:  46    -0.147655882457E+03   -0.92040E-05   -0.56916E-06  5959   0.994E-03    0.359E-03
RMM:  47    -0.147655887218E+03   -0.47611E-05   -0.15336E-06  4839   0.426E-03    0.667E-03
RMM:  48    -0.147655893164E+03   -0.59459E-05   -0.30717E-07  4351   0.214E-03    0.389E-03
RMM:  49    -0.147655894882E+03   -0.17178E-05   -0.42434E-07  4581   0.241E-03    0.258E-03
RMM:  50    -0.147655897196E+03   -0.23143E-05   -0.84205E-08  3955   0.133E-03    0.257E-03
RMM:  51    -0.147655898008E+03   -0.81184E-06   -0.35942E-08  3003   0.740E-04
   1 F= -.15384247E+03 E0= -.15381116E+03  d E =-.153842E+03  mag=    29.4538
 curvature:   0.00 expect dE= 0.000E+00 dE for cont linesearch  0.000E+00
 trial: gam= 0.00000 g(F)=  0.941E-01 g(S)=  0.000E+00 ort = 0.000E+00 (trialstep = 0.100E+01)
 search vector abs. value=  0.941E-01
 bond charge predicted
       N       E                     dE             d eps       ncg     rms          rms(c)
DAV:   1    -0.147714956790E+03   -0.59060E-01   -0.52040E+00  8130   0.451E+00    0.292E+00
RMM:   2    -0.148591301843E+03   -0.87635E+00   -0.86148E-01  8104   0.352E+00    0.208E+01
RMM:   3    -0.147652253977E+03    0.93905E+00   -0.51807E-01  9056   0.248E+00    0.183E+00
RMM:   4    -0.147739686476E+03   -0.87432E-01   -0.62211E-02  8838   0.704E-01    0.143E+00
RMM:   5    -0.147760553011E+03   -0.20867E-01   -0.13529E-02  9460   0.377E-01    0.266E+00
RMM:   6    -0.147725403347E+03    0.35150E-01   -0.90145E-03  8108   0.338E-01    0.278E+00
RMM:   7    -0.147717027298E+03    0.83760E-02   -0.24144E-03  8900   0.186E-01    0.258E+00
RMM:   8    -0.147732773107E+03   -0.15746E-01   -0.24003E-03  7983   0.181E-01    0.114E+00
RMM:   9    -0.147741497618E+03   -0.87245E-02   -0.20981E-03  8047   0.192E-01    0.115E+00
RMM:  10    -0.147741273999E+03    0.22362E-03   -0.30210E-04  8828   0.796E-02    0.112E+00
RMM:  11    -0.147741398789E+03   -0.12479E-03   -0.19041E-04  8563   0.455E-02    0.114E+00
RMM:  12    -0.147740145812E+03    0.12530E-02   -0.94661E-04 10304   0.100E-01    0.856E-01
RMM:  13    -0.147743616121E+03   -0.34703E-02   -0.35687E-03 12819   0.159E-01    0.226E+00
RMM:  14    -0.147741209566E+03    0.24066E-02   -0.16585E-03 10359   0.145E-01    0.153E+00
RMM:  15    -0.147741370491E+03   -0.16093E-03   -0.35030E-03 11246   0.156E-01    0.108E+00
RMM:  16    -0.147747295293E+03   -0.59248E-02   -0.25920E-03 11171   0.145E-01    0.131E+00
RMM:  17    -0.147758034161E+03   -0.10739E-01   -0.72809E-03 12517   0.202E-01    0.305E+00
RMM:  18    -0.147753048347E+03    0.49858E-02   -0.20131E-03  9550   0.183E-01    0.311E+00
RMM:  19    -0.147740405378E+03    0.12643E-01   -0.42137E-03 11504   0.208E-01    0.345E+00
RMM:  20    -0.147736870963E+03    0.35344E-02   -0.15402E-03 10597   0.104E-01    0.346E+00
RMM:  21    -0.147742776454E+03   -0.59055E-02   -0.91984E-04  9210   0.119E-01    0.340E+00
RMM:  22    -0.147757574420E+03   -0.14798E-01   -0.34266E-02 13390   0.534E-01    0.308E+00
RMM:  23    -0.147771556651E+03   -0.13982E-01   -0.14080E-02 13145   0.292E-01    0.284E+00
RMM:  24    -0.147776010452E+03   -0.44538E-02   -0.37802E-04  8777   0.742E-02    0.284E+00
RMM:  25    -0.147776203096E+03   -0.19264E-03   -0.51241E-05  8459   0.293E-02    0.278E+00
RMM:  26    -0.147776091224E+03    0.11187E-03   -0.15758E-04  9424   0.367E-02    0.268E+00
RMM:  27    -0.147775995174E+03    0.96050E-04   -0.12662E-04  9655   0.329E-02    0.261E+00
RMM:  28    -0.147768026989E+03    0.79682E-02   -0.51620E-03 13415   0.215E-01    0.250E+00
RMM:  29    -0.147766285447E+03    0.17415E-02   -0.37364E-04 11199   0.548E-02    0.249E+00
RMM:  30    -0.147760858963E+03    0.54265E-02   -0.80857E-04 12644   0.814E-02    0.239E+00
RMM:  31    -0.147757711394E+03    0.31476E-02   -0.14925E-03 12982   0.941E-02    0.222E+00
RMM:  32    -0.147753452803E+03    0.42586E-02   -0.69953E-04 11471   0.729E-02    0.214E+00
RMM:  33    -0.147755765255E+03   -0.23125E-02   -0.45669E-03 13242   0.193E-01    0.191E+00
RMM:  34    -0.147749822146E+03    0.59431E-02   -0.46179E-03 13297   0.184E-01    0.149E+00
RMM:  35    -0.147753823724E+03   -0.40016E-02   -0.40906E-03 13298   0.173E-01    0.281E+00
RMM:  36    -0.147739961007E+03    0.13863E-01   -0.53635E-03 12288   0.300E-01    0.478E-01
RMM:  37    -0.147753051896E+03   -0.13091E-01   -0.16990E-03 11824   0.154E-01    0.147E+00
RMM:  38    -0.147749952216E+03    0.30997E-02   -0.33242E-04  9709   0.684E-02    0.161E+00
RMM:  39    -0.147749795156E+03    0.15706E-03   -0.82783E-05  8420   0.321E-02    0.208E+00
RMM:  40    -0.147744792392E+03    0.50028E-02   -0.19336E-04  9387   0.555E-02    0.161E+00
RMM:  41    -0.147752540518E+03   -0.77481E-02   -0.13199E-03 12128   0.112E-01    0.239E+00
RMM:  42    -0.147745817095E+03    0.67234E-02   -0.61465E-04 11617   0.853E-02    0.114E+00
RMM:  43    -0.147754104853E+03   -0.82878E-02   -0.11539E-03 12277   0.121E-01    0.169E+00
RMM:  44    -0.147751245031E+03    0.28598E-02   -0.18906E-04 10066   0.443E-02    0.954E-01
RMM:  45    -0.147753262281E+03   -0.20173E-02   -0.18217E-04  9822   0.480E-02    0.499E-01
RMM:  46    -0.147755236705E+03   -0.19744E-02   -0.10852E-04  8407   0.436E-02    0.583E-01
RMM:  47    -0.147755748637E+03   -0.51193E-03   -0.48537E-05  8125   0.226E-02    0.893E-01
RMM:  48    -0.147756109556E+03   -0.36092E-03   -0.24855E-04 10237   0.442E-02    0.125E+00
RMM:  49    -0.147754399300E+03    0.17103E-02   -0.12907E-04  9739   0.416E-02    0.969E-01
RMM:  50    -0.147754312870E+03    0.86430E-04   -0.94185E-05  9238   0.263E-02    0.421E-01
RMM:  51    -0.147756079946E+03   -0.17671E-02   -0.10721E-04  8454   0.422E-02    0.325E-01
RMM:  52    -0.147756355804E+03   -0.27586E-03   -0.82543E-05  9548   0.297E-02    0.171E-01
RMM:  53    -0.147756875946E+03   -0.52014E-03   -0.10143E-04  9255   0.410E-02    0.382E-01
RMM:  54    -0.147756309675E+03    0.56627E-03   -0.84002E-05  8837   0.383E-02    0.204E-01
RMM:  55    -0.147756669270E+03   -0.35959E-03   -0.13879E-05  6639   0.149E-02    0.279E-01
RMM:  56    -0.147756599329E+03    0.69941E-04   -0.14116E-06  5070   0.469E-03    0.272E-01
RMM:  57    -0.147756318612E+03    0.28072E-03   -0.51368E-05  8570   0.226E-02    0.938E-02
RMM:  58    -0.147756754360E+03   -0.43575E-03   -0.25942E-05  7480   0.210E-02    0.178E-01
RMM:  59    -0.147756761738E+03   -0.73778E-05   -0.63018E-06  6092   0.961E-03    0.248E-01
RMM:  60    -0.147756684187E+03    0.77550E-04   -0.65957E-06  6264   0.874E-03    0.266E-01
RMM:  61    -0.147756637835E+03    0.46352E-04   -0.40724E-06  5492   0.642E-03    0.237E-01
RMM:  62    -0.147756777938E+03   -0.14010E-03   -0.25727E-05  7830   0.147E-02    0.278E-01
RMM:  63    -0.147756674140E+03    0.10380E-03   -0.39318E-06  5516   0.770E-03    0.197E-01
RMM:  64    -0.147756747124E+03   -0.72983E-04   -0.24638E-06  5124   0.480E-03    0.148E-01
RMM:  65    -0.147756789782E+03   -0.42658E-04   -0.33982E-06  5469   0.683E-03    0.881E-02
RMM:  66    -0.147756831583E+03   -0.41802E-04   -0.35864E-06  5424   0.782E-03    0.549E-02
RMM:  67    -0.147756861810E+03   -0.30226E-04   -0.35019E-06  5388   0.767E-03    0.231E-02
RMM:  68    -0.147756876032E+03   -0.14223E-04   -0.18324E-06  4984   0.567E-03    0.855E-03
RMM:  69    -0.147756882262E+03   -0.62301E-05   -0.85910E-07  4633   0.433E-03    0.138E-02
RMM:  70    -0.147756883045E+03   -0.78251E-06   -0.63548E-07  4535   0.364E-03
   2 F= -.15393337E+03 E0= -.15390960E+03  d E =-.908976E-01  mag=    29.5950
 ZBRENT: can't locate minimum, use default step
 trial-energy change:   -0.090898  1 .order   -0.083032   -0.094063   -0.072001
 step:   4.0000(harm=  4.2636)  dis= 0.03786  next Energy=  -154.042996 (dE=-0.201E+00)
 bond charge predicted
       N       E                     dE             d eps       ncg     rms          rms(c)
DAV:   1    -0.147580751938E+03    0.17613E+00   -0.46729E+01  7842   0.136E+01    0.482E+00
RMM:   2    -0.147965910061E+03   -0.38516E+00   -0.27613E+00  7939   0.746E+00    0.193E+01
RMM:   3    -0.147958255741E+03    0.76543E-02   -0.16331E+00  9867   0.384E+00    0.125E+01
RMM:   4    -0.147858975186E+03    0.99281E-01   -0.25796E-01  8783   0.174E+00    0.677E+00
RMM:   5    -0.147976061666E+03   -0.11709E+00   -0.72302E-02  9074   0.900E-01    0.491E+00
RMM:   6    -0.147947627844E+03    0.28434E-01   -0.17804E-02  9558   0.362E-01    0.484E+00
RMM:   7    -0.147820118759E+03    0.12751E+00   -0.33636E-02  9035   0.527E-01    0.587E+00
RMM:   8    -0.147873260427E+03   -0.53142E-01   -0.34270E-02  8391   0.485E-01    0.766E+00
RMM:   9    -0.147876917561E+03   -0.36571E-02   -0.28101E-02  8819   0.686E-01    0.245E+00
RMM:  10    -0.147908251918E+03   -0.31334E-01   -0.17634E-02  8808   0.492E-01    0.205E+00
RMM:  11    -0.147891459850E+03    0.16792E-01   -0.14815E-02  9896   0.314E-01    0.171E+00
RMM:  12    -0.147906794207E+03   -0.15334E-01   -0.34486E-02 10476   0.437E-01    0.729E+00
RMM:  13    -0.147885336759E+03    0.21457E-01   -0.23510E-02  9953   0.563E-01    0.699E+00
RMM:  14    -0.147858143977E+03    0.27193E-01   -0.29308E-03  9614   0.186E-01    0.547E+00
RMM:  15    -0.147864222814E+03   -0.60788E-02   -0.15619E-03  8259   0.122E-01    0.468E+00
RMM:  16    -0.147872577919E+03   -0.83551E-02   -0.24323E-03  8973   0.161E-01    0.481E+00
RMM:  17    -0.147872827949E+03   -0.25003E-03   -0.36692E-03 10329   0.170E-01    0.527E+00
RMM:  18    -0.147869784409E+03    0.30435E-02   -0.49641E-04  8795   0.838E-02    0.525E+00
RMM:  19    -0.147867171902E+03    0.26125E-02   -0.54501E-04  9711   0.562E-02    0.484E+00
RMM:  20    -0.147866396287E+03    0.77562E-03   -0.89634E-04  9000   0.894E-02    0.434E+00
RMM:  21    -0.147870176979E+03   -0.37807E-02   -0.29205E-03 10888   0.172E-01    0.401E+00
RMM:  22    -0.147865582824E+03    0.45942E-02   -0.58465E-03 11540   0.210E-01    0.173E+00
RMM:  23    -0.147873993217E+03   -0.84104E-02   -0.78288E-03 12296   0.264E-01    0.103E+00
RMM:  24    -0.147878473774E+03   -0.44806E-02   -0.24884E-03  9418   0.208E-01    0.102E+00
RMM:  25    -0.147879214240E+03   -0.74047E-03   -0.59191E-04  8780   0.101E-01    0.120E+00
RMM:  26    -0.147873710224E+03    0.55040E-02   -0.52364E-03 11193   0.234E-01    0.126E+00
RMM:  27    -0.147849276353E+03    0.24434E-01   -0.10854E-02 12531   0.308E-01    0.936E-01
RMM:  28    -0.147859181169E+03   -0.99048E-02   -0.25626E-03 10893   0.169E-01    0.651E-01
RMM:  29    -0.147868642077E+03   -0.94609E-02   -0.14579E-03  9972   0.150E-01    0.582E-01
RMM:  30    -0.147870401732E+03   -0.17597E-02   -0.77943E-04 10310   0.997E-02    0.838E-01
RMM:  31    -0.147876853707E+03   -0.64520E-02   -0.20042E-03 11738   0.138E-01    0.118E+00
RMM:  32    -0.147874967985E+03    0.18857E-02   -0.18678E-03 11300   0.163E-01    0.165E+00
RMM:  33    -0.147877525492E+03   -0.25575E-02   -0.79878E-04 10429   0.831E-02    0.157E+00
RMM:  34    -0.147875140528E+03    0.23850E-02   -0.40239E-04  8769   0.731E-02    0.141E+00
RMM:  35    -0.147871946924E+03    0.31936E-02   -0.23606E-04  8985   0.546E-02    0.120E+00
RMM:  36    -0.147872496418E+03   -0.54949E-03   -0.14578E-04  9227   0.344E-02    0.107E+00
RMM:  37    -0.147870475120E+03    0.20213E-02   -0.19648E-04  9317   0.445E-02    0.990E-01
RMM:  38    -0.147864866981E+03    0.56081E-02   -0.90555E-04 10924   0.869E-02    0.830E-01
RMM:  39    -0.147871183232E+03   -0.63163E-02   -0.61074E-04 10704   0.836E-02    0.101E+00
RMM:  40    -0.147870991747E+03    0.19149E-03   -0.55423E-04 10875   0.710E-02    0.957E-01
RMM:  41    -0.147877495189E+03   -0.65034E-02   -0.64057E-04 10235   0.927E-02    0.107E+00
RMM:  42    -0.147877509389E+03   -0.14200E-04   -0.80134E-05  8653   0.310E-02    0.917E-01
RMM:  43    -0.147878151792E+03   -0.64240E-03   -0.19558E-04  9862   0.379E-02    0.934E-01
RMM:  44    -0.147877710554E+03    0.44124E-03   -0.20488E-04 10470   0.359E-02    0.717E-01
RMM:  45    -0.147878107232E+03   -0.39668E-03   -0.14390E-04 10324   0.330E-02    0.760E-01
RMM:  46    -0.147877244649E+03    0.86258E-03   -0.22701E-04 10586   0.392E-02    0.562E-01
RMM:  47    -0.147878520155E+03   -0.12755E-02   -0.28126E-03 13624   0.138E-01    0.907E-01
RMM:  48    -0.147873966239E+03    0.45539E-02   -0.13224E-03 12286   0.131E-01    0.609E-01
RMM:  49    -0.147876648008E+03   -0.26818E-02   -0.24353E-04  9607   0.627E-02    0.523E-01
RMM:  50    -0.147875700505E+03    0.94750E-03   -0.20062E-04  9761   0.406E-02    0.450E-01
RMM:  51    -0.147877430577E+03   -0.17301E-02   -0.12131E-04  9030   0.430E-02    0.323E-01
RMM:  52    -0.147878125547E+03   -0.69497E-03   -0.51953E-05  8268   0.277E-02    0.278E-01
RMM:  53    -0.147878298232E+03   -0.17269E-03   -0.32196E-05  8126   0.189E-02    0.239E-01
RMM:  54    -0.147878521740E+03   -0.22351E-03   -0.41780E-05  8548   0.203E-02    0.221E-01
RMM:  55    -0.147878799458E+03   -0.27772E-03   -0.64144E-05  9194   0.264E-02    0.138E-01
RMM:  56    -0.147879096274E+03   -0.29682E-03   -0.56723E-05  9284   0.253E-02    0.754E-02
RMM:  57    -0.147879237699E+03   -0.14142E-03   -0.75496E-05  9465   0.248E-02    0.195E-01
RMM:  58    -0.147879368770E+03   -0.13107E-03   -0.41177E-05  8145   0.285E-02    0.102E-01
RMM:  59    -0.147879295615E+03    0.73154E-04   -0.31994E-05  8209   0.221E-02    0.449E-02
RMM:  60    -0.147879350884E+03   -0.55269E-04   -0.10935E-05  7177   0.118E-02    0.361E-02
RMM:  61    -0.147879366370E+03   -0.15486E-04   -0.14360E-05  7086   0.102E-02    0.198E-02
RMM:  62    -0.147879418568E+03   -0.52198E-04   -0.78169E-06  6795   0.104E-02    0.231E-02
RMM:  63    -0.147879439490E+03   -0.20921E-04   -0.31803E-06  5441   0.830E-03    0.169E-02
RMM:  64    -0.147879438534E+03    0.95510E-06   -0.10115E-06  4635   0.496E-03
   3 F= -.15402515E+03 E0= -.15399465E+03  d E =-.182677E+00  mag=    29.6301
 curvature:  -2.12 expect dE=-0.226E-01 dE for cont linesearch -0.115E-04
 trial: gam= 0.12084 g(F)=  0.107E-01 g(S)=  0.000E+00 ort =-0.715E-03 (trialstep = 0.160E+01)
 search vector abs. value=  0.119E-01
 bond charge predicted
       N       E                     dE             d eps       ncg     rms          rms(c)
DAV:   1    -0.147876789495E+03    0.26500E-02   -0.17237E+00  8100   0.267E+00    0.149E+00
RMM:   2    -0.148002479569E+03   -0.12569E+00   -0.12532E-01  8826   0.126E+00    0.899E+00
RMM:   3    -0.147892475914E+03    0.11000E+00   -0.79260E-02  8443   0.101E+00    0.857E+00
RMM:   4    -0.147884641260E+03    0.78347E-02   -0.27075E-02  8559   0.748E-01    0.299E+00
RMM:   5    -0.147867176546E+03    0.17465E-01   -0.10414E-02  8814   0.396E-01    0.287E+00
RMM:   6    -0.147855471019E+03    0.11706E-01   -0.26559E-03  8503   0.190E-01    0.103E+00
RMM:   7    -0.147885504090E+03   -0.30033E-01   -0.39760E-03  8105   0.246E-01    0.967E-01
RMM:   8    -0.147892194476E+03   -0.66904E-02   -0.19553E-03  8576   0.174E-01    0.173E+00
RMM:   9    -0.147890795215E+03    0.13993E-02   -0.12693E-03  8211   0.153E-01    0.192E+00
RMM:  10    -0.147887714120E+03    0.30811E-02   -0.60313E-04  9024   0.100E-01    0.937E-01
RMM:  11    -0.147891562141E+03   -0.38480E-02   -0.10984E-03  9862   0.114E-01    0.397E-01
RMM:  12    -0.147893766289E+03   -0.22041E-02   -0.50593E-04  8177   0.102E-01    0.654E-01
RMM:  13    -0.147893537795E+03    0.22849E-03   -0.20446E-04  8834   0.673E-02    0.203E-01
RMM:  14    -0.147893980065E+03   -0.44227E-03   -0.58700E-05  8415   0.301E-02    0.164E-01
RMM:  15    -0.147894082536E+03   -0.10247E-03   -0.32684E-05  8065   0.221E-02    0.923E-02
RMM:  16    -0.147894170857E+03   -0.88321E-04   -0.32818E-05  8201   0.197E-02    0.116E-01
RMM:  17    -0.147894205358E+03   -0.34501E-04   -0.11442E-05  7459   0.142E-02    0.921E-02
RMM:  18    -0.147894233257E+03   -0.27899E-04   -0.45693E-06  6262   0.897E-03    0.546E-02
RMM:  19    -0.147894278141E+03   -0.44884E-04   -0.64345E-06  6577   0.831E-03    0.654E-02
RMM:  20    -0.147894330138E+03   -0.51997E-04   -0.73291E-06  6938   0.866E-03    0.527E-02
RMM:  21    -0.147894361550E+03   -0.31412E-04   -0.28830E-06  5377   0.754E-03    0.338E-02
RMM:  22    -0.147894369523E+03   -0.79734E-05   -0.12713E-06  4917   0.561E-03    0.347E-02
RMM:  23    -0.147894370624E+03   -0.11002E-05   -0.63288E-07  4824   0.391E-03    0.357E-02
RMM:  24    -0.147894372525E+03   -0.19011E-05   -0.46011E-07  4786   0.285E-03    0.341E-02
RMM:  25    -0.147894375658E+03   -0.31335E-05   -0.62511E-07  4781   0.279E-03    0.266E-02
RMM:  26    -0.147894381321E+03   -0.56630E-05   -0.51632E-07  4746   0.270E-03    0.236E-02
RMM:  27    -0.147894386206E+03   -0.48845E-05   -0.37418E-07  4567   0.225E-03    0.227E-02
RMM:  28    -0.147894390077E+03   -0.38712E-05   -0.44857E-07  4653   0.219E-03    0.182E-02
RMM:  29    -0.147894394873E+03   -0.47957E-05   -0.85203E-07  4732   0.259E-03    0.131E-02
RMM:  30    -0.147894402452E+03   -0.75790E-05   -0.88006E-07  4779   0.279E-03    0.105E-02
RMM:  31    -0.147894409401E+03   -0.69490E-05   -0.51284E-07  4630   0.291E-03    0.418E-03
RMM:  32    -0.147894412387E+03   -0.29859E-05   -0.28372E-07  4573   0.245E-03    0.464E-03
RMM:  33    -0.147894413234E+03   -0.84744E-06   -0.15484E-07  4400   0.194E-03
   4 F= -.15403968E+03 E0= -.15401145E+03  d E =-.145291E-01  mag=    29.6664
 trial-energy change:   -0.014529  1 .order   -0.014542   -0.016904   -0.012180
 step:   5.7259(harm=  5.7259)  dis= 0.02925  next Energy=  -154.055396 (dE=-0.302E-01)
 bond charge predicted
       N       E                     dE             d eps       ncg     rms          rms(c)
DAV:   1    -0.147790097605E+03    0.10431E+00   -0.11455E+01  7884   0.690E+00    0.323E+00
RMM:   2    -0.148235087245E+03   -0.44499E+00   -0.74708E-01  8692   0.317E+00    0.111E+01
RMM:   3    -0.147952240483E+03    0.28285E+00   -0.41189E-01  9164   0.216E+00    0.112E+01
RMM:   4    -0.147936739851E+03    0.15501E-01   -0.96529E-02  8697   0.124E+00    0.676E+00
RMM:   5    -0.147953131824E+03   -0.16392E-01   -0.34230E-02  8923   0.690E-01    0.362E+00
RMM:   6    -0.147833832339E+03    0.11930E+00   -0.24963E-02  8017   0.637E-01    0.273E+00
RMM:   7    -0.147867406476E+03   -0.33574E-01   -0.54599E-03  7947   0.313E-01    0.143E+00
RMM:   8    -0.147897505521E+03   -0.30099E-01   -0.66784E-03  7924   0.301E-01    0.958E-01
RMM:   9    -0.147908215094E+03   -0.10710E-01   -0.48358E-03  8889   0.235E-01    0.190E+00
RMM:  10    -0.147895660955E+03    0.12554E-01   -0.33784E-03  8223   0.215E-01    0.172E+00
RMM:  11    -0.147896524058E+03   -0.86310E-03   -0.45004E-03 10313   0.186E-01    0.810E-01
RMM:  12    -0.147904381941E+03   -0.78579E-02   -0.15328E-03  9228   0.150E-01    0.640E-01
RMM:  13    -0.147905790325E+03   -0.14084E-02   -0.62778E-04  8940   0.104E-01    0.526E-01
RMM:  14    -0.147906191736E+03   -0.40141E-03   -0.41989E-04  8444   0.752E-02    0.937E-01
RMM:  15    -0.147905908770E+03    0.28297E-03   -0.39433E-04  8921   0.695E-02    0.419E-01
RMM:  16    -0.147907806118E+03   -0.18973E-02   -0.21239E-04  8306   0.558E-02    0.280E-01
RMM:  17    -0.147908926880E+03   -0.11208E-02   -0.15820E-04  8236   0.543E-02    0.141E-01
RMM:  18    -0.147909505052E+03   -0.57817E-03   -0.92224E-05  8176   0.447E-02    0.182E-01
RMM:  19    -0.147909608196E+03   -0.10314E-03   -0.45991E-05  8076   0.311E-02    0.687E-02
RMM:  20    -0.147909724989E+03   -0.11679E-03   -0.34829E-05  7838   0.235E-02    0.779E-02
RMM:  21    -0.147909761487E+03   -0.36498E-04   -0.14933E-05  7468   0.163E-02    0.110E-01
RMM:  22    -0.147909817038E+03   -0.55551E-04   -0.10130E-05  7224   0.121E-02    0.646E-02
RMM:  23    -0.147909850920E+03   -0.33882E-04   -0.79233E-06  7035   0.959E-03    0.601E-02
RMM:  24    -0.147909875221E+03   -0.24301E-04   -0.40357E-06  6059   0.554E-03    0.497E-02
RMM:  25    -0.147909901244E+03   -0.26023E-04   -0.30559E-06  5461   0.524E-03    0.459E-02
RMM:  26    -0.147909933948E+03   -0.32703E-04   -0.33520E-06  5568   0.575E-03    0.332E-02
RMM:  27    -0.147909961988E+03   -0.28040E-04   -0.27726E-06  5324   0.610E-03    0.258E-02
RMM:  28    -0.147909981366E+03   -0.19378E-04   -0.17366E-06  5053   0.559E-03    0.199E-02
RMM:  29    -0.147909993229E+03   -0.11863E-04   -0.12859E-06  4905   0.467E-03    0.155E-02
RMM:  30    -0.147910003174E+03   -0.99449E-05   -0.95710E-07  4859   0.425E-03    0.101E-02
RMM:  31    -0.147910010263E+03   -0.70897E-05   -0.64671E-07  4716   0.323E-03    0.463E-03
RMM:  32    -0.147910014777E+03   -0.45142E-05   -0.40697E-07  4633   0.272E-03    0.645E-03
RMM:  33    -0.147910017489E+03   -0.27119E-05   -0.25719E-07  4574   0.211E-03    0.259E-03
RMM:  34    -0.147910019377E+03   -0.18876E-05   -0.19783E-07  4417   0.176E-03    0.474E-03
RMM:  35    -0.147910020001E+03   -0.62425E-06   -0.12118E-07  4406   0.154E-03
   5 F= -.15405408E+03 E0= -.15403265E+03  d E =-.289349E-01  mag=    29.7629
 curvature:  -3.21 expect dE=-0.733E-01 dE for cont linesearch -0.477E-03
 trial: gam= 2.24837 g(F)=  0.228E-01 g(S)=  0.000E+00 ort =-0.133E-02 (trialstep = 0.374E+00)
 search vector abs. value=  0.768E-01
 bond charge predicted
       N       E                     dE             d eps       ncg     rms          rms(c)
DAV:   1    -0.147911999600E+03   -0.19802E-02   -0.59295E-01  8256   0.154E+00    0.749E-01
RMM:   2    -0.148010601796E+03   -0.98602E-01   -0.54761E-02  8037   0.938E-01    0.969E+00
RMM:   3    -0.147874682514E+03    0.13592E+00   -0.43024E-02  8413   0.823E-01    0.154E+00
RMM:   4    -0.147920321222E+03   -0.45639E-01   -0.10739E-02  8692   0.363E-01    0.228E+00
RMM:   5    -0.147881005050E+03    0.39316E-01   -0.68739E-03  8089   0.336E-01    0.590E-01
RMM:   6    -0.147910118929E+03   -0.29114E-01   -0.31759E-03  7962   0.200E-01    0.701E-01
RMM:   7    -0.147915212328E+03   -0.50934E-02   -0.12733E-03  8081   0.158E-01    0.403E-01
RMM:   8    -0.147914782131E+03    0.43020E-03   -0.46752E-04  8732   0.949E-02    0.349E-01
RMM:   9    -0.147915764713E+03   -0.98258E-03   -0.17714E-04  8287   0.539E-02    0.170E-01
RMM:  10    -0.147916165675E+03   -0.40096E-03   -0.43449E-04  9604   0.461E-02    0.296E-01
RMM:  11    -0.147916164532E+03    0.11433E-05   -0.78432E-05  9422   0.302E-02    0.171E-01
RMM:  12    -0.147916228600E+03   -0.64068E-04   -0.19469E-05  7834   0.156E-02    0.812E-02
RMM:  13    -0.147916300665E+03   -0.72065E-04   -0.10712E-05  7268   0.144E-02    0.434E-02
RMM:  14    -0.147916353612E+03   -0.52947E-04   -0.19267E-05  8391   0.130E-02    0.804E-02
RMM:  15    -0.147916355015E+03   -0.14024E-05   -0.47080E-06  6512   0.953E-03    0.535E-02
RMM:  16    -0.147916365603E+03   -0.10588E-04   -0.22630E-06  5344   0.550E-03    0.328E-02
RMM:  17    -0.147916373603E+03   -0.80002E-05   -0.86110E-07  4846   0.403E-03    0.230E-02
RMM:  18    -0.147916380704E+03   -0.71011E-05   -0.46946E-07  4772   0.302E-03    0.271E-02
RMM:  19    -0.147916391223E+03   -0.10518E-04   -0.59192E-07  4796   0.292E-03    0.225E-02
RMM:  20    -0.147916402110E+03   -0.10888E-04   -0.59568E-07  4776   0.295E-03    0.199E-02
RMM:  21    -0.147916407089E+03   -0.49784E-05   -0.34226E-07  4512   0.206E-03    0.155E-02
RMM:  22    -0.147916409096E+03   -0.20077E-05   -0.22071E-07  4532   0.213E-03    0.137E-02
RMM:  23    -0.147916409526E+03   -0.42976E-06   -0.84154E-08  4068   0.133E-03
   6 F= -.15406071E+03 E0= -.15403996E+03  d E =-.662382E-02  mag=    29.7820
 trial-energy change:   -0.006624  1 .order   -0.006564   -0.007427   -0.005701
 step:   1.1324(harm=  1.6113)  dis= 0.01546  next Energy=  -154.066976 (dE=-0.129E-01)
 bond charge predicted
       N       E                     dE             d eps       ncg     rms          rms(c)
DAV:   1    -0.147905870358E+03    0.10539E-01   -0.24285E+00  8016   0.312E+00    0.152E+00
RMM:   2    -0.148183963056E+03   -0.27809E+00   -0.23211E-01  8022   0.194E+00    0.108E+01
RMM:   3    -0.147881645396E+03    0.30232E+00   -0.14223E-01  8992   0.138E+00    0.170E+00
RMM:   4    -0.147945505178E+03   -0.63860E-01   -0.24555E-02  8933   0.486E-01    0.364E+00
RMM:   5    -0.147844884725E+03    0.10062E+00   -0.18140E-02  8039   0.528E-01    0.132E+00
RMM:   6    -0.147910486174E+03   -0.65601E-01   -0.87828E-03  7946   0.335E-01    0.229E+00
RMM:   7    -0.147919235943E+03   -0.87498E-02   -0.42777E-03  8090   0.298E-01    0.689E-01
RMM:   8    -0.147920642406E+03   -0.14065E-02   -0.13628E-03  8757   0.163E-01    0.593E-01
RMM:   9    -0.147922077921E+03   -0.14355E-02   -0.67156E-04  8946   0.820E-02    0.129E+00
RMM:  10    -0.147921162535E+03    0.91539E-03   -0.14253E-03 10027   0.108E-01    0.717E-01
RMM:  11    -0.147921971467E+03   -0.80893E-03   -0.56901E-04  9829   0.706E-02    0.283E-01
RMM:  12    -0.147922933019E+03   -0.96155E-03   -0.16932E-04  9277   0.409E-02    0.507E-01
RMM:  13    -0.147922797141E+03    0.13588E-03   -0.51934E-05  8274   0.299E-02    0.346E-01
RMM:  14    -0.147922884476E+03   -0.87335E-04   -0.51749E-05  8620   0.219E-02    0.612E-02
RMM:  15    -0.147923102633E+03   -0.21816E-03   -0.50406E-05  8458   0.239E-02    0.425E-02
RMM:  16    -0.147923153586E+03   -0.50953E-04   -0.14749E-05  7979   0.146E-02    0.442E-02
RMM:  17    -0.147923158120E+03   -0.45342E-05   -0.28286E-06  5563   0.686E-03    0.382E-02
RMM:  18    -0.147923177170E+03   -0.19050E-04   -0.74118E-07  4841   0.383E-03    0.424E-02
RMM:  19    -0.147923213895E+03   -0.36724E-04   -0.16943E-06  5017   0.385E-03    0.267E-02
RMM:  20    -0.147923273945E+03   -0.60051E-04   -0.32350E-06  5431   0.559E-03    0.254E-02
RMM:  21    -0.147923288900E+03   -0.14955E-04   -0.10586E-06  4801   0.487E-03    0.166E-02
RMM:  22    -0.147923290702E+03   -0.18022E-05   -0.52334E-07  4723   0.321E-03    0.165E-02
RMM:  23    -0.147923291714E+03   -0.10116E-05   -0.21382E-07  4506   0.224E-03    0.149E-02
RMM:  24    -0.147923293943E+03   -0.22289E-05   -0.13120E-07  4282   0.151E-03    0.157E-02
RMM:  25    -0.147923304988E+03   -0.11045E-04   -0.22391E-07  4437   0.151E-03    0.144E-02
RMM:  26    -0.147923319018E+03   -0.14031E-04   -0.25029E-07  4426   0.168E-03    0.104E-02
RMM:  27    -0.147923327022E+03   -0.80039E-05   -0.17110E-07  4342   0.157E-03    0.801E-03
RMM:  28    -0.147923332565E+03   -0.55424E-05   -0.15971E-07  4292   0.150E-03    0.817E-03
RMM:  29    -0.147923336761E+03   -0.41965E-05   -0.14659E-07  4236   0.144E-03    0.688E-03
RMM:  30    -0.147923338794E+03   -0.20329E-05   -0.10548E-07  4227   0.129E-03    0.275E-03
RMM:  31    -0.147923340029E+03   -0.12354E-05   -0.75588E-08  3938   0.117E-03    0.156E-03
RMM:  32    -0.147923340680E+03   -0.65059E-06   -0.46320E-08  3759   0.105E-03
   7 F= -.15406810E+03 E0= -.15404766E+03  d E =-.140118E-01  mag=    29.8261
 curvature:  -2.65 expect dE=-0.530E-01 dE for cont linesearch -0.578E-03
 ZBRENT: extrapolating
 opt :   1.4109  next Energy=  -154.068666 (dE=-0.146E-01)
 bond charge predicted
       N       E                     dE             d eps       ncg     rms          rms(c)
DAV:   1    -0.147921392659E+03    0.19474E-02   -0.32798E-01  8256   0.115E+00    0.557E-01
RMM:   2    -0.147983913400E+03   -0.62521E-01   -0.31285E-02  8020   0.709E-01    0.934E+00
RMM:   3    -0.147882150972E+03    0.10176E+00   -0.28373E-02  8213   0.691E-01    0.112E+00
RMM:   4    -0.147925490677E+03   -0.43340E-01   -0.80866E-03  8401   0.316E-01    0.182E+00
RMM:   5    -0.147899588840E+03    0.25902E-01   -0.44536E-03  8140   0.278E-01    0.415E-01
RMM:   6    -0.147919478770E+03   -0.19890E-01   -0.20357E-03  8018   0.165E-01    0.442E-01
RMM:   7    -0.147922938861E+03   -0.34601E-02   -0.82985E-04  8103   0.128E-01    0.206E-01
RMM:   8    -0.147923608777E+03   -0.66992E-03   -0.24485E-04  8767   0.703E-02    0.286E-01
RMM:   9    -0.147922951488E+03    0.65729E-03   -0.11079E-04  8062   0.431E-02    0.196E-01
RMM:  10    -0.147923405394E+03   -0.45391E-03   -0.10362E-04  9009   0.325E-02    0.633E-02
RMM:  11    -0.147923586049E+03   -0.18066E-03   -0.74998E-05  9205   0.245E-02    0.646E-02
RMM:  12    -0.147923604458E+03   -0.18409E-04   -0.11005E-05  7466   0.148E-02    0.700E-02
RMM:  13    -0.147923622373E+03   -0.17915E-04   -0.42650E-06  6358   0.959E-03    0.813E-02
RMM:  14    -0.147923638730E+03   -0.16357E-04   -0.10767E-05  7454   0.866E-03    0.494E-02
RMM:  15    -0.147923662959E+03   -0.24229E-04   -0.41314E-06  6374   0.924E-03    0.399E-02
RMM:  16    -0.147923670924E+03   -0.79648E-05   -0.16709E-06  4900   0.511E-03    0.295E-02
RMM:  17    -0.147923677673E+03   -0.67499E-05   -0.45360E-07  4718   0.330E-03    0.288E-02
RMM:  18    -0.147923684423E+03   -0.67491E-05   -0.22125E-07  4442   0.196E-03    0.266E-02
RMM:  19    -0.147923694053E+03   -0.96302E-05   -0.31309E-07  4598   0.188E-03    0.223E-02
RMM:  20    -0.147923705812E+03   -0.11759E-04   -0.40939E-07  4581   0.220E-03    0.164E-02
RMM:  21    -0.147923714742E+03   -0.89298E-05   -0.33333E-07  4534   0.239E-03    0.124E-02
RMM:  22    -0.147923718718E+03   -0.39765E-05   -0.18990E-07  4398   0.216E-03    0.110E-02
RMM:  23    -0.147923719655E+03   -0.93652E-06   -0.92157E-08  4192   0.162E-03
   8 F= -.15406864E+03 E0= -.15404830E+03  d E =-.145526E-01  mag=    29.8417
 curvature:  -2.61 expect dE=-0.535E-01 dE for cont linesearch -0.792E-06
 trial: gam= 0.09644 g(F)=  0.205E-01 g(S)=  0.000E+00 ort =-0.153E-03 (trialstep = 0.582E+00)
 search vector abs. value=  0.212E-01
 bond charge predicted
       N       E                     dE             d eps       ncg     rms          rms(c)
DAV:   1    -0.147929253969E+03   -0.55353E-02   -0.41820E-01  8034   0.132E+00    0.507E-01
RMM:   2    -0.147937953558E+03   -0.86996E-02   -0.15385E-02  8541   0.455E-01    0.324E+00
RMM:   3    -0.147927491235E+03    0.10462E-01   -0.75532E-03  9060   0.316E-01    0.140E+00
RMM:   4    -0.147942101065E+03   -0.14610E-01   -0.28453E-03  8441   0.209E-01    0.236E+00
RMM:   5    -0.147900120902E+03    0.41980E-01   -0.76190E-03  8345   0.351E-01    0.421E-01
RMM:   6    -0.147928614133E+03   -0.28493E-01   -0.37602E-03  8102   0.207E-01    0.527E-01
RMM:   7    -0.147932618739E+03   -0.40046E-02   -0.77900E-04  8045   0.131E-01    0.505E-01
RMM:   8    -0.147932528738E+03    0.90001E-04   -0.20791E-04  8819   0.652E-02    0.302E-01
RMM:   9    -0.147933051879E+03   -0.52314E-03   -0.14598E-04  8415   0.434E-02    0.132E-01
RMM:  10    -0.147933353454E+03   -0.30158E-03   -0.22134E-04  9467   0.430E-02    0.622E-02
RMM:  11    -0.147933434113E+03   -0.80658E-04   -0.41214E-05  8836   0.227E-02    0.506E-02
RMM:  12    -0.147933448679E+03   -0.14566E-04   -0.10435E-05  7262   0.143E-02    0.235E-02
RMM:  13    -0.147933474562E+03   -0.25883E-04   -0.61463E-06  7066   0.787E-03    0.360E-02
RMM:  14    -0.147933481846E+03   -0.72842E-05   -0.31840E-06  5802   0.701E-03    0.260E-02
RMM:  15    -0.147933498878E+03   -0.17033E-04   -0.45279E-06  6676   0.612E-03    0.282E-02
RMM:  16    -0.147933506440E+03   -0.75613E-05   -0.14689E-06  4825   0.521E-03    0.132E-02
RMM:  17    -0.147933514008E+03   -0.75679E-05   -0.58421E-07  4759   0.306E-03    0.119E-02
RMM:  18    -0.147933518801E+03   -0.47932E-05   -0.30703E-07  4666   0.230E-03    0.111E-02
RMM:  19    -0.147933526759E+03   -0.79586E-05   -0.28366E-07  4632   0.194E-03    0.933E-03
RMM:  20    -0.147933535903E+03   -0.91440E-05   -0.30882E-07  4588   0.182E-03    0.987E-03
RMM:  21    -0.147933540360E+03   -0.44562E-05   -0.20408E-07  4311   0.174E-03    0.666E-03
RMM:  22    -0.147933542117E+03   -0.17570E-05   -0.10046E-07  4197   0.121E-03    0.524E-03
RMM:  23    -0.147933542845E+03   -0.72836E-06   -0.46914E-08  3536   0.899E-04
   9 F= -.15407912E+03 E0= -.15405870E+03  d E =-.104832E-01  mag=    29.8319
 ZBRENT: can't locate minimum, use default step
 trial-energy change:   -0.010483  1 .order   -0.010481   -0.011907   -0.009056
 step:   2.3269(harm=  2.4292)  dis= 0.01896  next Energy=  -154.093499 (dE=-0.249E-01)
 bond charge predicted
       N       E                     dE             d eps       ncg     rms          rms(c)
DAV:   1    -0.147907111887E+03    0.26430E-01   -0.37645E+00  7968   0.397E+00    0.153E+00
RMM:   2    -0.147983309598E+03   -0.76198E-01   -0.13821E-01  8548   0.136E+00    0.870E+00
RMM:   3    -0.147920156643E+03    0.63153E-01   -0.66114E-02  9227   0.891E-01    0.495E+00
RMM:   4    -0.147999882844E+03   -0.79726E-01   -0.23359E-02  8443   0.588E-01    0.404E+00
RMM:   5    -0.147848108245E+03    0.15177E+00   -0.25048E-02  8068   0.623E-01    0.171E+00
RMM:   6    -0.147917177750E+03   -0.69070E-01   -0.76920E-03  7912   0.302E-01    0.135E+00
RMM:   7    -0.147941101230E+03   -0.23923E-01   -0.61534E-03  7993   0.322E-01    0.830E-01
RMM:   8    -0.147942508761E+03   -0.14075E-02   -0.14497E-03  9018   0.172E-01    0.712E-01
RMM:   9    -0.147942655118E+03   -0.14636E-03   -0.77192E-04  8735   0.102E-01    0.561E-01
RMM:  10    -0.147944198290E+03   -0.15432E-02   -0.42356E-04  8391   0.875E-02    0.435E-01
RMM:  11    -0.147944213125E+03   -0.14835E-04   -0.77651E-04  9933   0.769E-02    0.639E-01
RMM:  12    -0.147944549027E+03   -0.33590E-03   -0.30174E-04  8484   0.703E-02    0.490E-01
RMM:  13    -0.147944816779E+03   -0.26775E-03   -0.20821E-04  9691   0.464E-02    0.356E-01
RMM:  14    -0.147945103221E+03   -0.28644E-03   -0.12696E-04  9008   0.339E-02    0.123E-01
RMM:  15    -0.147945350342E+03   -0.24712E-03   -0.92634E-05  8300   0.422E-02    0.183E-01
RMM:  16    -0.147945324020E+03    0.26322E-04   -0.36662E-05  8203   0.280E-02    0.127E-01
RMM:  17    -0.147945342035E+03   -0.18015E-04   -0.10274E-05  6816   0.127E-02    0.803E-02
RMM:  18    -0.147945388459E+03   -0.46424E-04   -0.79906E-06  6985   0.856E-03    0.640E-02
RMM:  19    -0.147945461682E+03   -0.73223E-04   -0.10091E-05  7398   0.917E-03    0.434E-02
RMM:  20    -0.147945586306E+03   -0.12462E-03   -0.22404E-05  8461   0.130E-02    0.280E-02
RMM:  21    -0.147945670853E+03   -0.84547E-04   -0.63452E-06  6159   0.112E-02    0.166E-02
RMM:  22    -0.147945685597E+03   -0.14744E-04   -0.19511E-06  5109   0.652E-03    0.178E-02
RMM:  23    -0.147945692812E+03   -0.72141E-05   -0.61227E-07  4759   0.390E-03    0.192E-02
RMM:  24    -0.147945700881E+03   -0.80690E-05   -0.68339E-07  4776   0.317E-03    0.189E-02
RMM:  25    -0.147945718980E+03   -0.18099E-04   -0.86662E-07  4721   0.284E-03    0.173E-02
RMM:  26    -0.147945734894E+03   -0.15914E-04   -0.59277E-07  4601   0.231E-03    0.159E-02
RMM:  27    -0.147945744756E+03   -0.98617E-05   -0.48412E-07  4583   0.231E-03    0.144E-02
RMM:  28    -0.147945755279E+03   -0.10523E-04   -0.56753E-07  4467   0.220E-03    0.106E-02
RMM:  29    -0.147945766529E+03   -0.11249E-04   -0.76163E-07  4632   0.246E-03    0.629E-03
RMM:  30    -0.147945774845E+03   -0.83162E-05   -0.49719E-07  4589   0.242E-03    0.423E-03
RMM:  31    -0.147945779443E+03   -0.45982E-05   -0.32294E-07  4476   0.222E-03    0.294E-03
RMM:  32    -0.147945781700E+03   -0.22571E-05   -0.17948E-07  4389   0.177E-03    0.219E-03
RMM:  33    -0.147945783036E+03   -0.13360E-05   -0.11101E-07  3975   0.135E-03    0.258E-03
RMM:  34    -0.147945783571E+03   -0.53510E-06   -0.68763E-08  3851   0.113E-03
  10 F= -.15409332E+03 E0= -.15407271E+03  d E =-.246869E-01  mag=    29.7987
 curvature:  -1.25 expect dE=-0.290E-02 dE for cont linesearch -0.258E-04
 ZBRENT: extrapolating
 opt :   2.4042  next Energy=  -154.093349 (dE=-0.247E-01)
 bond charge predicted
       N       E                     dE             d eps       ncg     rms          rms(c)
DAV:   1    -0.147945647241E+03    0.13579E-03   -0.73927E-03  8214   0.176E-01    0.675E-02
RMM:   2    -0.147945802555E+03   -0.15531E-03   -0.26847E-04  8450   0.611E-02    0.434E-01
RMM:   3    -0.147945531093E+03    0.27146E-03   -0.14026E-04  8782   0.434E-02    0.173E-01
RMM:   4    -0.147945865255E+03   -0.33416E-03   -0.52812E-05  8198   0.285E-02    0.341E-01
RMM:   5    -0.147944652169E+03    0.12131E-02   -0.12909E-04  7959   0.496E-02    0.721E-02
RMM:   6    -0.147945570679E+03   -0.91851E-03   -0.58440E-05  7572   0.305E-02    0.884E-02
RMM:   7    -0.147945603286E+03   -0.32607E-04   -0.20853E-05  7263   0.220E-02    0.468E-02
RMM:   8    -0.147945691112E+03   -0.87826E-04   -0.73814E-06  6167   0.123E-02    0.253E-02
RMM:   9    -0.147945710578E+03   -0.19466E-04   -0.39226E-06  5682   0.865E-03    0.157E-02
RMM:  10    -0.147945716980E+03   -0.64024E-05   -0.45298E-06  6271   0.652E-03    0.800E-03
RMM:  11    -0.147945720664E+03   -0.36835E-05   -0.10216E-06  4610   0.479E-03    0.705E-03
RMM:  12    -0.147945721088E+03   -0.42435E-06   -0.40293E-07  4373   0.259E-03
  11 F= -.15409335E+03 E0= -.15407272E+03  d E =-.247108E-01  mag=    29.7977
 curvature:  -1.24 expect dE=-0.304E-02 dE for cont linesearch -0.107E-06
 trial: gam= 0.11570 g(F)=  0.245E-02 g(S)=  0.000E+00 ort = 0.428E-04 (trialstep = 0.946E+00)
 search vector abs. value=  0.274E-02
 bond charge predicted
       N       E                     dE             d eps       ncg     rms          rms(c)
DAV:   1    -0.147945827125E+03   -0.10646E-03   -0.13500E-01  8076   0.745E-01    0.248E-01
RMM:   2    -0.147947124083E+03   -0.12970E-02   -0.64499E-03  7986   0.355E-01    0.110E+00
RMM:   3    -0.147946831910E+03    0.29217E-03   -0.39993E-03  9557   0.192E-01    0.121E+00
RMM:   4    -0.147946378397E+03    0.45351E-03   -0.11742E-03  8399   0.142E-01    0.413E-01
RMM:   5    -0.147945920485E+03    0.45791E-03   -0.43864E-04  8922   0.752E-02    0.332E-01
RMM:   6    -0.147945541458E+03    0.37903E-03   -0.68759E-05  8587   0.330E-02    0.164E-01
RMM:   7    -0.147946637336E+03   -0.10959E-02   -0.83496E-05  7897   0.378E-02    0.176E-01
RMM:   8    -0.147946634523E+03    0.28120E-05   -0.39260E-05  7772   0.285E-02    0.138E-01
RMM:   9    -0.147946685125E+03   -0.50602E-04   -0.18549E-05  8367   0.168E-02    0.872E-02
RMM:  10    -0.147946833791E+03   -0.14867E-03   -0.38539E-05  9468   0.204E-02    0.721E-02
RMM:  11    -0.147946868611E+03   -0.34820E-04   -0.22257E-05  9183   0.161E-02    0.767E-02
RMM:  12    -0.147946864802E+03    0.38089E-05   -0.10908E-05  7480   0.144E-02    0.777E-02
RMM:  13    -0.147946868618E+03   -0.38160E-05   -0.97858E-06  7440   0.118E-02    0.633E-02
RMM:  14    -0.147946887425E+03   -0.18807E-04   -0.51169E-06  6832   0.968E-03    0.210E-02
RMM:  15    -0.147946905612E+03   -0.18187E-04   -0.18742E-06  4972   0.545E-03    0.120E-02
RMM:  16    -0.147946912546E+03   -0.69341E-05   -0.64353E-07  4727   0.396E-03    0.901E-03
RMM:  17    -0.147946919959E+03   -0.74132E-05   -0.27872E-07  4630   0.244E-03    0.609E-03
RMM:  18    -0.147946928358E+03   -0.83991E-05   -0.30008E-07  4572   0.222E-03    0.587E-03
RMM:  19    -0.147946934230E+03   -0.58720E-05   -0.22290E-07  4513   0.182E-03    0.429E-03
RMM:  20    -0.147946935807E+03   -0.15773E-05   -0.96406E-08  4127   0.135E-03    0.462E-03
RMM:  21    -0.147946936508E+03   -0.70075E-06   -0.42816E-08  3770   0.947E-04
  12 F= -.15409544E+03 E0= -.15407474E+03  d E =-.209391E-02  mag=    29.7915
 trial-energy change:   -0.002094  1 .order   -0.002085   -0.002323   -0.001847
 step:   3.5374(harm=  4.6116)  dis= 0.00697  next Energy=  -154.098151 (dE=-0.480E-02)
 bond charge predicted
       N       E                     dE             d eps       ncg     rms          rms(c)
DAV:   1    -0.147939599567E+03    0.73362E-02   -0.10127E+00  7938   0.204E+00    0.681E-01
RMM:   2    -0.147948937982E+03   -0.93384E-02   -0.48015E-02  7999   0.967E-01    0.283E+00
RMM:   3    -0.147950056218E+03   -0.11182E-02   -0.29656E-02  9579   0.517E-01    0.366E+00
RMM:   4    -0.147942728610E+03    0.73276E-02   -0.86356E-03  8435   0.383E-01    0.983E-01
RMM:   5    -0.147944647153E+03   -0.19185E-02   -0.29275E-03  9619   0.187E-01    0.104E+00
RMM:   6    -0.147941464417E+03    0.31827E-02   -0.96568E-04  9638   0.832E-02    0.876E-01
RMM:   7    -0.147942535268E+03   -0.10709E-02   -0.28499E-04  8174   0.694E-02    0.347E-01
RMM:   8    -0.147947724155E+03   -0.51889E-02   -0.72488E-04  8273   0.113E-01    0.476E-01
RMM:   9    -0.147946266591E+03    0.14576E-02   -0.21580E-04  7972   0.668E-02    0.307E-01
RMM:  10    -0.147947372964E+03   -0.11064E-02   -0.35762E-04  9857   0.528E-02    0.244E-01
RMM:  11    -0.147947607147E+03   -0.23418E-03   -0.37602E-04 10230   0.463E-02    0.193E-01
RMM:  12    -0.147947717901E+03   -0.11075E-03   -0.16024E-03 12502   0.790E-02    0.104E-01
RMM:  13    -0.147947789242E+03   -0.71340E-04   -0.11339E-04  9986   0.319E-02    0.119E-01
RMM:  14    -0.147947739019E+03    0.50223E-04   -0.21712E-05  7837   0.195E-02    0.107E-01
RMM:  15    -0.147947707049E+03    0.31971E-04   -0.16410E-04 10432   0.258E-02    0.741E-02
RMM:  16    -0.147947754499E+03   -0.47450E-04   -0.74942E-05 10033   0.213E-02    0.563E-02
RMM:  17    -0.147947784835E+03   -0.30337E-04   -0.13065E-05  8094   0.113E-02    0.212E-02
RMM:  18    -0.147947816561E+03   -0.31726E-04   -0.28634E-06  5459   0.657E-03    0.176E-02
RMM:  19    -0.147947826540E+03   -0.99789E-05   -0.13514E-06  4860   0.502E-03    0.173E-02
RMM:  20    -0.147947846872E+03   -0.20332E-04   -0.63315E-07  4792   0.361E-03    0.100E-02
RMM:  21    -0.147947859989E+03   -0.13117E-04   -0.57024E-07  4727   0.245E-03    0.122E-02
RMM:  22    -0.147947865137E+03   -0.51479E-05   -0.36735E-07  4603   0.264E-03    0.114E-02
RMM:  23    -0.147947866537E+03   -0.13998E-05   -0.16870E-07  4224   0.164E-03    0.120E-02
RMM:  24    -0.147947867150E+03   -0.61361E-06   -0.64847E-08  3997   0.123E-03
  13 F= -.15409877E+03 E0= -.15407782E+03  d E =-.542568E-02  mag=    29.7750
 curvature:  -2.36 expect dE=-0.164E-02 dE for cont linesearch -0.312E-03
 ZBRENT: extrapolating
 opt :   4.6956  next Energy=  -154.099122 (dE=-0.577E-02)
 bond charge predicted
       N       E                     dE             d eps       ncg     rms          rms(c)
DAV:   1    -0.147945489914E+03    0.23766E-02   -0.20195E-01  8106   0.911E-01    0.300E-01
RMM:   2    -0.147947209732E+03   -0.17198E-02   -0.94922E-03  7978   0.432E-01    0.119E+00
RMM:   3    -0.147947605008E+03   -0.39528E-03   -0.59185E-03  9593   0.230E-01    0.168E+00
RMM:   4    -0.147946898527E+03    0.70648E-03   -0.18094E-03  8393   0.175E-01    0.930E-01
RMM:   5    -0.147941051872E+03    0.58467E-02   -0.12888E-03  8150   0.145E-01    0.345E-01
RMM:   6    -0.147945337234E+03   -0.42854E-02   -0.30766E-04  8026   0.664E-02    0.320E-01
RMM:   7    -0.147946107039E+03   -0.76981E-03   -0.30464E-04  8042   0.776E-02    0.193E-01
RMM:   8    -0.147946707837E+03   -0.60080E-03   -0.56757E-05  8396   0.361E-02    0.118E-01
RMM:   9    -0.147946991325E+03   -0.28349E-03   -0.49035E-05  7993   0.261E-02    0.128E-01
RMM:  10    -0.147947034734E+03   -0.43409E-04   -0.13596E-04  9921   0.287E-02    0.934E-02
RMM:  11    -0.147947057992E+03   -0.23258E-04   -0.91450E-05 10105   0.250E-02    0.731E-02
RMM:  12    -0.147947080126E+03   -0.22135E-04   -0.12308E-05  7681   0.143E-02    0.520E-02
RMM:  13    -0.147947086661E+03   -0.65344E-05   -0.37387E-06  6081   0.897E-03    0.436E-02
RMM:  14    -0.147947105833E+03   -0.19172E-04   -0.70414E-06  7206   0.783E-03    0.131E-02
RMM:  15    -0.147947127655E+03   -0.21823E-04   -0.62211E-06  7084   0.651E-03    0.232E-02
RMM:  16    -0.147947131691E+03   -0.40357E-05   -0.12236E-06  4802   0.450E-03    0.117E-02
RMM:  17    -0.147947135824E+03   -0.41334E-05   -0.41020E-07  4514   0.305E-03    0.102E-02
RMM:  18    -0.147947141173E+03   -0.53487E-05   -0.21594E-07  4522   0.174E-03    0.104E-02
RMM:  19    -0.147947152420E+03   -0.11247E-04   -0.32002E-07  4578   0.199E-03    0.825E-03
RMM:  20    -0.147947155996E+03   -0.35764E-05   -0.27410E-07  4368   0.195E-03    0.563E-03
RMM:  21    -0.147947156122E+03   -0.12562E-06   -0.18471E-07  4304   0.169E-03
  14 F= -.15409913E+03 E0= -.15407810E+03  d E =-.578575E-02  mag=    29.7675
 curvature:  -2.64 expect dE=-0.251E-02 dE for cont linesearch -0.933E-06
 trial: gam= 0.39024 g(F)=  0.952E-03 g(S)=  0.000E+00 ort =-0.312E-04 (trialstep = 0.170E+01)
 search vector abs. value=  0.135E-02
 bond charge predicted
       N       E                     dE             d eps       ncg     rms          rms(c)
DAV:   1    -0.147946389417E+03    0.76658E-03   -0.21773E-01  8046   0.943E-01    0.324E-01
RMM:   2    -0.147947536747E+03   -0.11473E-02   -0.96236E-03  8069   0.424E-01    0.441E-01
RMM:   3    -0.147953435003E+03   -0.58983E-02   -0.65182E-03  9858   0.228E-01    0.307E+00
RMM:   4    -0.147944104178E+03    0.93308E-02   -0.27269E-03  8185   0.218E-01    0.156E+00
RMM:   5    -0.147932166323E+03    0.11938E-01   -0.22192E-03  8137   0.195E-01    0.570E-01
RMM:   6    -0.147944378924E+03   -0.12213E-01   -0.13386E-03  8127   0.142E-01    0.190E-01
RMM:   7    -0.147947660466E+03   -0.32815E-02   -0.52227E-04  8084   0.106E-01    0.217E-01
RMM:   8    -0.147947693768E+03   -0.33301E-04   -0.13229E-04  8639   0.537E-02    0.167E-01
RMM:   9    -0.147947792579E+03   -0.98811E-04   -0.29089E-05  8229   0.219E-02    0.101E-01
RMM:  10    -0.147948006333E+03   -0.21375E-03   -0.12910E-04  9899   0.325E-02    0.174E-01
RMM:  11    -0.147948033599E+03   -0.27267E-04   -0.74593E-05  9902   0.228E-02    0.166E-01
RMM:  12    -0.147948022825E+03    0.10775E-04   -0.23820E-05  8542   0.182E-02    0.592E-02
RMM:  13    -0.147948041304E+03   -0.18479E-04   -0.18030E-05  8431   0.136E-02    0.524E-02
RMM:  14    -0.147948050867E+03   -0.95629E-05   -0.40487E-06  5769   0.894E-03    0.369E-02
RMM:  15    -0.147948061389E+03   -0.10522E-04   -0.34712E-06  6009   0.615E-03    0.238E-02
RMM:  16    -0.147948069307E+03   -0.79183E-05   -0.26727E-06  5380   0.559E-03    0.124E-02
RMM:  17    -0.147948073217E+03   -0.39097E-05   -0.10551E-06  4738   0.407E-03    0.932E-03
RMM:  18    -0.147948075319E+03   -0.21020E-05   -0.43153E-07  4647   0.281E-03    0.856E-03
RMM:  19    -0.147948077820E+03   -0.25016E-05   -0.26946E-07  4614   0.205E-03    0.755E-03
RMM:  20    -0.147948079518E+03   -0.16980E-05   -0.18828E-07  4357   0.168E-03    0.962E-03
RMM:  21    -0.147948080373E+03   -0.85474E-06   -0.15907E-07  4410   0.144E-03
  15 F= -.15410034E+03 E0= -.15407920E+03  d E =-.121163E-02  mag=    29.7647
 trial-energy change:   -0.001212  1 .order   -0.001192   -0.001594   -0.000791
 step:   3.0231(harm=  3.3650)  dis= 0.00376  next Energy=  -154.100663 (dE=-0.153E-02)
 bond charge predicted
       N       E                     dE             d eps       ncg     rms          rms(c)
DAV:   1    -0.147947207194E+03    0.87232E-03   -0.13332E-01  8190   0.738E-01    0.253E-01
RMM:   2    -0.147947872847E+03   -0.66565E-03   -0.58929E-03  8073   0.332E-01    0.287E-01
RMM:   3    -0.147951813170E+03   -0.39403E-02   -0.40841E-03  9860   0.181E-01    0.255E+00
RMM:   4    -0.147944593444E+03    0.72197E-02   -0.18161E-03  8150   0.180E-01    0.956E-01
RMM:   5    -0.147941522130E+03    0.30713E-02   -0.10459E-03  8144   0.134E-01    0.420E-01
RMM:   6    -0.147945859620E+03   -0.43375E-02   -0.36520E-04  8128   0.789E-02    0.197E-01
RMM:   7    -0.147947834993E+03   -0.19754E-02   -0.28724E-04  8057   0.758E-02    0.184E-01
RMM:   8    -0.147947998395E+03   -0.16340E-03   -0.43825E-05  8579   0.296E-02    0.199E-01
RMM:   9    -0.147948015005E+03   -0.16609E-04   -0.53711E-06  6127   0.107E-02    0.204E-01
RMM:  10    -0.147947985714E+03    0.29291E-04   -0.96257E-06  7250   0.114E-02    0.162E-01
RMM:  11    -0.147948018734E+03   -0.33020E-04   -0.88064E-06  7063   0.101E-02    0.143E-01
RMM:  12    -0.147948055182E+03   -0.36449E-04   -0.43644E-05  9605   0.185E-02    0.141E-01
RMM:  13    -0.147948100901E+03   -0.45718E-04   -0.62182E-06  6312   0.115E-02    0.136E-01
RMM:  14    -0.147948114089E+03   -0.13188E-04   -0.56618E-06  6257   0.102E-02    0.136E-01
RMM:  15    -0.147948015630E+03    0.98458E-04   -0.58994E-05 11704   0.214E-02    0.111E-01
RMM:  16    -0.147948139690E+03   -0.12406E-03   -0.24010E-05  9154   0.176E-02    0.780E-02
RMM:  17    -0.147948181750E+03   -0.42060E-04   -0.77000E-05 12340   0.243E-02    0.863E-02
RMM:  18    -0.147948208062E+03   -0.26312E-04   -0.13820E-05  7848   0.154E-02    0.838E-02
RMM:  19    -0.147948195513E+03    0.12549E-04   -0.88501E-06  7541   0.120E-02    0.919E-02
RMM:  20    -0.147948122255E+03    0.73258E-04   -0.65500E-06  6353   0.116E-02    0.858E-02
RMM:  21    -0.147948115544E+03    0.67108E-05   -0.26746E-06  5244   0.635E-03    0.780E-02
RMM:  22    -0.147948124268E+03   -0.87237E-05   -0.25778E-06  5056   0.490E-03    0.673E-02
RMM:  23    -0.147948097210E+03    0.27058E-04   -0.13530E-05  6787   0.971E-03    0.415E-02
RMM:  24    -0.147948139446E+03   -0.42236E-04   -0.14455E-05  7043   0.110E-02    0.269E-02
RMM:  25    -0.147948236026E+03   -0.96580E-04   -0.11822E-05  6608   0.153E-02    0.136E-02
RMM:  26    -0.147948240102E+03   -0.40765E-05   -0.16380E-06  4904   0.728E-03    0.137E-02
RMM:  27    -0.147948240751E+03   -0.64886E-06   -0.49901E-07  4534   0.324E-03
  16 F= -.15410073E+03 E0= -.15407953E+03  d E =-.159548E-02  mag=    29.7628
 curvature:  -2.31 expect dE=-0.617E-03 dE for cont linesearch -0.149E-04
 ZBRENT: extrapolating
 opt :   3.3543  next Energy=  -154.100744 (dE=-0.161E-02)
 bond charge predicted
       N       E                     dE             d eps       ncg     rms          rms(c)
DAV:   1    -0.147948137219E+03    0.10288E-03   -0.83277E-03  8424   0.184E-01    0.642E-02
RMM:   2    -0.147948204839E+03   -0.67619E-04   -0.36682E-04  8060   0.830E-02    0.123E-01
RMM:   3    -0.147948260617E+03   -0.55778E-04   -0.21160E-04  9580   0.387E-02    0.276E-01
RMM:   4    -0.147947718507E+03    0.54211E-03   -0.99477E-05  8438   0.397E-02    0.488E-01
RMM:   5    -0.147947540119E+03    0.17839E-03   -0.58189E-05  7921   0.321E-02    0.131E-01
RMM:   6    -0.147947944706E+03   -0.40459E-03   -0.29886E-05  7492   0.245E-02    0.640E-02
RMM:   7    -0.147948138263E+03   -0.19356E-03   -0.19014E-05  7515   0.200E-02    0.430E-02
RMM:   8    -0.147948185512E+03   -0.47249E-04   -0.60601E-06  6208   0.129E-02    0.304E-02
RMM:   9    -0.147948197780E+03   -0.12268E-04   -0.20720E-06  5075   0.709E-03    0.325E-02
RMM:  10    -0.147948193070E+03    0.47103E-05   -0.11495E-06  4718   0.471E-03    0.266E-02
RMM:  11    -0.147948197291E+03   -0.42215E-05   -0.16613E-06  4457   0.430E-03    0.237E-02
RMM:  12    -0.147948200935E+03   -0.36432E-05   -0.63878E-06  6796   0.641E-03    0.294E-02
RMM:  13    -0.147948201964E+03   -0.10290E-05   -0.33131E-06  5295   0.560E-03    0.176E-02
RMM:  14    -0.147948203835E+03   -0.18717E-05   -0.10875E-06  4396   0.446E-03    0.131E-02
RMM:  15    -0.147948204205E+03   -0.36959E-06   -0.38740E-07  4213   0.290E-03
  17 F= -.15410075E+03 E0= -.15407950E+03  d E =-.161451E-02  mag=    29.7623
 curvature:  -2.39 expect dE=-0.757E-03 dE for cont linesearch -0.123E-05
 trial: gam= 0.30487 g(F)=  0.316E-03 g(S)=  0.000E+00 ort = 0.263E-04 (trialstep = 0.203E+01)
 search vector abs. value=  0.457E-03
 bond charge predicted
       N       E                     dE             d eps       ncg     rms          rms(c)
DAV:   1    -0.147948408766E+03   -0.20493E-03   -0.10305E-01  7914   0.650E-01    0.234E-01
RMM:   2    -0.147953502470E+03   -0.50937E-02   -0.55462E-03  7917   0.323E-01    0.291E+00
RMM:   3    -0.147943519566E+03    0.99829E-02   -0.41100E-03  8735   0.243E-01    0.478E-01
RMM:   4    -0.147950170193E+03   -0.66506E-02   -0.14099E-03  8956   0.140E-01    0.735E-01
RMM:   5    -0.147945545378E+03    0.46248E-02   -0.86525E-04  8182   0.124E-01    0.237E-01
RMM:   6    -0.147948224471E+03   -0.26791E-02   -0.19172E-04  8197   0.538E-02    0.118E-01
RMM:   7    -0.147949091906E+03   -0.86744E-03   -0.11886E-04  7894   0.473E-02    0.118E-01
RMM:   8    -0.147949135445E+03   -0.43538E-04   -0.31618E-05  8343   0.246E-02    0.106E-01
RMM:   9    -0.147949143666E+03   -0.82215E-05   -0.46067E-06  6420   0.968E-03    0.770E-02
RMM:  10    -0.147949210575E+03   -0.66909E-04   -0.22258E-05  8998   0.147E-02    0.795E-02
RMM:  11    -0.147949224763E+03   -0.14187E-04   -0.48770E-05 10388   0.161E-02    0.886E-02
RMM:  12    -0.147949235593E+03   -0.10830E-04   -0.11941E-05  7966   0.129E-02    0.535E-02
RMM:  13    -0.147949245215E+03   -0.96219E-05   -0.50083E-06  6691   0.926E-03    0.257E-02
RMM:  14    -0.147949245237E+03   -0.22268E-07   -0.12890E-06  4870   0.489E-03
  18 F= -.15410128E+03 E0= -.15407998E+03  d E =-.528966E-03  mag=    29.7635
 trial-energy change:   -0.000529  1 .order   -0.000563   -0.000658   -0.000469
 step:   7.0655(harm=  7.0655)  dis= 0.00639  next Energy=  -154.101894 (dE=-0.115E-02)
 bond charge predicted
       N       E                     dE             d eps       ncg     rms          rms(c)
DAV:   1    -0.147945761824E+03    0.34834E-02   -0.63622E-01  8052   0.162E+00    0.574E-01
RMM:   2    -0.147973894873E+03   -0.28133E-01   -0.33427E-02  7911   0.796E-01    0.660E+00
RMM:   3    -0.147927030509E+03    0.46864E-01   -0.24704E-02  8771   0.576E-01    0.123E+00
RMM:   4    -0.147950963156E+03   -0.23933E-01   -0.84603E-03  8788   0.332E-01    0.259E-01
RMM:   5    -0.147951123324E+03   -0.16017E-03   -0.16098E-03  9575   0.130E-01    0.241E-01
RMM:   6    -0.147950985146E+03    0.13818E-03   -0.23371E-04  9672   0.461E-02    0.287E-01
RMM:   7    -0.147950412429E+03    0.57272E-03   -0.50282E-05  8197   0.295E-02    0.206E-01
RMM:   8    -0.147950817633E+03   -0.40520E-03   -0.28535E-05  8011   0.223E-02    0.177E-01
RMM:   9    -0.147950948751E+03   -0.13112E-03   -0.48732E-05  8055   0.200E-02    0.217E-01
RMM:  10    -0.147950627575E+03    0.32118E-03   -0.17795E-04 10431   0.354E-02    0.110E-01
RMM:  11    -0.147950874031E+03   -0.24646E-03   -0.42426E-04 12618   0.455E-02    0.138E-01
RMM:  12    -0.147950977465E+03   -0.10343E-03   -0.75911E-05 10313   0.263E-02    0.997E-02
RMM:  13    -0.147950966954E+03    0.10511E-04   -0.73804E-06  7442   0.105E-02    0.100E-01
RMM:  14    -0.147950948332E+03    0.18621E-04   -0.41365E-05  9234   0.129E-02    0.910E-02
RMM:  15    -0.147950953815E+03   -0.54822E-05   -0.73556E-05 10593   0.199E-02    0.618E-02
RMM:  16    -0.147950990048E+03   -0.36233E-04   -0.29350E-05  9862   0.131E-02    0.408E-02
RMM:  17    -0.147951018656E+03   -0.28608E-04   -0.25182E-06  5117   0.681E-03    0.352E-02
RMM:  18    -0.147951031709E+03   -0.13053E-04   -0.31669E-06  5531   0.527E-03    0.297E-02
RMM:  19    -0.147951038990E+03   -0.72806E-05   -0.69554E-06  7119   0.641E-03    0.246E-02
RMM:  20    -0.147951050365E+03   -0.11375E-04   -0.11413E-06  4784   0.488E-03    0.167E-02
RMM:  21    -0.147951057641E+03   -0.72761E-05   -0.62697E-07  4735   0.356E-03    0.138E-02
RMM:  22    -0.147951061161E+03   -0.35198E-05   -0.24595E-07  4575   0.253E-03    0.112E-02
RMM:  23    -0.147951062990E+03   -0.18292E-05   -0.14016E-07  4337   0.170E-03    0.995E-03
RMM:  24    -0.147951063974E+03   -0.98335E-06   -0.62519E-08  4139   0.122E-03
  19 F= -.15410182E+03 E0= -.15408029E+03  d E =-.107591E-02  mag=    29.7670
 curvature:  -4.98 expect dE=-0.103E-02 dE for cont linesearch -0.487E-06
 trial: gam= 0.69035 g(F)=  0.206E-03 g(S)=  0.000E+00 ort =-0.669E-05 (trialstep = 0.304E+01)
 search vector abs. value=  0.415E-03
 reached required accuracy - stopping structural energy minimisation
 writing wavefunctions
