CrCl3 2x2 + Ni | Site S1 (Near-Cl Rim Coordinated State, z=+1.28A) | U_all=3.29eV
   1.00000000000000     
    12.0925489970493256    0.0000000000000000    0.0000000000000000
    -6.0462744985246628   10.4724546279527502    0.0000000000000000
     0.0000000000000000    0.0000000000000000   20.0000000000000000
   Cr   Cl   Ni
     8    24     1
Direct
     0.1735255138083736    0.3469615979473198    0.5005615836410916
     0.3299710282784266    0.1758839091752032    0.5000401509178882
     0.6700289717215732    0.3459128808967624    0.5000401509178882
     0.8443024780395312    0.1757662144220830    0.5035038690871292
     0.1556975219604686    0.8314637363825303    0.5035038690871292
     0.3319485088119642    0.6767231675948079    0.5027763783435248
     0.6680514911880354    0.8447746587828293    0.5027763783435248
     0.8264744861916264    0.6734360841389679    0.5005615836410916
     0.1802106383787002    0.5129380103951658    0.4337824456345087
     0.5000000000000000    0.1671165837675925    0.4406391822865929
     0.3285529398097096    0.3442566017884154    0.4314102458773781
     0.3283012124201639    0.5132571927240829    0.5694661364908870
     0.0077997524354101    0.3341951523284454    0.5701347581469627
     0.1790454379556231    0.1917199420158371    0.5699054786667387
     0.6714470601902908    0.5157036619787058    0.4314102458773781
     0.0072097663647899    0.1890530061133081    0.4332635919215789
     0.8289235165775536    0.3289306391987726    0.4369041009532104
     0.8209545620443770    0.5126745040602211    0.5699054786667387
     0.5000000000000000    0.2952048508700188    0.5819364667013660
     0.7033156944775903    0.1845413052253601    0.5861316980365059
     0.1710764834224467    0.0000071226212261    0.4369041009532104
     0.5000000000000000    0.6927827655256983    0.4350937036007391
     0.3184733796628125    0.8318444765314842    0.4370847889696136
     0.2966843055224100    0.9812256107477699    0.5861316980365059
     0.9922002475645897    0.8263953998930353    0.5701347581469627
     0.1670483927251333    0.6726172957589420    0.5687693544380238
     0.6815266203371869    0.0133710968686712    0.4370847889696136
     0.9927902336352104    0.6818432397485183    0.4332635919215789
     0.8197893616213002    0.8327273720164660    0.4337824456345087
     0.8329516072748665    0.0055689030338015    0.5687693544380238
     0.5000000000000000    0.8418005798522511    0.5699137406641650
     0.6716987875798365    0.6849559803039122    0.5694661364908870
     0.5000000000000000    0.0946963588599880    0.5642339377569733
 
  0.00000000E+00  0.00000000E+00  0.00000000E+00
  0.00000000E+00  0.00000000E+00  0.00000000E+00
  0.00000000E+00  0.00000000E+00  0.00000000E+00
  0.00000000E+00  0.00000000E+00  0.00000000E+00
  0.00000000E+00  0.00000000E+00  0.00000000E+00
  0.00000000E+00  0.00000000E+00  0.00000000E+00
  0.00000000E+00  0.00000000E+00  0.00000000E+00
  0.00000000E+00  0.00000000E+00  0.00000000E+00
  0.00000000E+00  0.00000000E+00  0.00000000E+00
  0.00000000E+00  0.00000000E+00  0.00000000E+00
  0.00000000E+00  0.00000000E+00  0.00000000E+00
  0.00000000E+00  0.00000000E+00  0.00000000E+00
  0.00000000E+00  0.00000000E+00  0.00000000E+00
  0.00000000E+00  0.00000000E+00  0.00000000E+00
  0.00000000E+00  0.00000000E+00  0.00000000E+00
  0.00000000E+00  0.00000000E+00  0.00000000E+00
  0.00000000E+00  0.00000000E+00  0.00000000E+00
  0.00000000E+00  0.00000000E+00  0.00000000E+00
  0.00000000E+00  0.00000000E+00  0.00000000E+00
  0.00000000E+00  0.00000000E+00  0.00000000E+00
  0.00000000E+00  0.00000000E+00  0.00000000E+00
  0.00000000E+00  0.00000000E+00  0.00000000E+00
  0.00000000E+00  0.00000000E+00  0.00000000E+00
  0.00000000E+00  0.00000000E+00  0.00000000E+00
  0.00000000E+00  0.00000000E+00  0.00000000E+00
  0.00000000E+00  0.00000000E+00  0.00000000E+00
  0.00000000E+00  0.00000000E+00  0.00000000E+00
  0.00000000E+00  0.00000000E+00  0.00000000E+00
  0.00000000E+00  0.00000000E+00  0.00000000E+00
  0.00000000E+00  0.00000000E+00  0.00000000E+00
  0.00000000E+00  0.00000000E+00  0.00000000E+00
  0.00000000E+00  0.00000000E+00  0.00000000E+00
  0.00000000E+00  0.00000000E+00  0.00000000E+00
