CrCl3 2x2 + Co S2 hollow (D3, U=0) (a_2x
   1.00000000000000     
    12.0925489970493256    0.0000000000000000    0.0000000000000000
    -6.0462744985246628   10.4724546279527502    0.0000000000000000
     0.0000000000000000    0.0000000000000000   20.0000000000000000
   Cr   Cl   Co
     8    24     1
Direct
     0.1630177100564027    0.3286561643642997    0.4991468390050640
     0.3286561643642997    0.1630177100564027    0.4991468390050640
     0.6713438356357007    0.3343615456920889    0.4991468390050640
     0.8333333333333286    0.1666666666666714    0.4985314432345893
     0.1666666666666714    0.8333333333333286    0.4985314432345893
     0.3343615456920889    0.6713438356357007    0.4991468390050640
     0.6656384543079110    0.8369822899435972    0.4991468390050640
     0.8369822899435972    0.6656384543079110    0.4991468390050640
     0.1802453597560783    0.5000000000000000    0.4350916560480540
     0.5000000000000000    0.1802453597560783    0.4350916560480540
     0.3220907647547087    0.3220907647547087    0.4343947891209765
     0.3213092996524154    0.5000000000000000    0.5724995611417966
     0.9991262272715026    0.3198562215012312    0.5660258706767843
     0.1749681208930664    0.1749681208930664    0.5666585017718732
     0.6779092352452912    0.5000000000000000    0.4343947891209765
     0.9964562176353945    0.1742316656718412    0.4319263631149566
     0.8257683343281588    0.3222245519635534    0.4319263631149566
     0.8250318791069335    0.5000000000000000    0.5666585017718732
     0.5000000000000000    0.3213092996524154    0.5724995611417966
     0.6801437784987688    0.1792700057702714    0.5660258706767843
     0.1742316656718412    0.9964562176353945    0.4319263631149566
     0.5000000000000000    0.6779092352452912    0.4343947891209765
     0.3222245519635534    0.8257683343281588    0.4319263631149566
     0.3198562215012312    0.9991262272715026    0.5660258706767843
     0.0008737727284972    0.8207299942297285    0.5660258706767843
     0.1792700057702714    0.6801437784987688    0.5660258706767843
     0.6777754480364464    0.0035437823646054    0.4319263631149566
     0.0035437823646054    0.6777754480364464    0.4319263631149566
     0.8197546402439216    0.8197546402439216    0.4350916560480540
     0.8207299942297285    0.0008737727284972    0.5660258706767843
     0.5000000000000000    0.8250318791069335    0.5666585017718732
     0.6786907003475847    0.6786907003475847    0.5724995611417966
     0.5000000000000000    0.5000000000000000    0.5894091525018892
 
  0.00000000E+00  0.00000000E+00  0.00000000E+00
  0.00000000E+00  0.00000000E+00  0.00000000E+00
  0.00000000E+00  0.00000000E+00  0.00000000E+00
  0.00000000E+00  0.00000000E+00  0.00000000E+00
  0.00000000E+00  0.00000000E+00  0.00000000E+00
  0.00000000E+00  0.00000000E+00  0.00000000E+00
  0.00000000E+00  0.00000000E+00  0.00000000E+00
  0.00000000E+00  0.00000000E+00  0.00000000E+00
  0.00000000E+00  0.00000000E+00  0.00000000E+00
  0.00000000E+00  0.00000000E+00  0.00000000E+00
  0.00000000E+00  0.00000000E+00  0.00000000E+00
  0.00000000E+00  0.00000000E+00  0.00000000E+00
  0.00000000E+00  0.00000000E+00  0.00000000E+00
  0.00000000E+00  0.00000000E+00  0.00000000E+00
  0.00000000E+00  0.00000000E+00  0.00000000E+00
  0.00000000E+00  0.00000000E+00  0.00000000E+00
  0.00000000E+00  0.00000000E+00  0.00000000E+00
  0.00000000E+00  0.00000000E+00  0.00000000E+00
  0.00000000E+00  0.00000000E+00  0.00000000E+00
  0.00000000E+00  0.00000000E+00  0.00000000E+00
  0.00000000E+00  0.00000000E+00  0.00000000E+00
  0.00000000E+00  0.00000000E+00  0.00000000E+00
  0.00000000E+00  0.00000000E+00  0.00000000E+00
  0.00000000E+00  0.00000000E+00  0.00000000E+00
  0.00000000E+00  0.00000000E+00  0.00000000E+00
  0.00000000E+00  0.00000000E+00  0.00000000E+00
  0.00000000E+00  0.00000000E+00  0.00000000E+00
  0.00000000E+00  0.00000000E+00  0.00000000E+00
  0.00000000E+00  0.00000000E+00  0.00000000E+00
  0.00000000E+00  0.00000000E+00  0.00000000E+00
  0.00000000E+00  0.00000000E+00  0.00000000E+00
  0.00000000E+00  0.00000000E+00  0.00000000E+00
  0.00000000E+00  0.00000000E+00  0.00000000E+00
