       N       E                     dE             d eps       ncg     rms          rms(c)
DAV:   1     0.211042248546E+04    0.21104E+04   -0.64476E+04  3122   0.897E+02
DAV:   2     0.396021076514E+03   -0.17144E+04   -0.16040E+04  3626   0.242E+02
DAV:   3    -0.130693612256E+03   -0.52671E+03   -0.50947E+03  4438   0.134E+02
DAV:   4    -0.174370378058E+03   -0.43677E+02   -0.42991E+02  4634   0.558E+01
DAV:   5    -0.175264357123E+03   -0.89398E+00   -0.89053E+00  4648   0.913E+00    0.409E+01
DAV:   6    -0.173736235530E+03    0.15281E+01   -0.17756E+02  4648   0.605E+01    0.678E+01
DAV:   7    -0.178260360966E+03   -0.45241E+01   -0.33719E+01  4914   0.560E+01    0.452E+01
DAV:   8    -0.164301326933E+03    0.13959E+02   -0.20629E+01  4326   0.257E+01    0.256E+01
DAV:   9    -0.160524030792E+03    0.37773E+01   -0.25210E+01  4718   0.586E+01    0.569E+01
DAV:  10    -0.157893726873E+03    0.26303E+01   -0.32060E+01  4914   0.148E+01    0.129E+01
DAV:  11    -0.159196714502E+03   -0.13030E+01   -0.22191E+00  4760   0.654E+00    0.106E+01
DAV:  12    -0.159833875762E+03   -0.63716E+00   -0.58916E-01  3906   0.269E+00    0.980E+00
DAV:  13    -0.160036641921E+03   -0.20277E+00   -0.20085E-01  3976   0.148E+00    0.897E+00
DAV:  14    -0.160052160273E+03   -0.15518E-01   -0.12203E-01  4746   0.145E+00    0.795E+00
DAV:  15    -0.160009810650E+03    0.42350E-01   -0.42365E-02  4788   0.973E-01    0.707E+00
DAV:  16    -0.159969614360E+03    0.40196E-01   -0.32773E-02  4914   0.971E-01    0.590E+00
DAV:  17    -0.159970124092E+03   -0.50973E-03   -0.11523E-02  4410   0.377E-01    0.555E+00
DAV:  18    -0.159981268974E+03   -0.11145E-01   -0.11499E-03  4564   0.148E-01    0.545E+00
DAV:  19    -0.160093126810E+03   -0.11186E+00   -0.77108E-02  4662   0.162E+00    0.334E+00
DAV:  20    -0.160148318280E+03   -0.55191E-01   -0.17934E-02  4508   0.572E-01    0.289E+00
DAV:  21    -0.160161842303E+03   -0.13524E-01   -0.19249E-03  3528   0.142E-01    0.288E+00
DAV:  22    -0.160171814208E+03   -0.99719E-02   -0.57261E-04  4648   0.203E-01    0.278E+00
DAV:  23    -0.160240486500E+03   -0.68672E-01   -0.11405E-02  4466   0.639E-01    0.267E+00
DAV:  24    -0.160226087635E+03    0.14399E-01   -0.26925E-03  3696   0.151E-01    0.285E+00
DAV:  25    -0.160270930599E+03   -0.44843E-01   -0.17659E-02  4970   0.666E-01    0.209E+00
DAV:  26    -0.160483183029E+03   -0.21225E+00   -0.83586E-02  4536   0.203E+00    0.199E+00
DAV:  27    -0.160486785340E+03   -0.36023E-02   -0.12434E-02  4144   0.427E-01    0.173E+00
DAV:  28    -0.160515063453E+03   -0.28278E-01   -0.18397E-03  4536   0.223E-01    0.177E+00
DAV:  29    -0.160614776666E+03   -0.99713E-01   -0.14804E-02  4564   0.764E-01    0.158E+00
DAV:  30    -0.160648841477E+03   -0.34065E-01   -0.12717E-02  4466   0.310E-01    0.103E+00
DAV:  31    -0.160649757270E+03   -0.91579E-03   -0.13431E-03  4522   0.148E-01    0.891E-01
DAV:  32    -0.160656230945E+03   -0.64737E-02   -0.51794E-04  4704   0.929E-02    0.751E-01
DAV:  33    -0.160672444174E+03   -0.16213E-01   -0.59639E-03  4816   0.432E-01    0.629E-01
DAV:  34    -0.160687511156E+03   -0.15067E-01   -0.19698E-03  4368   0.142E-01    0.380E-01
DAV:  35    -0.160698573531E+03   -0.11062E-01   -0.40390E-04  4298   0.708E-02    0.328E-01
DAV:  36    -0.160704874116E+03   -0.63006E-02   -0.54814E-04  4564   0.742E-02    0.160E-01
DAV:  37    -0.160707525228E+03   -0.26511E-02   -0.32117E-04  4760   0.685E-02    0.107E-01
DAV:  38    -0.160708394433E+03   -0.86920E-03   -0.76092E-05  4550   0.230E-02    0.133E-01
DAV:  39    -0.160709443057E+03   -0.10486E-02   -0.18851E-05  4270   0.187E-02    0.113E-01
DAV:  40    -0.160710410710E+03   -0.96765E-03   -0.39194E-05  4396   0.253E-02    0.627E-02
DAV:  41    -0.160710879907E+03   -0.46920E-03   -0.18806E-05  4326   0.191E-02    0.461E-02
DAV:  42    -0.160710928168E+03   -0.48262E-04   -0.68788E-06  3850   0.734E-03    0.311E-02
DAV:  43    -0.160711099466E+03   -0.17130E-03   -0.31581E-06  2898   0.499E-03    0.230E-02
DAV:  44    -0.160711219499E+03   -0.12003E-03   -0.55174E-06  3780   0.704E-03    0.126E-02
DAV:  45    -0.160711286634E+03   -0.67136E-04   -0.41332E-06  3262   0.580E-03    0.694E-03
DAV:  46    -0.160711303491E+03   -0.16857E-04   -0.66035E-07  2324   0.423E-03    0.626E-03
DAV:  47    -0.160711310047E+03   -0.65553E-05   -0.35210E-07  2016   0.284E-03    0.537E-03
DAV:  48    -0.160711312264E+03   -0.22173E-05   -0.13985E-07  1932   0.170E-03    0.464E-03
DAV:  49    -0.160711315680E+03   -0.34155E-05   -0.10347E-07  2100   0.112E-03    0.484E-03
DAV:  50    -0.160711321313E+03   -0.56337E-05   -0.11692E-07  2184   0.160E-03    0.434E-03
DAV:  51    -0.160711326468E+03   -0.51550E-05   -0.20691E-07  2226   0.306E-03    0.209E-03
DAV:  52    -0.160711327836E+03   -0.13675E-05   -0.14834E-07  1960   0.135E-03    0.145E-03
DAV:  53    -0.160711328015E+03   -0.17883E-06   -0.45939E-08  1946   0.710E-04
   1 F= -.16687438E+03 E0= -.16685583E+03  d E =-.166874E+03  mag=    22.9999
       N       E                     dE             d eps       ncg     rms          rms(c)
DAV:   1    -0.160631330732E+03    0.79997E-01   -0.30004E+01  3080   0.103E+01    0.365E+00
DAV:   2    -0.160881125145E+03   -0.24979E+00   -0.18989E+00  4522   0.488E+00    0.317E+00
DAV:   3    -0.160972098284E+03   -0.90973E-01   -0.26216E-01  5124   0.287E+00    0.485E+00
DAV:   4    -0.160904519183E+03    0.67579E-01   -0.29495E-01  4522   0.257E+00    0.166E+00
DAV:   5    -0.160894362168E+03    0.10157E-01   -0.22096E-02  4648   0.654E-01    0.777E-01
DAV:   6    -0.160880804172E+03    0.13558E-01   -0.16491E-02  4494   0.478E-01    0.633E-01
DAV:   7    -0.160881391422E+03   -0.58725E-03   -0.38832E-03  4354   0.302E-01    0.213E-01
DAV:   8    -0.160886438381E+03   -0.50470E-02   -0.52107E-04  4452   0.104E-01    0.175E-01
DAV:   9    -0.160891661332E+03   -0.52230E-02   -0.13748E-04  4522   0.558E-02    0.134E-01
DAV:  10    -0.160897250140E+03   -0.55888E-02   -0.15510E-04  4522   0.501E-02    0.473E-02
DAV:  11    -0.160902235394E+03   -0.49853E-02   -0.84174E-05  4256   0.260E-02    0.226E-02
DAV:  12    -0.160905126923E+03   -0.28915E-02   -0.28870E-05  3990   0.133E-02    0.118E-02
DAV:  13    -0.160907439925E+03   -0.23130E-02   -0.21768E-05  3388   0.770E-03    0.928E-03
DAV:  14    -0.160910858460E+03   -0.34185E-02   -0.74758E-05  3318   0.125E-02    0.105E-02
DAV:  15    -0.160912323268E+03   -0.14648E-02   -0.37815E-05  3668   0.971E-03    0.476E-03
DAV:  16    -0.160912709254E+03   -0.38599E-03   -0.76442E-06  3710   0.449E-03    0.236E-03
DAV:  17    -0.160912844761E+03   -0.13551E-03   -0.22918E-06  2940   0.224E-03    0.127E-03
DAV:  18    -0.160912898712E+03   -0.53952E-04   -0.10973E-06  2590   0.187E-03    0.143E-03
DAV:  19    -0.160912916506E+03   -0.17793E-04   -0.51937E-07  2478   0.176E-03    0.680E-04
DAV:  20    -0.160912921558E+03   -0.50523E-05   -0.29765E-07  2296   0.138E-03    0.446E-04
DAV:  21    -0.160912923873E+03   -0.23146E-05   -0.16882E-07  2240   0.120E-03    0.343E-04
DAV:  22    -0.160912925708E+03   -0.18355E-05   -0.11100E-07  2156   0.829E-04    0.226E-04
DAV:  23    -0.160912927625E+03   -0.19174E-05   -0.92884E-08  2212   0.726E-04    0.268E-04
DAV:  24    -0.160912928553E+03   -0.92755E-06   -0.53582E-08  2072   0.603E-04
   2 F= -.16707111E+03 E0= -.16705437E+03  d E =-.196736E+00  mag=    23.0000
       N       E                     dE             d eps       ncg     rms          rms(c)
DAV:   1    -0.160882479358E+03    0.30448E-01   -0.57685E+00  3080   0.452E+00    0.158E+00
DAV:   2    -0.160925700309E+03   -0.43221E-01   -0.33453E-01  4354   0.193E+00    0.117E+00
DAV:   3    -0.160943081851E+03   -0.17382E-01   -0.46697E-02  4942   0.119E+00    0.195E+00
DAV:   4    -0.160931127787E+03    0.11954E-01   -0.29317E-02  4606   0.102E+00    0.627E-01
DAV:   5    -0.160929440182E+03    0.16876E-02   -0.31452E-03  4550   0.243E-01    0.343E-01
DAV:   6    -0.160925996998E+03    0.34432E-02   -0.28826E-03  4522   0.194E-01    0.256E-01
DAV:   7    -0.160926452128E+03   -0.45513E-03   -0.62468E-04  4382   0.119E-01    0.693E-02
DAV:   8    -0.160927565313E+03   -0.11132E-02   -0.89353E-05  4564   0.424E-02    0.713E-02
DAV:   9    -0.160928860131E+03   -0.12948E-02   -0.29678E-05  4480   0.246E-02    0.476E-02
DAV:  10    -0.160930129684E+03   -0.12696E-02   -0.27008E-05  4522   0.180E-02    0.179E-02
DAV:  11    -0.160931320720E+03   -0.11910E-02   -0.15227E-05  4074   0.986E-03    0.953E-03
DAV:  12    -0.160931978712E+03   -0.65799E-03   -0.52178E-06  3556   0.629E-03    0.559E-03
DAV:  13    -0.160932850639E+03   -0.87193E-03   -0.10035E-05  3248   0.519E-03    0.395E-03
DAV:  14    -0.160933615848E+03   -0.76521E-03   -0.11761E-05  3276   0.481E-03    0.309E-03
DAV:  15    -0.160934097440E+03   -0.48159E-03   -0.11418E-05  3332   0.456E-03    0.132E-03
DAV:  16    -0.160934204151E+03   -0.10671E-03   -0.21202E-06  3122   0.225E-03    0.125E-03
DAV:  17    -0.160934227534E+03   -0.23383E-04   -0.33322E-07  2310   0.149E-03    0.653E-04
DAV:  18    -0.160934243436E+03   -0.15902E-04   -0.47292E-07  2422   0.126E-03    0.399E-04
DAV:  19    -0.160934248146E+03   -0.47099E-05   -0.22183E-07  2282   0.129E-03    0.257E-04
DAV:  20    -0.160934248977E+03   -0.83100E-06   -0.99266E-08  1960   0.914E-04
   3 F= -.16709018E+03 E0= -.16707437E+03  d E =-.215803E+00  mag=    23.0000
       N       E                     dE             d eps       ncg     rms          rms(c)
DAV:   1    -0.160928986315E+03    0.52618E-02   -0.71180E+00  3080   0.525E+00    0.160E+00
DAV:   2    -0.160979551550E+03   -0.50565E-01   -0.51183E-01  4410   0.261E+00    0.150E+00
DAV:   3    -0.161008704605E+03   -0.29153E-01   -0.14434E-01  4480   0.195E+00    0.310E+00
DAV:   4    -0.160975547814E+03    0.33157E-01   -0.71946E-02  4382   0.140E+00    0.547E-01
DAV:   5    -0.160976380362E+03   -0.83255E-03   -0.52169E-03  4424   0.229E-01    0.537E-01
DAV:   6    -0.160974762179E+03    0.16182E-02   -0.23544E-03  4564   0.197E-01    0.269E-01
DAV:   7    -0.160974702245E+03    0.59933E-04   -0.99601E-04  4564   0.109E-01    0.878E-02
DAV:   8    -0.160975266965E+03   -0.56472E-03   -0.13953E-04  4606   0.466E-02    0.946E-02
DAV:   9    -0.160975763060E+03   -0.49610E-03   -0.77612E-05  4466   0.456E-02    0.331E-02
DAV:  10    -0.160976335781E+03   -0.57272E-03   -0.17016E-05  4256   0.159E-02    0.196E-02
DAV:  11    -0.160977015915E+03   -0.68013E-03   -0.20034E-05  4368   0.122E-02    0.820E-03
DAV:  12    -0.160977337697E+03   -0.32178E-03   -0.36627E-06  3220   0.624E-03    0.427E-03
DAV:  13    -0.160977614085E+03   -0.27639E-03   -0.22846E-06  2912   0.437E-03    0.455E-03
DAV:  14    -0.160977966957E+03   -0.35287E-03   -0.41555E-06  3164   0.374E-03    0.277E-03
DAV:  15    -0.160978205143E+03   -0.23819E-03   -0.22531E-06  2870   0.225E-03    0.199E-03
DAV:  16    -0.160978509501E+03   -0.30436E-03   -0.63880E-06  3066   0.317E-03    0.132E-03
DAV:  17    -0.160978626313E+03   -0.11681E-03   -0.26396E-06  3052   0.220E-03    0.869E-04
DAV:  18    -0.160978655112E+03   -0.28799E-04   -0.49021E-07  2492   0.119E-03    0.713E-04
DAV:  19    -0.160978664918E+03   -0.98059E-05   -0.24894E-07  2338   0.119E-03    0.690E-04
DAV:  20    -0.160978668540E+03   -0.36223E-05   -0.20610E-07  2128   0.102E-03    0.353E-04
DAV:  21    -0.160978669165E+03   -0.62485E-06   -0.11150E-07  1960   0.937E-04
   4 F= -.16713242E+03 E0= -.16711741E+03  d E =-.422372E-01  mag=    23.0000
       N       E                     dE             d eps       ncg     rms          rms(c)
DAV:   1    -0.160950703615E+03    0.27965E-01   -0.62320E+00  3080   0.491E+00    0.150E+00
DAV:   2    -0.160994619585E+03   -0.43916E-01   -0.44027E-01  4340   0.243E+00    0.147E+00
DAV:   3    -0.161021936114E+03   -0.27317E-01   -0.13643E-01  4466   0.192E+00    0.305E+00
DAV:   4    -0.160990388886E+03    0.31547E-01   -0.66376E-02  4326   0.136E+00    0.498E-01
DAV:   5    -0.160991256574E+03   -0.86769E-03   -0.47198E-03  4480   0.216E-01    0.490E-01
DAV:   6    -0.160989854368E+03    0.14022E-02   -0.19263E-03  4522   0.177E-01    0.252E-01
DAV:   7    -0.160989722142E+03    0.13223E-03   -0.89953E-04  4480   0.100E-01    0.812E-02
DAV:   8    -0.160990230568E+03   -0.50843E-03   -0.11997E-04  4564   0.406E-02    0.841E-02
DAV:   9    -0.160990680155E+03   -0.44959E-03   -0.63056E-05  4424   0.406E-02    0.296E-02
DAV:  10    -0.160991205513E+03   -0.52536E-03   -0.14478E-05  4242   0.148E-02    0.172E-02
DAV:  11    -0.160991819693E+03   -0.61418E-03   -0.16783E-05  4354   0.113E-02    0.699E-03
DAV:  12    -0.160992114147E+03   -0.29445E-03   -0.30669E-06  3164   0.561E-03    0.391E-03
DAV:  13    -0.160992366610E+03   -0.25246E-03   -0.20604E-06  2828   0.410E-03    0.411E-03
DAV:  14    -0.160992699727E+03   -0.33312E-03   -0.40417E-06  3080   0.359E-03    0.253E-03
DAV:  15    -0.160992902560E+03   -0.20283E-03   -0.18069E-06  2758   0.208E-03    0.179E-03
DAV:  16    -0.160993172938E+03   -0.27038E-03   -0.56626E-06  3024   0.296E-03    0.134E-03
DAV:  17    -0.160993278176E+03   -0.10524E-03   -0.23296E-06  3052   0.210E-03    0.785E-04
DAV:  18    -0.160993304615E+03   -0.26439E-04   -0.44007E-07  2492   0.120E-03    0.612E-04
DAV:  19    -0.160993314559E+03   -0.99442E-05   -0.27771E-07  2310   0.114E-03    0.562E-04
DAV:  20    -0.160993317202E+03   -0.26425E-05   -0.17827E-07  2128   0.103E-03    0.325E-04
DAV:  21    -0.160993317679E+03   -0.47750E-06   -0.97555E-08  1946   0.854E-04
   5 F= -.16714493E+03 E0= -.16713047E+03  d E =-.547559E-01  mag=    23.0000
       N       E                     dE             d eps       ncg     rms          rms(c)
DAV:   1    -0.160981309100E+03    0.12008E-01   -0.36057E+00  3080   0.373E+00    0.115E+00
DAV:   2    -0.161007038530E+03   -0.25729E-01   -0.26202E-01  4368   0.176E+00    0.979E-01
DAV:   3    -0.161024283930E+03   -0.17245E-01   -0.63892E-02  4732   0.133E+00    0.229E+00
DAV:   4    -0.161005915059E+03    0.18369E-01   -0.29439E-02  4578   0.913E-01    0.361E-01
DAV:   5    -0.161006274948E+03   -0.35989E-03   -0.21506E-03  4326   0.106E-01    0.277E-01
DAV:   6    -0.161006049975E+03    0.22497E-03   -0.17785E-03  4592   0.174E-01    0.351E-01
DAV:   7    -0.161005457688E+03    0.59229E-03   -0.66608E-04  4746   0.131E-01    0.755E-02
DAV:   8    -0.161005661800E+03   -0.20411E-03   -0.16685E-04  4816   0.437E-02    0.517E-02
DAV:   9    -0.161005959345E+03   -0.29755E-03   -0.38562E-05  4480   0.308E-02    0.183E-02
DAV:  10    -0.161006278584E+03   -0.31924E-03   -0.59234E-06  3458   0.887E-03    0.121E-02
DAV:  11    -0.161006604790E+03   -0.32621E-03   -0.37900E-06  3444   0.536E-03    0.540E-03
DAV:  12    -0.161006858952E+03   -0.25416E-03   -0.20432E-06  2926   0.400E-03    0.296E-03
DAV:  13    -0.161007037718E+03   -0.17877E-03   -0.11355E-06  2506   0.310E-03    0.291E-03
DAV:  14    -0.161007196880E+03   -0.15916E-03   -0.15015E-06  2772   0.320E-03    0.184E-03
DAV:  15    -0.161007351776E+03   -0.15490E-03   -0.15390E-06  2772   0.224E-03    0.164E-03
DAV:  16    -0.161007510085E+03   -0.15831E-03   -0.20935E-06  2940   0.215E-03    0.125E-03
DAV:  17    -0.161007609361E+03   -0.99276E-04   -0.15569E-06  2814   0.196E-03    0.764E-04
DAV:  18    -0.161007648117E+03   -0.38756E-04   -0.74849E-07  2492   0.165E-03    0.558E-04
DAV:  19    -0.161007655695E+03   -0.75778E-05   -0.24190E-07  2282   0.140E-03    0.268E-04
DAV:  20    -0.161007658891E+03   -0.31960E-05   -0.15496E-07  2016   0.942E-04    0.238E-04
DAV:  21    -0.161007660457E+03   -0.15662E-05   -0.98700E-08  2044   0.870E-04    0.120E-04
DAV:  22    -0.161007660854E+03   -0.39637E-06   -0.58164E-08  1946   0.626E-04
   6 F= -.16716056E+03 E0= -.16714609E+03  d E =-.156211E-01  mag=    23.0000
       N       E                     dE             d eps       ncg     rms          rms(c)
DAV:   1    -0.160990681706E+03    0.16979E-01   -0.27771E+00  3080   0.328E+00    0.102E+00
DAV:   2    -0.161010270997E+03   -0.19589E-01   -0.20075E-01  4354   0.154E+00    0.846E-01
DAV:   3    -0.161023425614E+03   -0.13155E-01   -0.46606E-02  4676   0.115E+00    0.199E+00
DAV:   4    -0.161009448832E+03    0.13977E-01   -0.21205E-02  4578   0.794E-01    0.316E-01
DAV:   5    -0.161009806919E+03   -0.35809E-03   -0.16445E-03  4340   0.938E-02    0.243E-01
DAV:   6    -0.161009614044E+03    0.19288E-03   -0.13240E-03  4592   0.153E-01    0.307E-01
DAV:   7    -0.161009137958E+03    0.47609E-03   -0.49553E-04  4802   0.114E-01    0.678E-02
DAV:   8    -0.161009303461E+03   -0.16550E-03   -0.13270E-04  4844   0.400E-02    0.470E-02
DAV:   9    -0.161009541853E+03   -0.23839E-03   -0.31241E-05  4480   0.279E-02    0.160E-02
DAV:  10    -0.161009800063E+03   -0.25821E-03   -0.45526E-06  3374   0.788E-03    0.103E-02
DAV:  11    -0.161010063826E+03   -0.26376E-03   -0.30306E-06  3206   0.474E-03    0.479E-03
DAV:  12    -0.161010271252E+03   -0.20743E-03   -0.15383E-06  2702   0.363E-03    0.267E-03
DAV:  13    -0.161010416298E+03   -0.14505E-03   -0.11517E-06  2520   0.332E-03    0.277E-03
DAV:  14    -0.161010543818E+03   -0.12752E-03   -0.12294E-06  2576   0.315E-03    0.169E-03
DAV:  15    -0.161010660010E+03   -0.11619E-03   -0.13391E-06  2646   0.236E-03    0.145E-03
DAV:  16    -0.161010783978E+03   -0.12397E-03   -0.15039E-06  2772   0.198E-03    0.982E-04
DAV:  17    -0.161010893768E+03   -0.10979E-03   -0.22178E-06  2926   0.214E-03    0.740E-04
DAV:  18    -0.161010922959E+03   -0.29190E-04   -0.48513E-07  2506   0.135E-03    0.352E-04
DAV:  19    -0.161010929115E+03   -0.61564E-05   -0.17307E-07  2184   0.116E-03    0.262E-04
DAV:  20    -0.161010931886E+03   -0.27706E-05   -0.11811E-07  2016   0.821E-04    0.200E-04
DAV:  21    -0.161010933185E+03   -0.12994E-05   -0.70855E-08  1988   0.752E-04    0.137E-04
DAV:  22    -0.161010933805E+03   -0.61977E-06   -0.54079E-08  1988   0.536E-04
   7 F= -.16716492E+03 E0= -.16715044E+03  d E =-.199887E-01  mag=    23.0000
       N       E                     dE             d eps       ncg     rms          rms(c)
DAV:   1    -0.160997783547E+03    0.13150E-01   -0.20353E+00  3080   0.285E+00    0.925E-01
DAV:   2    -0.161011645459E+03   -0.13862E-01   -0.11797E-01  4382   0.112E+00    0.479E-01
DAV:   3    -0.161016501439E+03   -0.48560E-02   -0.10194E-02  4690   0.529E-01    0.887E-01
DAV:   4    -0.161013958654E+03    0.25428E-02   -0.42566E-03  4550   0.378E-01    0.213E-01
DAV:   5    -0.161013923122E+03    0.35531E-04   -0.36237E-04  4354   0.576E-02    0.181E-01
DAV:   6    -0.161013804560E+03    0.11856E-03   -0.47417E-04  4480   0.649E-02    0.152E-01
DAV:   7    -0.161013808073E+03   -0.35124E-05   -0.16676E-04  4662   0.670E-02    0.394E-02
DAV:   8    -0.161013930923E+03   -0.12285E-03   -0.41458E-05  4830   0.212E-02    0.207E-02
DAV:   9    -0.161014058475E+03   -0.12755E-03   -0.98215E-06  4214   0.159E-02    0.186E-02
DAV:  10    -0.161014158753E+03   -0.10028E-03   -0.38321E-06  2730   0.101E-02    0.611E-03
DAV:  11    -0.161014277581E+03   -0.11883E-03   -0.35240E-06  3164   0.484E-03    0.253E-03
DAV:  12    -0.161014345144E+03   -0.67562E-04   -0.58980E-07  2408   0.238E-03    0.162E-03
DAV:  13    -0.161014410349E+03   -0.65205E-04   -0.64827E-07  2408   0.215E-03    0.166E-03
DAV:  14    -0.161014466667E+03   -0.56318E-04   -0.69693E-07  2380   0.187E-03    0.107E-03
DAV:  15    -0.161014516249E+03   -0.49581E-04   -0.94993E-07  2590   0.183E-03    0.125E-03
DAV:  16    -0.161014539212E+03   -0.22963E-04   -0.35807E-07  2296   0.155E-03    0.608E-04
DAV:  17    -0.161014562224E+03   -0.23012E-04   -0.64519E-07  2338   0.147E-03    0.731E-04
DAV:  18    -0.161014566980E+03   -0.47564E-05   -0.20833E-07  2002   0.150E-03    0.428E-04
DAV:  19    -0.161014569003E+03   -0.20231E-05   -0.13325E-07  2016   0.822E-04    0.368E-04
DAV:  20    -0.161014571058E+03   -0.20544E-05   -0.10319E-07  1960   0.826E-04    0.282E-04
DAV:  21    -0.161014572202E+03   -0.11448E-05   -0.82443E-08  2016   0.650E-04    0.190E-04
DAV:  22    -0.161014572716E+03   -0.51327E-06   -0.47019E-08  1904   0.583E-04
   8 F= -.16717106E+03 E0= -.16715647E+03  d E =-.613997E-02  mag=    23.0000
       N       E                     dE             d eps       ncg     rms          rms(c)
DAV:   1    -0.161009353986E+03    0.52182E-02   -0.57738E-01  3080   0.151E+00    0.492E-01
DAV:   2    -0.161013184162E+03   -0.38302E-02   -0.33431E-02  4340   0.599E-01    0.254E-01
DAV:   3    -0.161014611399E+03   -0.14272E-02   -0.28264E-03  4690   0.284E-01    0.470E-01
DAV:   4    -0.161013881072E+03    0.73033E-03   -0.11876E-03  4480   0.204E-01    0.113E-01
DAV:   5    -0.161013874185E+03    0.68872E-05   -0.10418E-04  4452   0.326E-02    0.961E-02
DAV:   6    -0.161013810314E+03    0.63871E-04   -0.12779E-04  4424   0.328E-02    0.763E-02
DAV:   7    -0.161013805948E+03    0.43653E-05   -0.45485E-05  4690   0.334E-02    0.209E-02
DAV:   8    -0.161013853157E+03   -0.47209E-04   -0.11031E-05  4494   0.111E-02    0.109E-02
DAV:   9    -0.161013907149E+03   -0.53992E-04   -0.19885E-06  2548   0.805E-03    0.917E-03
DAV:  10    -0.161013955322E+03   -0.48173E-04   -0.17650E-06  2492   0.614E-03    0.301E-03
DAV:  11    -0.161014001000E+03   -0.45678E-04   -0.12881E-06  2324   0.355E-03    0.154E-03
DAV:  12    -0.161014019052E+03   -0.18052E-04   -0.53598E-07  1960   0.280E-03    0.122E-03
DAV:  13    -0.161014037677E+03   -0.18625E-04   -0.31818E-07  2128   0.178E-03    0.975E-04
DAV:  14    -0.161014060578E+03   -0.22900E-04   -0.27739E-07  2142   0.157E-03    0.720E-04
DAV:  15    -0.161014089104E+03   -0.28526E-04   -0.54699E-07  2380   0.144E-03    0.903E-04
DAV:  16    -0.161014096272E+03   -0.71686E-05   -0.16093E-07  1960   0.135E-03    0.410E-04
DAV:  17    -0.161014103530E+03   -0.72577E-05   -0.17089E-07  2086   0.808E-04    0.489E-04
DAV:  18    -0.161014111252E+03   -0.77216E-05   -0.18455E-07  2170   0.100E-03    0.315E-04
DAV:  19    -0.161014113878E+03   -0.26260E-05   -0.12179E-07  1974   0.836E-04    0.248E-04
DAV:  20    -0.161014114847E+03   -0.96939E-06   -0.78360E-08  1890   0.702E-04
   9 F= -.16717193E+03 E0= -.16715728E+03  d E =-.701115E-02  mag=    23.0000
       N       E                     dE             d eps       ncg     rms          rms(c)
DAV:   1    -0.161005610860E+03    0.85030E-02   -0.16337E+00  3080   0.247E+00    0.744E-01
DAV:   2    -0.161014837771E+03   -0.92269E-02   -0.10424E-01  4368   0.105E+00    0.337E-01
DAV:   3    -0.161015936712E+03   -0.10989E-02   -0.20638E-03  4004   0.198E-01    0.310E-01
DAV:   4    -0.161015781325E+03    0.15539E-03   -0.89744E-04  4396   0.168E-01    0.225E-01
DAV:   5    -0.161015650325E+03    0.13100E-03   -0.20312E-04  4802   0.729E-02    0.155E-01
DAV:   6    -0.161015593605E+03    0.56720E-04   -0.43541E-04  3794   0.508E-02    0.861E-02
DAV:   7    -0.161015607351E+03   -0.13746E-04   -0.10511E-04  4312   0.392E-02    0.207E-02
DAV:   8    -0.161015632252E+03   -0.24900E-04   -0.74842E-06  3710   0.123E-02    0.103E-02
DAV:   9    -0.161015670089E+03   -0.37838E-04   -0.19756E-06  2716   0.800E-03    0.667E-03
DAV:  10    -0.161015702803E+03   -0.32714E-04   -0.10870E-06  2282   0.495E-03    0.311E-03
DAV:  11    -0.161015735428E+03   -0.32625E-04   -0.12163E-06  2310   0.309E-03    0.217E-03
DAV:  12    -0.161015753945E+03   -0.18517E-04   -0.50101E-07  2072   0.303E-03    0.140E-03
DAV:  13    -0.161015769030E+03   -0.15085E-04   -0.28369E-07  2100   0.161E-03    0.872E-04
DAV:  14    -0.161015790597E+03   -0.21567E-04   -0.25278E-07  2156   0.144E-03    0.754E-04
DAV:  15    -0.161015808548E+03   -0.17951E-04   -0.25288E-07  2254   0.125E-03    0.657E-04
DAV:  16    -0.161015817379E+03   -0.88313E-05   -0.15528E-07  2016   0.117E-03    0.520E-04
DAV:  17    -0.161015828309E+03   -0.10930E-04   -0.19597E-07  2156   0.937E-04    0.605E-04
DAV:  18    -0.161015840863E+03   -0.12554E-04   -0.32709E-07  2352   0.114E-03    0.396E-04
DAV:  19    -0.161015844117E+03   -0.32540E-05   -0.13536E-07  2030   0.106E-03    0.282E-04
DAV:  20    -0.161015844963E+03   -0.84535E-06   -0.71040E-08  1932   0.704E-04
  10 F= -.16717584E+03 E0= -.16716126E+03  d E =-.390485E-02  mag=    23.0000
       N       E                     dE             d eps       ncg     rms          rms(c)
DAV:   1    -0.161008899072E+03    0.69450E-02   -0.98862E-01  3080   0.192E+00    0.579E-01
DAV:   2    -0.161014456938E+03   -0.55579E-02   -0.63035E-02  4354   0.818E-01    0.260E-01
DAV:   3    -0.161015087888E+03   -0.63095E-03   -0.11421E-03  3990   0.142E-01    0.215E-01
DAV:   4    -0.161015043510E+03    0.44378E-04   -0.47405E-04  4410   0.121E-01    0.183E-01
DAV:   5    -0.161014948065E+03    0.95445E-04   -0.13583E-04  4816   0.646E-02    0.120E-01
DAV:   6    -0.161014912604E+03    0.35462E-04   -0.27335E-04  3710   0.396E-02    0.677E-02
DAV:   7    -0.161014920907E+03   -0.83037E-05   -0.66292E-05  4284   0.306E-02    0.173E-02
DAV:   8    -0.161014938285E+03   -0.17378E-04   -0.40821E-06  3066   0.994E-03    0.794E-03
DAV:   9    -0.161014966509E+03   -0.28223E-04   -0.16332E-06  2436   0.641E-03    0.547E-03
DAV:  10    -0.161014990257E+03   -0.23748E-04   -0.95867E-07  2268   0.494E-03    0.218E-03
DAV:  11    -0.161015012714E+03   -0.22458E-04   -0.87048E-07  2128   0.279E-03    0.174E-03
DAV:  12    -0.161015025731E+03   -0.13016E-04   -0.37952E-07  2002   0.271E-03    0.116E-03
DAV:  13    -0.161015035574E+03   -0.98434E-05   -0.20555E-07  2002   0.139E-03    0.670E-04
DAV:  14    -0.161015051159E+03   -0.15585E-04   -0.17875E-07  2142   0.124E-03    0.674E-04
DAV:  15    -0.161015063963E+03   -0.12805E-04   -0.17528E-07  2170   0.103E-03    0.546E-04
DAV:  16    -0.161015070988E+03   -0.70248E-05   -0.11510E-07  2002   0.975E-04    0.431E-04
DAV:  17    -0.161015076748E+03   -0.57596E-05   -0.10019E-07  2114   0.776E-04    0.460E-04
DAV:  18    -0.161015085838E+03   -0.90906E-05   -0.19975E-07  2282   0.855E-04    0.398E-04
DAV:  19    -0.161015089422E+03   -0.35836E-05   -0.12065E-07  2086   0.913E-04    0.339E-04
DAV:  20    -0.161015089982E+03   -0.56040E-06   -0.55440E-08  1946   0.669E-04
  11 F= -.16717676E+03 E0= -.16716225E+03  d E =-.482869E-02  mag=    23.0000
       N       E                     dE             d eps       ncg     rms          rms(c)
DAV:   1    -0.161007512437E+03    0.75770E-02   -0.86328E-01  3080   0.185E+00    0.606E-01
DAV:   2    -0.161012712793E+03   -0.52004E-02   -0.42415E-02  4186   0.662E-01    0.364E-01
DAV:   3    -0.161016725948E+03   -0.40132E-02   -0.62215E-03  4382   0.427E-01    0.709E-01
DAV:   4    -0.161014974144E+03    0.17518E-02   -0.32294E-03  4578   0.337E-01    0.144E-01
DAV:   5    -0.161014961764E+03    0.12380E-04   -0.24889E-04  4144   0.431E-02    0.118E-01
DAV:   6    -0.161014774856E+03    0.18691E-03   -0.24095E-04  4424   0.663E-02    0.973E-02
DAV:   7    -0.161014703458E+03    0.71398E-04   -0.11768E-04  4550   0.514E-02    0.181E-02
DAV:   8    -0.161014801467E+03   -0.98010E-04   -0.12997E-05  4410   0.134E-02    0.228E-02
DAV:   9    -0.161014905869E+03   -0.10440E-03   -0.44823E-06  2772   0.125E-02    0.871E-03
DAV:  10    -0.161015011317E+03   -0.10545E-03   -0.20133E-06  2688   0.435E-03    0.577E-03
DAV:  11    -0.161015140033E+03   -0.12872E-03   -0.19797E-06  2744   0.352E-03    0.189E-03
DAV:  12    -0.161015212638E+03   -0.72606E-04   -0.59375E-07  2394   0.257E-03    0.142E-03
DAV:  13    -0.161015265267E+03   -0.52628E-04   -0.42470E-07  2184   0.194E-03    0.128E-03
DAV:  14    -0.161015338674E+03   -0.73407E-04   -0.78807E-07  2520   0.205E-03    0.117E-03
DAV:  15    -0.161015410850E+03   -0.72176E-04   -0.10424E-06  2590   0.193E-03    0.823E-04
DAV:  16    -0.161015459325E+03   -0.48475E-04   -0.68369E-07  2450   0.169E-03    0.761E-04
DAV:  17    -0.161015491600E+03   -0.32275E-04   -0.65766E-07  2436   0.167E-03    0.607E-04
DAV:  18    -0.161015498810E+03   -0.72106E-05   -0.23709E-07  2002   0.144E-03    0.315E-04
DAV:  19    -0.161015504705E+03   -0.58942E-05   -0.22524E-07  2114   0.947E-04    0.301E-04
DAV:  20    -0.161015507292E+03   -0.25877E-05   -0.13381E-07  2030   0.104E-03    0.163E-04
DAV:  21    -0.161015507882E+03   -0.58976E-06   -0.77695E-08  1932   0.703E-04
  12 F= -.16717826E+03 E0= -.16716375E+03  d E =-.149904E-02  mag=    23.0000
