CrCl3 2x2 Clean Substrate (D3, U=0) (a_2
   1.0000000000000000     
    12.0925489970493256    0.0000000000000000    0.0000000000000000
    -6.0462744985246628   10.4724546279527502    0.0000000000000000
     0.0000000000000000    0.0000000000000000   20.0000000000000000
   Cr   Cl
     8    24
Direct
  0.1666666666666714  0.3333333333333286  0.5000000000000000
  0.3333333333333286  0.1666666666666714  0.5000000000000000
  0.6666666666666714  0.3333333333333286  0.5000000000000000
  0.8333333333333286  0.1666666666666714  0.5000000000000000
  0.1666666666666714  0.8333333333333286  0.5000000000000000
  0.3333333333333286  0.6666666666666714  0.5000000000000000
  0.6666666666666714  0.8333333333333286  0.5000000000000000
  0.8333333333333286  0.6666666666666714  0.5000000000000000
  0.1794202652596740  0.5000000000000000  0.4336354726750657
  0.5000000000000000  0.1794202652596740  0.4336354726750657
  0.3205797347403261  0.3205797347403261  0.4336354726750657
  0.3205797347403261  0.5000000000000000  0.5663645273249343
  0.0000000000000000  0.3205797347403261  0.5663645273249343
  0.1794202652596740  0.1794202652596740  0.5663645273249343
  0.6794202652596739  0.5000000000000000  0.4336354726750657
 -0.0000000000000000  0.1794202652596740  0.4336354726750657
  0.8205797347403261  0.3205797347403261  0.4336354726750657
  0.8205797347403261  0.5000000000000000  0.5663645273249343
  0.5000000000000000  0.3205797347403261  0.5663645273249343
  0.6794202652596739  0.1794202652596740  0.5663645273249343
  0.1794202652596740  0.0000000000000000  0.4336354726750657
  0.5000000000000000  0.6794202652596739  0.4336354726750657
  0.3205797347403261  0.8205797347403261  0.4336354726750657
  0.3205797347403261  0.0000000000000000  0.5663645273249343
  0.0000000000000000  0.8205797347403261  0.5663645273249343
  0.1794202652596740  0.6794202652596739  0.5663645273249343
  0.6794202652596739  0.0000000000000000  0.4336354726750657
 -0.0000000000000000  0.6794202652596739  0.4336354726750657
  0.8205797347403261  0.8205797347403261  0.4336354726750657
  0.8205797347403261  0.0000000000000000  0.5663645273249343
  0.5000000000000000  0.8205797347403261  0.5663645273249343
  0.6794202652596739  0.6794202652596739  0.5663645273249343

  0.00000000E+00  0.00000000E+00  0.00000000E+00
  0.00000000E+00  0.00000000E+00  0.00000000E+00
  0.00000000E+00  0.00000000E+00  0.00000000E+00
  0.00000000E+00  0.00000000E+00  0.00000000E+00
  0.00000000E+00  0.00000000E+00  0.00000000E+00
  0.00000000E+00  0.00000000E+00  0.00000000E+00
  0.00000000E+00  0.00000000E+00  0.00000000E+00
  0.00000000E+00  0.00000000E+00  0.00000000E+00
  0.00000000E+00  0.00000000E+00  0.00000000E+00
  0.00000000E+00  0.00000000E+00  0.00000000E+00
  0.00000000E+00  0.00000000E+00  0.00000000E+00
  0.00000000E+00  0.00000000E+00  0.00000000E+00
  0.00000000E+00  0.00000000E+00  0.00000000E+00
  0.00000000E+00  0.00000000E+00  0.00000000E+00
  0.00000000E+00  0.00000000E+00  0.00000000E+00
  0.00000000E+00  0.00000000E+00  0.00000000E+00
  0.00000000E+00  0.00000000E+00  0.00000000E+00
  0.00000000E+00  0.00000000E+00  0.00000000E+00
  0.00000000E+00  0.00000000E+00  0.00000000E+00
  0.00000000E+00  0.00000000E+00  0.00000000E+00
  0.00000000E+00  0.00000000E+00  0.00000000E+00
  0.00000000E+00  0.00000000E+00  0.00000000E+00
  0.00000000E+00  0.00000000E+00  0.00000000E+00
  0.00000000E+00  0.00000000E+00  0.00000000E+00
  0.00000000E+00  0.00000000E+00  0.00000000E+00
  0.00000000E+00  0.00000000E+00  0.00000000E+00
  0.00000000E+00  0.00000000E+00  0.00000000E+00
  0.00000000E+00  0.00000000E+00  0.00000000E+00
  0.00000000E+00  0.00000000E+00  0.00000000E+00
  0.00000000E+00  0.00000000E+00  0.00000000E+00
  0.00000000E+00  0.00000000E+00  0.00000000E+00
  0.00000000E+00  0.00000000E+00  0.00000000E+00
