       N       E                     dE             d eps       ncg     rms          rms(c)
DAV:   1     0.207344803899E+04    0.20734E+04   -0.61385E+04  2952   0.915E+02
DAV:   2     0.407405778592E+03   -0.16660E+04   -0.15471E+04  3520   0.246E+02
DAV:   3    -0.127803507712E+03   -0.53521E+03   -0.51951E+03  4112   0.139E+02
DAV:   4    -0.172106503537E+03   -0.44303E+02   -0.43626E+02  4432   0.570E+01
DAV:   5    -0.172975832332E+03   -0.86933E+00   -0.85045E+00  4408   0.100E+01    0.408E+01
DAV:   6    -0.162500532156E+03    0.10475E+02   -0.14714E+02  4288   0.622E+01    0.419E+01
DAV:   7    -0.155983295998E+03    0.65172E+01   -0.23097E+01  4200   0.556E+01    0.199E+01
DAV:   8    -0.156470788796E+03   -0.48749E+00   -0.55312E+00  3744   0.559E+00    0.921E+00
DAV:   9    -0.156205378990E+03    0.26541E+00   -0.11208E+00  4304   0.835E+00    0.282E+00
DAV:  10    -0.156211952463E+03   -0.65735E-02   -0.24091E-01  4248   0.243E+00    0.131E+00
DAV:  11    -0.156225257385E+03   -0.13305E-01   -0.15793E-02  4112   0.834E-01    0.538E-01
DAV:  12    -0.156248009150E+03   -0.22752E-01   -0.73787E-03  4080   0.304E-01    0.285E-01
DAV:  13    -0.156260292288E+03   -0.12283E-01   -0.81358E-04  3800   0.110E-01    0.116E-01
DAV:  14    -0.156268223817E+03   -0.79315E-02   -0.24849E-04  3928   0.485E-02    0.791E-02
DAV:  15    -0.156275801002E+03   -0.75772E-02   -0.14860E-04  3272   0.265E-02    0.366E-02
DAV:  16    -0.156281121667E+03   -0.53207E-02   -0.11553E-04  4088   0.448E-02    0.319E-02
DAV:  17    -0.156282615456E+03   -0.14938E-02   -0.18389E-05  3624   0.147E-02    0.207E-02
DAV:  18    -0.156286030275E+03   -0.34148E-02   -0.10946E-04  3024   0.194E-02    0.216E-02
DAV:  19    -0.156286433889E+03   -0.40361E-03   -0.14986E-05  3456   0.116E-02    0.853E-03
DAV:  20    -0.156286498905E+03   -0.65016E-04   -0.50700E-06  2848   0.597E-03    0.454E-03
DAV:  21    -0.156286603280E+03   -0.10438E-03   -0.15623E-06  2176   0.359E-03    0.370E-03
DAV:  22    -0.156286675995E+03   -0.72715E-04   -0.13038E-06  2176   0.224E-03    0.154E-03
DAV:  23    -0.156286708920E+03   -0.32925E-04   -0.46683E-07  1944   0.168E-03    0.129E-03
DAV:  24    -0.156286744326E+03   -0.35406E-04   -0.12862E-06  2144   0.220E-03    0.195E-03
DAV:  25    -0.156286753540E+03   -0.92138E-05   -0.17731E-07  1816   0.200E-03    0.105E-03
DAV:  26    -0.156286759367E+03   -0.58271E-05   -0.86114E-08  1616   0.675E-04    0.397E-04
DAV:  27    -0.156286769310E+03   -0.99435E-05   -0.99085E-08  1696   0.714E-04    0.742E-04
DAV:  28    -0.156286776085E+03   -0.67744E-05   -0.11807E-07  1768   0.685E-04    0.545E-04
DAV:  29    -0.156286779659E+03   -0.35739E-05   -0.83957E-08  1592   0.788E-04    0.464E-04
DAV:  30    -0.156286780717E+03   -0.10581E-05   -0.54079E-08  1608   0.627E-04    0.198E-04
DAV:  31    -0.156286781247E+03   -0.53038E-06   -0.33375E-08  1568   0.503E-04
   1 F= -.16209994E+03 E0= -.16209994E+03  d E =-.162100E+03  mag=    24.0000
       N       E                     dE             d eps       ncg     rms          rms(c)
DAV:   1    -0.156283832702E+03    0.29480E-02   -0.38962E-01  2880   0.124E+00    0.419E-01
DAV:   2    -0.156286354863E+03   -0.25222E-02   -0.29764E-02  4008   0.677E-01    0.262E-01
DAV:   3    -0.156286213879E+03    0.14098E-03   -0.75804E-04  3880   0.194E-01    0.157E-01
DAV:   4    -0.156286174862E+03    0.39017E-04   -0.82671E-05  4160   0.516E-02    0.129E-01
DAV:   5    -0.156286145255E+03    0.29607E-04   -0.17970E-04  3296   0.306E-02    0.710E-02
DAV:   6    -0.156286153412E+03   -0.81574E-05   -0.56983E-05  4080   0.461E-02    0.150E-02
DAV:   7    -0.156286159266E+03   -0.58538E-05   -0.51807E-06  2560   0.684E-03    0.128E-02
DAV:   8    -0.156286163214E+03   -0.39478E-05   -0.60264E-07  1592   0.357E-03    0.121E-02
DAV:   9    -0.156286168606E+03   -0.53919E-05   -0.95738E-07  1592   0.324E-03    0.438E-03
DAV:  10    -0.156286171738E+03   -0.31322E-05   -0.50403E-07  1624   0.291E-03    0.390E-03
DAV:  11    -0.156286173326E+03   -0.15883E-05   -0.33613E-07  1680   0.270E-03    0.158E-03
DAV:  12    -0.156286175907E+03   -0.25810E-05   -0.17730E-07  1632   0.140E-03    0.954E-04
DAV:  13    -0.156286176578E+03   -0.67052E-06   -0.58775E-08  1664   0.118E-03
   2 F= -.16210338E+03 E0= -.16210338E+03  d E =-.344016E-02  mag=    24.0000
       N       E                     dE             d eps       ncg     rms          rms(c)
DAV:   1    -0.156279204204E+03    0.69717E-02   -0.65017E-01  2944   0.160E+00    0.542E-01
DAV:   2    -0.156283419396E+03   -0.42152E-02   -0.49676E-02  4056   0.874E-01    0.339E-01
DAV:   3    -0.156283176484E+03    0.24291E-03   -0.12678E-03  3840   0.251E-01    0.203E-01
DAV:   4    -0.156283110293E+03    0.66192E-04   -0.13828E-04  4176   0.670E-02    0.167E-01
DAV:   5    -0.156283058523E+03    0.51769E-04   -0.29967E-04  3256   0.395E-02    0.921E-02
DAV:   6    -0.156283069729E+03   -0.11206E-04   -0.96429E-05  4072   0.601E-02    0.195E-02
DAV:   7    -0.156283079993E+03   -0.10264E-04   -0.90901E-06  2944   0.876E-03    0.165E-02
DAV:   8    -0.156283086386E+03   -0.63925E-05   -0.84809E-07  1600   0.392E-03    0.156E-02
DAV:   9    -0.156283095236E+03   -0.88502E-05   -0.21252E-06  1720   0.419E-03    0.631E-03
DAV:  10    -0.156283099649E+03   -0.44126E-05   -0.67643E-07  1624   0.345E-03    0.552E-03
DAV:  11    -0.156283102548E+03   -0.28990E-05   -0.40737E-07  1672   0.302E-03    0.221E-03
DAV:  12    -0.156283106663E+03   -0.41157E-05   -0.26233E-07  1616   0.168E-03    0.124E-03
DAV:  13    -0.156283107899E+03   -0.12356E-05   -0.88700E-08  1664   0.147E-03    0.578E-04
DAV:  14    -0.156283111414E+03   -0.35154E-05   -0.39610E-08  1616   0.704E-04    0.228E-04
DAV:  15    -0.156283112910E+03   -0.14959E-05   -0.16300E-08  1640   0.524E-04    0.261E-04
DAV:  16    -0.156283113870E+03   -0.96018E-06   -0.77796E-09  1616   0.320E-04
   3 F= -.16210554E+03 E0= -.16210554E+03  d E =-.559249E-02  mag=    24.0000
       N       E                     dE             d eps       ncg     rms          rms(c)
DAV:   1    -0.156281231275E+03    0.18816E-02   -0.63623E-02  2920   0.501E-01    0.168E-01
DAV:   2    -0.156281643697E+03   -0.41242E-03   -0.48906E-03  4008   0.275E-01    0.106E-01
DAV:   3    -0.156281624932E+03    0.18765E-04   -0.12320E-04  3840   0.778E-02    0.632E-02
DAV:   4    -0.156281617656E+03    0.72766E-05   -0.13563E-05  3976   0.207E-02    0.521E-02
DAV:   5    -0.156281612528E+03    0.51274E-05   -0.29474E-05  3064   0.124E-02    0.284E-02
DAV:   6    -0.156281614942E+03   -0.24139E-05   -0.90668E-06  3744   0.185E-02    0.630E-03
DAV:   7    -0.156281616922E+03   -0.19796E-05   -0.86953E-07  1632   0.310E-03    0.522E-03
DAV:   8    -0.156281618201E+03   -0.12787E-05   -0.25359E-07  1640   0.222E-03    0.589E-03
DAV:   9    -0.156281619846E+03   -0.16450E-05   -0.76261E-08  1576   0.178E-03    0.189E-03
DAV:  10    -0.156281621426E+03   -0.15807E-05   -0.13758E-07  1592   0.978E-04    0.986E-04
DAV:  11    -0.156281621847E+03   -0.42035E-06   -0.44123E-08  1672   0.106E-03
   4 F= -.16210567E+03 E0= -.16210567E+03  d E =-.573013E-02  mag=    24.0000
       N       E                     dE             d eps       ncg     rms          rms(c)
DAV:   1    -0.156280163406E+03    0.14580E-02   -0.19311E-01  2976   0.866E-01    0.206E-01
DAV:   2    -0.156281215861E+03   -0.10525E-02   -0.12570E-02  4016   0.360E-01    0.112E-01
DAV:   3    -0.156281175328E+03    0.40534E-04   -0.18914E-04  3848   0.770E-02    0.772E-02
DAV:   4    -0.156281165855E+03    0.94727E-05   -0.23377E-05  4224   0.221E-02    0.613E-02
DAV:   5    -0.156281153723E+03    0.12132E-04   -0.41936E-05  3064   0.145E-02    0.359E-02
DAV:   6    -0.156281154656E+03   -0.93319E-06   -0.15726E-05  3976   0.148E-02    0.129E-02
DAV:   7    -0.156281155112E+03   -0.45630E-06   -0.10498E-06  1576   0.351E-03
   5 F= -.16210676E+03 E0= -.16210676E+03  d E =-.108479E-02  mag=    24.0000
