Cr2Cl6 Monolayer 1x1 Primitive Cell     
   1.0000000000000000     
     6.0521721379759574    0.0000000000000000    0.0000000000000000
    -3.0260860689879787    5.2413348195635576    0.0000000000000000
     0.0000000000000000    0.0000000000000000   17.6700000000000017
  Cr              Cl            
     2     6
Direct
     0.3333333333333357    0.6666666666666643    0.5000000000000000
     0.6666666666666643    0.3333333333333357    0.5000000000000000
     0.3547668370414273    1.0000000000000000    0.4234253600516485
     1.0000000000000000    0.3547668370414273    0.4234253600516485
     0.6452331629585727    0.6452331629585727    0.4234253600516485
     0.6452331629585727    1.0000000000000000    0.5765746399483515
     0.0000000000000000    0.6452331629585727    0.5765746399483515
     0.3547668370414273    0.3547668370414273    0.5765746399483515

  0.00000000E+00  0.00000000E+00  0.00000000E+00
  0.00000000E+00  0.00000000E+00  0.00000000E+00
  0.00000000E+00  0.00000000E+00  0.00000000E+00
  0.00000000E+00  0.00000000E+00  0.00000000E+00
  0.00000000E+00  0.00000000E+00  0.00000000E+00
  0.00000000E+00  0.00000000E+00  0.00000000E+00
  0.00000000E+00  0.00000000E+00  0.00000000E+00
  0.00000000E+00  0.00000000E+00  0.00000000E+00
