       N       E                     dE             d eps       ncg     rms          rms(c)
DAV:   1     0.522721541952E+03    0.52272E+03   -0.15610E+04  2304   0.922E+02
DAV:   2     0.882193633413E+02   -0.43450E+03   -0.41270E+03  2960   0.243E+02
DAV:   3    -0.308915031814E+02   -0.11911E+03   -0.11676E+03  3260   0.133E+02
DAV:   4    -0.382337015284E+02   -0.73422E+01   -0.72268E+01  3160   0.459E+01
DAV:   5    -0.384583242523E+02   -0.22462E+00   -0.22373E+00  3312   0.791E+00    0.196E+01
DAV:   6    -0.360552116644E+02    0.24031E+01   -0.40307E+01  3392   0.610E+01    0.192E+01
DAV:   7    -0.354822456028E+02    0.57297E+00   -0.44048E+00  3348   0.405E+01    0.945E+00
DAV:   8    -0.356352145382E+02   -0.15297E+00   -0.98873E-01  3048   0.494E+00    0.462E+00
DAV:   9    -0.356323475122E+02    0.28670E-02   -0.18641E-01  3448   0.759E+00    0.123E+00
DAV:  10    -0.356397047540E+02   -0.73572E-02   -0.50470E-02  3392   0.301E+00    0.429E-01
DAV:  11    -0.356479996732E+02   -0.82949E-02   -0.24891E-03  2952   0.436E-01    0.273E-01
DAV:  12    -0.356597042518E+02   -0.11705E-01   -0.11467E-03  3432   0.349E-01    0.164E-01
DAV:  13    -0.356685640054E+02   -0.88598E-02   -0.30950E-04  3124   0.130E-01    0.521E-02
DAV:  14    -0.356718624526E+02   -0.32984E-02   -0.76413E-05  3356   0.144E-01    0.365E-02
DAV:  15    -0.356736733992E+02   -0.18109E-02   -0.25026E-05  2744   0.316E-02    0.207E-02
DAV:  16    -0.356780877246E+02   -0.44143E-02   -0.59057E-05  2952   0.627E-02    0.152E-02
DAV:  17    -0.356783859119E+02   -0.29819E-03   -0.63194E-06  2428   0.153E-02    0.137E-02
DAV:  18    -0.356786462029E+02   -0.26029E-03   -0.53242E-06  2392   0.117E-02    0.723E-03
DAV:  19    -0.356786923747E+02   -0.46172E-04   -0.31569E-06  1972   0.150E-02    0.245E-03
DAV:  20    -0.356786772596E+02    0.15115E-04   -0.43285E-06  2212   0.813E-03    0.297E-03
DAV:  21    -0.356786762961E+02    0.96347E-06   -0.57986E-07  1812   0.588E-03
   1 F= -.36597868E+02 E0= -.36597868E+02  d E =-.365979E+02  mag=     6.0000
       N       E                     dE             d eps       ncg     rms          rms(c)
DAV:   1    -0.356808311389E+02   -0.21539E-02   -0.10168E-01  2656   0.157E+00    0.310E-01
DAV:   2    -0.356807171836E+02    0.11396E-03   -0.96905E-03  3472   0.798E-01    0.167E-01
DAV:   3    -0.356805352077E+02    0.18198E-03   -0.73620E-04  3408   0.380E-01    0.117E-01
DAV:   4    -0.356804896254E+02    0.45582E-04   -0.97925E-05  3532   0.738E-02    0.577E-02
DAV:   5    -0.356804675510E+02    0.22074E-04   -0.71566E-05  3128   0.393E-02    0.348E-02
DAV:   6    -0.356804697829E+02   -0.22319E-05   -0.15979E-05  3272   0.760E-02    0.139E-02
DAV:   7    -0.356804697088E+02    0.74074E-07   -0.22522E-06  2012   0.279E-02
   2 F= -.36598438E+02 E0= -.36598438E+02  d E =-.570109E-03  mag=     6.0000
       N       E                     dE             d eps       ncg     rms          rms(c)
DAV:   1    -0.356804832653E+02   -0.13482E-04   -0.77638E-06  2548   0.173E-02    0.515E-03
DAV:   2    -0.356804849086E+02   -0.16433E-05   -0.50286E-07  1472   0.488E-03    0.282E-03
DAV:   3    -0.356804871334E+02   -0.22248E-05   -0.24359E-07  1444   0.549E-03    0.236E-03
DAV:   4    -0.356804883523E+02   -0.12189E-05   -0.10040E-07  1472   0.300E-03    0.648E-04
DAV:   5    -0.356804895468E+02   -0.11945E-05   -0.62595E-08  1392   0.199E-03    0.809E-04
DAV:   6    -0.356804906458E+02   -0.10990E-05   -0.33218E-08  1420   0.150E-03    0.340E-04
DAV:   7    -0.356804929923E+02   -0.23465E-05   -0.98928E-08  1516   0.134E-03    0.317E-04
DAV:   8    -0.356804929390E+02    0.53266E-07   -0.22845E-08  1464   0.144E-03
   3 F= -.36598449E+02 E0= -.36598449E+02  d E =-.580819E-03  mag=     6.0000
       N       E                     dE             d eps       ncg     rms          rms(c)
DAV:   1    -0.356800206589E+02    0.47233E-03   -0.16448E-02  2580   0.617E-01    0.955E-02
DAV:   2    -0.356799705255E+02    0.50133E-04   -0.15776E-03  3404   0.230E-01    0.410E-02
DAV:   3    -0.356799428580E+02    0.27668E-04   -0.79801E-05  3276   0.136E-01    0.417E-02
DAV:   4    -0.356799386966E+02    0.41614E-05   -0.13695E-05  3324   0.442E-02    0.198E-02
DAV:   5    -0.356799372425E+02    0.14541E-05   -0.12174E-05  3344   0.218E-02    0.131E-02
DAV:   6    -0.356799384371E+02   -0.11946E-05   -0.10121E-06  1724   0.231E-02    0.611E-03
DAV:   7    -0.356799395826E+02   -0.11454E-05   -0.96006E-07  1476   0.763E-03    0.317E-03
DAV:   8    -0.356799400361E+02   -0.45356E-06   -0.49877E-07  1480   0.457E-03
   4 F= -.36598580E+02 E0= -.36598580E+02  d E =-.131407E-03  mag=     6.0000
