Cr8Cl24Fe1                              
   1.00000000000000     
    12.0969953537000006    0.0000000000000000    0.0000000000000000
    -6.0484976768000003   10.4763052858000005    0.0000000000000000
     0.0000000000000000    0.0000000000000000   17.6700248717999990
   Cr   Cl   Fe   H 
     8    24     1     1
Direct
     0.1658875067148058    0.8311117514716196    0.3322244907892271
     0.1605677707469067    0.3282068922497032    0.3380390711075439
     0.6624669121713621    0.8351776300789514    0.3416760198293932
     0.6657270159028273    0.3313388194348972    0.3377861487266089
     0.8374111691353713    0.6602434008571109    0.3324790032317320
     0.8295535928808945    0.1653842222758998    0.3376312659524423
     0.3320116690318373    0.6695941245295282    0.3387748041396103
     0.3257003833791125    0.1608989321919821    0.3367315640411699
     0.1767273618674494    0.0003673318056751    0.2574239078367646
     0.1778962381241956    0.4987133936665464    0.2635036374497060
     0.6735148940808425    0.9983283545957264    0.2620237108904679
     0.6657745872849147    0.4902923014078543    0.2621379868430177
     0.3315186742009136    0.8252825337471987    0.2605231556718894
     0.3206533769056895    0.3230319588747822    0.2637672944834759
     0.8117532548394211    0.8209451402464496    0.2643084133825053
     0.8196525354421290    0.3209827585293374    0.2607672271338996
     0.0205548047072279    0.6831834065585606    0.2478995937884839
     0.9966863470279396    0.1761748668049440    0.2608272587001159
     0.4983440210296504    0.6710771915472792    0.2684518706972870
     0.4952667038630451    0.1744819003583249    0.2629296450109902
     0.0037718751346935    0.8211421731001783    0.4100406177977652
     0.9964961963881360    0.3214772013566096    0.4141514969690778
     0.4931822675247487    0.8263874429399695    0.4163865702985038
     0.4940568775509273    0.3161974382075224    0.4191608319791045
     0.3190330465230017    0.9984993565730431    0.4128256221257017
     0.3140568282405747    0.4971846811989090    0.4213164486824829
     0.8208376108814729    0.0027183718759838    0.4159043316841263
     0.8161217423949571    0.4908487431481527    0.4168252033314297
     0.1730064715468319    0.6756479352974870    0.4118464406208687
     0.1696333177247354    0.1712429842085487    0.4137363387027431
     0.6731116996958106    0.6926143101727192    0.4336331471338302
     0.6731547444146652    0.1733184399641046    0.4141481262051467
     0.5011262137760696    0.5025096380509800    0.4785813744300813
     0.4747565058668546    0.4689607236734543    0.5674334483327883
 
  0.00000000E+00  0.00000000E+00  0.00000000E+00
  0.00000000E+00  0.00000000E+00  0.00000000E+00
  0.00000000E+00  0.00000000E+00  0.00000000E+00
  0.00000000E+00  0.00000000E+00  0.00000000E+00
  0.00000000E+00  0.00000000E+00  0.00000000E+00
  0.00000000E+00  0.00000000E+00  0.00000000E+00
  0.00000000E+00  0.00000000E+00  0.00000000E+00
  0.00000000E+00  0.00000000E+00  0.00000000E+00
  0.00000000E+00  0.00000000E+00  0.00000000E+00
  0.00000000E+00  0.00000000E+00  0.00000000E+00
  0.00000000E+00  0.00000000E+00  0.00000000E+00
  0.00000000E+00  0.00000000E+00  0.00000000E+00
  0.00000000E+00  0.00000000E+00  0.00000000E+00
  0.00000000E+00  0.00000000E+00  0.00000000E+00
  0.00000000E+00  0.00000000E+00  0.00000000E+00
  0.00000000E+00  0.00000000E+00  0.00000000E+00
  0.00000000E+00  0.00000000E+00  0.00000000E+00
  0.00000000E+00  0.00000000E+00  0.00000000E+00
  0.00000000E+00  0.00000000E+00  0.00000000E+00
  0.00000000E+00  0.00000000E+00  0.00000000E+00
  0.00000000E+00  0.00000000E+00  0.00000000E+00
  0.00000000E+00  0.00000000E+00  0.00000000E+00
  0.00000000E+00  0.00000000E+00  0.00000000E+00
  0.00000000E+00  0.00000000E+00  0.00000000E+00
  0.00000000E+00  0.00000000E+00  0.00000000E+00
  0.00000000E+00  0.00000000E+00  0.00000000E+00
  0.00000000E+00  0.00000000E+00  0.00000000E+00
  0.00000000E+00  0.00000000E+00  0.00000000E+00
  0.00000000E+00  0.00000000E+00  0.00000000E+00
  0.00000000E+00  0.00000000E+00  0.00000000E+00
  0.00000000E+00  0.00000000E+00  0.00000000E+00
  0.00000000E+00  0.00000000E+00  0.00000000E+00
  0.00000000E+00  0.00000000E+00  0.00000000E+00
  0.00000000E+00  0.00000000E+00  0.00000000E+00
