CrCl3 2x2 + Fe + H | Pore-Penetrated GS | H_ads | U_all=3.29eV
   1.00000000000000     
    12.0969953537000006    0.0000000000000000    0.0000000000000000
    -6.0484976768000003   10.4763052858000005    0.0000000000000000
     0.0000000000000000    0.0000000000000000   17.6700248717999990
   Cr   Cl   Fe   H 
     8    24     1     1
Direct
     0.1633323919233757    0.8310769197932288    0.3367654698914408
     0.1596316227952576    0.3255237938955436    0.3385226056154154
     0.6614987070934089    0.8352799245077646    0.3388685110143358
     0.6693327108468362    0.3333229578535731    0.3379905402248997
     0.8340325541745274    0.6626163321725467    0.3384507945271344
     0.8301064350904604    0.1645487732719048    0.3367282728395033
     0.3321900559814857    0.6706061981283697    0.3389704469122014
     0.3242500057013641    0.1607917843175809    0.3379997577795711
     0.1722130608692194    0.9949727494456221    0.2587904669345106
     0.1770403233337316    0.4984417748893381    0.2647282123392698
     0.6745403038366702    0.0000044143814264    0.2594661427111837
     0.6732332597444319    0.4982089163148220    0.2637197561035135
     0.3190534212005850    0.8222572099492889    0.2594997769524660
     0.3201358777152855    0.3215834504116440    0.2636858983486340
     0.8166639826737460    0.8182915117096452    0.2647310090923156
     0.8212551886897400    0.3194799002836188    0.2587256382688385
     0.9996551889152699    0.6761059834054696    0.2591028245734285
     0.9939760227167748    0.1733864172636767    0.2590820334644725
     0.4968109087935546    0.6743843903250117    0.2643994759671833
     0.4966727756367383    0.1783763068318615    0.2635476920260482
     0.9987320019384430    0.8202426794150096    0.4152095411614118
     0.9948427585314656    0.3183997448775463    0.4151128497538139
     0.4968053422831109    0.8262890339810773    0.4168204990259762
     0.4963671640737657    0.3144714044679427    0.4212340615946283
     0.3175827885549533    0.9965068560598155    0.4146071623738621
     0.3145499507350191    0.4977808881809747    0.4223418805886731
     0.8189571930415865    0.9998412005322004    0.4153969596843115
     0.8243907319380090    0.4974369334786762    0.4162074678303376
     0.1747008756179585    0.6776871690222265    0.4154006022614724
     0.1691106692443085    0.1698828648463983    0.4161408925804384
     0.6788998963345244    0.6801512165668556    0.4223951976217851
     0.6758818381726116    0.1755769226846937    0.4145748733977704
     0.4972050507696107    0.4976971493521678    0.4676584705194715
     0.4963631580321638    0.4923425783824977    0.5590202840196841
 
  0.00000000E+00  0.00000000E+00  0.00000000E+00
  0.00000000E+00  0.00000000E+00  0.00000000E+00
  0.00000000E+00  0.00000000E+00  0.00000000E+00
  0.00000000E+00  0.00000000E+00  0.00000000E+00
  0.00000000E+00  0.00000000E+00  0.00000000E+00
  0.00000000E+00  0.00000000E+00  0.00000000E+00
  0.00000000E+00  0.00000000E+00  0.00000000E+00
  0.00000000E+00  0.00000000E+00  0.00000000E+00
  0.00000000E+00  0.00000000E+00  0.00000000E+00
  0.00000000E+00  0.00000000E+00  0.00000000E+00
  0.00000000E+00  0.00000000E+00  0.00000000E+00
  0.00000000E+00  0.00000000E+00  0.00000000E+00
  0.00000000E+00  0.00000000E+00  0.00000000E+00
  0.00000000E+00  0.00000000E+00  0.00000000E+00
  0.00000000E+00  0.00000000E+00  0.00000000E+00
  0.00000000E+00  0.00000000E+00  0.00000000E+00
  0.00000000E+00  0.00000000E+00  0.00000000E+00
  0.00000000E+00  0.00000000E+00  0.00000000E+00
  0.00000000E+00  0.00000000E+00  0.00000000E+00
  0.00000000E+00  0.00000000E+00  0.00000000E+00
  0.00000000E+00  0.00000000E+00  0.00000000E+00
  0.00000000E+00  0.00000000E+00  0.00000000E+00
  0.00000000E+00  0.00000000E+00  0.00000000E+00
  0.00000000E+00  0.00000000E+00  0.00000000E+00
  0.00000000E+00  0.00000000E+00  0.00000000E+00
  0.00000000E+00  0.00000000E+00  0.00000000E+00
  0.00000000E+00  0.00000000E+00  0.00000000E+00
  0.00000000E+00  0.00000000E+00  0.00000000E+00
  0.00000000E+00  0.00000000E+00  0.00000000E+00
  0.00000000E+00  0.00000000E+00  0.00000000E+00
  0.00000000E+00  0.00000000E+00  0.00000000E+00
  0.00000000E+00  0.00000000E+00  0.00000000E+00
  0.00000000E+00  0.00000000E+00  0.00000000E+00
  0.00000000E+00  0.00000000E+00  0.00000000E+00
