CrCl3 3x3 Clean Substrate (no_vdw, U=0) (a=18.1388A, c=20.0000A)
1.0
   18.1388234955739875    0.0000000000000000    0.0000000000000000
   -9.0694117477869938   15.7086819419291253    0.0000000000000000
    0.0000000000000000    0.0000000000000000   20.0000000000000000
  Cr  Cl
  18  54
Direct
    0.1111111111111119    0.2222222222222214    0.5000000000000000
    0.2222222222222214    0.1111111111111119    0.5000000000000000
    0.1111111111111119    0.5555555555555547    0.5000000000000000
    0.2222222222222214    0.4444444444444452    0.5000000000000000
    0.1111111111111119    0.8888888888888881    0.5000000000000000
    0.2222222222222214    0.7777777777777786    0.5000000000000000
    0.4444444444444452    0.2222222222222214    0.5000000000000000
    0.5555555555555547    0.1111111111111119    0.5000000000000000
    0.4444444444444452    0.5555555555555547    0.5000000000000000
    0.5555555555555547    0.4444444444444452    0.5000000000000000
    0.4444444444444452    0.8888888888888881    0.5000000000000000
    0.5555555555555547    0.7777777777777786    0.5000000000000000
    0.7777777777777786    0.2222222222222214    0.5000000000000000
    0.8888888888888881    0.1111111111111119    0.5000000000000000
    0.7777777777777786    0.5555555555555547    0.5000000000000000
    0.8888888888888881    0.4444444444444452    0.5000000000000000
    0.7777777777777786    0.8888888888888881    0.5000000000000000
    0.8888888888888881    0.7777777777777786    0.5000000000000000
    0.1197667322878718    0.3333333333333333    0.4332138067400734
    0.3333333333333333    0.1197667322878718    0.4332138067400734
    0.2135666010454615    0.2135666010454615    0.4332138067400734
    0.2135666010454615    0.3333333333333333    0.5667861932599265
    0.0000000000000000    0.2135666010454615    0.5667861932599265
    0.1197667322878718    0.1197667322878718    0.5667861932599265
    0.1197667322878718    0.6666666666666666    0.4332138067400734
    0.3333333333333333    0.4531000656212051    0.4332138067400734
    0.2135666010454615    0.5468999343787948    0.4332138067400734
    0.2135666010454615    0.6666666666666666    0.5667861932599265
    0.0000000000000000    0.5468999343787948    0.5667861932599265
    0.1197667322878718    0.4531000656212051    0.5667861932599265
    0.1197667322878718    0.0000000000000000    0.4332138067400734
    0.3333333333333333    0.7864333989545385    0.4332138067400734
    0.2135666010454615    0.8802332677121281    0.4332138067400734
    0.2135666010454615    0.0000000000000000    0.5667861932599265
    0.0000000000000000    0.8802332677121281    0.5667861932599265
    0.1197667322878718    0.7864333989545385    0.5667861932599265
    0.4531000656212051    0.3333333333333333    0.4332138067400734
    0.6666666666666666    0.1197667322878718    0.4332138067400734
    0.5468999343787948    0.2135666010454615    0.4332138067400734
    0.5468999343787948    0.3333333333333333    0.5667861932599265
    0.3333333333333333    0.2135666010454615    0.5667861932599265
    0.4531000656212051    0.1197667322878718    0.5667861932599265
    0.4531000656212051    0.6666666666666666    0.4332138067400734
    0.6666666666666666    0.4531000656212051    0.4332138067400734
    0.5468999343787948    0.5468999343787948    0.4332138067400734
    0.5468999343787948    0.6666666666666666    0.5667861932599265
    0.3333333333333333    0.5468999343787948    0.5667861932599265
    0.4531000656212051    0.4531000656212051    0.5667861932599265
    0.4531000656212051    0.0000000000000000    0.4332138067400734
    0.6666666666666666    0.7864333989545385    0.4332138067400734
    0.5468999343787948    0.8802332677121281    0.4332138067400734
    0.5468999343787948    0.0000000000000000    0.5667861932599265
    0.3333333333333333    0.8802332677121281    0.5667861932599265
    0.4531000656212051    0.7864333989545385    0.5667861932599265
    0.7864333989545385    0.3333333333333333    0.4332138067400734
    0.0000000000000000    0.1197667322878718    0.4332138067400734
    0.8802332677121281    0.2135666010454615    0.4332138067400734
    0.8802332677121281    0.3333333333333333    0.5667861932599265
    0.6666666666666666    0.2135666010454615    0.5667861932599265
    0.7864333989545385    0.1197667322878718    0.5667861932599265
    0.7864333989545385    0.6666666666666666    0.4332138067400734
    0.0000000000000000    0.4531000656212051    0.4332138067400734
    0.8802332677121281    0.5468999343787948    0.4332138067400734
    0.8802332677121281    0.6666666666666666    0.5667861932599265
    0.6666666666666666    0.5468999343787948    0.5667861932599265
    0.7864333989545385    0.4531000656212051    0.5667861932599265
    0.7864333989545385    0.0000000000000000    0.4332138067400734
    0.0000000000000000    0.7864333989545385    0.4332138067400734
    0.8802332677121281    0.8802332677121281    0.4332138067400734
    0.8802332677121281    0.0000000000000000    0.5667861932599265
    0.6666666666666666    0.8802332677121281    0.5667861932599265
    0.7864333989545385    0.7864333989545385    0.5667861932599265
