Cr8Cl24                                 
   1.0000000000000000     
    12.1682319641000003    0.0000000000000000    0.0000000000000000
    -6.1300719177999996   10.5529468652999991    0.0000000000000000
     0.0000000000000000    0.0000000000000000   17.6887664794999999
   Cr   Cl   Ni   H 
     8    24     1     1
Direct
  0.1531800952286529  0.3340572754174129  0.3317990654135825
  0.1550724421965629  0.8321537543490493  0.3372346590224625
  0.6498316197406637  0.3384377896636445  0.3430229742997838
  0.6644821059457390  0.8558375632007658  0.3392707575752251
  0.8252644178728911  0.1834319600328587  0.3364596415366368
  0.8274598280219404  0.6849957675306286  0.3440536528819792
  0.3157479428131992  0.1596406203016046  0.3382650736035816
  0.3309318993357457  0.6797673294265218  0.3334773024861236
  0.1795612211695402  0.5077183566848297  0.2590081053308911
  0.1651285966391765 -0.0031888790790741  0.2619564786226024
  0.6378118107032718  0.5038457605147151  0.2737209405134453
  0.6691423768307232  0.0154609492761148  0.2637023433814725
  0.3101542247562433  0.3171687127900472  0.2560810547583624
  0.3060275844684919  0.8252632995006118  0.2573168995115599
  0.8062645308921930  0.3366073047455372  0.2650577520095522
  0.8185142744111761  0.8393223615839914  0.2673788615217398
  0.9813269334280093  0.1890506880931825  0.2553821613910390
  0.9805821033650095  0.6798899696211956  0.2655999968510832
  0.4880100478672069  0.1800197831294997  0.2672669718420276
  0.5038668135265346  0.7008363638079281  0.2612388361107120
  0.9967677075339096  0.3358616499390245  0.4088809955643943
  0.0030186615497418  0.8295908647208436  0.4191065882245941
  0.4761724857048826  0.3065377146798295  0.4234464270703053
  0.4925786319968515  0.8353796939083757  0.4112912901817793
  0.3326265395871542  0.5029476092426896  0.4040859374405484
  0.3096413110072094  0.9960231363427376  0.4119796646918979
  0.7999711564785638  0.5092725552692098  0.4170187316632741
  0.8176730711626187  0.0220701449390549  0.4123925750483046
  0.1587541300296655  0.1757395219437045  0.4068235437763009
  0.1721736099542571  0.6782562443066472  0.4094812474870064
  0.6759759652118148  0.1911236315852733  0.4169798304064529
  0.6903682230082052  0.7193363901767029  0.4252376345379346
  0.4632207994374888  0.4541961060306282  0.3426215963909621
  0.5526152771250199  0.5485636693239558  0.3936004838522016

  0.00000000E+00  0.00000000E+00  0.00000000E+00
  0.00000000E+00  0.00000000E+00  0.00000000E+00
  0.00000000E+00  0.00000000E+00  0.00000000E+00
  0.00000000E+00  0.00000000E+00  0.00000000E+00
  0.00000000E+00  0.00000000E+00  0.00000000E+00
  0.00000000E+00  0.00000000E+00  0.00000000E+00
  0.00000000E+00  0.00000000E+00  0.00000000E+00
  0.00000000E+00  0.00000000E+00  0.00000000E+00
  0.00000000E+00  0.00000000E+00  0.00000000E+00
  0.00000000E+00  0.00000000E+00  0.00000000E+00
  0.00000000E+00  0.00000000E+00  0.00000000E+00
  0.00000000E+00  0.00000000E+00  0.00000000E+00
  0.00000000E+00  0.00000000E+00  0.00000000E+00
  0.00000000E+00  0.00000000E+00  0.00000000E+00
  0.00000000E+00  0.00000000E+00  0.00000000E+00
  0.00000000E+00  0.00000000E+00  0.00000000E+00
  0.00000000E+00  0.00000000E+00  0.00000000E+00
  0.00000000E+00  0.00000000E+00  0.00000000E+00
  0.00000000E+00  0.00000000E+00  0.00000000E+00
  0.00000000E+00  0.00000000E+00  0.00000000E+00
  0.00000000E+00  0.00000000E+00  0.00000000E+00
  0.00000000E+00  0.00000000E+00  0.00000000E+00
  0.00000000E+00  0.00000000E+00  0.00000000E+00
  0.00000000E+00  0.00000000E+00  0.00000000E+00
  0.00000000E+00  0.00000000E+00  0.00000000E+00
  0.00000000E+00  0.00000000E+00  0.00000000E+00
  0.00000000E+00  0.00000000E+00  0.00000000E+00
  0.00000000E+00  0.00000000E+00  0.00000000E+00
  0.00000000E+00  0.00000000E+00  0.00000000E+00
  0.00000000E+00  0.00000000E+00  0.00000000E+00
  0.00000000E+00  0.00000000E+00  0.00000000E+00
  0.00000000E+00  0.00000000E+00  0.00000000E+00
  0.00000000E+00  0.00000000E+00  0.00000000E+00
  0.00000000E+00  0.00000000E+00  0.00000000E+00
