# Phase 2 (+U) Fast Continuation: Co-Embedded + H on Monolayer CrCl3
PREC     = Accurate
ENCUT    = 400.0
EDIFF    = 1.0E-05
NELM     = 100
NELMIN   = 4
ISMEAR   = 0
SIGMA    = 0.05
ISPIN    = 2
MAGMOM   = 8*3.0 24*0.0 1*2.0 1*0.0
LREAL    = Auto
NCORE    = 4
IVDW     = 12
IBRION   = 2
NSW      = 40
POTIM    = 0.25
EDIFFG   = -0.02
ALGO     = Fast
ISTART   = 1

# DFT+U Settings
LDAU     = .TRUE.
LDAUTYPE = 2
LDAUL    = 2 -1 -1 -1
LDAUU    = 3.29 0.0 0.0 0.0
LDAUJ    = 0.0 0.0 0.0 0.0
LMAXMIX  = 4
