CrCl3 2x2 + Ni S1 top-Cl (D3, U=0) (a_2x
   1.00000000000000     
    12.0925489970493256    0.0000000000000000    0.0000000000000000
    -6.0462744985246628   10.4724546279527502    0.0000000000000000
     0.0000000000000000    0.0000000000000000   20.0000000000000000
   Cr   Cl   Ni
     8    24     1
Direct
     0.1673937307024280    0.3408448636052018    0.5002951480954119
     0.3299565976283044    0.1744313490965689    0.5000096333718704
     0.6700434023716959    0.3444747514682504    0.5000096333718704
     0.8366779586915932    0.1707440999821815    0.5034037023621196
     0.1633220413084067    0.8340661412905671    0.5034037023621196
     0.3335313099888173    0.6725653054141119    0.5037009493214054
     0.6664686900111828    0.8390339954252806    0.5037009493214054
     0.8326062692975651    0.6734511329027880    0.5002951480954119
     0.1803617162336094    0.5090386863187933    0.4354992132126373
     0.5000000000000000    0.1863889761615350    0.4352287733988138
     0.3217007951730241    0.3303088294906190    0.4335506220310557
     0.3223222818313760    0.5046939804321811    0.5681360223489337
     0.0040358521706590    0.3284254117374310    0.5682603426979693
     0.1770373216052386    0.1856369415504672    0.5671059751763905
     0.6782992048269761    0.5086080343176020    0.4335506220310557
     0.0033661324959841    0.1860401522108818    0.4337292072181383
     0.8210686002647002    0.3235721433514432    0.4366300207675340
     0.8229626783947613    0.5085996199452284    0.5671059751763905
     0.5000000000000000    0.3248190856645015    0.5714450130226721
     0.6983714174002731    0.1932941818888269    0.5828214312168625
     0.1789313997353001    0.0025035430867433    0.4366300207675340
     0.5000000000000000    0.6863346108496257    0.4369595205839350
     0.3249642074810080    0.8309705887297383    0.4398787832994692
     0.3016285825997270    0.9949227644885540    0.5828214312168625
     0.9959641478293413    0.8243895595667716    0.5682603426979693
     0.1751990132666374    0.6783956511698176    0.5692844747159201
     0.6750357925189919    0.0060063812487301    0.4398787832994692
     0.9966338675040155    0.6826740197148976    0.4337292072181383
     0.8196382837663901    0.8286769700851842    0.4354992132126373
     0.8248009867333623    0.0031966379031802    0.5692844747159201
     0.5000000000000000    0.8253250879011854    0.5715609988480556
     0.6776777181686240    0.6823716986008125    0.5681360223489337
     0.5000000000000000    0.1355447059685060    0.5794808357350150
 
  0.00000000E+00  0.00000000E+00  0.00000000E+00
  0.00000000E+00  0.00000000E+00  0.00000000E+00
  0.00000000E+00  0.00000000E+00  0.00000000E+00
  0.00000000E+00  0.00000000E+00  0.00000000E+00
  0.00000000E+00  0.00000000E+00  0.00000000E+00
  0.00000000E+00  0.00000000E+00  0.00000000E+00
  0.00000000E+00  0.00000000E+00  0.00000000E+00
  0.00000000E+00  0.00000000E+00  0.00000000E+00
  0.00000000E+00  0.00000000E+00  0.00000000E+00
  0.00000000E+00  0.00000000E+00  0.00000000E+00
  0.00000000E+00  0.00000000E+00  0.00000000E+00
  0.00000000E+00  0.00000000E+00  0.00000000E+00
  0.00000000E+00  0.00000000E+00  0.00000000E+00
  0.00000000E+00  0.00000000E+00  0.00000000E+00
  0.00000000E+00  0.00000000E+00  0.00000000E+00
  0.00000000E+00  0.00000000E+00  0.00000000E+00
  0.00000000E+00  0.00000000E+00  0.00000000E+00
  0.00000000E+00  0.00000000E+00  0.00000000E+00
  0.00000000E+00  0.00000000E+00  0.00000000E+00
  0.00000000E+00  0.00000000E+00  0.00000000E+00
  0.00000000E+00  0.00000000E+00  0.00000000E+00
  0.00000000E+00  0.00000000E+00  0.00000000E+00
  0.00000000E+00  0.00000000E+00  0.00000000E+00
  0.00000000E+00  0.00000000E+00  0.00000000E+00
  0.00000000E+00  0.00000000E+00  0.00000000E+00
  0.00000000E+00  0.00000000E+00  0.00000000E+00
  0.00000000E+00  0.00000000E+00  0.00000000E+00
  0.00000000E+00  0.00000000E+00  0.00000000E+00
  0.00000000E+00  0.00000000E+00  0.00000000E+00
  0.00000000E+00  0.00000000E+00  0.00000000E+00
  0.00000000E+00  0.00000000E+00  0.00000000E+00
  0.00000000E+00  0.00000000E+00  0.00000000E+00
  0.00000000E+00  0.00000000E+00  0.00000000E+00
