       N       E                     dE             d eps       ncg     rms          rms(c)
DAV:   1     0.213521430680E+04    0.21352E+04   -0.65213E+04  5484   0.929E+02
DAV:   2     0.417017402795E+03   -0.17182E+04   -0.15955E+04  6384   0.250E+02
DAV:   3    -0.130934413135E+03   -0.54795E+03   -0.53173E+03  8076   0.140E+02
DAV:   4    -0.174080366809E+03   -0.43146E+02   -0.42558E+02  8196   0.553E+01
DAV:   5    -0.175049617041E+03   -0.96925E+00   -0.96080E+00  8340   0.974E+00    0.422E+01
DAV:   6    -0.186843974759E+03   -0.11794E+02   -0.26524E+02  7866   0.655E+01    0.841E+01
DAV:   7    -0.169149051306E+03    0.17695E+02   -0.29683E+01  9048   0.551E+01    0.386E+01
DAV:   8    -0.161472905629E+03    0.76761E+01   -0.19727E+01  8604   0.325E+01    0.204E+01
DAV:   9    -0.158755676123E+03    0.27172E+01   -0.11357E+01  8496   0.363E+01    0.888E+00
DAV:  10    -0.159020844890E+03   -0.26517E+00   -0.58837E+00  8304   0.909E+00    0.133E+01
DAV:  11    -0.158779496766E+03    0.24135E+00   -0.18375E+00  8130   0.608E+00    0.435E+00
DAV:  12    -0.158951048455E+03   -0.17155E+00   -0.51089E-01  8070   0.441E+00    0.359E+00
DAV:  13    -0.159048895163E+03   -0.97847E-01   -0.26723E-01  8112   0.325E+00    0.208E+00
DAV:  14    -0.159231158469E+03   -0.18226E+00   -0.74425E-02  7728   0.119E+00    0.179E+00
DAV:  15    -0.159353306284E+03   -0.12215E+00   -0.38888E-02  7800   0.116E+00    0.115E+00
DAV:  16    -0.159431942866E+03   -0.78637E-01   -0.13929E-02  7944   0.439E-01    0.458E-01
DAV:  17    -0.159501015095E+03   -0.69072E-01   -0.68805E-03  7272   0.235E-01    0.291E-01
DAV:  18    -0.159534162808E+03   -0.33148E-01   -0.25071E-03  7596   0.239E-01    0.244E-01
DAV:  19    -0.159593614416E+03   -0.59452E-01   -0.13565E-03  7158   0.110E-01    0.149E-01
DAV:  20    -0.159655903611E+03   -0.62289E-01   -0.26432E-03  6996   0.129E-01    0.167E-01
DAV:  21    -0.159683372120E+03   -0.27469E-01   -0.61645E-04  7716   0.858E-02    0.950E-02
DAV:  22    -0.159708340241E+03   -0.24968E-01   -0.64094E-04  6756   0.599E-02    0.434E-02
DAV:  23    -0.159722649744E+03   -0.14310E-01   -0.40440E-04  6828   0.435E-02    0.362E-02
DAV:  24    -0.159730740635E+03   -0.80909E-02   -0.28825E-04  6876   0.366E-02    0.249E-02
DAV:  25    -0.159733235820E+03   -0.24952E-02   -0.77999E-05  6510   0.206E-02    0.971E-03
DAV:  26    -0.159734085499E+03   -0.84968E-03   -0.22333E-05  6270   0.879E-03    0.621E-03
DAV:  27    -0.159734355199E+03   -0.26970E-03   -0.81280E-06  5652   0.613E-03    0.324E-03
DAV:  28    -0.159734413704E+03   -0.58506E-04   -0.12209E-06  4656   0.291E-03    0.261E-03
DAV:  29    -0.159734437813E+03   -0.24109E-04   -0.53683E-07  3894   0.244E-03    0.221E-03
DAV:  30    -0.159734453684E+03   -0.15871E-04   -0.49972E-07  3924   0.194E-03    0.842E-04
DAV:  31    -0.159734469619E+03   -0.15935E-04   -0.44403E-07  3912   0.160E-03    0.759E-04
DAV:  32    -0.159734480054E+03   -0.10435E-04   -0.31472E-07  3960   0.151E-03    0.712E-04
DAV:  33    -0.159734492112E+03   -0.12059E-04   -0.41959E-07  3948   0.134E-03    0.652E-04
DAV:  34    -0.159734496772E+03   -0.46593E-05   -0.19550E-07  3792   0.133E-03    0.513E-04
DAV:  35    -0.159734499705E+03   -0.29330E-05   -0.14159E-07  3672   0.100E-03    0.374E-04
DAV:  36    -0.159734501110E+03   -0.14057E-05   -0.82523E-08  3576   0.873E-04    0.549E-04
DAV:  37    -0.159734502504E+03   -0.13937E-05   -0.53162E-08  3450   0.603E-04    0.112E-04
DAV:  38    -0.159734503275E+03   -0.77102E-06   -0.24159E-08  3528   0.492E-04
   1 F= -.16590589E+03 E0= -.16590588E+03  d E =-.165906E+03  mag=    24.0000
       N       E                     dE             d eps       ncg     rms          rms(c)
DAV:   1    -0.159738754400E+03   -0.42519E-02   -0.39182E-01  5526   0.106E+00    0.290E-01
DAV:   2    -0.159742642647E+03   -0.38882E-02   -0.30735E-02  8346   0.592E-01    0.981E-01
DAV:   3    -0.159739962142E+03    0.26805E-02   -0.27863E-02  8046   0.562E-01    0.301E-01
DAV:   4    -0.159740006212E+03   -0.44070E-04   -0.17402E-03  8004   0.169E-01    0.860E-02
DAV:   5    -0.159740001667E+03    0.45450E-05   -0.12998E-04  8274   0.695E-02    0.675E-02
DAV:   6    -0.159739994296E+03    0.73712E-05   -0.38001E-05  7848   0.304E-02    0.555E-02
DAV:   7    -0.159739996565E+03   -0.22693E-05   -0.78521E-05  8244   0.313E-02    0.194E-02
DAV:   8    -0.159740003610E+03   -0.70455E-05   -0.55386E-06  5376   0.966E-03    0.102E-02
DAV:   9    -0.159740010313E+03   -0.67025E-05   -0.16140E-06  3798   0.473E-03    0.513E-03
DAV:  10    -0.159740015469E+03   -0.51557E-05   -0.54060E-07  3576   0.328E-03    0.316E-03
DAV:  11    -0.159740021644E+03   -0.61752E-05   -0.42798E-07  3630   0.268E-03    0.186E-03
DAV:  12    -0.159740026688E+03   -0.50437E-05   -0.25431E-07  3516   0.204E-03    0.110E-03
DAV:  13    -0.159740031422E+03   -0.47345E-05   -0.16872E-07  3480   0.186E-03    0.104E-03
DAV:  14    -0.159740033884E+03   -0.24615E-05   -0.95134E-08  3558   0.112E-03    0.502E-04
DAV:  15    -0.159740035934E+03   -0.20508E-05   -0.55597E-08  3522   0.829E-04    0.483E-04
DAV:  16    -0.159740037659E+03   -0.17242E-05   -0.32993E-08  3540   0.656E-04    0.299E-04
DAV:  17    -0.159740039961E+03   -0.23026E-05   -0.41158E-08  3612   0.484E-04    0.247E-04
DAV:  18    -0.159740041699E+03   -0.17374E-05   -0.31399E-08  3510   0.502E-04    0.215E-04
DAV:  19    -0.159740043054E+03   -0.13550E-05   -0.32612E-08  3522   0.416E-04    0.167E-04
DAV:  20    -0.159740043486E+03   -0.43200E-06   -0.15693E-08  3564   0.414E-04
   2 F= -.16590555E+03 E0= -.16590554E+03  d E =0.341953E-03  mag=    24.0000
       N       E                     dE             d eps       ncg     rms          rms(c)
DAV:   1    -0.159736853949E+03    0.31891E-02   -0.10959E-01  5520   0.559E-01    0.151E-01
DAV:   2    -0.159737821884E+03   -0.96793E-03   -0.78486E-03  8448   0.298E-01    0.509E-01
DAV:   3    -0.159737190314E+03    0.63157E-03   -0.75571E-03  8100   0.283E-01    0.173E-01
DAV:   4    -0.159737197608E+03   -0.72947E-05   -0.60753E-04  7878   0.973E-02    0.484E-02
DAV:   5    -0.159737197300E+03    0.30884E-06   -0.38607E-05  7986   0.382E-02    0.373E-02
DAV:   6    -0.159737192924E+03    0.43754E-05   -0.10213E-05  7458   0.158E-02    0.264E-02
DAV:   7    -0.159737195658E+03   -0.27338E-05   -0.14220E-05  6714   0.139E-02    0.735E-03
DAV:   8    -0.159737198609E+03   -0.29512E-05   -0.12638E-06  4008   0.632E-03    0.598E-03
DAV:   9    -0.159737200823E+03   -0.22141E-05   -0.75218E-07  3648   0.370E-03    0.273E-03
DAV:  10    -0.159737202787E+03   -0.19642E-05   -0.24459E-07  3570   0.220E-03    0.193E-03
DAV:  11    -0.159737204337E+03   -0.15497E-05   -0.11881E-07  3504   0.162E-03    0.144E-03
DAV:  12    -0.159737205845E+03   -0.15082E-05   -0.73360E-08  3432   0.910E-04    0.928E-04
DAV:  13    -0.159737207558E+03   -0.17125E-05   -0.42280E-08  3420   0.964E-04    0.768E-04
DAV:  14    -0.159737208987E+03   -0.14289E-05   -0.34134E-08  3492   0.537E-04    0.539E-04
DAV:  15    -0.159737209632E+03   -0.64513E-06   -0.17266E-08  3564   0.547E-04
   3 F= -.16590651E+03 E0= -.16590650E+03  d E =-.617622E-03  mag=    24.0000
       N       E                     dE             d eps       ncg     rms          rms(c)
DAV:   1    -0.159736538236E+03    0.67075E-03   -0.17564E-01  5454   0.866E-01    0.269E-01
DAV:   2    -0.159737979602E+03   -0.14414E-02   -0.13092E-02  7584   0.411E-01    0.389E-01
DAV:   3    -0.159739567359E+03   -0.15878E-02   -0.22983E-02  7968   0.491E-01    0.821E-01
DAV:   4    -0.159737670237E+03    0.18971E-02   -0.88958E-03  7902   0.299E-01    0.953E-02
DAV:   5    -0.159737695018E+03   -0.24780E-04   -0.18194E-04  7638   0.313E-02    0.560E-02
DAV:   6    -0.159737645470E+03    0.49548E-04   -0.81343E-05  7962   0.394E-02    0.752E-02
DAV:   7    -0.159737601374E+03    0.44095E-04   -0.32763E-05  8340   0.352E-02    0.474E-02
DAV:   8    -0.159737595353E+03    0.60215E-05   -0.45785E-05  5754   0.238E-02    0.687E-03
DAV:   9    -0.159737621067E+03   -0.25714E-04   -0.42426E-06  4932   0.821E-03    0.465E-03
DAV:  10    -0.159737660529E+03   -0.39462E-04   -0.12488E-06  3900   0.417E-03    0.507E-03
DAV:  11    -0.159737693207E+03   -0.32678E-04   -0.83924E-07  3738   0.340E-03    0.227E-03
DAV:  12    -0.159737725426E+03   -0.32219E-04   -0.49325E-07  3810   0.232E-03    0.154E-03
DAV:  13    -0.159737751604E+03   -0.26177E-04   -0.34793E-07  3582   0.206E-03    0.102E-03
DAV:  14    -0.159737771022E+03   -0.19418E-04   -0.28237E-07  3570   0.175E-03    0.989E-04
DAV:  15    -0.159737789784E+03   -0.18762E-04   -0.27477E-07  3606   0.143E-03    0.640E-04
DAV:  16    -0.159737808115E+03   -0.18331E-04   -0.28517E-07  3714   0.136E-03    0.675E-04
DAV:  17    -0.159737816120E+03   -0.80052E-05   -0.16335E-07  3576   0.122E-03    0.506E-04
DAV:  18    -0.159737827172E+03   -0.11052E-04   -0.22366E-07  3660   0.924E-04    0.477E-04
DAV:  19    -0.159737833776E+03   -0.66041E-05   -0.13785E-07  3504   0.106E-03    0.434E-04
DAV:  20    -0.159737840891E+03   -0.71153E-05   -0.22167E-07  3768   0.854E-04    0.242E-04
DAV:  21    -0.159737842741E+03   -0.18493E-05   -0.96628E-08  3474   0.101E-03    0.301E-04
DAV:  22    -0.159737843392E+03   -0.65141E-06   -0.60463E-08  3444   0.543E-04
   4 F= -.16590745E+03 E0= -.16590744E+03  d E =-.938502E-03  mag=    24.0000
       N       E                     dE             d eps       ncg     rms          rms(c)
DAV:   1    -0.159737125614E+03    0.71713E-03   -0.10842E-01  5532   0.680E-01    0.212E-01
DAV:   2    -0.159737998729E+03   -0.87312E-03   -0.80722E-03  7560   0.323E-01    0.308E-01
DAV:   3    -0.159738986934E+03   -0.98821E-03   -0.14096E-02  7932   0.386E-01    0.643E-01
DAV:   4    -0.159737814046E+03    0.11729E-02   -0.54147E-03  7920   0.235E-01    0.754E-02
DAV:   5    -0.159737831415E+03   -0.17369E-04   -0.11296E-04  7584   0.247E-02    0.439E-02
DAV:   6    -0.159737794605E+03    0.36810E-04   -0.50445E-05  7602   0.308E-02    0.591E-02
DAV:   7    -0.159737762879E+03    0.31726E-04   -0.20416E-05  7794   0.279E-02    0.365E-02
DAV:   8    -0.159737758093E+03    0.47857E-05   -0.27912E-05  5430   0.187E-02    0.549E-03
DAV:   9    -0.159737775457E+03   -0.17364E-04   -0.21638E-06  3906   0.654E-03    0.360E-03
DAV:  10    -0.159737801988E+03   -0.26531E-04   -0.10802E-06  3810   0.396E-03    0.396E-03
DAV:  11    -0.159737824895E+03   -0.22907E-04   -0.60776E-07  3564   0.320E-03    0.182E-03
DAV:  12    -0.159737848731E+03   -0.23837E-04   -0.40244E-07  3642   0.197E-03    0.129E-03
DAV:  13    -0.159737864862E+03   -0.16130E-04   -0.23606E-07  3510   0.162E-03    0.884E-04
DAV:  14    -0.159737880055E+03   -0.15193E-04   -0.19729E-07  3594   0.137E-03    0.844E-04
DAV:  15    -0.159737892326E+03   -0.12271E-04   -0.17174E-07  3510   0.121E-03    0.526E-04
DAV:  16    -0.159737904112E+03   -0.11786E-04   -0.18272E-07  3582   0.110E-03    0.590E-04
DAV:  17    -0.159737909661E+03   -0.55481E-05   -0.10983E-07  3576   0.102E-03    0.368E-04
DAV:  18    -0.159737917118E+03   -0.74574E-05   -0.14107E-07  3576   0.753E-04    0.383E-04
DAV:  19    -0.159737921532E+03   -0.44145E-05   -0.84022E-08  3468   0.854E-04    0.316E-04
DAV:  20    -0.159737928559E+03   -0.70261E-05   -0.21299E-07  3852   0.732E-04    0.235E-04
DAV:  21    -0.159737929475E+03   -0.91659E-06   -0.62855E-08  3660   0.897E-04
   5 F= -.16590766E+03 E0= -.16590765E+03  d E =-.114940E-02  mag=    24.0000
       N       E                     dE             d eps       ncg     rms          rms(c)
DAV:   1    -0.159737560630E+03    0.36793E-03   -0.93009E-02  5568   0.618E-01    0.176E-01
DAV:   2    -0.159738144217E+03   -0.58359E-03   -0.62183E-03  7446   0.258E-01    0.861E-02
DAV:   3    -0.159738283621E+03   -0.13940E-03   -0.46276E-04  7842   0.842E-02    0.132E-01
DAV:   4    -0.159738235241E+03    0.48379E-04   -0.39899E-04  8202   0.671E-02    0.548E-02
DAV:   5    -0.159738229070E+03    0.61712E-05   -0.20001E-05  5988   0.178E-02    0.373E-02
DAV:   6    -0.159738216697E+03    0.12373E-04   -0.18244E-05  7746   0.181E-02    0.299E-02
DAV:   7    -0.159738205344E+03    0.11353E-04   -0.16717E-05  7878   0.178E-02    0.123E-02
DAV:   8    -0.159738207891E+03   -0.25476E-05   -0.17907E-06  3780   0.781E-03    0.540E-03
DAV:   9    -0.159738214930E+03   -0.70389E-05   -0.82132E-07  3690   0.448E-03    0.342E-03
DAV:  10    -0.159738221106E+03   -0.61759E-05   -0.41061E-07  3462   0.253E-03    0.243E-03
DAV:  11    -0.159738225524E+03   -0.44182E-05   -0.21084E-07  3486   0.233E-03    0.149E-03
DAV:  12    -0.159738227955E+03   -0.24309E-05   -0.94245E-08  3546   0.101E-03    0.137E-03
DAV:  13    -0.159738230580E+03   -0.26251E-05   -0.47601E-08  3426   0.109E-03    0.109E-03
DAV:  14    -0.159738236057E+03   -0.54768E-05   -0.69776E-08  3450   0.614E-04    0.527E-04
DAV:  15    -0.159738241519E+03   -0.54622E-05   -0.61433E-08  3534   0.737E-04    0.433E-04
DAV:  16    -0.159738243027E+03   -0.15080E-05   -0.31623E-08  3636   0.674E-04    0.259E-04
DAV:  17    -0.159738244043E+03   -0.10158E-05   -0.20981E-08  3462   0.380E-04    0.231E-04
DAV:  18    -0.159738245845E+03   -0.18018E-05   -0.18519E-08  3432   0.391E-04    0.179E-04
DAV:  19    -0.159738248685E+03   -0.28405E-05   -0.41639E-08  3462   0.364E-04    0.127E-04
DAV:  20    -0.159738249492E+03   -0.80693E-06   -0.16753E-08  3528   0.403E-04
   6 F= -.16590826E+03 E0= -.16590826E+03  d E =-.605825E-03  mag=    24.0000
       N       E                     dE             d eps       ncg     rms          rms(c)
DAV:   1    -0.159732266925E+03    0.59818E-02   -0.83704E-01  5400   0.185E+00    0.529E-01
DAV:   2    -0.159737911787E+03   -0.56449E-02   -0.56070E-02  7374   0.776E-01    0.264E-01
DAV:   3    -0.159738874295E+03   -0.96251E-03   -0.44281E-03  7866   0.259E-01    0.410E-01
DAV:   4    -0.159738435092E+03    0.43920E-03   -0.40343E-03  8106   0.215E-01    0.171E-01
DAV:   5    -0.159738359755E+03    0.75337E-04   -0.22438E-04  8538   0.546E-02    0.111E-01
DAV:   6    -0.159738282367E+03    0.77388E-04   -0.14728E-04  7890   0.514E-02    0.849E-02
DAV:   7    -0.159738240269E+03    0.42098E-04   -0.13322E-04  8256   0.558E-02    0.350E-02
DAV:   8    -0.159738258795E+03   -0.18526E-04   -0.22628E-05  7938   0.247E-02    0.108E-02
DAV:   9    -0.159738296014E+03   -0.37219E-04   -0.31844E-06  4488   0.114E-02    0.766E-03
DAV:  10    -0.159738327959E+03   -0.31945E-04   -0.10845E-06  3714   0.616E-03    0.400E-03
DAV:  11    -0.159738362752E+03   -0.34794E-04   -0.12311E-06  4020   0.373E-03    0.257E-03
DAV:  12    -0.159738385769E+03   -0.23017E-04   -0.61384E-07  3540   0.318E-03    0.161E-03
DAV:  13    -0.159738404658E+03   -0.18889E-04   -0.43302E-07  3612   0.212E-03    0.125E-03
DAV:  14    -0.159738429947E+03   -0.25289E-04   -0.36932E-07  3606   0.221E-03    0.119E-03
DAV:  15    -0.159738441536E+03   -0.11589E-04   -0.23986E-07  3552   0.154E-03    0.693E-04
DAV:  16    -0.159738452307E+03   -0.10771E-04   -0.18018E-07  3516   0.128E-03    0.673E-04
DAV:  17    -0.159738461626E+03   -0.93180E-05   -0.15131E-07  3546   0.974E-04    0.393E-04
DAV:  18    -0.159738472051E+03   -0.10425E-04   -0.16027E-07  3546   0.923E-04    0.482E-04
DAV:  19    -0.159738482839E+03   -0.10788E-04   -0.21305E-07  3750   0.982E-04    0.360E-04
DAV:  20    -0.159738488140E+03   -0.53015E-05   -0.14754E-07  3540   0.100E-03    0.368E-04
DAV:  21    -0.159738490265E+03   -0.21247E-05   -0.98639E-08  3504   0.821E-04    0.183E-04
DAV:  22    -0.159738491768E+03   -0.15029E-05   -0.75970E-08  3516   0.676E-04    0.266E-04
DAV:  23    -0.159738492499E+03   -0.73121E-06   -0.54162E-08  3432   0.609E-04
   7 F= -.16590929E+03 E0= -.16590929E+03  d E =-.163658E-02  mag=    24.0000
       N       E                     dE             d eps       ncg     rms          rms(c)
DAV:   1    -0.159739194024E+03   -0.70226E-03   -0.43171E-02  5592   0.425E-01    0.121E-01
DAV:   2    -0.159739480081E+03   -0.28606E-03   -0.28769E-03  7512   0.177E-01    0.714E-02
DAV:   3    -0.159739626843E+03   -0.14676E-03   -0.10441E-03  7734   0.109E-01    0.205E-01
DAV:   4    -0.159739497396E+03    0.12945E-03   -0.80909E-04  7524   0.924E-02    0.370E-02
DAV:   5    -0.159739507237E+03   -0.98404E-05   -0.12506E-05  6066   0.115E-02    0.312E-02
DAV:   6    -0.159739502819E+03    0.44181E-05   -0.11113E-05  5190   0.141E-02    0.195E-02
DAV:   7    -0.159739500459E+03    0.23593E-05   -0.15976E-05  7446   0.148E-02    0.150E-02
DAV:   8    -0.159739500436E+03    0.23401E-07   -0.53002E-06  4320   0.919E-03
   8 F= -.16590971E+03 E0= -.16590970E+03  d E =-.410824E-03  mag=    24.0000
       N       E                     dE             d eps       ncg     rms          rms(c)
DAV:   1    -0.159740030902E+03   -0.53044E-03   -0.22001E-01  5436   0.960E-01    0.274E-01
DAV:   2    -0.159741540921E+03   -0.15100E-02   -0.14681E-02  7512   0.398E-01    0.157E-01
DAV:   3    -0.159742187575E+03   -0.64665E-03   -0.48142E-03  7764   0.236E-01    0.440E-01
DAV:   4    -0.159741613611E+03    0.57396E-03   -0.37913E-03  7752   0.199E-01    0.841E-02
DAV:   5    -0.159741638622E+03   -0.25011E-04   -0.61212E-05  7308   0.260E-02    0.701E-02
DAV:   6    -0.159741617330E+03    0.21292E-04   -0.59792E-05  8736   0.316E-02    0.441E-02
DAV:   7    -0.159741610139E+03    0.71906E-05   -0.41541E-05  8520   0.286E-02    0.310E-02
DAV:   8    -0.159741611290E+03   -0.11511E-05   -0.26400E-05  6096   0.199E-02    0.109E-02
DAV:   9    -0.159741618401E+03   -0.71114E-05   -0.21831E-06  3816   0.677E-03    0.586E-03
DAV:  10    -0.159741627121E+03   -0.87198E-05   -0.11388E-06  3594   0.389E-03    0.328E-03
DAV:  11    -0.159741633037E+03   -0.59159E-05   -0.36664E-07  3486   0.293E-03    0.250E-03
DAV:  12    -0.159741638608E+03   -0.55710E-05   -0.18055E-07  3498   0.154E-03    0.199E-03
DAV:  13    -0.159741643174E+03   -0.45659E-05   -0.13979E-07  3504   0.167E-03    0.901E-04
DAV:  14    -0.159741647740E+03   -0.45656E-05   -0.10899E-07  3534   0.106E-03    0.643E-04
DAV:  15    -0.159741650302E+03   -0.25625E-05   -0.60008E-08  3576   0.858E-04    0.483E-04
DAV:  16    -0.159741653232E+03   -0.29293E-05   -0.44142E-08  3516   0.675E-04    0.322E-04
DAV:  17    -0.159741655332E+03   -0.21003E-05   -0.30815E-08  3528   0.541E-04    0.233E-04
DAV:  18    -0.159741658273E+03   -0.29408E-05   -0.40696E-08  3516   0.449E-04    0.231E-04
DAV:  19    -0.159741660020E+03   -0.17469E-05   -0.27856E-08  3498   0.467E-04    0.173E-04
DAV:  20    -0.159741661567E+03   -0.15477E-05   -0.31679E-08  3516   0.390E-04    0.166E-04
DAV:  21    -0.159741662364E+03   -0.79682E-06   -0.21766E-08  3498   0.429E-04
   9 F= -.16591007E+03 E0= -.16591006E+03  d E =-.774320E-03  mag=    24.0000
       N       E                     dE             d eps       ncg     rms          rms(c)
DAV:   1    -0.159741711415E+03   -0.49847E-04   -0.13150E-02  5574   0.235E-01    0.647E-02
DAV:   2    -0.159741794185E+03   -0.82771E-04   -0.91551E-04  7716   0.102E-01    0.490E-02
DAV:   3    -0.159741874342E+03   -0.80157E-04   -0.62507E-04  7770   0.832E-02    0.155E-01
DAV:   4    -0.159741796081E+03    0.78261E-04   -0.38500E-04  7380   0.641E-02    0.172E-02
DAV:   5    -0.159741804073E+03   -0.79920E-05   -0.50723E-06  4284   0.632E-03    0.143E-02
DAV:   6    -0.159741804421E+03   -0.34796E-06   -0.26708E-06  3630   0.841E-03
  10 F= -.16591022E+03 E0= -.16591021E+03  d E =-.152596E-03  mag=    24.0000
       N       E                     dE             d eps       ncg     rms          rms(c)
DAV:   1    -0.159741341344E+03    0.46273E-03   -0.11724E-01  5568   0.701E-01    0.191E-01
DAV:   2    -0.159742187461E+03   -0.84612E-03   -0.85001E-03  7662   0.318E-01    0.203E-01
DAV:   3    -0.159743026463E+03   -0.83900E-03   -0.87333E-03  7746   0.309E-01    0.538E-01
DAV:   4    -0.159742121601E+03    0.90486E-03   -0.46289E-03  7752   0.225E-01    0.538E-02
DAV:   5    -0.159742167035E+03   -0.45434E-04   -0.75435E-05  7392   0.232E-02    0.435E-02
DAV:   6    -0.159742167726E+03   -0.69126E-06   -0.26402E-05  7158   0.221E-02    0.389E-02
DAV:   7    -0.159742164945E+03    0.27807E-05   -0.15571E-05  7902   0.160E-02    0.286E-02
DAV:   8    -0.159742164645E+03    0.30015E-06   -0.22009E-05  4692   0.163E-02    0.114E-02
DAV:   9    -0.159742168871E+03   -0.42258E-05   -0.37839E-06  3744   0.102E-02    0.319E-03
DAV:  10    -0.159742173023E+03   -0.41522E-05   -0.13200E-06  3576   0.377E-03    0.251E-03
DAV:  11    -0.159742175125E+03   -0.21015E-05   -0.41265E-07  3582   0.289E-03    0.189E-03
DAV:  12    -0.159742176882E+03   -0.17575E-05   -0.12402E-07  3432   0.156E-03    0.152E-03
DAV:  13    -0.159742178555E+03   -0.16732E-05   -0.50412E-08  3444   0.123E-03    0.113E-03
DAV:  14    -0.159742180882E+03   -0.23263E-05   -0.57303E-08  3420   0.749E-04    0.738E-04
DAV:  15    -0.159742182703E+03   -0.18208E-05   -0.39746E-08  3438   0.693E-04    0.534E-04
DAV:  16    -0.159742183430E+03   -0.72726E-06   -0.21922E-08  3648   0.617E-04
  11 F= -.16591062E+03 E0= -.16591062E+03  d E =-.554435E-03  mag=    24.0000
       N       E                     dE             d eps       ncg     rms          rms(c)
DAV:   1    -0.159739289445E+03    0.28933E-02   -0.47347E-01  5400   0.141E+00    0.388E-01
DAV:   2    -0.159742620724E+03   -0.33313E-02   -0.32933E-02  7710   0.615E-01    0.294E-01
DAV:   3    -0.159745108631E+03   -0.24879E-02   -0.21582E-02  7764   0.495E-01    0.889E-01
DAV:   4    -0.159742600492E+03    0.25081E-02   -0.13146E-02  7752   0.384E-01    0.103E-01
DAV:   5    -0.159742690582E+03   -0.90090E-04   -0.20627E-04  7320   0.371E-02    0.842E-02
DAV:   6    -0.159742684366E+03    0.62161E-05   -0.10541E-04  8802   0.433E-02    0.774E-02
DAV:   7    -0.159742670767E+03    0.13598E-04   -0.59240E-05  7986   0.359E-02    0.491E-02
DAV:   8    -0.159742671099E+03   -0.33114E-06   -0.73063E-05  8394   0.304E-02    0.206E-02
DAV:   9    -0.159742680417E+03   -0.93189E-05   -0.10922E-05  4536   0.159E-02    0.595E-03
DAV:  10    -0.159742692100E+03   -0.11682E-04   -0.14424E-06  3576   0.509E-03    0.309E-03
DAV:  11    -0.159742698596E+03   -0.64964E-05   -0.56794E-07  3552   0.314E-03    0.260E-03
DAV:  12    -0.159742702903E+03   -0.43074E-05   -0.24463E-07  3486   0.249E-03    0.176E-03
DAV:  13    -0.159742706406E+03   -0.35021E-05   -0.13060E-07  3486   0.134E-03    0.162E-03
DAV:  14    -0.159742710816E+03   -0.44108E-05   -0.95021E-08  3420   0.138E-03    0.108E-03
DAV:  15    -0.159742715162E+03   -0.43455E-05   -0.83794E-08  3588   0.802E-04    0.746E-04
DAV:  16    -0.159742719343E+03   -0.41816E-05   -0.61009E-08  3450   0.942E-04    0.417E-04
DAV:  17    -0.159742722018E+03   -0.26749E-05   -0.50432E-08  3462   0.595E-04    0.303E-04
DAV:  18    -0.159742723940E+03   -0.19219E-05   -0.30089E-08  3444   0.555E-04    0.250E-04
DAV:  19    -0.159742725570E+03   -0.16297E-05   -0.24796E-08  3438   0.410E-04    0.210E-04
DAV:  20    -0.159742727664E+03   -0.20945E-05   -0.30773E-08  3444   0.426E-04    0.194E-04
DAV:  21    -0.159742728949E+03   -0.12847E-05   -0.25325E-08  3510   0.412E-04    0.133E-04
DAV:  22    -0.159742729761E+03   -0.81155E-06   -0.20847E-08  3438   0.362E-04
  12 F= -.16591117E+03 E0= -.16591116E+03  d E =-.110323E-02  mag=    24.0000
       N       E                     dE             d eps       ncg     rms          rms(c)
DAV:   1    -0.159741233594E+03    0.14954E-02   -0.47298E-02  5574   0.420E-01    0.109E-01
DAV:   2    -0.159741576406E+03   -0.34281E-03   -0.32046E-03  7908   0.193E-01    0.253E-01
DAV:   3    -0.159741555005E+03    0.21401E-04   -0.34506E-03  8034   0.196E-01    0.207E-01
DAV:   4    -0.159741456313E+03    0.98692E-04   -0.84499E-04  7704   0.101E-01    0.400E-02
DAV:   5    -0.159741457523E+03   -0.12105E-05   -0.21393E-05  7476   0.224E-02    0.331E-02
DAV:   6    -0.159741440408E+03    0.17115E-04   -0.71794E-06  5082   0.105E-02    0.198E-02
DAV:   7    -0.159741416880E+03    0.23528E-04   -0.13620E-05  7434   0.101E-02    0.699E-03
DAV:   8    -0.159741420795E+03   -0.39154E-05   -0.10542E-06  3564   0.593E-03    0.321E-03
DAV:   9    -0.159741429245E+03   -0.84503E-05   -0.45583E-07  3618   0.345E-03    0.262E-03
DAV:  10    -0.159741438719E+03   -0.94735E-05   -0.38838E-07  3438   0.246E-03    0.211E-03
DAV:  11    -0.159741447090E+03   -0.83713E-05   -0.19472E-07  3510   0.182E-03    0.156E-03
DAV:  12    -0.159741451578E+03   -0.44882E-05   -0.11464E-07  3558   0.120E-03    0.846E-04
DAV:  13    -0.159741458612E+03   -0.70340E-05   -0.88671E-08  3546   0.805E-04    0.580E-04
DAV:  14    -0.159741464410E+03   -0.57977E-05   -0.63424E-08  3450   0.800E-04    0.468E-04
DAV:  15    -0.159741470267E+03   -0.58571E-05   -0.76370E-08  3474   0.637E-04    0.348E-04
DAV:  16    -0.159741473891E+03   -0.36242E-05   -0.50287E-08  3480   0.665E-04    0.266E-04
DAV:  17    -0.159741477922E+03   -0.40310E-05   -0.62339E-08  3540   0.518E-04    0.247E-04
DAV:  18    -0.159741481279E+03   -0.33567E-05   -0.55254E-08  3498   0.589E-04    0.242E-04
DAV:  19    -0.159741483220E+03   -0.19413E-05   -0.49469E-08  3474   0.535E-04    0.197E-04
DAV:  20    -0.159741484063E+03   -0.84252E-06   -0.33071E-08  3444   0.501E-04
  13 F= -.16591183E+03 E0= -.16591182E+03  d E =-.661625E-03  mag=    24.0000
       N       E                     dE             d eps       ncg     rms          rms(c)
DAV:   1    -0.159740167336E+03    0.13159E-02   -0.35977E-02  5568   0.366E-01    0.949E-02
DAV:   2    -0.159740425098E+03   -0.25776E-03   -0.24416E-03  7908   0.168E-01    0.221E-01
DAV:   3    -0.159740408256E+03    0.16842E-04   -0.26233E-03  8052   0.171E-01    0.180E-01
DAV:   4    -0.159740335276E+03    0.72980E-04   -0.63904E-04  7668   0.875E-02    0.349E-02
DAV:   5    -0.159740336293E+03   -0.10171E-05   -0.15375E-05  6372   0.196E-02    0.291E-02
DAV:   6    -0.159740323180E+03    0.13113E-04   -0.71520E-06  5214   0.999E-03    0.177E-02
DAV:   7    -0.159740304105E+03    0.19075E-04   -0.94707E-06  6258   0.884E-03    0.627E-03
DAV:   8    -0.159740306691E+03   -0.25858E-05   -0.13363E-06  3576   0.732E-03    0.277E-03
DAV:   9    -0.159740313293E+03   -0.66022E-05   -0.48843E-07  3600   0.394E-03    0.232E-03
DAV:  10    -0.159740320464E+03   -0.71711E-05   -0.34754E-07  3456   0.240E-03    0.178E-03
DAV:  11    -0.159740327791E+03   -0.73268E-05   -0.15721E-07  3468   0.152E-03    0.143E-03
DAV:  12    -0.159740331925E+03   -0.41342E-05   -0.86447E-08  3540   0.102E-03    0.804E-04
DAV:  13    -0.159740337455E+03   -0.55298E-05   -0.68631E-08  3480   0.739E-04    0.593E-04
DAV:  14    -0.159740342610E+03   -0.51555E-05   -0.58918E-08  3462   0.735E-04    0.433E-04
DAV:  15    -0.159740346794E+03   -0.41837E-05   -0.58330E-08  3456   0.623E-04    0.267E-04
DAV:  16    -0.159740349023E+03   -0.22291E-05   -0.35209E-08  3480   0.584E-04    0.249E-04
DAV:  17    -0.159740351716E+03   -0.26929E-05   -0.38137E-08  3420   0.425E-04    0.166E-04
DAV:  18    -0.159740355026E+03   -0.33099E-05   -0.46943E-08  3624   0.491E-04    0.258E-04
DAV:  19    -0.159740356604E+03   -0.15780E-05   -0.35361E-08  3462   0.506E-04    0.155E-04
DAV:  20    -0.159740357422E+03   -0.81846E-06   -0.27937E-08  3438   0.418E-04
  14 F= -.16591199E+03 E0= -.16591198E+03  d E =-.817993E-03  mag=    24.0000
       N       E                     dE             d eps       ncg     rms          rms(c)
DAV:   1    -0.159740343523E+03    0.13081E-04   -0.47681E-03  5688   0.143E-01    0.399E-02
DAV:   2    -0.159740375032E+03   -0.31509E-04   -0.34046E-04  7734   0.631E-02    0.402E-02
DAV:   3    -0.159740415170E+03   -0.40138E-04   -0.36957E-04  7842   0.627E-02    0.113E-01
DAV:   4    -0.159740372930E+03    0.42240E-04   -0.19947E-04  6468   0.465E-02    0.105E-02
DAV:   5    -0.159740378037E+03   -0.51065E-05   -0.36443E-06  4206   0.485E-03    0.899E-03
DAV:   6    -0.159740378909E+03   -0.87233E-06   -0.27454E-06  3612   0.628E-03
  15 F= -.16591209E+03 E0= -.16591208E+03  d E =-.102858E-03  mag=    24.0000
       N       E                     dE             d eps       ncg     rms          rms(c)
DAV:   1    -0.159740088712E+03    0.28932E-03   -0.42562E-02  5592   0.427E-01    0.119E-01
DAV:   2    -0.159740430658E+03   -0.34195E-03   -0.32823E-03  7674   0.197E-01    0.165E-01
DAV:   3    -0.159740730365E+03   -0.29971E-03   -0.40660E-03  7842   0.208E-01    0.338E-01
DAV:   4    -0.159740375878E+03    0.35449E-03   -0.17738E-03  7482   0.141E-01    0.322E-02
DAV:   5    -0.159740397481E+03   -0.21604E-04   -0.35465E-05  7416   0.133E-02    0.270E-02
DAV:   6    -0.159740400618E+03   -0.31369E-05   -0.24340E-05  5472   0.158E-02    0.276E-02
DAV:   7    -0.159740397870E+03    0.27482E-05   -0.95622E-06  5808   0.112E-02    0.981E-03
DAV:   8    -0.159740398056E+03   -0.18554E-06   -0.34191E-06  4176   0.609E-03
  16 F= -.16591236E+03 E0= -.16591234E+03  d E =-.364812E-03  mag=    24.0000
       N       E                     dE             d eps       ncg     rms          rms(c)
DAV:   1    -0.159739002684E+03    0.13952E-02   -0.17142E-01  5460   0.857E-01    0.240E-01
DAV:   2    -0.159740284743E+03   -0.12821E-02   -0.12181E-02  7638   0.376E-01    0.233E-01
DAV:   3    -0.159741583043E+03   -0.12983E-02   -0.12508E-02  7770   0.370E-01    0.655E-01
DAV:   4    -0.159740214014E+03    0.13690E-02   -0.67947E-03  7722   0.278E-01    0.622E-02
DAV:   5    -0.159740274043E+03   -0.60029E-04   -0.13145E-04  7368   0.256E-02    0.529E-02
DAV:   6    -0.159740281251E+03   -0.72082E-05   -0.94506E-05  7872   0.306E-02    0.544E-02
DAV:   7    -0.159740272139E+03    0.91122E-05   -0.32067E-05  7776   0.204E-02    0.185E-02
DAV:   8    -0.159740272738E+03   -0.59915E-06   -0.13086E-05  4566   0.118E-02    0.120E-02
DAV:   9    -0.159740275335E+03   -0.25972E-05   -0.28725E-06  3696   0.970E-03    0.622E-03
DAV:  10    -0.159740278525E+03   -0.31899E-05   -0.13076E-06  3468   0.616E-03    0.271E-03
DAV:  11    -0.159740282091E+03   -0.35663E-05   -0.68926E-07  3624   0.383E-03    0.209E-03
DAV:  12    -0.159740285136E+03   -0.30446E-05   -0.29150E-07  3516   0.192E-03    0.164E-03
DAV:  13    -0.159740288325E+03   -0.31885E-05   -0.10735E-07  3456   0.133E-03    0.122E-03
DAV:  14    -0.159740291950E+03   -0.36255E-05   -0.86657E-08  3534   0.108E-03    0.115E-03
DAV:  15    -0.159740294280E+03   -0.23295E-05   -0.73410E-08  3474   0.132E-03    0.583E-04
DAV:  16    -0.159740294965E+03   -0.68560E-06   -0.45232E-08  3648   0.750E-04
  17 F= -.16591273E+03 E0= -.16591272E+03  d E =-.741692E-03  mag=    24.0000
       N       E                     dE             d eps       ncg     rms          rms(c)
DAV:   1    -0.159734278528E+03    0.60158E-02   -0.68669E-01  5400   0.171E+00    0.479E-01
DAV:   2    -0.159739561837E+03   -0.52833E-02   -0.48758E-02  7650   0.754E-01    0.482E-01
DAV:   3    -0.159744581394E+03   -0.50196E-02   -0.49518E-02  7800   0.745E-01    0.128E+00
DAV:   4    -0.159739222461E+03    0.53589E-02   -0.26007E-02  7686   0.561E-01    0.127E-01
DAV:   5    -0.159739393980E+03   -0.17152E-03   -0.53267E-04  7368   0.509E-02    0.105E-01
DAV:   6    -0.159739416294E+03   -0.22314E-04   -0.37732E-04  8166   0.617E-02    0.113E-01
DAV:   7    -0.159739372111E+03    0.44183E-04   -0.13647E-04  7944   0.424E-02    0.380E-02
DAV:   8    -0.159739371314E+03    0.79698E-06   -0.62419E-05  9012   0.240E-02    0.246E-02
DAV:   9    -0.159739376876E+03   -0.55617E-05   -0.74304E-06  4716   0.152E-02    0.129E-02
DAV:  10    -0.159739383951E+03   -0.70752E-05   -0.26005E-06  4146   0.107E-02    0.449E-03
DAV:  11    -0.159739395911E+03   -0.11960E-04   -0.10187E-06  3768   0.516E-03    0.314E-03
DAV:  12    -0.159739404092E+03   -0.81811E-05   -0.65347E-07  3552   0.314E-03    0.248E-03
DAV:  13    -0.159739410158E+03   -0.60661E-05   -0.31658E-07  3582   0.217E-03    0.150E-03
DAV:  14    -0.159739414695E+03   -0.45371E-05   -0.15776E-07  3540   0.184E-03    0.118E-03
DAV:  15    -0.159739420363E+03   -0.56684E-05   -0.12734E-07  3480   0.134E-03    0.929E-04
DAV:  16    -0.159739424711E+03   -0.43478E-05   -0.11872E-07  3570   0.102E-03    0.740E-04
DAV:  17    -0.159739427628E+03   -0.29166E-05   -0.84180E-08  3552   0.946E-04    0.428E-04
DAV:  18    -0.159739428485E+03   -0.85765E-06   -0.44405E-08  3660   0.678E-04
  18 F= -.16591280E+03 E0= -.16591279E+03  d E =-.813441E-03  mag=    24.0000
       N       E                     dE             d eps       ncg     rms          rms(c)
DAV:   1    -0.159738977973E+03    0.44965E-03   -0.12310E-01  5520   0.726E-01    0.203E-01
DAV:   2    -0.159739903436E+03   -0.92546E-03   -0.87616E-03  7710   0.320E-01    0.201E-01
DAV:   3    -0.159740868943E+03   -0.96551E-03   -0.93812E-03  7860   0.317E-01    0.587E-01
DAV:   4    -0.159739840375E+03    0.10286E-02   -0.52257E-03  7764   0.234E-01    0.525E-02
DAV:   5    -0.159739895085E+03   -0.54710E-04   -0.94632E-05  7368   0.213E-02    0.455E-02
DAV:   6    -0.159739902404E+03   -0.73191E-05   -0.73281E-05  7584   0.268E-02    0.480E-02
DAV:   7    -0.159739895478E+03    0.69257E-05   -0.22063E-05  7488   0.172E-02    0.184E-02
DAV:   8    -0.159739894792E+03    0.68655E-06   -0.10720E-05  4662   0.108E-02    0.889E-03
DAV:   9    -0.159739895736E+03   -0.94381E-06   -0.16960E-06  3750   0.784E-03
  19 F= -.16591288E+03 E0= -.16591286E+03  d E =-.886762E-03  mag=    24.0000
       N       E                     dE             d eps       ncg     rms          rms(c)
DAV:   1    -0.159740574504E+03   -0.67971E-03   -0.31836E-02  5568   0.360E-01    0.972E-02
DAV:   2    -0.159740758376E+03   -0.18387E-03   -0.18160E-03  7710   0.150E-01    0.799E-02
DAV:   3    -0.159740933950E+03   -0.17557E-03   -0.13576E-03  7716   0.130E-01    0.225E-01
DAV:   4    -0.159740778320E+03    0.15563E-03   -0.10193E-03  7380   0.104E-01    0.411E-02
DAV:   5    -0.159740789312E+03   -0.10992E-04   -0.16633E-05  5826   0.193E-02    0.280E-02
DAV:   6    -0.159740783383E+03    0.59290E-05   -0.91326E-06  6042   0.111E-02    0.167E-02
DAV:   7    -0.159740772486E+03    0.10897E-04   -0.63327E-06  5382   0.741E-03    0.779E-03
DAV:   8    -0.159740770836E+03    0.16500E-05   -0.17722E-06  3660   0.655E-03    0.380E-03
DAV:   9    -0.159740772464E+03   -0.16279E-05   -0.62991E-07  3486   0.357E-03    0.336E-03
DAV:  10    -0.159740775767E+03   -0.33022E-05   -0.44150E-07  3450   0.273E-03    0.163E-03
DAV:  11    -0.159740779490E+03   -0.37238E-05   -0.14558E-07  3432   0.187E-03    0.181E-03
DAV:  12    -0.159740782242E+03   -0.27516E-05   -0.72945E-08  3486   0.946E-04    0.114E-03
DAV:  13    -0.159740785353E+03   -0.31106E-05   -0.40224E-08  3450   0.669E-04    0.789E-04
DAV:  14    -0.159740788303E+03   -0.29504E-05   -0.40781E-08  3468   0.624E-04    0.294E-04
DAV:  15    -0.159740789785E+03   -0.14820E-05   -0.24561E-08  3564   0.547E-04    0.215E-04
DAV:  16    -0.159740790959E+03   -0.11745E-05   -0.16489E-08  3498   0.391E-04    0.162E-04
DAV:  17    -0.159740792293E+03   -0.13334E-05   -0.15058E-08  3450   0.325E-04    0.138E-04
DAV:  18    -0.159740793457E+03   -0.11646E-05   -0.13092E-08  3468   0.301E-04    0.113E-04
DAV:  19    -0.159740794816E+03   -0.13589E-05   -0.18776E-08  3408   0.293E-04    0.126E-04
DAV:  20    -0.159740795479E+03   -0.66233E-06   -0.12922E-08  3474   0.321E-04
  20 F= -.16591313E+03 E0= -.16591311E+03  d E =-.248213E-03  mag=    24.0000
       N       E                     dE             d eps       ncg     rms          rms(c)
DAV:   1    -0.159741136267E+03   -0.34145E-03   -0.60785E-03  5598   0.157E-01    0.429E-02
DAV:   2    -0.159741165328E+03   -0.29061E-04   -0.34795E-04  7698   0.650E-02    0.351E-02
DAV:   3    -0.159741204190E+03   -0.38862E-04   -0.28714E-04  7656   0.592E-02    0.104E-01
DAV:   4    -0.159741168880E+03    0.35310E-04   -0.20746E-04  6630   0.471E-02    0.161E-02
DAV:   5    -0.159741172421E+03   -0.35407E-05   -0.30881E-06  4164   0.804E-03    0.116E-02
DAV:   6    -0.159741170396E+03    0.20243E-05   -0.12566E-06  3462   0.497E-03    0.764E-03
DAV:   7    -0.159741167244E+03    0.31523E-05   -0.27615E-06  3798   0.472E-03    0.501E-03
DAV:   8    -0.159741167160E+03    0.83766E-07   -0.91513E-07  3618   0.461E-03
  21 F= -.16591316E+03 E0= -.16591315E+03  d E =-.283203E-03  mag=    24.0000
       N       E                     dE             d eps       ncg     rms          rms(c)
DAV:   1    -0.159741753216E+03   -0.58597E-03   -0.24224E-02  5478   0.314E-01    0.859E-02
DAV:   2    -0.159741885816E+03   -0.13260E-03   -0.13938E-03  7656   0.129E-01    0.688E-02
DAV:   3    -0.159742027382E+03   -0.14157E-03   -0.11412E-03  7692   0.118E-01    0.208E-01
DAV:   4    -0.159741891820E+03    0.13556E-03   -0.83038E-04  7290   0.940E-02    0.317E-02
DAV:   5    -0.159741900094E+03   -0.82732E-05   -0.12164E-05  5376   0.152E-02    0.232E-02
DAV:   6    -0.159741893271E+03    0.68226E-05   -0.64858E-06  5838   0.998E-03    0.143E-02
DAV:   7    -0.159741885943E+03    0.73279E-05   -0.49649E-06  4740   0.677E-03    0.765E-03
DAV:   8    -0.159741887977E+03   -0.20334E-05   -0.21655E-06  3750   0.674E-03    0.351E-03
DAV:   9    -0.159741892430E+03   -0.44532E-05   -0.54355E-07  3450   0.367E-03    0.203E-03
DAV:  10    -0.159741896862E+03   -0.44320E-05   -0.30946E-07  3468   0.221E-03    0.144E-03
DAV:  11    -0.159741901626E+03   -0.47644E-05   -0.11944E-07  3432   0.169E-03    0.120E-03
DAV:  12    -0.159741906157E+03   -0.45310E-05   -0.67525E-08  3474   0.835E-04    0.105E-03
DAV:  13    -0.159741910628E+03   -0.44707E-05   -0.50689E-08  3498   0.802E-04    0.641E-04
DAV:  14    -0.159741913943E+03   -0.33148E-05   -0.51704E-08  3528   0.634E-04    0.272E-04
DAV:  15    -0.159741915221E+03   -0.12780E-05   -0.24775E-08  3582   0.571E-04    0.251E-04
DAV:  16    -0.159741916718E+03   -0.14978E-05   -0.19281E-08  3444   0.370E-04    0.152E-04
DAV:  17    -0.159741919031E+03   -0.23127E-05   -0.24275E-08  3426   0.357E-04    0.186E-04
DAV:  18    -0.159741920228E+03   -0.11968E-05   -0.15169E-08  3504   0.355E-04    0.111E-04
DAV:  19    -0.159741922052E+03   -0.18237E-05   -0.26698E-08  3420   0.308E-04    0.163E-04
DAV:  20    -0.159741923008E+03   -0.95669E-06   -0.18252E-08  3462   0.380E-04
  22 F= -.16591314E+03 E0= -.16591312E+03  d E =-.259143E-03  mag=    24.0000
       N       E                     dE             d eps       ncg     rms          rms(c)
DAV:   1    -0.159741351039E+03    0.57101E-03   -0.10987E-02  5598   0.211E-01    0.577E-02
DAV:   2    -0.159741406439E+03   -0.55400E-04   -0.62841E-04  7734   0.874E-02    0.467E-02
DAV:   3    -0.159741474138E+03   -0.67699E-04   -0.50072E-04  7704   0.787E-02    0.136E-01
DAV:   4    -0.159741413929E+03    0.60209E-04   -0.36382E-04  7242   0.629E-02    0.219E-02
DAV:   5    -0.159741419115E+03   -0.51868E-05   -0.53831E-06  4518   0.105E-02    0.156E-02
DAV:   6    -0.159741416146E+03    0.29690E-05   -0.21316E-06  3426   0.658E-03    0.100E-02
DAV:   7    -0.159741411161E+03    0.49854E-05   -0.62504E-06  5628   0.626E-03    0.605E-03
DAV:   8    -0.159741411166E+03   -0.53151E-08   -0.90276E-07  3654   0.488E-03
  23 F= -.16591317E+03 E0= -.16591315E+03  d E =-.287788E-03  mag=    24.0000
       N       E                     dE             d eps       ncg     rms          rms(c)
DAV:   1    -0.159741354849E+03    0.56313E-04   -0.19152E-02  5544   0.286E-01    0.830E-02
DAV:   2    -0.159741463805E+03   -0.10896E-03   -0.10464E-03  7566   0.108E-01    0.421E-02
DAV:   3    -0.159741516100E+03   -0.52295E-04   -0.12291E-04  7614   0.439E-02    0.684E-02
DAV:   4    -0.159741502777E+03    0.13323E-04   -0.11157E-04  7080   0.358E-02    0.262E-02
DAV:   5    -0.159741503119E+03   -0.34178E-06   -0.56260E-06  3936   0.105E-02
  24 F= -.16591335E+03 E0= -.16591334E+03  d E =-.187617E-03  mag=    24.0000
       N       E                     dE             d eps       ncg     rms          rms(c)
DAV:   1    -0.159740252918E+03    0.12499E-02   -0.17142E-01  5472   0.855E-01    0.243E-01
DAV:   2    -0.159741317941E+03   -0.10650E-02   -0.92627E-03  7494   0.319E-01    0.125E-01
DAV:   3    -0.159741635065E+03   -0.31712E-03   -0.93015E-04  7746   0.124E-01    0.186E-01
DAV:   4    -0.159741543434E+03    0.91631E-04   -0.85442E-04  8208   0.998E-02    0.805E-02
DAV:   5    -0.159741534035E+03    0.93994E-05   -0.55019E-05  7740   0.291E-02    0.484E-02
DAV:   6    -0.159741531122E+03    0.29135E-05   -0.33252E-05  7884   0.286E-02    0.390E-02
DAV:   7    -0.159741539426E+03   -0.83039E-05   -0.39647E-05  7986   0.325E-02    0.190E-02
DAV:   8    -0.159741545546E+03   -0.61206E-05   -0.67728E-06  5220   0.146E-02    0.529E-03
DAV:   9    -0.159741552206E+03   -0.66599E-05   -0.19545E-06  3876   0.583E-03    0.443E-03
DAV:  10    -0.159741555788E+03   -0.35815E-05   -0.78011E-07  3570   0.419E-03    0.252E-03
DAV:  11    -0.159741557449E+03   -0.16618E-05   -0.38497E-07  3606   0.244E-03    0.207E-03
DAV:  12    -0.159741558785E+03   -0.13360E-05   -0.14845E-07  3426   0.178E-03    0.146E-03
DAV:  13    -0.159741561036E+03   -0.22510E-05   -0.13028E-07  3480   0.142E-03    0.107E-03
DAV:  14    -0.159741562705E+03   -0.16683E-05   -0.10260E-07  3492   0.129E-03    0.614E-04
DAV:  15    -0.159741563416E+03   -0.71187E-06   -0.54393E-08  3612   0.908E-04
  25 F= -.16591370E+03 E0= -.16591368E+03  d E =-.531806E-03  mag=    24.0000
       N       E                     dE             d eps       ncg     rms          rms(c)
DAV:   1    -0.159741241122E+03    0.32158E-03   -0.31728E-02  5508   0.368E-01    0.107E-01
DAV:   2    -0.159741421084E+03   -0.17996E-03   -0.17430E-03  7470   0.138E-01    0.534E-02
DAV:   3    -0.159741504043E+03   -0.82959E-04   -0.21434E-04  7722   0.567E-02    0.904E-02
DAV:   4    -0.159741479593E+03    0.24450E-04   -0.18960E-04  7704   0.466E-02    0.322E-02
DAV:   5    -0.159741479868E+03   -0.27445E-06   -0.76304E-06  4032   0.119E-02
  26 F= -.16591373E+03 E0= -.16591372E+03  d E =-.568512E-03  mag=    24.0000
       N       E                     dE             d eps       ncg     rms          rms(c)
DAV:   1    -0.159740193923E+03    0.12857E-02   -0.12575E-01  5538   0.732E-01    0.206E-01
DAV:   2    -0.159740956899E+03   -0.76298E-03   -0.67538E-03  7362   0.272E-01    0.110E-01
DAV:   3    -0.159741231185E+03   -0.27429E-03   -0.95798E-04  7656   0.121E-01    0.193E-01
DAV:   4    -0.159741124341E+03    0.10684E-03   -0.81559E-04  8142   0.970E-02    0.657E-02
DAV:   5    -0.159741123375E+03    0.96558E-06   -0.33574E-05  7524   0.236E-02    0.428E-02
DAV:   6    -0.159741121825E+03    0.15505E-05   -0.23916E-05  7800   0.254E-02    0.347E-02
DAV:   7    -0.159741129943E+03   -0.81186E-05   -0.31930E-05  7920   0.284E-02    0.181E-02
DAV:   8    -0.159741134936E+03   -0.49931E-05   -0.59099E-06  4836   0.131E-02    0.474E-03
DAV:   9    -0.159741140881E+03   -0.59442E-05   -0.20257E-06  3882   0.532E-03    0.413E-03
DAV:  10    -0.159741143958E+03   -0.30774E-05   -0.66969E-07  3564   0.385E-03    0.244E-03
DAV:  11    -0.159741145159E+03   -0.12010E-05   -0.29787E-07  3636   0.216E-03    0.199E-03
DAV:  12    -0.159741146082E+03   -0.92290E-06   -0.11497E-07  3438   0.158E-03
  27 F= -.16591364E+03 E0= -.16591362E+03  d E =-.472703E-03  mag=    24.0000
       N       E                     dE             d eps       ncg     rms          rms(c)
DAV:   1    -0.159740883408E+03    0.26175E-03   -0.69330E-02  5550   0.543E-01    0.158E-01
DAV:   2    -0.159741304817E+03   -0.42141E-03   -0.38147E-03  7434   0.204E-01    0.806E-02
DAV:   3    -0.159741493126E+03   -0.18831E-03   -0.69528E-04  7710   0.963E-02    0.166E-01
DAV:   4    -0.159741409372E+03    0.83754E-04   -0.54996E-04  7872   0.783E-02    0.420E-02
DAV:   5    -0.159741413697E+03   -0.43252E-05   -0.12738E-05  6462   0.135E-02    0.293E-02
DAV:   6    -0.159741414207E+03   -0.50931E-06   -0.17497E-05  7692   0.150E-02    0.212E-02
DAV:   7    -0.159741417933E+03   -0.37265E-05   -0.82125E-06  6360   0.170E-02    0.127E-02
DAV:   8    -0.159741419822E+03   -0.18885E-05   -0.34365E-06  4014   0.114E-02    0.370E-03
DAV:   9    -0.159741422150E+03   -0.23282E-05   -0.12854E-06  3474   0.431E-03    0.306E-03
DAV:  10    -0.159741423261E+03   -0.11107E-05   -0.53341E-07  3510   0.266E-03    0.192E-03
DAV:  11    -0.159741423810E+03   -0.54917E-06   -0.17054E-07  3624   0.179E-03
  28 F= -.16591374E+03 E0= -.16591373E+03  d E =-.574725E-03  mag=    24.0000
       N       E                     dE             d eps       ncg     rms          rms(c)
DAV:   1    -0.159740835067E+03    0.58819E-03   -0.27564E-02  5574   0.333E-01    0.839E-02
DAV:   2    -0.159740959091E+03   -0.12402E-03   -0.14355E-03  7692   0.130E-01    0.629E-02
DAV:   3    -0.159741091660E+03   -0.13257E-03   -0.87823E-04  7728   0.105E-01    0.183E-01
DAV:   4    -0.159740984313E+03    0.10735E-03   -0.66476E-04  7392   0.848E-02    0.311E-02
DAV:   5    -0.159740993236E+03   -0.89236E-05   -0.91665E-06  4806   0.127E-02    0.234E-02
DAV:   6    -0.159740989111E+03    0.41250E-05   -0.70984E-06  6036   0.112E-02    0.152E-02
DAV:   7    -0.159740982573E+03    0.65388E-05   -0.64126E-06  5166   0.821E-03    0.869E-03
DAV:   8    -0.159740982171E+03    0.40143E-06   -0.24941E-06  3876   0.702E-03
  29 F= -.16591384E+03 E0= -.16591382E+03  d E =-.994329E-04  mag=    24.0000
       N       E                     dE             d eps       ncg     rms          rms(c)
DAV:   1    -0.159740328036E+03    0.65454E-03   -0.30662E-02  5556   0.351E-01    0.898E-02
DAV:   2    -0.159740468168E+03   -0.14013E-03   -0.16019E-03  7608   0.135E-01    0.595E-02
DAV:   3    -0.159740591300E+03   -0.12313E-03   -0.77337E-04  7464   0.996E-02    0.174E-01
DAV:   4    -0.159740495725E+03    0.95576E-04   -0.61674E-04  7356   0.819E-02    0.327E-02
DAV:   5    -0.159740501783E+03   -0.60579E-05   -0.90074E-06  4704   0.131E-02    0.233E-02
DAV:   6    -0.159740496475E+03    0.53075E-05   -0.73451E-06  6216   0.118E-02    0.154E-02
DAV:   7    -0.159740491291E+03    0.51847E-05   -0.61060E-06  4902   0.863E-03    0.836E-03
DAV:   8    -0.159740494007E+03   -0.27166E-05   -0.25548E-06  3714   0.688E-03    0.290E-03
DAV:   9    -0.159740498615E+03   -0.46079E-05   -0.56804E-07  3534   0.352E-03    0.173E-03
DAV:  10    -0.159740503244E+03   -0.46289E-05   -0.23326E-07  3504   0.213E-03    0.162E-03
DAV:  11    -0.159740507820E+03   -0.45757E-05   -0.10487E-07  3462   0.154E-03    0.107E-03
DAV:  12    -0.159740511155E+03   -0.33351E-05   -0.64386E-08  3468   0.101E-03    0.904E-04
DAV:  13    -0.159740514421E+03   -0.32661E-05   -0.54592E-08  3432   0.728E-04    0.505E-04
DAV:  14    -0.159740517398E+03   -0.29768E-05   -0.41068E-08  3426   0.693E-04    0.371E-04
DAV:  15    -0.159740519391E+03   -0.19933E-05   -0.31186E-08  3468   0.542E-04    0.248E-04
DAV:  16    -0.159740520623E+03   -0.12324E-05   -0.19340E-08  3444   0.448E-04    0.178E-04
DAV:  17    -0.159740521954E+03   -0.13303E-05   -0.16545E-08  3420   0.337E-04    0.139E-04
DAV:  18    -0.159740523871E+03   -0.19175E-05   -0.22690E-08  3522   0.334E-04    0.155E-04
DAV:  19    -0.159740525491E+03   -0.16198E-05   -0.27466E-08  3516   0.371E-04    0.144E-04
DAV:  20    -0.159740525926E+03   -0.43508E-06   -0.14242E-08  3594   0.367E-04
  30 F= -.16591389E+03 E0= -.16591387E+03  d E =-.150158E-03  mag=    24.0000
       N       E                     dE             d eps       ncg     rms          rms(c)
DAV:   1    -0.159740619317E+03   -0.93826E-04   -0.49223E-03  5652   0.142E-01    0.370E-02
DAV:   2    -0.159740641463E+03   -0.22146E-04   -0.27653E-04  7578   0.557E-02    0.251E-02
DAV:   3    -0.159740667095E+03   -0.25631E-04   -0.15675E-04  7632   0.414E-02    0.791E-02
DAV:   4    -0.159740645652E+03    0.21442E-04   -0.99355E-05  5520   0.331E-02    0.936E-03
DAV:   5    -0.159740648763E+03   -0.31101E-05   -0.19829E-06  3720   0.412E-03    0.810E-03
DAV:   6    -0.159740649312E+03   -0.54909E-06   -0.15692E-06  3408   0.543E-03
  31 F= -.16591395E+03 E0= -.16591394E+03  d E =-.635884E-04  mag=    24.0000
       N       E                     dE             d eps       ncg     rms          rms(c)
DAV:   1    -0.159740714426E+03   -0.65664E-04   -0.43973E-02  5538   0.424E-01    0.110E-01
DAV:   2    -0.159740963921E+03   -0.24950E-03   -0.25980E-03  7674   0.172E-01    0.110E-01
DAV:   3    -0.159741261696E+03   -0.29777E-03   -0.27443E-03  7848   0.171E-01    0.314E-01
DAV:   4    -0.159740959010E+03    0.30269E-03   -0.15439E-03  7440   0.128E-01    0.284E-02
DAV:   5    -0.159740981072E+03   -0.22062E-04   -0.26447E-05  6966   0.126E-02    0.253E-02
DAV:   6    -0.159740983771E+03   -0.26993E-05   -0.15319E-05  4578   0.159E-02    0.212E-02
DAV:   7    -0.159740985872E+03   -0.21005E-05   -0.10256E-05  6732   0.140E-02    0.175E-02
DAV:   8    -0.159740986162E+03   -0.29004E-06   -0.59032E-06  3966   0.106E-02
  32 F= -.16591410E+03 E0= -.16591409E+03  d E =-.213074E-03  mag=    24.0000
       N       E                     dE             d eps       ncg     rms          rms(c)
DAV:   1    -0.159740407541E+03    0.57833E-03   -0.17710E-01  5424   0.851E-01    0.223E-01
DAV:   2    -0.159741404685E+03   -0.99714E-03   -0.99612E-03  7482   0.334E-01    0.148E-01
DAV:   3    -0.159742156101E+03   -0.75142E-03   -0.56409E-03  7734   0.247E-01    0.477E-01
DAV:   4    -0.159741465402E+03    0.69070E-03   -0.36269E-03  7698   0.196E-01    0.552E-02
DAV:   5    -0.159741504852E+03   -0.39450E-04   -0.65948E-05  7230   0.211E-02    0.479E-02
DAV:   6    -0.159741508736E+03   -0.38840E-05   -0.63442E-05  8022   0.295E-02    0.426E-02
DAV:   7    -0.159741512253E+03   -0.35168E-05   -0.21504E-05  7800   0.238E-02    0.274E-02
DAV:   8    -0.159741513630E+03   -0.13775E-05   -0.17332E-05  4626   0.189E-02    0.818E-03
DAV:   9    -0.159741517265E+03   -0.36344E-05   -0.19165E-06  3654   0.742E-03    0.668E-03
DAV:  10    -0.159741518824E+03   -0.15599E-05   -0.11996E-06  3498   0.410E-03    0.300E-03
DAV:  11    -0.159741519492E+03   -0.66800E-06   -0.37254E-07  3498   0.292E-03
  33 F= -.16591422E+03 E0= -.16591421E+03  d E =-.334142E-03  mag=    24.0000
