CrCl3 2x2 + H S1 top-Cl (no_vdw, U=0) (a
    1.000000000000000     
    12.0925489970493256    0.0000000000000000    0.0000000000000000
    -6.0462744985246628   10.4724546279527502    0.0000000000000000
     0.0000000000000000    0.0000000000000000   20.0000000000000000
   Cr   Cl   H 
     8    24     1
Direct
     0.1662683967374204    0.3331554198937464    0.4998071710959388
     0.3272269235159154    0.1622466805305099    0.4979900737727257
     0.6727730764840846    0.3350197570145803    0.4979900737727257
     0.8335529168652152    0.1671042056745007    0.4995989105942787
     0.1664470831347849    0.8335512888092713    0.4995989105942787
     0.3332648788771208    0.6669636097215432    0.4997947588643770
     0.6667351211228792    0.8336987308444083    0.4997947588643770
     0.8337316032625796    0.6668870231563402    0.4998071710959388
     0.1796715425656737    0.4999864203933014    0.4332608148409960
     0.5000000000000000    0.1802825488832882    0.4336434119239962
     0.3207087549904080    0.3209218897643987    0.4332353041932245
     0.3204831877459369    0.4999227993156775    0.5669738343209120
     0.0000876319286919    0.3204213405709924    0.5668368987373216
     0.1791677056412167    0.1798401836943963    0.5672721171141182
     0.6792912450095920    0.5002131347739908    0.4332353041932245
     0.0001074423639808    0.1797184435281845    0.4332931643551725
     0.8218175432707771    0.3196428002813297    0.4326958112009665
     0.8208322943587832    0.5006724780531796    0.5672721171141182
     0.5000000000000000    0.3241727460150389    0.5680771677386838
     0.6793751913771230    0.1789948474682318    0.5672698252171906
     0.1781824567292230    0.9978252570105527    0.4326958112009665
     0.5000000000000000    0.6796355824621643    0.4332141829855797
     0.3203497483891564    0.8202200876646141    0.4332553334013548
     0.3206248086228770    0.9996196560911088    0.5672698252171906
     0.9999123680713081    0.8203337086423005    0.5668368987373216
     0.1796686758339368    0.6795002902788585    0.5668810592022285
     0.6796502516108436    0.9998703392754577    0.4332553334013548
     0.9998925576360193    0.6796110011642037    0.4332931643551725
     0.8203284574343263    0.8203148778276277    0.4332608148409960
     0.8203313241660631    0.9998316144449216    0.5668810592022285
     0.5000000000000000    0.8203806689120964    0.5668513672697675
     0.6795168122540631    0.6794396115697406    0.5669738343209120
     0.5000000000000000    0.3203508578376364    0.6336699095202895
 
  0.00000000E+00  0.00000000E+00  0.00000000E+00
  0.00000000E+00  0.00000000E+00  0.00000000E+00
  0.00000000E+00  0.00000000E+00  0.00000000E+00
  0.00000000E+00  0.00000000E+00  0.00000000E+00
  0.00000000E+00  0.00000000E+00  0.00000000E+00
  0.00000000E+00  0.00000000E+00  0.00000000E+00
  0.00000000E+00  0.00000000E+00  0.00000000E+00
  0.00000000E+00  0.00000000E+00  0.00000000E+00
  0.00000000E+00  0.00000000E+00  0.00000000E+00
  0.00000000E+00  0.00000000E+00  0.00000000E+00
  0.00000000E+00  0.00000000E+00  0.00000000E+00
  0.00000000E+00  0.00000000E+00  0.00000000E+00
  0.00000000E+00  0.00000000E+00  0.00000000E+00
  0.00000000E+00  0.00000000E+00  0.00000000E+00
  0.00000000E+00  0.00000000E+00  0.00000000E+00
  0.00000000E+00  0.00000000E+00  0.00000000E+00
  0.00000000E+00  0.00000000E+00  0.00000000E+00
  0.00000000E+00  0.00000000E+00  0.00000000E+00
  0.00000000E+00  0.00000000E+00  0.00000000E+00
  0.00000000E+00  0.00000000E+00  0.00000000E+00
  0.00000000E+00  0.00000000E+00  0.00000000E+00
  0.00000000E+00  0.00000000E+00  0.00000000E+00
  0.00000000E+00  0.00000000E+00  0.00000000E+00
  0.00000000E+00  0.00000000E+00  0.00000000E+00
  0.00000000E+00  0.00000000E+00  0.00000000E+00
  0.00000000E+00  0.00000000E+00  0.00000000E+00
  0.00000000E+00  0.00000000E+00  0.00000000E+00
  0.00000000E+00  0.00000000E+00  0.00000000E+00
  0.00000000E+00  0.00000000E+00  0.00000000E+00
  0.00000000E+00  0.00000000E+00  0.00000000E+00
  0.00000000E+00  0.00000000E+00  0.00000000E+00
  0.00000000E+00  0.00000000E+00  0.00000000E+00
  0.00000000E+00  0.00000000E+00  0.00000000E+00
