       N       E                     dE             d eps       ncg     rms          rms(c)
DAV:   1     0.207268391672E+04    0.20727E+04   -0.61704E+04  5312   0.918E+02
DAV:   2     0.398613806990E+03   -0.16741E+04   -0.15594E+04  6352   0.248E+02
DAV:   3    -0.128075181129E+03   -0.52669E+03   -0.51081E+03  7360   0.138E+02
DAV:   4    -0.172345199071E+03   -0.44270E+02   -0.43598E+02  8088   0.578E+01
DAV:   5    -0.173134823735E+03   -0.78962E+00   -0.77662E+00  8064   0.987E+00    0.411E+01
DAV:   6    -0.163411380456E+03    0.97234E+01   -0.14411E+02  7632   0.613E+01    0.405E+01
DAV:   7    -0.157379812507E+03    0.60316E+01   -0.26502E+01  7648   0.588E+01    0.221E+01
DAV:   8    -0.157921410977E+03   -0.54160E+00   -0.83539E+00  7800   0.138E+01    0.155E+01
DAV:   9    -0.157750013285E+03    0.17140E+00   -0.29628E+00  7720   0.132E+01    0.119E+01
DAV:  10    -0.157403010355E+03    0.34700E+00   -0.88323E-01  7760   0.758E+00    0.588E+00
DAV:  11    -0.157373982000E+03    0.29028E-01   -0.16727E-01  7632   0.227E+00    0.475E+00
DAV:  12    -0.157373438238E+03    0.54376E-03   -0.35723E-02  7424   0.895E-01    0.357E+00
DAV:  13    -0.157373059698E+03    0.37854E-03   -0.52194E-02  8208   0.234E+00    0.152E+00
DAV:  14    -0.157399751339E+03   -0.26692E-01   -0.49895E-02  7656   0.112E+00    0.585E-01
DAV:  15    -0.157421547688E+03   -0.21796E-01   -0.64597E-03  7480   0.369E-01    0.466E-01
DAV:  16    -0.157466892351E+03   -0.45345E-01   -0.63293E-03  7496   0.328E-01    0.216E-01
DAV:  17    -0.157491497906E+03   -0.24606E-01   -0.10950E-03  7624   0.185E-01    0.110E-01
DAV:  18    -0.157513929731E+03   -0.22432E-01   -0.43655E-04  7400   0.768E-02    0.862E-02
DAV:  19    -0.157543413714E+03   -0.29484E-01   -0.60723E-04  7040   0.755E-02    0.740E-02
DAV:  20    -0.157560163837E+03   -0.16750E-01   -0.34509E-04  7072   0.565E-02    0.447E-02
DAV:  21    -0.157569438348E+03   -0.92745E-02   -0.28779E-04  5848   0.340E-02    0.259E-02
DAV:  22    -0.157572275364E+03   -0.28370E-02   -0.96192E-05  7072   0.272E-02    0.192E-02
DAV:  23    -0.157573371667E+03   -0.10963E-02   -0.37402E-05  6480   0.204E-02    0.915E-03
DAV:  24    -0.157573594341E+03   -0.22267E-03   -0.10208E-05  6280   0.873E-03    0.655E-03
DAV:  25    -0.157573654375E+03   -0.60034E-04   -0.10269E-06  3880   0.419E-03    0.397E-03
DAV:  26    -0.157573710696E+03   -0.56321E-04   -0.16228E-06  4104   0.404E-03    0.276E-03
DAV:  27    -0.157573749741E+03   -0.39045E-04   -0.10121E-06  3616   0.309E-03    0.199E-03
DAV:  28    -0.157573782449E+03   -0.32708E-04   -0.54385E-07  3568   0.228E-03    0.166E-03
DAV:  29    -0.157573811857E+03   -0.29408E-04   -0.39206E-07  3528   0.194E-03    0.131E-03
DAV:  30    -0.157573852317E+03   -0.40460E-04   -0.62325E-07  3592   0.222E-03    0.130E-03
DAV:  31    -0.157573860214E+03   -0.78965E-05   -0.46289E-07  3544   0.185E-03    0.884E-04
DAV:  32    -0.157573864528E+03   -0.43141E-05   -0.20162E-07  3472   0.120E-03    0.544E-04
DAV:  33    -0.157573869699E+03   -0.51713E-05   -0.74101E-08  3120   0.102E-03    0.398E-04
DAV:  34    -0.157573874281E+03   -0.45822E-05   -0.64148E-08  3152   0.808E-04    0.402E-04
DAV:  35    -0.157573876333E+03   -0.20516E-05   -0.38664E-08  3056   0.622E-04    0.276E-04
DAV:  36    -0.157573878053E+03   -0.17207E-05   -0.30056E-08  2984   0.474E-04    0.270E-04
DAV:  37    -0.157573879167E+03   -0.11136E-05   -0.21104E-08  2928   0.417E-04    0.159E-04
DAV:  38    -0.157573880438E+03   -0.12715E-05   -0.25164E-08  3008   0.363E-04    0.212E-04
DAV:  39    -0.157573881364E+03   -0.92517E-06   -0.22450E-08  3064   0.360E-04
   1 F= -.15757388E+03 E0= -.15757261E+03  d E =-.157574E+03  mag=    25.0000
       N       E                     dE             d eps       ncg     rms          rms(c)
DAV:   1    -0.157446876571E+03    0.12700E+00   -0.34011E+01  5424   0.108E+01    0.454E+00
DAV:   2    -0.157790792752E+03   -0.34392E+00   -0.16798E+00  7432   0.462E+00    0.329E+00
DAV:   3    -0.157845595336E+03   -0.54803E-01   -0.70571E-02  7704   0.167E+00    0.988E-01
DAV:   4    -0.157838190038E+03    0.74053E-02   -0.10652E-02  7752   0.442E-01    0.647E-01
DAV:   5    -0.157831816332E+03    0.63737E-02   -0.82931E-03  7608   0.389E-01    0.376E-01
DAV:   6    -0.157832382043E+03   -0.56571E-03   -0.23187E-03  7824   0.278E-01    0.166E-01
DAV:   7    -0.157835900140E+03   -0.35181E-02   -0.49235E-04  7648   0.159E-01    0.958E-02
DAV:   8    -0.157839078164E+03   -0.31780E-02   -0.16128E-04  7584   0.714E-02    0.521E-02
DAV:   9    -0.157841880529E+03   -0.28024E-02   -0.52582E-05  7536   0.390E-02    0.368E-02
DAV:  10    -0.157845058641E+03   -0.31781E-02   -0.49311E-05  7248   0.211E-02    0.200E-02
DAV:  11    -0.157847399682E+03   -0.23410E-02   -0.25905E-05  7320   0.146E-02    0.130E-02
DAV:  12    -0.157848620436E+03   -0.12208E-02   -0.82812E-06  6544   0.107E-02    0.925E-03
DAV:  13    -0.157849778156E+03   -0.11577E-02   -0.86086E-06  6352   0.816E-03    0.739E-03
DAV:  14    -0.157850924047E+03   -0.11459E-02   -0.10415E-05  5456   0.562E-03    0.518E-03
DAV:  15    -0.157852218194E+03   -0.12941E-02   -0.23160E-05  5344   0.718E-03    0.276E-03
DAV:  16    -0.157852715746E+03   -0.49755E-03   -0.94511E-06  5984   0.472E-03    0.186E-03
DAV:  17    -0.157852934777E+03   -0.21903E-03   -0.37825E-06  5112   0.288E-03    0.120E-03
DAV:  18    -0.157852994924E+03   -0.60147E-04   -0.79985E-07  4048   0.187E-03    0.993E-04
DAV:  19    -0.157853013230E+03   -0.18307E-04   -0.47403E-07  3632   0.208E-03    0.862E-04
DAV:  20    -0.157853021083E+03   -0.78528E-05   -0.52756E-07  3656   0.178E-03    0.657E-04
DAV:  21    -0.157853022835E+03   -0.17514E-05   -0.31392E-07  3504   0.170E-03    0.434E-04
DAV:  22    -0.157853023311E+03   -0.47651E-06   -0.15376E-07  3128   0.115E-03
   2 F= -.15785302E+03 E0= -.15785248E+03  d E =-.279142E+00  mag=    25.0000
