 vasp.6.5.1 10Mar25 (build Jan 13 2026 20:43:53) complex                         
 executed on             LinuxAMD date 2026.09.09  00:19:06
 running   16 mpi-ranks, with    1 threads/rank, on    1 nodes
 distrk:  each k-point on   16 cores,    1 groups
 distr:  one band on NCORE=   4 cores,    4 groups


--------------------------------------------------------------------------------------------------------


 INCAR:
   SYSTEM = CrCl3 2x2 + H (S1 top-Cl) (No vdW, U\=0eV)
   PREC = Accurate
   ENCUT = 400.0
   ALGO = Normal
   EDIFF = 1.0E-06
   NELM = 100
   ISPIN = 2
   MAGMOM = 8*3.0 24*0.0 1*0.0
   ISMEAR = 0
   SIGMA = 0.05
   NCORE = 4
   LREAL = Auto
   IBRION = 2
   NSW = 100
   ISIF = 2
   EDIFFG = -0.025
   LASPH = .TRUE.
   LMAXMIX = 4
   LDAU = .FALSE.
   LDIPOL = .TRUE.
   IDIPOL = 3
   DIPOL = 0.5 0.5 0.5
   LWAVE = .FALSE.
   LCHARG = .FALSE.

 POTCAR:    PAW_PBE Cr 06Sep2000                  
 POTCAR:    PAW_PBE Cl 06Sep2000                  
 POTCAR:    PAW_PBE H 15Jun2001                   
 POTCAR:    PAW_PBE Cr 06Sep2000                  
   SHA256 =  56e7271fac8042f322b235801e26979132a24da65eb043fa6a03029023cb2fcc Cr/POTCAR             
   COPYR  = (c) Copyright 06Sep2000 Georg Kresse                                                    
   COPYR  = This file is part of the software VASP. Any use, copying, and all other rights are regul
   COPYR  = If you do not have a valid VASP license, you may not use, copy or distribute this file. 
   VRHFIN =Cr : d5 s1                                                                               
   LEXCH  = PE                                                                                      
   EATOM  =   276.8859 eV,   20.3505 Ry                                                             
                                                                                                    
   TITEL  = PAW_PBE Cr 06Sep2000                                                                    
   LULTRA =        F    use ultrasoft PP ?                                                          
   IUNSCR =        1    unscreen: 0-lin 1-nonlin 2-no                                               
   RPACOR =    2.080    partial core radius                                                         
   POMASS =   51.996; ZVAL   =    6.000    mass and valenz                                          
   RCORE  =    2.500    outmost cutoff radius                                                       
   RWIGS  =    2.500; RWIGS  =    1.323    wigner-seitz radius (au A)                               
   ENMAX  =  227.080; ENMIN  =  170.310 eV                                                          
   RCLOC  =    1.721    cutoff for local pot                                                        
   LCOR   =        T    correct aug charges                                                         
   LPAW   =        T    paw PP                                                                      
   EAUG   =  402.108                                                                                
   DEXC   =    0.000                                                                                
   RMAX   =    2.552    core radius for proj-oper                                                   
   RAUG   =    1.300    factor for augmentation sphere                                              
   RDEP   =    2.609    radius for radial grids                                                     
   RDEPT  =    2.065    core radius for aug-charge                                                  
                                                                                                    
   Atomic configuration                                                                             
    9 entries                                                                                       
     n  l   j            E        occ.                                                              
     1  0  0.50     -5880.4963   2.0000                                                             
     2  0  0.50      -667.0865   2.0000                                                             
     2  1  1.50      -560.6250   6.0000                                                             
     3  0  0.50       -73.9860   2.0000                                                             
     3  1  1.50       -45.4378   6.0000                                                             
     3  2  2.50        -2.9137   5.0000                                                             
     4  0  0.50        -4.0071   1.0000                                                             
     4  1  0.50        -1.2789   0.0000                                                             
     4  3  2.50        -1.3606   0.0000                                                             
   Description                                                                                      
     l       E           TYP  RCUT    TYP  RCUT                                                     
     2     -2.9136677     23  2.500                                                                 
     2     -4.2742503     23  2.500                                                                 
     0     -4.0071322     23  2.500                                                                 
     0      9.4498801     23  2.500                                                                 
     1     -5.4423304     23  2.500                                                                 
     1     27.2116520     23  2.500                                                                 
  local pseudopotential read in
  partial core-charges read in
  partial kinetic energy density read in
  atomic valenz-charges read in
  non local Contribution for L=            2  read in
    real space projection operators read in
  non local Contribution for L=            2  read in
    real space projection operators read in
  non local Contribution for L=            0  read in
    real space projection operators read in
  non local Contribution for L=            0  read in
    real space projection operators read in
  non local Contribution for L=            1  read in
    real space projection operators read in
  non local Contribution for L=            1  read in
    real space projection operators read in
    PAW grid and wavefunctions read in
 
   number of l-projection  operators is LMAX  =            6
   number of lm-projection operators is LMMAX =           18
 
 POTCAR:    PAW_PBE Cl 06Sep2000                  
   SHA256 =  9f1b6e6ed4247ac726a768b330d26d7667cc3c95a39ff49c1d064c2d9dcce931 Cl/POTCAR             
   COPYR  = (c) Copyright 06Sep2000 Georg Kresse                                                    
   COPYR  = This file is part of the software VASP. Any use, copying, and all other rights are regul
   COPYR  = If you do not have a valid VASP license, you may not use, copy or distribute this file. 
   VRHFIN =Cl: s2p5                                                                                 
   LEXCH  = PE                                                                                      
   EATOM  =   409.7259 eV,   30.1140 Ry                                                             
                                                                                                    
   TITEL  = PAW_PBE Cl 06Sep2000                                                                    
   LULTRA =        F    use ultrasoft PP ?                                                          
   IUNSCR =        1    unscreen: 0-lin 1-nonlin 2-no                                               
   RPACOR =    1.500    partial core radius                                                         
   POMASS =   35.453; ZVAL   =    7.000    mass and valenz                                          
   RCORE  =    1.900    outmost cutoff radius                                                       
   RWIGS  =    2.100; RWIGS  =    1.111    wigner-seitz radius (au A)                               
   ENMAX  =  262.472; ENMIN  =  196.854 eV                                                          
   ICORE  =        2    local potential                                                             
   LCOR   =        T    correct aug charges                                                         
   LPAW   =        T    paw PP                                                                      
   EAUG   =  356.192                                                                                
   DEXC   =    0.000                                                                                
   RMAX   =    1.945    core radius for proj-oper                                                   
   RAUG   =    1.300    factor for augmentation sphere                                              
   RDEP   =    2.020    radius for radial grids                                                     
   RDEPT  =    1.678    core radius for aug-charge                                                  
                                                                                                    
   Atomic configuration                                                                             
    6 entries                                                                                       
     n  l   j            E        occ.                                                              
     1  0  0.50     -2751.1850   2.0000                                                             
     2  0  0.50      -252.6861   2.0000                                                             
     2  1  1.50      -191.6157   6.0000                                                             
     3  0  0.50       -20.6916   2.0000                                                             
     3  1  0.50        -8.5949   5.0000                                                             
     3  2  1.50        -8.1635   0.0000                                                             
   Description                                                                                      
     l       E           TYP  RCUT    TYP  RCUT                                                     
     0    -20.6915656     23  1.900                                                                 
     0    -22.0521482     23  1.900                                                                 
     1     -8.5948577     23  1.900                                                                 
     1     -5.3847331     23  1.900                                                                 
     2     -8.1634956     23  1.900                                                                 
  local pseudopotential read in
  partial core-charges read in
  partial kinetic energy density read in
  atomic valenz-charges read in
  non local Contribution for L=            0  read in
    real space projection operators read in
  non local Contribution for L=            0  read in
    real space projection operators read in
  non local Contribution for L=            1  read in
    real space projection operators read in
  non local Contribution for L=            1  read in
    real space projection operators read in
    PAW grid and wavefunctions read in
 
   number of l-projection  operators is LMAX  =            4
   number of lm-projection operators is LMMAX =            8
 
 POTCAR:    PAW_PBE H 15Jun2001                   
   SHA256 =  030f79b5d3ab3cf0e668861823c8fb652ff669f3e15e46930bd03bfd63a607b6 H/POTCAR              
   COPYR  = (c) Copyright 15Jun2001 Georg Kresse                                                    
   COPYR  = This file is part of the software VASP. Any use, copying, and all other rights are regul
   COPYR  = If you do not have a valid VASP license, you may not use, copy or distribute this file. 
   VRHFIN =H: ultrasoft test                                                                        
   LEXCH  = PE                                                                                      
   EATOM  =    12.4884 eV,    0.9179 Ry                                                             
                                                                                                    
   TITEL  = PAW_PBE H 15Jun2001                                                                     
   LULTRA =        F    use ultrasoft PP ?                                                          
   IUNSCR =        0    unscreen: 0-lin 1-nonlin 2-no                                               
   RPACOR =    0.000    partial core radius                                                         
   POMASS =    1.000; ZVAL   =    1.000    mass and valenz                                          
   RCORE  =    1.100    outmost cutoff radius                                                       
   RWIGS  =    0.700; RWIGS  =    0.370    wigner-seitz radius (au A)                               
   ENMAX  =  250.000; ENMIN  =  200.000 eV                                                          
   RCLOC  =    0.701    cutoff for local pot                                                        
   LCOR   =        T    correct aug charges                                                         
   LPAW   =        T    paw PP                                                                      
   EAUG   =  400.000                                                                                
   RMAX   =    1.123    core radius for proj-oper                                                   
   RAUG   =    1.200    factor for augmentation sphere                                              
   RDEP   =    1.112    radius for radial grids                                                     
   RDEPT  =    0.926    core radius for aug-charge                                                  
                                                                                                    
   Atomic configuration                                                                             
    2 entries                                                                                       
     n  l   j            E        occ.                                                              
     1  0  0.50        -6.4927   1.0000                                                             
     2  1  0.50        -3.4015   0.0000                                                             
   Description                                                                                      
     l       E           TYP  RCUT    TYP  RCUT                                                     
     0     -6.4927494     23  1.100                                                                 
     0      6.8029130     23  1.100                                                                 
     1     -4.0817478     23  1.100                                                                 
  local pseudopotential read in
  atomic valenz-charges read in
  non local Contribution for L=            0  read in
    real space projection operators read in
  non local Contribution for L=            0  read in
    real space projection operators read in
  non local Contribution for L=            1  read in
    real space projection operators read in
    PAW grid and wavefunctions read in
 
   number of l-projection  operators is LMAX  =            3
   number of lm-projection operators is LMMAX =            5
 
 Optimization of the real space projectors (new method)

 maximal supplied QI-value         = 15.12
 optimisation between [QCUT,QGAM] = [ 10.13, 20.41] = [ 28.73,116.64] Ry 
 Optimized for a Real-space Cutoff    1.55 Angstroem

   l    n(q)    QCUT    max X(q) W(low)/X(q) W(high)/X(q)  e(spline) 
   2      9    10.129    94.395    0.23E-03    0.29E-03    0.30E-06
   2      9    10.129    88.078    0.23E-03    0.29E-03    0.30E-06
   0      9    10.129    50.173    0.57E-04    0.58E-04    0.11E-06
   0      9    10.129    24.906    0.50E-04    0.51E-04    0.96E-07
   1      9    10.129    12.133    0.24E-03    0.21E-04    0.16E-06
   1      9    10.129     7.290    0.17E-03    0.12E-04    0.12E-06
 Optimization of the real space projectors (new method)

 maximal supplied QI-value         = 19.84
 optimisation between [QCUT,QGAM] = [ 10.12, 20.44] = [ 28.68,116.96] Ry 
 Optimized for a Real-space Cutoff    1.42 Angstroem

   l    n(q)    QCUT    max X(q) W(low)/X(q) W(high)/X(q)  e(spline) 
   0      9    10.119   168.010    0.50E-04    0.84E-04    0.57E-07
   0      9    10.119   164.674    0.49E-04    0.82E-04    0.55E-07
   1      8    10.119    69.222    0.16E-03    0.16E-03    0.24E-06
   1      8    10.119    56.786    0.16E-03    0.16E-03    0.23E-06
 Optimization of the real space projectors (new method)

 maximal supplied QI-value         = 34.20
 optimisation between [QCUT,QGAM] = [  9.92, 20.18] = [ 27.55,114.04] Ry 
 Optimized for a Real-space Cutoff    1.34 Angstroem

   l    n(q)    QCUT    max X(q) W(low)/X(q) W(high)/X(q)  e(spline) 
   0      8     9.919    19.460    0.16E-03    0.20E-03    0.36E-06
   0      8     9.919    12.209    0.16E-03    0.20E-03    0.35E-06
   1      8     9.919     4.655    0.19E-03    0.46E-03    0.40E-06
  PAW_PBE Cr 06Sep2000                  :
 energy of atom  1       EATOM= -276.8859
 kinetic energy error for atom=    0.0018 (will be added to EATOM!!)
  PAW_PBE Cl 06Sep2000                  :
 energy of atom  2       EATOM= -409.7259
 kinetic energy error for atom=    0.0089 (will be added to EATOM!!)
  PAW_PBE H 15Jun2001                   :
 energy of atom  3       EATOM=  -12.4884
 kinetic energy error for atom=    0.0098 (will be added to EATOM!!)
 
 
 POSCAR: CrCl3 2x2 + H S1 top-Cl (no_vdw, U=0) (a
  positions in direct lattice
  No initial velocities read in


 exchange-correlation table for PE
   RHO(1)=    0.500       N(1)  =     2000
   RHO(2)=  100.500       N(2)  =     4000
 


--------------------------------------------------------------------------------------------------------


 ion  position               nearest neighbor table
   1  0.167  0.333  0.500-  11 2.36  14 2.36  12 2.36  16 2.36   9 2.36  13 2.36
   2  0.333  0.167  0.500-  11 2.36  14 2.36  19 2.36  21 2.36  24 2.36  10 2.36
   3  0.667  0.333  0.500-  17 2.36  20 2.36  18 2.36  10 2.36  15 2.36  19 2.36
   4  0.833  0.167  0.500-  17 2.36  20 2.36  13 2.36  27 2.36  30 2.36  16 2.36
   5  0.167  0.833  0.500-  23 2.36  26 2.36  24 2.36  28 2.36  21 2.36  25 2.36
   6  0.333  0.667  0.500-  23 2.36  26 2.36   9 2.36  31 2.36  12 2.36  22 2.36
   7  0.667  0.833  0.500-  29 2.36  32 2.36  30 2.36  22 2.36  27 2.36  31 2.36
   8  0.833  0.667  0.500-  29 2.36  32 2.36  15 2.36  25 2.36  18 2.36  28 2.36
   9  0.180  0.500  0.433-   6 2.36   1 2.36
  10  0.500  0.180  0.433-   3 2.36   2 2.36
  11  0.320  0.320  0.433-   1 2.36   2 2.36
  12  0.320  0.500  0.567-   1 2.36   6 2.36
  13  0.000  0.320  0.567-   4 2.36   1 2.36
  14  0.180  0.180  0.567-   1 2.36   2 2.36
  15  0.680  0.500  0.433-   8 2.36   3 2.36
  16  0.000  0.180  0.433-   1 2.36   4 2.36
  17  0.820  0.320  0.433-   3 2.36   4 2.36
  18  0.820  0.500  0.567-   3 2.36   8 2.36
  19  0.500  0.320  0.567-  33 1.30   2 2.36   3 2.36
  20  0.680  0.180  0.567-   3 2.36   4 2.36
  21  0.180  0.000  0.433-   2 2.36   5 2.36
  22  0.500  0.680  0.433-   7 2.36   6 2.36
  23  0.320  0.820  0.433-   5 2.36   6 2.36
  24  0.320  0.000  0.567-   5 2.36   2 2.36
  25  0.000  0.820  0.567-   8 2.36   5 2.36
  26  0.180  0.680  0.567-   5 2.36   6 2.36
  27  0.680  0.000  0.433-   4 2.36   7 2.36
  28  0.000  0.680  0.433-   5 2.36   8 2.36
  29  0.820  0.820  0.433-   7 2.36   8 2.36
  30  0.820  0.000  0.567-   7 2.36   4 2.36
  31  0.500  0.820  0.567-   6 2.36   7 2.36
  32  0.680  0.680  0.567-   7 2.36   8 2.36
  33  0.500  0.320  0.632-  19 1.30
 
  LATTYP: Found a hexagonal cell.
 ALAT       =    12.0925489970
 C/A-ratio  =     1.6539110162
  
  Lattice vectors:
  
 A1 = (  12.0925489970,   0.0000000000,   0.0000000000)
 A2 = (  -6.0462744985,  10.4724546280,   0.0000000000)
 A3 = (   0.0000000000,   0.0000000000,  20.0000000000)


Analysis of symmetry for initial positions (statically):
=====================================================================
 Subroutine PRICEL returns:
 Original cell was already a primitive cell.
 

 Routine SETGRP: Setting up the symmetry group for a 
 hexagonal supercell.


 Subroutine GETGRP returns: Found  2 space group operations
 (whereof  1 operations were pure point group operations)
 out of a pool of 24 trial point group operations.


The static configuration has the point symmetry C_1 .
 The point group associated with its full space group is C_1h.


Analysis of symmetry for dynamics (positions and initial velocities):
=====================================================================
 Subroutine PRICEL returns:
 Original cell was already a primitive cell.
 

 Routine SETGRP: Setting up the symmetry group for a 
 hexagonal supercell.


 Subroutine GETGRP returns: Found  2 space group operations
 (whereof  1 operations were pure point group operations)
 out of a pool of 24 trial point group operations.


The dynamic configuration has the point symmetry C_1 .
 The point group associated with its full space group is C_1h.


Analysis of structural, dynamic, and magnetic symmetry:
=====================================================================
 Subroutine PRICEL returns:
 Original cell was already a primitive cell.
 

 Routine SETGRP: Setting up the symmetry group for a 
 hexagonal supercell.


 Subroutine GETGRP returns: Found  2 space group operations
 (whereof  1 operations were pure point group operations)
 out of a pool of 24 trial point group operations.


The overall configuration has the point symmetry C_1 .
 The point group associated with its full space group is C_1h.


 Subroutine INISYM returns: Found  2 space group operations
 (whereof  1 operations are pure point group operations),
 and found     1 'primitive' translations


----------------------------------------------------------------------------------------

                                     Primitive cell                                     

  volume of cell :    2532.7734

  direct lattice vectors                    reciprocal lattice vectors
    12.092548997  0.000000000  0.000000000     0.082695551  0.047744299 -0.000000000
    -6.046274499 10.472454628  0.000000000     0.000000000  0.095488597  0.000000000
     0.000000000  0.000000000 20.000000000     0.000000000 -0.000000000  0.050000000

  length of vectors
    12.092548997 12.092548997 20.000000000     0.095488597  0.095488597  0.050000000

  position of ions in fractional coordinates (direct lattice)
     0.166666667  0.333333333  0.500000000
     0.333333333  0.166666667  0.500000000
     0.666666667  0.333333333  0.500000000
     0.833333333  0.166666667  0.500000000
     0.166666667  0.833333333  0.500000000
     0.333333333  0.666666667  0.500000000
     0.666666667  0.833333333  0.500000000
     0.833333333  0.666666667  0.500000000
     0.179650098  0.500000000  0.433213807
     0.500000000  0.179650098  0.433213807
     0.320349902  0.320349902  0.433213807
     0.320349902  0.500000000  0.566786193
     0.000000000  0.320349902  0.566786193
     0.179650098  0.179650098  0.566786193
     0.679650098  0.500000000  0.433213807
     0.000000000  0.179650098  0.433213807
     0.820349902  0.320349902  0.433213807
     0.820349902  0.500000000  0.566786193
     0.500000000  0.320349902  0.566786193
     0.679650098  0.179650098  0.566786193
     0.179650098  0.000000000  0.433213807
     0.500000000  0.679650098  0.433213807
     0.320349902  0.820349902  0.433213807
     0.320349902  0.000000000  0.566786193
     0.000000000  0.820349902  0.566786193
     0.179650098  0.679650098  0.566786193
     0.679650098  0.000000000  0.433213807
     0.000000000  0.679650098  0.433213807
     0.820349902  0.820349902  0.433213807
     0.820349902  0.000000000  0.566786193
     0.500000000  0.820349902  0.566786193
     0.679650098  0.679650098  0.566786193
     0.500000000  0.320349902  0.631786193

  ion indices of the primitive-cell ions
   primitive index   ion index
                 1           1
                 2           2
                 3           3
                 4           4
                 5           5
                 6           6
                 7           7
                 8           8
                 9           9
                10          10
                11          11
                12          12
                13          13
                14          14
                15          15
                16          16
                17          17
                18          18
                19          19
                20          20
                21          21
                22          22
                23          23
                24          24
                25          25
                26          26
                27          27
                28          28
                29          29
                30          30
                31          31
                32          32
                33          33

----------------------------------------------------------------------------------------

 
 
 KPOINTS: K-Points 5x5x1 Gamma-centered           

Automatic generation of k-mesh.
 Grid dimensions read from file:
 generate k-points for:    5    5    1

 Generating k-lattice:

  Cartesian coordinates                     Fractional coordinates (reciprocal lattice)
     0.016539110  0.009548860 -0.000000000     0.200000000 -0.000000000  0.000000000
     0.000000000  0.019097719  0.000000000     0.000000000  0.200000000  0.000000000
     0.000000000 -0.000000000  0.050000000     0.000000000  0.000000000  1.000000000

  Length of vectors
     0.019097719  0.019097719  0.050000000

  Shift w.r.t. Gamma in fractional coordinates (k-lattice)
     0.000000000  0.000000000  0.000000000

 
 Subroutine IBZKPT returns following result:
 ===========================================
 
 Found      9 irreducible k-points:
 
 Following reciprocal coordinates:
            Coordinates               Weight
  0.000000  0.000000  0.000000      1.000000
  0.200000  0.000000  0.000000      2.000000
  0.000000  0.200000  0.000000      4.000000
  0.400000  0.000000  0.000000      2.000000
  0.000000  0.400000  0.000000      4.000000
  0.200000  0.200000  0.000000      4.000000
 -0.200000  0.400000  0.000000      2.000000
  0.400000  0.200000  0.000000      2.000000
 -0.200000 -0.400000  0.000000      4.000000
 
 Following cartesian coordinates:
            Coordinates               Weight
  0.000000  0.000000  0.000000      1.000000
  0.016539  0.009549  0.000000      2.000000
  0.000000  0.019098  0.000000      4.000000
  0.033078  0.019098  0.000000      2.000000
  0.000000  0.038195  0.000000      4.000000
  0.016539  0.028647  0.000000      4.000000
 -0.016539  0.028647  0.000000      2.000000
  0.033078  0.038195  0.000000      2.000000
 -0.016539 -0.047744  0.000000      4.000000
 


--------------------------------------------------------------------------------------------------------




 Dimension of arrays:
   k-points           NKPTS =      9   k-points in BZ     NKDIM =      9   number of bands    NBANDS=    144
   number of dos      NEDOS =    301   number of ions     NIONS =     33
   non local maximal  LDIM  =      6   non local SUM 2l+1 LMDIM =     18
   total plane-waves  NPLWV = 896000
   max r-space proj   IRMAX =   5608   max aug-charges    IRDMAX=  18270
   dimension x,y,z NGX =    80 NGY =   80 NGZ =  140
   dimension x,y,z NGXF=   160 NGYF=  160 NGZF=  280
   support grid    NGXF=   160 NGYF=  160 NGZF=  280
   ions per type =               8  24   1
   NGX,Y,Z   is equivalent  to a cutoff of  11.00, 11.00, 11.64 a.u.
   NGXF,Y,Z  is equivalent  to a cutoff of  22.00, 22.00, 23.27 a.u.

 SYSTEM =  CrCl3 2x2 + H (S1 top-Cl) (No vdW, U=0eV
 POSCAR =  CrCl3 2x2 + H S1 top-Cl (no_vdw, U=0) (a

 Startparameter for this run:
   NWRITE =      2    write-flag & timer
   PREC   = accura    normal or accurate (medium, high low for compatibility)
   ISTART =      0    job   : 0-new  1-cont  2-samecut
   ICHARG =      2    charge: 1-file 2-atom 10-const
   ISPIN  =      2    spin polarized calculation?
   LNONCOLLINEAR =      F non collinear calculations
   LSORBIT =      F    spin-orbit coupling
   INIWAV =      1    electr: 0-lowe 1-rand  2-diag
   LASPH  =      T    aspherical Exc in radial PAW
 Electronic Relaxation 1
   ENCUT  =  400.0 eV  29.40 Ry    5.42 a.u.  19.72 19.72 32.61*2*pi/ulx,y,z
   ENINI  =  400.0     initial cutoff
   ENAUG  =  402.1 eV  augmentation charge cutoff
   NELM   =    100;   NELMIN=  2; NELMDL= -5     # of ELM steps 
   EDIFF  = 0.1E-05   stopping-criterion for ELM
   LREAL  =      T    real-space projection
   NLSPLINE    = F    spline interpolate recip. space projectors
   LCOMPAT=      F    compatible to vasp.4.4
   GGA_COMPAT  = T    GGA compatible to vasp.4.4-vasp.4.6
   LMAXPAW     = -100 max onsite density
   LMAXMIX     =    4 max onsite mixed and CHGCAR
   VOSKOWN=      0    Vosko Wilk Nusair interpolation
   ROPT   =   -0.00025  -0.00025  -0.00025
 Ionic relaxation
   EDIFFG = -.3E-01   stopping-criterion for IOM
   NSW    =    100    number of steps for IOM
   NBLOCK =      1;   KBLOCK =    100    inner block; outer block 
   IBRION =      2    ionic relax: 0-MD 1-quasi-New 2-CG
   NFREE  =      1    steps in history (QN), initial steepest desc. (CG)
   ISIF   =      2    stress and relaxation
   IWAVPR =     11    prediction:  0-non 1-charg 2-wave 3-comb
   ISYM   =      2    0-nonsym 1-usesym 2-fastsym
   LCORR  =      T    Harris-Foulkes like correction to forces

   POTIM  = 0.5000    time-step for ionic-motion
   TEIN   =    0.0    initial temperature
   TEBEG  =    0.0;   TEEND  =   0.0 temperature during run
   SMASS  =  -3.00    Nose mass-parameter (am)
   estimated Nose-frequenzy (Omega)   =  0.10E-29 period in steps = 0.13E+47 mass=  -0.334E-26a.u.
   SCALEE = 1.0000    scale energy and forces
   NPACO  =    256;   APACO  = 10.0  distance and # of slots for P.C.
   PSTRESS=    0.0 pullay stress

  Mass of Ions in am
   POMASS =  52.00 35.45  1.00
  Ionic Valenz
   ZVAL   =   6.00  7.00  1.00
  Atomic Wigner-Seitz radii
   RWIGS  =  -1.00 -1.00 -1.00
  virtual crystal weights 
   VCA    =   1.00  1.00  1.00
   NELECT =     217.0000    total number of electrons
   NUPDOWN=      -1.0000    fix difference up-down

 DOS related values:
   EMIN   =  10.00;   EMAX   =-10.00  energy-range for DOS
   EFERMI =   0.00;   METHOD = LEGACY      
   ISMEAR =     0;   SIGMA  =   0.05  broadening in eV -4-tet -1-fermi 0-gaus
   EFERMI_NEDOS =   21; number of points for ismear=-14 and -15

 Electronic relaxation 2 (details)
   IALGO  =     38    algorithm
   LDIAG  =      T    sub-space diagonalisation (order eigenvalues)
   LSUBROT=      F    optimize rotation matrix (better conditioning)
   LROBUST=      F    robust break criterion during scf (extrapolated energy error)
   ISEARCH=      0    line search for conjugate gradient (0, 1=use gradient)
   TURBO    =      0    0=normal 1=particle mesh
   IRESTART =      0    0=no restart 2=restart with 2 vectors
   NREBOOT  =      0    no. of reboots
   NMIN     =      0    reboot dimension
   EREF     =   0.00    reference energy to select bands
   IMIX   =      4    mixing-type and parameters
     AMIX     =   0.40;   BMIX     =  1.00
     AMIX_MAG =   1.60;   BMIX_MAG =  1.00
     AMIN     =   0.10
     WC   =   100.;   INIMIX=   1;  MIXPRE=   1;  MAXMIX= -45

 Intra band minimization:
   WEIMIN = 0.0010     energy-eigenvalue tresh-hold
   EBREAK =  0.17E-08  absolut break condition
   DEPER  =   0.30     relativ break condition  

   TIME   =   0.40     timestep for ELM

  volume/ion in A,a.u.               =      76.75       517.94
  Fermi-wavevector in a.u.,A,eV,Ry     =   0.721710  1.363834  7.086800  0.520865
  Thomas-Fermi vector in A             =   1.811487
 
 Write flags
   LWAVE        =      F    write WAVECAR
   LDOWNSAMPLE  =      F    k-point downsampling of WAVECAR
   LCHARG       =      F    write CHGCAR
   LVTOT        =      F    write LOCPOT, total local potential
   LVHAR        =      F    write LOCPOT, Hartree potential only
   WRT_POTENTIAL= false  ! write potential to hdf5 file
   LELF         =      F    write electronic localiz. function (ELF)
   LORBIT       =      0    0 simple, 1 ext, 2 COOP (PROOUT), +10 PAW based schemes


 Python interface
   PLUGINS active      =      F    recompile with -DPLUGINS to activate
 
 Dipole corrections
   LMONO      =      F    monopole corrections only (constant potential shift)
   LDIPOL     =      T    correct potential (dipole corrections)
   IDIPOL     =      3    1-x, 2-y, 3-z, 4-all directions 
   EPSILON    =  1.0000000 bulk dielectric constant
   LVACPOTAV  =      F  vacuum potentials using an averaging scheme for the charge density
   VACPOTFLAT =  0.1000000 required flatness to determine vacuum potential
 
Coulomb truncation method
  LTRUNCATE          =      F  Coulomb kernel truncation to be used

 
 Exchange correlation treatment:
   GGA     = PE    functional components
   XC_C    = 1    coefficients multiplying the functional components
   LIBXC   =     F    Libxc                    
   VOSKOWN =     0    Vosko Wilk Nusair interpolation
   LHFCALC =     F    Hartree Fock is set to
   LHFONE  =     F    Hartree Fock one center treatment
   AEXX    =    0.0000 exact exchange contribution

 Parameters of functionals:
   PE:
     No parameter
 
 Van der Waals corrections
   IVDW    =     0    specifies the selected vdW correction

 Linear response parameters
   LEPSILON=     F    determine dielectric tensor
   LRPA    =     F    only Hartree local field effects (RPA)
   LNABLA  =     F    use nabla operator in PAW spheres
   LVEL    =     F    velocity operator in full k-point grid
   CSHIFT  =0.1000    complex shift for real part using Kramers Kronig
   OMEGAMAX=  -1.0    maximum frequency
   DEG_THRESHOLD= 0.2000000E-02 threshold for treating states as degnerate
   RTIME   =   -0.100 relaxation time in fs
  (WPLASMAI=    0.000 imaginary part of plasma frequency in eV, 0.658/RTIME)
   DFIELD  = 0.0000000 0.0000000 0.0000000 field for delta impulse in time
 
  Optional k-point grid parameters
   LKPOINTS_OPT  =     F    use optional k-point grid
   KPOINTS_OPT_MODE=     1    mode for optional k-point grid
 
 Orbital magnetization related:
   ORBITALMAG=     F  switch on orbital magnetization
   LCHIMAG   =     F  perturbation theory with respect to B field
   DQ        =  0.001000  dq finite difference perturbation B field
   LLRAUG    =     F  two centre corrections for induced B field
   LBONE     =     F  B-component reconstruction in AE one-centre
   LVGVCALC  =     T  calculate vGv susceptibility
   LVGVAPPL  =     F  apply vGv susceptibility instead of pGv for G=0

 Random number generation:
   RANDOM_GENERATOR = DEFAULT
   PCG_SEED         = not used


--------------------------------------------------------------------------------------------------------


 conjugate gradient relaxation of ions
 charge density and potential will be updated during run
 spin polarized calculation
 Variant of blocked Davidson
 Davidson routine will perform the subspace rotation
 perform sub-space diagonalisation
    after iterative eigenvector-optimisation
 modified Broyden-mixing scheme, WC =      100.0
 initial mixing is a Kerker type mixing with AMIX =  0.4000 and BMIX =      1.0000
 Hartree-type preconditioning will be used
 using additional bands            35
 real space projection scheme for non local part
 use partial core corrections
 calculate Harris-corrections to forces 
   (improved forces if not selfconsistent)
 use gradient corrections 
 use of overlap-Matrix (Vanderbilt PP)
 Gauss-broadening in eV      SIGMA  =   0.05


--------------------------------------------------------------------------------------------------------


  energy-cutoff  :      400.00
  volume of cell :     2532.77
      direct lattice vectors                 reciprocal lattice vectors
    12.092548997  0.000000000  0.000000000     0.082695551  0.047744299 -0.000000000
    -6.046274499 10.472454628  0.000000000     0.000000000  0.095488597  0.000000000
     0.000000000  0.000000000 20.000000000     0.000000000 -0.000000000  0.050000000

  length of vectors
    12.092548997 12.092548997 20.000000000     0.095488597  0.095488597  0.050000000


 
 k-points in units of 2pi/SCALE and weight: K-Points 5x5x1 Gamma-centered           
   0.00000000  0.00000000  0.00000000       0.040
   0.01653911  0.00954886  0.00000000       0.080
   0.00000000  0.01909772  0.00000000       0.160
   0.03307822  0.01909772  0.00000000       0.080
   0.00000000  0.03819544  0.00000000       0.160
   0.01653911  0.02864658  0.00000000       0.160
  -0.01653911  0.02864658  0.00000000       0.080
   0.03307822  0.03819544  0.00000000       0.080
  -0.01653911 -0.04774430  0.00000000       0.160
 
 k-points in reciprocal lattice and weights: K-Points 5x5x1 Gamma-centered           
   0.00000000  0.00000000  0.00000000       0.040
   0.20000000  0.00000000  0.00000000       0.080
   0.00000000  0.20000000  0.00000000       0.160
   0.40000000  0.00000000  0.00000000       0.080
   0.00000000  0.40000000  0.00000000       0.160
   0.20000000  0.20000000  0.00000000       0.160
  -0.20000000  0.40000000  0.00000000       0.080
   0.40000000  0.20000000  0.00000000       0.080
  -0.20000000 -0.40000000  0.00000000       0.160
 
 position of ions in fractional coordinates (direct lattice) 
   0.16666667  0.33333333  0.50000000
   0.33333333  0.16666667  0.50000000
   0.66666667  0.33333333  0.50000000
   0.83333333  0.16666667  0.50000000
   0.16666667  0.83333333  0.50000000
   0.33333333  0.66666667  0.50000000
   0.66666667  0.83333333  0.50000000
   0.83333333  0.66666667  0.50000000
   0.17965010  0.50000000  0.43321381
   0.50000000  0.17965010  0.43321381
   0.32034990  0.32034990  0.43321381
   0.32034990  0.50000000  0.56678619
   0.00000000  0.32034990  0.56678619
   0.17965010  0.17965010  0.56678619
   0.67965010  0.50000000  0.43321381
   0.00000000  0.17965010  0.43321381
   0.82034990  0.32034990  0.43321381
   0.82034990  0.50000000  0.56678619
   0.50000000  0.32034990  0.56678619
   0.67965010  0.17965010  0.56678619
   0.17965010  0.00000000  0.43321381
   0.50000000  0.67965010  0.43321381
   0.32034990  0.82034990  0.43321381
   0.32034990  0.00000000  0.56678619
   0.00000000  0.82034990  0.56678619
   0.17965010  0.67965010  0.56678619
   0.67965010  0.00000000  0.43321381
   0.00000000  0.67965010  0.43321381
   0.82034990  0.82034990  0.43321381
   0.82034990  0.00000000  0.56678619
   0.50000000  0.82034990  0.56678619
   0.67965010  0.67965010  0.56678619
   0.50000000  0.32034990  0.63178619
 
 position of ions in cartesian coordinates  (Angst):
   0.00000000  3.49081821 10.00000000
   3.02313725  1.74540910 10.00000000
   6.04627450  3.49081821 10.00000000
   9.06941175  1.74540910 10.00000000
  -3.02313725  8.72704552 10.00000000
  -0.00000000  6.98163642 10.00000000
   3.02313725  8.72704552 10.00000000
   6.04627450  6.98163642 10.00000000
  -0.85070963  5.23622731  8.66427613
   4.96006069  1.88137750  8.66427613
   1.93692344  3.35484981  8.66427613
   0.85070963  5.23622731 11.33572387
  -1.93692344  3.35484981 11.33572387
   1.08621381  1.88137750 11.33572387
   5.19556487  5.23622731  8.66427613
  -1.08621381  1.88137750  8.66427613
   7.98319794  3.35484981  8.66427613
   6.89698413  5.23622731 11.33572387
   4.10935106  3.35484981 11.33572387
   7.13248831  1.88137750 11.33572387
   2.17242762  0.00000000  8.66427613
   1.93692344  7.11760482  8.66427613
  -1.08621381  8.59107712  8.66427613
   3.87384688  0.00000000 11.33572387
  -4.96006069  8.59107712 11.33572387
  -1.93692344  7.11760482 11.33572387
   8.21870212  0.00000000  8.66427613
  -4.10935106  7.11760482  8.66427613
   4.96006069  8.59107712  8.66427613
   9.92012138  0.00000000 11.33572387
   1.08621381  8.59107712 11.33572387
   4.10935106  7.11760482 11.33572387
   4.10935106  3.35484981 12.63572387
 


--------------------------------------------------------------------------------------------------------


 k-point     1 :   0.0000 0.0000 0.0000  plane waves:   46037
 k-point     2 :   0.2000 0.0000 0.0000  plane waves:   45994
 k-point     3 :   0.0000 0.2000 0.0000  plane waves:   45994
 k-point     4 :   0.4000 0.0000 0.0000  plane waves:   46016
 k-point     5 :   0.0000 0.4000 0.0000  plane waves:   46016
 k-point     6 :   0.2000 0.2000 0.0000  plane waves:   46056
 k-point     7 :  -0.2000 0.4000 0.0000  plane waves:   46056
 k-point     8 :   0.4000 0.2000 0.0000  plane waves:   46002
 k-point     9 :  -0.2000-0.4000 0.0000  plane waves:   46002

 maximum and minimum number of plane-waves per node :     11549    11450

 maximum number of plane-waves:     46056
 maximum index in each direction: 
   IXMAX=   19   IYMAX=   20   IZMAX=   32
   IXMIN=  -20   IYMIN=  -20   IZMIN=  -32


 real space projection operators:
  total allocation   :      12388.62 KBytes
  max/ min on nodes  :       3120.26       3075.66


 parallel 3D FFT for wavefunctions:
    minimum data exchange during FFTs selected (reduces bandwidth)
 parallel 3D FFT for charge:
    minimum data exchange during FFTs selected (reduces bandwidth)


 total amount of memory used by VASP MPI-rank0   236866. kBytes
=======================================================================

   base                                    :      30000. kBytes
   nonlr-proj                              :       6956. kBytes
   fftplans                                :      21738. kBytes
   grid                                    :      57625. kBytes
   one-center                              :        279. kBytes
   wavefun                                 :     120268. kBytes
 
     INWAV:  cpu time      0.0001: real time      0.0076
 Broyden mixing: mesh for mixing (old mesh)
   NGX = 39   NGY = 39   NGZ = 65
  (NGX  =160   NGY  =160   NGZ  =280)
  gives a total of  98865 points

 initial charge density was supplied:
 charge density of overlapping atoms calculated
 number of electron     217.0000000 magnetization      24.0000000
 keeping initial charge density in first step


--------------------------------------------------------------------------------------------------------


 Maximum index for non-local projection operator          1364
 Maximum index for augmentation-charges          1154 (set IRDMAX)


--------------------------------------------------------------------------------------------------------


 First call to EWALD:  gamma=   0.130
 Maximum number of real-space cells   3x   3x   2
 Maximum number of reciprocal cells   3x   3x   4

    FEWALD:  cpu time      0.0547: real time      0.6019


--------------------------------------- Ionic step        1  -------------------------------------------




--------------------------------------- Iteration      1(   1)  ---------------------------------------


    POTLOK:  cpu time      0.5911: real time      6.5139
    SETDIJ:  cpu time      0.2728: real time      3.0380
     EDDAV:  cpu time    230.8251: real time   2551.6090
       DOS:  cpu time      0.2390: real time      2.6390
    --------------------------------------------
      LOOP:  cpu time    231.9281: real time   2563.8000

 eigenvalue-minimisations  :  5312
 total energy-change (2. order) : 0.2072684E+04  (-0.6170354E+04)
 number of electron     217.0000000 magnetization      24.0000000
 augmentation part      217.0000000 magnetization      24.0000000

 DIPCOR: dipole corrections for dipol
 direction  3 min pos     1,
 dipolmoment           0.000000      0.000000     -0.000011 electrons x Angstroem
 Tr[quadrupol]     -5243.542101

 energy correction for charged system         0.000000 eV
 dipol+quadrupol energy correction           -0.000000 eV
 added-field ion interaction          0.000002 eV  (added to PSCEN)


 Free energy of the ion-electron system (eV)
  ---------------------------------------------------
  alpha Z        PSCENC =       109.46236567
  Ewald energy   TEWEN  =     24459.73926070
  -Hartree energ DENC   =    -35172.61755103
  -exchange      EXHF   =         0.00000000
  -V(xc)+E(xc)   XCENC  =       333.01139999
  PAW double counting   =     10021.38580736    -9866.74876467
  entropy T*S    EENTRO =        -0.03567738
  eigenvalues    EBANDS =       127.72819929
  atomic energy  EATOM  =     12060.75887678
  Solvation  Ediel_sol  =         0.00000000
  ---------------------------------------------------
  free energy    TOTEN  =      2072.68391672 eV

  energy without entropy =     2072.71959410  energy(sigma->0) =     2072.70175541


--------------------------------------------------------------------------------------------------------




--------------------------------------- Iteration      1(   2)  ---------------------------------------


     EDDAV:  cpu time    253.4203: real time   2801.1920
       DOS:  cpu time      0.2190: real time      2.4200
    --------------------------------------------
      LOOP:  cpu time    253.6393: real time   2803.6120

 eigenvalue-minimisations  :  6352
 total energy-change (2. order) :-0.1674070E+04  (-0.1559362E+04)
 number of electron     217.0000000 magnetization      24.0000000
 augmentation part      217.0000000 magnetization      24.0000000

 DIPCOR: dipole corrections for dipol
 direction  3 min pos     1,
 dipolmoment           0.000000      0.000000     -0.000011 electrons x Angstroem
 Tr[quadrupol]     -5243.542101

 energy correction for charged system         0.000000 eV
 dipol+quadrupol energy correction           -0.000000 eV
 added-field ion interaction          0.000002 eV  (added to PSCEN)


 Free energy of the ion-electron system (eV)
  ---------------------------------------------------
  alpha Z        PSCENC =       109.46236567
  Ewald energy   TEWEN  =     24459.73926070
  -Hartree energ DENC   =    -35172.61755103
  -exchange      EXHF   =         0.00000000
  -V(xc)+E(xc)   XCENC  =       333.01139999
  PAW double counting   =     10021.38580736    -9866.74876467
  entropy T*S    EENTRO =        -0.02551783
  eigenvalues    EBANDS =     -1546.35206999
  atomic energy  EATOM  =     12060.75887678
  Solvation  Ediel_sol  =         0.00000000
  ---------------------------------------------------
  free energy    TOTEN  =       398.61380699 eV

  energy without entropy =      398.63932482  energy(sigma->0) =      398.62656590


--------------------------------------------------------------------------------------------------------




--------------------------------------- Iteration      1(   3)  ---------------------------------------


     EDDAV:  cpu time    271.1684: real time   2997.2870
       DOS:  cpu time      0.2031: real time      2.2450
    --------------------------------------------
      LOOP:  cpu time    271.3715: real time   2999.5320

 eigenvalue-minimisations  :  7360
 total energy-change (2. order) :-0.5266890E+03  (-0.5108127E+03)
 number of electron     217.0000000 magnetization      24.0000000
 augmentation part      217.0000000 magnetization      24.0000000

 DIPCOR: dipole corrections for dipol
 direction  3 min pos     1,
 dipolmoment           0.000000      0.000000     -0.000011 electrons x Angstroem
 Tr[quadrupol]     -5243.542101

 energy correction for charged system         0.000000 eV
 dipol+quadrupol energy correction           -0.000000 eV
 added-field ion interaction          0.000002 eV  (added to PSCEN)


 Free energy of the ion-electron system (eV)
  ---------------------------------------------------
  alpha Z        PSCENC =       109.46236567
  Ewald energy   TEWEN  =     24459.73926070
  -Hartree energ DENC   =    -35172.61755103
  -exchange      EXHF   =         0.00000000
  -V(xc)+E(xc)   XCENC  =       333.01139999
  PAW double counting   =     10021.38580736    -9866.74876467
  entropy T*S    EENTRO =        -0.00317207
  eigenvalues    EBANDS =     -2073.06340387
  atomic energy  EATOM  =     12060.75887678
  Solvation  Ediel_sol  =         0.00000000
  ---------------------------------------------------
  free energy    TOTEN  =      -128.07518113 eV

  energy without entropy =     -128.07200906  energy(sigma->0) =     -128.07359510


--------------------------------------------------------------------------------------------------------




--------------------------------------- Iteration      1(   4)  ---------------------------------------


     EDDAV:  cpu time    288.2030: real time   3185.8250
       DOS:  cpu time      0.1434: real time      1.5840
    --------------------------------------------
      LOOP:  cpu time    288.3465: real time   3187.4091

 eigenvalue-minimisations  :  8088
 total energy-change (2. order) :-0.4427002E+02  (-0.4359814E+02)
 number of electron     217.0000000 magnetization      24.0000000
 augmentation part      217.0000000 magnetization      24.0000000

 DIPCOR: dipole corrections for dipol
 direction  3 min pos     1,
 dipolmoment           0.000000      0.000000     -0.000011 electrons x Angstroem
 Tr[quadrupol]     -5243.542101

 energy correction for charged system         0.000000 eV
 dipol+quadrupol energy correction           -0.000000 eV
 added-field ion interaction          0.000002 eV  (added to PSCEN)


 Free energy of the ion-electron system (eV)
  ---------------------------------------------------
  alpha Z        PSCENC =       109.46236567
  Ewald energy   TEWEN  =     24459.73926070
  -Hartree energ DENC   =    -35172.61755103
  -exchange      EXHF   =         0.00000000
  -V(xc)+E(xc)   XCENC  =       333.01139999
  PAW double counting   =     10021.38580736    -9866.74876467
  entropy T*S    EENTRO =        -0.00000818
  eigenvalues    EBANDS =     -2117.33658570
  atomic energy  EATOM  =     12060.75887678
  Solvation  Ediel_sol  =         0.00000000
  ---------------------------------------------------
  free energy    TOTEN  =      -172.34519907 eV

  energy without entropy =     -172.34519089  energy(sigma->0) =     -172.34519498


--------------------------------------------------------------------------------------------------------




--------------------------------------- Iteration      1(   5)  ---------------------------------------


     EDDAV:  cpu time    289.0084: real time   3194.2910
       DOS:  cpu time      0.3740: real time      4.1450
    CHARGE:  cpu time      5.9052: real time     65.2489
    MIXING:  cpu time      0.0897: real time      1.0100
    --------------------------------------------
      LOOP:  cpu time    295.3772: real time   3264.6949

 eigenvalue-minimisations  :  8064
 total energy-change (2. order) :-0.7896247E+00  (-0.7766213E+00)
 number of electron     216.9999982 magnetization      23.8562724
 augmentation part       -8.0139344 magnetization      13.9816755

 DIPCOR: dipole corrections for dipol
 direction  3 min pos     1,
 dipolmoment           0.000000      0.000000     -0.000011 electrons x Angstroem
 Tr[quadrupol]     -5243.542101

 energy correction for charged system         0.000000 eV
 dipol+quadrupol energy correction           -0.000000 eV
 added-field ion interaction          0.000002 eV  (added to PSCEN)


 Broyden mixing:
  rms(total) = 0.41084E+01    rms(broyden)= 0.41075E+01
  rms(prec ) = 0.43212E+01
  weight for this iteration     100.00

 Free energy of the ion-electron system (eV)
  ---------------------------------------------------
  alpha Z        PSCENC =       109.46236567
  Ewald energy   TEWEN  =     24459.73926070
  -Hartree energ DENC   =    -35172.61755103
  -exchange      EXHF   =         0.00000000
  -V(xc)+E(xc)   XCENC  =       333.01139999
  PAW double counting   =     10021.38580736    -9866.74876467
  entropy T*S    EENTRO =        -0.00000445
  eigenvalues    EBANDS =     -2118.12621409
  atomic energy  EATOM  =     12060.75887678
  Solvation  Ediel_sol  =         0.00000000
  ---------------------------------------------------
  free energy    TOTEN  =      -173.13482374 eV

  energy without entropy =     -173.13481928  energy(sigma->0) =     -173.13482151


--------------------------------------------------------------------------------------------------------




--------------------------------------- Iteration      1(   6)  ---------------------------------------


    POTLOK:  cpu time      0.6102: real time      6.7213
    SETDIJ:  cpu time      0.2766: real time      3.0817
     EDDAV:  cpu time    276.5883: real time   3057.1210
       DOS:  cpu time      0.2191: real time      2.4200
    CHARGE:  cpu time      6.1813: real time     68.3017
    MIXING:  cpu time      0.1097: real time      1.2302
    --------------------------------------------
      LOOP:  cpu time    283.9853: real time   3138.8760

 eigenvalue-minimisations  :  7632
 total energy-change (2. order) : 0.9723443E+01  (-0.1441064E+02)
 number of electron     216.9999983 magnetization      23.7929782
 augmentation part        3.2842438 magnetization      16.0086285

 DIPCOR: dipole corrections for dipol
 direction  3 min pos     1,
 dipolmoment           0.000000      0.000000     -0.112011 electrons x Angstroem
 Tr[quadrupol]     -5242.393286

 energy correction for charged system         0.000000 eV
 dipol+quadrupol energy correction           -0.000449 eV
 added-field ion interaction          0.021111 eV  (added to PSCEN)


 Broyden mixing:
  rms(total) = 0.40541E+01    rms(broyden)= 0.40540E+01
  rms(prec ) = 0.42005E+01
  weight for this iteration     100.00

 eigenvalues of (default mixing * dielectric matrix)
  average eigenvalue GAMMA=   0.3458
  0.3458

 Free energy of the ion-electron system (eV)
  ---------------------------------------------------
  alpha Z        PSCENC =       109.48302638
  Ewald energy   TEWEN  =     24459.73926070
  -Hartree energ DENC   =    -35124.60270535
  -exchange      EXHF   =         0.00000000
  -V(xc)+E(xc)   XCENC  =       344.19855947
  PAW double counting   =     11475.42010457   -11303.51764170
  entropy T*S    EENTRO =        -0.03006641
  eigenvalues    EBANDS =     -2184.86079491
  atomic energy  EATOM  =     12060.75887678
  Solvation  Ediel_sol  =         0.00000000
  ---------------------------------------------------
  free energy    TOTEN  =      -163.41138046 eV

  energy without entropy =     -163.38131405  energy(sigma->0) =     -163.39634725


--------------------------------------------------------------------------------------------------------




--------------------------------------- Iteration      1(   7)  ---------------------------------------


    POTLOK:  cpu time      0.6317: real time      6.9547
    SETDIJ:  cpu time      0.2880: real time      3.2243
     EDDAV:  cpu time    280.0273: real time   3095.5490
       DOS:  cpu time      0.2389: real time      2.6400
    CHARGE:  cpu time      5.4463: real time     60.2155
    MIXING:  cpu time      0.1179: real time      1.3195
    --------------------------------------------
      LOOP:  cpu time    286.7501: real time   3169.9030

 eigenvalue-minimisations  :  7648
 total energy-change (2. order) : 0.6031568E+01  (-0.2650153E+01)
 number of electron     216.9999983 magnetization      23.8837794
 augmentation part       -2.5518699 magnetization      15.3569135

 DIPCOR: dipole corrections for dipol
 direction  3 min pos     1,
 dipolmoment           0.000000      0.000000     -0.136334 electrons x Angstroem
 Tr[quadrupol]     -5243.739948

 energy correction for charged system         0.000000 eV
 dipol+quadrupol energy correction           -0.000665 eV
 added-field ion interaction          0.025696 eV  (added to PSCEN)


 Broyden mixing:
  rms(total) = 0.22141E+01    rms(broyden)= 0.22140E+01
  rms(prec ) = 0.22317E+01
  weight for this iteration     100.00

 eigenvalues of (default mixing * dielectric matrix)
  average eigenvalue GAMMA=   0.6566
  0.9067  0.4065

 Free energy of the ion-electron system (eV)
  ---------------------------------------------------
  alpha Z        PSCENC =       109.48739471
  Ewald energy   TEWEN  =     24459.73926070
  -Hartree energ DENC   =    -35172.00872823
  -exchange      EXHF   =         0.00000000
  -V(xc)+E(xc)   XCENC  =       342.66212308
  PAW double counting   =     12230.69196914   -12072.71697431
  entropy T*S    EENTRO =        -0.02014856
  eigenvalues    EBANDS =     -2115.97358581
  atomic energy  EATOM  =     12060.75887678
  Solvation  Ediel_sol  =         0.00000000
  ---------------------------------------------------
  free energy    TOTEN  =      -157.37981251 eV

  energy without entropy =     -157.35966394  energy(sigma->0) =     -157.36973823


--------------------------------------------------------------------------------------------------------




--------------------------------------- Iteration      1(   8)  ---------------------------------------


    POTLOK:  cpu time      0.6180: real time      6.8119
    SETDIJ:  cpu time      0.2728: real time      3.0311
     EDDAV:  cpu time    285.1250: real time   3151.5700
       DOS:  cpu time      0.2348: real time      2.5960
    CHARGE:  cpu time      5.5651: real time     61.5138
    MIXING:  cpu time      0.1256: real time      1.4062
    --------------------------------------------
      LOOP:  cpu time    291.9414: real time   3226.9290

 eigenvalue-minimisations  :  7800
 total energy-change (2. order) :-0.5415985E+00  (-0.8353876E+00)
 number of electron     216.9999983 magnetization      24.0398246
 augmentation part       -2.7919222 magnetization      15.4815105

 DIPCOR: dipole corrections for dipol
 direction  3 min pos     1,
 dipolmoment           0.000000      0.000000     -0.220066 electrons x Angstroem
 Tr[quadrupol]     -5244.302971

 energy correction for charged system         0.000000 eV
 dipol+quadrupol energy correction           -0.001732 eV
 added-field ion interaction          0.041477 eV  (added to PSCEN)


 Broyden mixing:
  rms(total) = 0.15463E+01    rms(broyden)= 0.15463E+01
  rms(prec ) = 0.15927E+01
  weight for this iteration     100.00

 eigenvalues of (default mixing * dielectric matrix)
  average eigenvalue GAMMA=   0.7986
  1.5400  0.4279  0.4279

 Free energy of the ion-electron system (eV)
  ---------------------------------------------------
  alpha Z        PSCENC =       109.50210908
  Ewald energy   TEWEN  =     24459.73926070
  -Hartree energ DENC   =    -35182.13627066
  -exchange      EXHF   =         0.00000000
  -V(xc)+E(xc)   XCENC  =       345.93883179
  PAW double counting   =     13630.04363696   -13477.97376370
  entropy T*S    EENTRO =        -0.04670643
  eigenvalues    EBANDS =     -2103.74738551
  atomic energy  EATOM  =     12060.75887678
  Solvation  Ediel_sol  =         0.00000000
  ---------------------------------------------------
  free energy    TOTEN  =      -157.92141098 eV

  energy without entropy =     -157.87470455  energy(sigma->0) =     -157.89805776


--------------------------------------------------------------------------------------------------------




--------------------------------------- Iteration      1(   9)  ---------------------------------------


    POTLOK:  cpu time      0.6340: real time      6.9852
    SETDIJ:  cpu time      0.2845: real time      3.1688
     EDDAV:  cpu time    279.2923: real time   3087.4210
       DOS:  cpu time      0.2072: real time      2.2890
    CHARGE:  cpu time      5.3245: real time     58.8217
    MIXING:  cpu time      0.1257: real time      1.4062
    --------------------------------------------
      LOOP:  cpu time    285.8683: real time   3160.0920

 eigenvalue-minimisations  :  7720
 total energy-change (2. order) : 0.1713977E+00  (-0.2962796E+00)
 number of electron     216.9999983 magnetization      24.1829850
 augmentation part       -2.2883655 magnetization      15.9052226

 DIPCOR: dipole corrections for dipol
 direction  3 min pos     1,
 dipolmoment           0.000000      0.000000     -0.299622 electrons x Angstroem
 Tr[quadrupol]     -5244.794780

 energy correction for charged system         0.000000 eV
 dipol+quadrupol energy correction           -0.003210 eV
 added-field ion interaction          0.056471 eV  (added to PSCEN)


 Broyden mixing:
  rms(total) = 0.11923E+01    rms(broyden)= 0.11922E+01
  rms(prec ) = 0.12222E+01
  weight for this iteration     100.00

 eigenvalues of (default mixing * dielectric matrix)
  average eigenvalue GAMMA=   0.9185
  2.2016  0.6519  0.4802  0.3403

 Free energy of the ion-electron system (eV)
  ---------------------------------------------------
  alpha Z        PSCENC =       109.51562506
  Ewald energy   TEWEN  =     24459.73926070
  -Hartree energ DENC   =    -35193.84422227
  -exchange      EXHF   =         0.00000000
  -V(xc)+E(xc)   XCENC  =       348.37097193
  PAW double counting   =     14655.52890252   -14506.76011778
  entropy T*S    EENTRO =        -0.00078228
  eigenvalues    EBANDS =     -2091.05852795
  atomic energy  EATOM  =     12060.75887678
  Solvation  Ediel_sol  =         0.00000000
  ---------------------------------------------------
  free energy    TOTEN  =      -157.75001328 eV

  energy without entropy =     -157.74923101  energy(sigma->0) =     -157.74962214


--------------------------------------------------------------------------------------------------------




--------------------------------------- Iteration      1(  10)  ---------------------------------------


    POTLOK:  cpu time      0.6235: real time      6.8693
    SETDIJ:  cpu time      0.2962: real time      3.3067
     EDDAV:  cpu time    280.8623: real time   3104.6990
       DOS:  cpu time      0.2002: real time      2.2410
    CHARGE:  cpu time      5.9039: real time     65.2369
    MIXING:  cpu time      0.1733: real time      1.9341
    --------------------------------------------
      LOOP:  cpu time    288.0594: real time   3184.2870

 eigenvalue-minimisations  :  7760
 total energy-change (2. order) : 0.3470029E+00  (-0.8832276E-01)
 number of electron     216.9999983 magnetization      24.2369327
 augmentation part       -1.9238711 magnetization      16.0358765

 DIPCOR: dipole corrections for dipol
 direction  3 min pos     1,
 dipolmoment           0.000000      0.000000     -0.333559 electrons x Angstroem
 Tr[quadrupol]     -5245.114424

 energy correction for charged system         0.000000 eV
 dipol+quadrupol energy correction           -0.003978 eV
 added-field ion interaction          0.062867 eV  (added to PSCEN)


 Broyden mixing:
  rms(total) = 0.58817E+00    rms(broyden)= 0.58816E+00
  rms(prec ) = 0.60081E+00
  weight for this iteration     100.00

 eigenvalues of (default mixing * dielectric matrix)
  average eigenvalue GAMMA=   0.8649
  2.3109  0.6745  0.4954  0.4219  0.4219

 Free energy of the ion-electron system (eV)
  ---------------------------------------------------
  alpha Z        PSCENC =       109.52125306
  Ewald energy   TEWEN  =     24459.73926070
  -Hartree energ DENC   =    -35202.69826804
  -exchange      EXHF   =         0.00000000
  -V(xc)+E(xc)   XCENC  =       349.07885264
  PAW double counting   =     15106.28765183   -14958.66409247
  entropy T*S    EENTRO =        -0.00060319
  eigenvalues    EBANDS =     -2081.42594167
  atomic energy  EATOM  =     12060.75887678
  Solvation  Ediel_sol  =         0.00000000
  ---------------------------------------------------
  free energy    TOTEN  =      -157.40301036 eV

  energy without entropy =     -157.40240716  energy(sigma->0) =     -157.40270876


--------------------------------------------------------------------------------------------------------




--------------------------------------- Iteration      1(  11)  ---------------------------------------


    POTLOK:  cpu time      0.6592: real time      7.2574
    SETDIJ:  cpu time      0.2841: real time      3.1747
     EDDAV:  cpu time    279.1738: real time   3086.1400
       DOS:  cpu time      0.2032: real time      2.2440
    CHARGE:  cpu time      5.6421: real time     62.3469
    MIXING:  cpu time      0.1773: real time      1.9780
    --------------------------------------------
      LOOP:  cpu time    286.1397: real time   3163.1410

 eigenvalue-minimisations  :  7632
 total energy-change (2. order) : 0.2902835E-01  (-0.1672667E-01)
 number of electron     216.9999983 magnetization      24.3232494
 augmentation part       -1.9462666 magnetization      16.0969850

 DIPCOR: dipole corrections for dipol
 direction  3 min pos     1,
 dipolmoment           0.000000      0.000000     -0.332738 electrons x Angstroem
 Tr[quadrupol]     -5245.205404

 energy correction for charged system         0.000000 eV
 dipol+quadrupol energy correction           -0.003958 eV
 added-field ion interaction          0.062713 eV  (added to PSCEN)


 Broyden mixing:
  rms(total) = 0.47510E+00    rms(broyden)= 0.47510E+00
  rms(prec ) = 0.48317E+00
  weight for this iteration     100.00

 eigenvalues of (default mixing * dielectric matrix)
  average eigenvalue GAMMA=   0.9138
  2.4388  0.7915  0.7915  0.6202  0.3713  0.4699

 Free energy of the ion-electron system (eV)
  ---------------------------------------------------
  alpha Z        PSCENC =       109.52111787
  Ewald energy   TEWEN  =     24459.73926070
  -Hartree energ DENC   =    -35204.70587224
  -exchange      EXHF   =         0.00000000
  -V(xc)+E(xc)   XCENC  =       349.03085849
  PAW double counting   =     15120.27026595   -14972.79727859
  entropy T*S    EENTRO =        -0.00063847
  eigenvalues    EBANDS =     -2079.19057249
  atomic energy  EATOM  =     12060.75887678
  Solvation  Ediel_sol  =         0.00000000
  ---------------------------------------------------
  free energy    TOTEN  =      -157.37398200 eV

  energy without entropy =     -157.37334353  energy(sigma->0) =     -157.37366276


--------------------------------------------------------------------------------------------------------




--------------------------------------- Iteration      1(  12)  ---------------------------------------


    POTLOK:  cpu time      0.6228: real time      6.8667
    SETDIJ:  cpu time      0.2801: real time      3.1213
     EDDAV:  cpu time    275.4644: real time   3044.9760
       DOS:  cpu time      0.2071: real time      2.2920
    CHARGE:  cpu time      5.3272: real time     58.8897
    MIXING:  cpu time      0.1535: real time      1.7143
    --------------------------------------------
      LOOP:  cpu time    282.0550: real time   3117.8600

 eigenvalue-minimisations  :  7424
 total energy-change (2. order) : 0.5437623E-03  (-0.3572266E-02)
 number of electron     216.9999983 magnetization      24.5022016
 augmentation part       -1.9812284 magnetization      16.2670711

 DIPCOR: dipole corrections for dipol
 direction  3 min pos     1,
 dipolmoment           0.000000      0.000000     -0.334264 electrons x Angstroem
 Tr[quadrupol]     -5245.343049

 energy correction for charged system         0.000000 eV
 dipol+quadrupol energy correction           -0.003995 eV
 added-field ion interaction          0.063000 eV  (added to PSCEN)


 Broyden mixing:
  rms(total) = 0.35693E+00    rms(broyden)= 0.35693E+00
  rms(prec ) = 0.36444E+00
  weight for this iteration     100.00

 eigenvalues of (default mixing * dielectric matrix)
  average eigenvalue GAMMA=   0.9831
  2.5699  1.1262  1.1262  0.6176  0.6176  0.3844  0.4396

 Free energy of the ion-electron system (eV)
  ---------------------------------------------------
  alpha Z        PSCENC =       109.52136909
  Ewald energy   TEWEN  =     24459.73926070
  -Hartree energ DENC   =    -35206.57995212
  -exchange      EXHF   =         0.00000000
  -V(xc)+E(xc)   XCENC  =       348.98845636
  PAW double counting   =     15195.09653953   -15047.72445062
  entropy T*S    EENTRO =        -0.00061110
  eigenvalues    EBANDS =     -2077.17292686
  atomic energy  EATOM  =     12060.75887678
  Solvation  Ediel_sol  =         0.00000000
  ---------------------------------------------------
  free energy    TOTEN  =      -157.37343824 eV

  energy without entropy =     -157.37282714  energy(sigma->0) =     -157.37313269


--------------------------------------------------------------------------------------------------------




--------------------------------------- Iteration      1(  13)  ---------------------------------------


    POTLOK:  cpu time      0.6027: real time      6.6297
    SETDIJ:  cpu time      0.2672: real time      2.9903
     EDDAV:  cpu time    288.7693: real time   3192.1120
       DOS:  cpu time      0.2351: real time      2.5960
    CHARGE:  cpu time      5.5781: real time     61.6416
    MIXING:  cpu time      0.1457: real time      1.6264
    --------------------------------------------
      LOOP:  cpu time    295.5982: real time   3267.5960

 eigenvalue-minimisations  :  8208
 total energy-change (2. order) : 0.3785397E-03  (-0.5219379E-02)
 number of electron     216.9999983 magnetization      24.6138695
 augmentation part       -2.0175806 magnetization      16.3451535

 DIPCOR: dipole corrections for dipol
 direction  3 min pos     1,
 dipolmoment           0.000000      0.000000     -0.335953 electrons x Angstroem
 Tr[quadrupol]     -5245.619336

 energy correction for charged system         0.000000 eV
 dipol+quadrupol energy correction           -0.004035 eV
 added-field ion interaction          0.063319 eV  (added to PSCEN)


 Broyden mixing:
  rms(total) = 0.15217E+00    rms(broyden)= 0.15216E+00
  rms(prec ) = 0.15517E+00
  weight for this iteration     100.00

 eigenvalues of (default mixing * dielectric matrix)
  average eigenvalue GAMMA=   1.0526
  2.2571  2.2571  1.0216  0.7461  0.7461  0.3789  0.5539  0.4600

 Free energy of the ion-electron system (eV)
  ---------------------------------------------------
  alpha Z        PSCENC =       109.52164698
  Ewald energy   TEWEN  =     24459.73926070
  -Hartree energ DENC   =    -35211.17241976
  -exchange      EXHF   =         0.00000000
  -V(xc)+E(xc)   XCENC  =       348.79898346
  PAW double counting   =     15211.47770092   -15064.01203110
  entropy T*S    EENTRO =        -0.00114561
  eigenvalues    EBANDS =     -2072.48393208
  atomic energy  EATOM  =     12060.75887678
  Solvation  Ediel_sol  =         0.00000000
  ---------------------------------------------------
  free energy    TOTEN  =      -157.37305970 eV

  energy without entropy =     -157.37191409  energy(sigma->0) =     -157.37248689


--------------------------------------------------------------------------------------------------------




--------------------------------------- Iteration      1(  14)  ---------------------------------------


    POTLOK:  cpu time      0.6235: real time      6.8662
    SETDIJ:  cpu time      0.2804: real time      3.1208
     EDDAV:  cpu time    278.4385: real time   3078.6240
       DOS:  cpu time      0.1832: real time      2.0201
    CHARGE:  cpu time      5.7345: real time     63.3632
    MIXING:  cpu time      0.1639: real time      1.8447
    --------------------------------------------
      LOOP:  cpu time    285.4240: real time   3155.8390

 eigenvalue-minimisations  :  7656
 total energy-change (2. order) :-0.2669164E-01  (-0.4989535E-02)
 number of electron     216.9999983 magnetization      24.6491328
 augmentation part       -2.0200506 magnetization      16.3640580

 DIPCOR: dipole corrections for dipol
 direction  3 min pos     1,
 dipolmoment           0.000000      0.000000     -0.337127 electrons x Angstroem
 Tr[quadrupol]     -5245.790004

 energy correction for charged system         0.000000 eV
 dipol+quadrupol energy correction           -0.004064 eV
 added-field ion interaction          0.063540 eV  (added to PSCEN)


 Broyden mixing:
  rms(total) = 0.58490E-01    rms(broyden)= 0.58486E-01
  rms(prec ) = 0.60420E-01
  weight for this iteration     100.00

 eigenvalues of (default mixing * dielectric matrix)
  average eigenvalue GAMMA=   1.0261
  2.2647  2.2647  1.0861  0.8215  0.8215  0.3796  0.4500  0.5734  0.5734

 Free energy of the ion-electron system (eV)
  ---------------------------------------------------
  alpha Z        PSCENC =       109.52183994
  Ewald energy   TEWEN  =     24459.73926070
  -Hartree energ DENC   =    -35214.51818389
  -exchange      EXHF   =         0.00000000
  -V(xc)+E(xc)   XCENC  =       348.74186503
  PAW double counting   =     15168.77704686   -15021.12410551
  entropy T*S    EENTRO =        -0.00360869
  eigenvalues    EBANDS =     -2069.29274256
  atomic energy  EATOM  =     12060.75887678
  Solvation  Ediel_sol  =         0.00000000
  ---------------------------------------------------
  free energy    TOTEN  =      -157.39975134 eV

  energy without entropy =     -157.39614265  energy(sigma->0) =     -157.39794699


--------------------------------------------------------------------------------------------------------




--------------------------------------- Iteration      1(  15)  ---------------------------------------


    POTLOK:  cpu time      0.6112: real time      6.7320
    SETDIJ:  cpu time      0.2686: real time      2.9760
     EDDAV:  cpu time    275.3343: real time   3044.0850
       DOS:  cpu time      0.1712: real time      1.8940
    CHARGE:  cpu time      5.9632: real time     65.9440
    MIXING:  cpu time      0.1731: real time      1.9339
    --------------------------------------------
      LOOP:  cpu time    282.5216: real time   3123.5650

 eigenvalue-minimisations  :  7480
 total energy-change (2. order) :-0.2179635E-01  (-0.6459725E-03)
 number of electron     216.9999983 magnetization      24.7307375
 augmentation part       -2.0077300 magnetization      16.4509066

 DIPCOR: dipole corrections for dipol
 direction  3 min pos     1,
 dipolmoment           0.000000      0.000000     -0.339183 electrons x Angstroem
 Tr[quadrupol]     -5245.853154

 energy correction for charged system         0.000000 eV
 dipol+quadrupol energy correction           -0.004113 eV
 added-field ion interaction          0.063927 eV  (added to PSCEN)


 Broyden mixing:
  rms(total) = 0.46560E-01    rms(broyden)= 0.46560E-01
  rms(prec ) = 0.48060E-01
  weight for this iteration     100.00

 eigenvalues of (default mixing * dielectric matrix)
  average eigenvalue GAMMA=   1.0604
  2.3682  2.3682  1.1562  1.1562  0.8169  0.3790  0.4546  0.6598  0.6598  0.5854

 Free energy of the ion-electron system (eV)
  ---------------------------------------------------
  alpha Z        PSCENC =       109.52217783
  Ewald energy   TEWEN  =     24459.73926070
  -Hartree energ DENC   =    -35215.99987137
  -exchange      EXHF   =         0.00000000
  -V(xc)+E(xc)   XCENC  =       348.77677768
  PAW double counting   =     15155.12003723   -15007.45452673
  entropy T*S    EENTRO =        -0.00236991
  eigenvalues    EBANDS =     -2067.88190990
  atomic energy  EATOM  =     12060.75887678
  Solvation  Ediel_sol  =         0.00000000
  ---------------------------------------------------
  free energy    TOTEN  =      -157.42154769 eV

  energy without entropy =     -157.41917778  energy(sigma->0) =     -157.42036273


--------------------------------------------------------------------------------------------------------




--------------------------------------- Iteration      1(  16)  ---------------------------------------


    POTLOK:  cpu time      0.6311: real time      6.9497
    SETDIJ:  cpu time      0.2918: real time      3.2543
     EDDAV:  cpu time    275.8330: real time   3049.6800
       DOS:  cpu time      0.2310: real time      2.5520
    CHARGE:  cpu time      5.7388: real time     63.4330
    MIXING:  cpu time      0.1693: real time      1.8900
    --------------------------------------------
      LOOP:  cpu time    282.8950: real time   3127.7590

 eigenvalue-minimisations  :  7496
 total energy-change (2. order) :-0.4534466E-01  (-0.6329267E-03)
 number of electron     216.9999983 magnetization      24.7747145
 augmentation part       -1.9971203 magnetization      16.4949035

 DIPCOR: dipole corrections for dipol
 direction  3 min pos     1,
 dipolmoment           0.000000      0.000000     -0.343978 electrons x Angstroem
 Tr[quadrupol]     -5245.997264

 energy correction for charged system         0.000000 eV
 dipol+quadrupol energy correction           -0.004230 eV
 added-field ion interaction          0.064831 eV  (added to PSCEN)


 Broyden mixing:
  rms(total) = 0.21553E-01    rms(broyden)= 0.21552E-01
  rms(prec ) = 0.23076E-01
  weight for this iteration     100.00

 eigenvalues of (default mixing * dielectric matrix)
  average eigenvalue GAMMA=   1.1036
  2.5589  2.5589  1.3434  1.3434  0.8486  0.8486  0.6336  0.6336  0.3789  0.4541
  0.5376

 Free energy of the ion-electron system (eV)
  ---------------------------------------------------
  alpha Z        PSCENC =       109.52296445
  Ewald energy   TEWEN  =     24459.73926070
  -Hartree energ DENC   =    -35219.07543328
  -exchange      EXHF   =         0.00000000
  -V(xc)+E(xc)   XCENC  =       348.80754922
  PAW double counting   =     15133.61222373   -14985.94696322
  entropy T*S    EENTRO =        -0.00324993
  eigenvalues    EBANDS =     -2064.88212080
  atomic energy  EATOM  =     12060.75887678
  Solvation  Ediel_sol  =         0.00000000
  ---------------------------------------------------
  free energy    TOTEN  =      -157.46689235 eV

  energy without entropy =     -157.46364242  energy(sigma->0) =     -157.46526738


--------------------------------------------------------------------------------------------------------




--------------------------------------- Iteration      1(  17)  ---------------------------------------


    POTLOK:  cpu time      0.6471: real time      7.1391
    SETDIJ:  cpu time      0.2763: real time      3.0729
     EDDAV:  cpu time    279.3065: real time   3088.0880
       DOS:  cpu time      0.2073: real time      2.3001
    CHARGE:  cpu time      5.6320: real time     62.2396
    MIXING:  cpu time      0.1656: real time      1.8543
    --------------------------------------------
      LOOP:  cpu time    286.2347: real time   3164.6940

 eigenvalue-minimisations  :  7624
 total energy-change (2. order) :-0.2460556E-01  (-0.1095033E-03)
 number of electron     216.9999983 magnetization      24.8100722
 augmentation part       -1.9978000 magnetization      16.5314939

 DIPCOR: dipole corrections for dipol
 direction  3 min pos     1,
 dipolmoment           0.000000      0.000000     -0.346894 electrons x Angstroem
 Tr[quadrupol]     -5246.075812

 energy correction for charged system         0.000000 eV
 dipol+quadrupol energy correction           -0.004302 eV
 added-field ion interaction          0.065381 eV  (added to PSCEN)


 Broyden mixing:
  rms(total) = 0.10952E-01    rms(broyden)= 0.10951E-01
  rms(prec ) = 0.12360E-01
  weight for this iteration     100.00

 eigenvalues of (default mixing * dielectric matrix)
  average eigenvalue GAMMA=   1.0847
  2.5372  2.5372  1.3165  1.3165  1.1006  0.8015  0.8015  0.3789  0.4547  0.6132
  0.6132  0.5460

 Free energy of the ion-electron system (eV)
  ---------------------------------------------------
  alpha Z        PSCENC =       109.52344202
  Ewald energy   TEWEN  =     24459.73926070
  -Hartree energ DENC   =    -35220.45755534
  -exchange      EXHF   =         0.00000000
  -V(xc)+E(xc)   XCENC  =       348.80281601
  PAW double counting   =     15134.91019789   -14987.24979371
  entropy T*S    EENTRO =        -0.00254304
  eigenvalues    EBANDS =     -2063.51619922
  atomic energy  EATOM  =     12060.75887678
  Solvation  Ediel_sol  =         0.00000000
  ---------------------------------------------------
  free energy    TOTEN  =      -157.49149791 eV

  energy without entropy =     -157.48895486  energy(sigma->0) =     -157.49022639


--------------------------------------------------------------------------------------------------------




--------------------------------------- Iteration      1(  18)  ---------------------------------------


    POTLOK:  cpu time      0.6231: real time      6.8741
    SETDIJ:  cpu time      0.2876: real time      3.2090
     EDDAV:  cpu time    273.9050: real time   3028.6270
       DOS:  cpu time      0.3897: real time      4.3080
    CHARGE:  cpu time      5.8320: real time     64.4759
    MIXING:  cpu time      0.1811: real time      2.0211
    --------------------------------------------
      LOOP:  cpu time    281.2185: real time   3109.5150

 eigenvalue-minimisations  :  7400
 total energy-change (2. order) :-0.2243182E-01  (-0.4365512E-04)
 number of electron     216.9999983 magnetization      24.8662864
 augmentation part       -1.9946793 magnetization      16.5889769

 DIPCOR: dipole corrections for dipol
 direction  3 min pos     1,
 dipolmoment           0.000000      0.000000     -0.349300 electrons x Angstroem
 Tr[quadrupol]     -5246.141380

 energy correction for charged system         0.000000 eV
 dipol+quadrupol energy correction           -0.004362 eV
 added-field ion interaction          0.065834 eV  (added to PSCEN)


 Broyden mixing:
  rms(total) = 0.86215E-02    rms(broyden)= 0.86214E-02
  rms(prec ) = 0.98531E-02
  weight for this iteration     100.00

 eigenvalues of (default mixing * dielectric matrix)
  average eigenvalue GAMMA=   1.0919
  2.5923  2.5923  1.3113  1.3113  1.3688  0.8775  0.8775  0.3789  0.6960  0.4546
  0.5929  0.5929  0.5481

 Free energy of the ion-electron system (eV)
  ---------------------------------------------------
  alpha Z        PSCENC =       109.52383559
  Ewald energy   TEWEN  =     24459.73926070
  -Hartree energ DENC   =    -35221.58587274
  -exchange      EXHF   =         0.00000000
  -V(xc)+E(xc)   XCENC  =       348.80161842
  PAW double counting   =     15134.19422093   -14986.53179930
  entropy T*S    EENTRO =        -0.00266775
  eigenvalues    EBANDS =     -2062.41140237
  atomic energy  EATOM  =     12060.75887678
  Solvation  Ediel_sol  =         0.00000000
  ---------------------------------------------------
  free energy    TOTEN  =      -157.51392973 eV

  energy without entropy =     -157.51126198  energy(sigma->0) =     -157.51259586


--------------------------------------------------------------------------------------------------------




--------------------------------------- Iteration      1(  19)  ---------------------------------------


    POTLOK:  cpu time      0.6069: real time      6.6939
    SETDIJ:  cpu time      0.2727: real time      3.0371
     EDDAV:  cpu time    266.6557: real time   2948.3810
       DOS:  cpu time      0.2230: real time      2.4641
    CHARGE:  cpu time      5.5738: real time     61.5973
    MIXING:  cpu time      0.2156: real time      2.4236
    --------------------------------------------
      LOOP:  cpu time    273.5477: real time   3024.5970

 eigenvalue-minimisations  :  7040
 total energy-change (2. order) :-0.2948398E-01  (-0.6072331E-04)
 number of electron     216.9999983 magnetization      24.9123803
 augmentation part       -1.9944622 magnetization      16.6355909

 DIPCOR: dipole corrections for dipol
 direction  3 min pos     1,
 dipolmoment           0.000000      0.000000     -0.353109 electrons x Angstroem
 Tr[quadrupol]     -5246.246766

 energy correction for charged system         0.000000 eV
 dipol+quadrupol energy correction           -0.004458 eV
 added-field ion interaction          0.066552 eV  (added to PSCEN)


 Broyden mixing:
  rms(total) = 0.74003E-02    rms(broyden)= 0.74002E-02
  rms(prec ) = 0.81738E-02
  weight for this iteration     100.00

 eigenvalues of (default mixing * dielectric matrix)
  average eigenvalue GAMMA=   1.1116
  2.7124  2.7124  1.6374  1.4132  1.4132  0.9731  0.8329  0.8329  0.6061  0.6061
  0.3789  0.5391  0.4548  0.4503

 Free energy of the ion-electron system (eV)
  ---------------------------------------------------
  alpha Z        PSCENC =       109.52445781
  Ewald energy   TEWEN  =     24459.73926070
  -Hartree energ DENC   =    -35223.33925141
  -exchange      EXHF   =         0.00000000
  -V(xc)+E(xc)   XCENC  =       348.79311976
  PAW double counting   =     15133.16259150   -14985.49546256
  entropy T*S    EENTRO =        -0.00263298
  eigenvalues    EBANDS =     -2060.68437331
  atomic energy  EATOM  =     12060.75887678
  Solvation  Ediel_sol  =         0.00000000
  ---------------------------------------------------
  free energy    TOTEN  =      -157.54341371 eV

  energy without entropy =     -157.54078074  energy(sigma->0) =     -157.54209723


--------------------------------------------------------------------------------------------------------




--------------------------------------- Iteration      1(  20)  ---------------------------------------


    POTLOK:  cpu time      0.6266: real time      6.9088
    SETDIJ:  cpu time      0.2730: real time      3.0342
     EDDAV:  cpu time    265.2894: real time   2933.3850
       DOS:  cpu time      0.2150: real time      2.3760
    CHARGE:  cpu time      5.7445: real time     63.4985
    MIXING:  cpu time      0.2134: real time      2.3785
    --------------------------------------------
      LOOP:  cpu time    272.3619: real time   3011.5810

 eigenvalue-minimisations  :  7072
 total energy-change (2. order) :-0.1675012E-01  (-0.3450900E-04)
 number of electron     216.9999983 magnetization      24.9565916
 augmentation part       -1.9951634 magnetization      16.6796826

 DIPCOR: dipole corrections for dipol
 direction  3 min pos     1,
 dipolmoment           0.000000      0.000000     -0.356471 electrons x Angstroem
 Tr[quadrupol]     -5246.335588

 energy correction for charged system         0.000000 eV
 dipol+quadrupol energy correction           -0.004543 eV
 added-field ion interaction          0.067186 eV  (added to PSCEN)


 Broyden mixing:
  rms(total) = 0.44745E-02    rms(broyden)= 0.44745E-02
  rms(prec ) = 0.50567E-02
  weight for this iteration     100.00

 eigenvalues of (default mixing * dielectric matrix)
  average eigenvalue GAMMA=   1.1609
  3.4103  2.2804  2.2804  1.3114  1.3114  1.2250  0.8929  0.8929  0.7798  0.3789
  0.6034  0.6034  0.5346  0.4550  0.4532

 Free energy of the ion-electron system (eV)
  ---------------------------------------------------
  alpha Z        PSCENC =       109.52500619
  Ewald energy   TEWEN  =     24459.73926070
  -Hartree energ DENC   =    -35224.73810480
  -exchange      EXHF   =         0.00000000
  -V(xc)+E(xc)   XCENC  =       348.78748435
  PAW double counting   =     15133.39349768   -14985.72268399
  entropy T*S    EENTRO =        -0.00268889
  eigenvalues    EBANDS =     -2059.30081187
  atomic energy  EATOM  =     12060.75887678
  Solvation  Ediel_sol  =         0.00000000
  ---------------------------------------------------
  free energy    TOTEN  =      -157.56016384 eV

  energy without entropy =     -157.55747495  energy(sigma->0) =     -157.55881939


--------------------------------------------------------------------------------------------------------




--------------------------------------- Iteration      1(  21)  ---------------------------------------


    POTLOK:  cpu time      0.6164: real time      6.7907
    SETDIJ:  cpu time      0.2830: real time      3.1643
     EDDAV:  cpu time    240.3519: real time   2657.3880
       DOS:  cpu time      0.2250: real time      2.5100
    CHARGE:  cpu time      5.7192: real time     63.2068
    MIXING:  cpu time      0.2411: real time      2.6812
    --------------------------------------------
      LOOP:  cpu time    247.4366: real time   2735.7410

 eigenvalue-minimisations  :  5848
 total energy-change (2. order) :-0.9274511E-02  (-0.2877896E-04)
 number of electron     216.9999983 magnetization      24.9802465
 augmentation part       -1.9956762 magnetization      16.7032872

 DIPCOR: dipole corrections for dipol
 direction  3 min pos     1,
 dipolmoment           0.000000      0.000000     -0.360308 electrons x Angstroem
 Tr[quadrupol]     -5246.426555

 energy correction for charged system         0.000000 eV
 dipol+quadrupol energy correction           -0.004642 eV
 added-field ion interaction          0.067909 eV  (added to PSCEN)


 Broyden mixing:
  rms(total) = 0.25904E-02    rms(broyden)= 0.25903E-02
  rms(prec ) = 0.29365E-02
  weight for this iteration     100.00

 eigenvalues of (default mixing * dielectric matrix)
  average eigenvalue GAMMA=   1.2454
  4.5918  2.3870  2.3870  1.2886  1.2886  1.2786  1.2786  0.8416  0.8416  0.3789
  0.7030  0.6056  0.6056  0.5368  0.4542  0.4595

 Free energy of the ion-electron system (eV)
  ---------------------------------------------------
  alpha Z        PSCENC =       109.52563094
  Ewald energy   TEWEN  =     24459.73926070
  -Hartree energ DENC   =    -35226.06844093
  -exchange      EXHF   =         0.00000000
  -V(xc)+E(xc)   XCENC  =       348.78591711
  PAW double counting   =     15134.40955994   -14986.73487145
  entropy T*S    EENTRO =        -0.00257937
  eigenvalues    EBANDS =     -2057.98279206
  atomic energy  EATOM  =     12060.75887678
  Solvation  Ediel_sol  =         0.00000000
  ---------------------------------------------------
  free energy    TOTEN  =      -157.56943835 eV

  energy without entropy =     -157.56685898  energy(sigma->0) =     -157.56814866


--------------------------------------------------------------------------------------------------------




--------------------------------------- Iteration      1(  22)  ---------------------------------------


    POTLOK:  cpu time      0.6190: real time      6.8194
    SETDIJ:  cpu time      0.2724: real time      3.0416
     EDDAV:  cpu time    267.2817: real time   2955.5840
       DOS:  cpu time      0.1827: real time      2.0201
    CHARGE:  cpu time      5.5606: real time     61.5094
    MIXING:  cpu time      0.2294: real time      2.5545
    --------------------------------------------
      LOOP:  cpu time    274.1457: real time   3031.5290

 eigenvalue-minimisations  :  7072
 total energy-change (2. order) :-0.2837016E-02  (-0.9619166E-05)
 number of electron     216.9999983 magnetization      24.9931822
 augmentation part       -1.9959154 magnetization      16.7161198

 DIPCOR: dipole corrections for dipol
 direction  3 min pos     1,
 dipolmoment           0.000000      0.000000     -0.362823 electrons x Angstroem
 Tr[quadrupol]     -5246.481546

 energy correction for charged system         0.000000 eV
 dipol+quadrupol energy correction           -0.004707 eV
 added-field ion interaction          0.068383 eV  (added to PSCEN)


 Broyden mixing:
  rms(total) = 0.19228E-02    rms(broyden)= 0.19228E-02
  rms(prec ) = 0.21482E-02
  weight for this iteration     100.00

 eigenvalues of (default mixing * dielectric matrix)
  average eigenvalue GAMMA=   1.2931
  5.5257  2.4247  2.4247  1.3271  1.3271  1.3733  1.3733  0.8748  0.8748  0.3789
  0.7417  0.6744  0.6035  0.6035  0.5420  0.4544  0.4592

 Free energy of the ion-electron system (eV)
  ---------------------------------------------------
  alpha Z        PSCENC =       109.52604005
  Ewald energy   TEWEN  =     24459.73926070
  -Hartree energ DENC   =    -35226.82728408
  -exchange      EXHF   =         0.00000000
  -V(xc)+E(xc)   XCENC  =       348.78768442
  PAW double counting   =     15134.41880763   -14986.74116677
  entropy T*S    EENTRO =        -0.00262059
  eigenvalues    EBANDS =     -2057.23187351
  atomic energy  EATOM  =     12060.75887678
  Solvation  Ediel_sol  =         0.00000000
  ---------------------------------------------------
  free energy    TOTEN  =      -157.57227536 eV

  energy without entropy =     -157.56965478  energy(sigma->0) =     -157.57096507


--------------------------------------------------------------------------------------------------------




--------------------------------------- Iteration      1(  23)  ---------------------------------------


    POTLOK:  cpu time      0.6149: real time      6.7780
    SETDIJ:  cpu time      0.2766: real time      3.0780
     EDDAV:  cpu time    253.0426: real time   2797.9760
       DOS:  cpu time      0.2110: real time      2.3320
    CHARGE:  cpu time      5.6888: real time     62.8806
    MIXING:  cpu time      0.2130: real time      2.3734
    --------------------------------------------
      LOOP:  cpu time    260.0470: real time   2875.4180

 eigenvalue-minimisations  :  6480
 total energy-change (2. order) :-0.1096303E-02  (-0.3740213E-05)
 number of electron     216.9999983 magnetization      24.9982233
 augmentation part       -1.9960011 magnetization      16.7211712

 DIPCOR: dipole corrections for dipol
 direction  3 min pos     1,
 dipolmoment           0.000000      0.000000     -0.364743 electrons x Angstroem
 Tr[quadrupol]     -5246.519356

 energy correction for charged system         0.000000 eV
 dipol+quadrupol energy correction           -0.004757 eV
 added-field ion interaction          0.068745 eV  (added to PSCEN)


 Broyden mixing:
  rms(total) = 0.91544E-03    rms(broyden)= 0.91536E-03
  rms(prec ) = 0.10938E-02
  weight for this iteration     100.00

 eigenvalues of (default mixing * dielectric matrix)
  average eigenvalue GAMMA=   1.3334
  6.1348  2.3546  2.0967  2.0967  1.2792  1.2792  1.2490  1.2490  0.9050  0.9050
  0.3789  0.7536  0.6436  0.6088  0.6088  0.5414  0.4545  0.4616

 Free energy of the ion-electron system (eV)
  ---------------------------------------------------
  alpha Z        PSCENC =       109.52635189
  Ewald energy   TEWEN  =     24459.73926070
  -Hartree energ DENC   =    -35227.29123791
  -exchange      EXHF   =         0.00000000
  -V(xc)+E(xc)   XCENC  =       348.78850789
  PAW double counting   =     15134.13929655   -14986.45988054
  entropy T*S    EENTRO =        -0.00256077
  eigenvalues    EBANDS =     -2056.77198627
  atomic energy  EATOM  =     12060.75887678
  Solvation  Ediel_sol  =         0.00000000
  ---------------------------------------------------
  free energy    TOTEN  =      -157.57337167 eV

  energy without entropy =     -157.57081090  energy(sigma->0) =     -157.57209128


--------------------------------------------------------------------------------------------------------




--------------------------------------- Iteration      1(  24)  ---------------------------------------


    POTLOK:  cpu time      0.6228: real time      6.8869
    SETDIJ:  cpu time      0.2848: real time      3.1661
     EDDAV:  cpu time    249.5807: real time   2759.4100
       DOS:  cpu time      0.2161: real time      2.4050
    CHARGE:  cpu time      5.7631: real time     63.7107
    MIXING:  cpu time      0.2223: real time      2.4623
    --------------------------------------------
      LOOP:  cpu time    256.6898: real time   2838.0410

 eigenvalue-minimisations  :  6280
 total energy-change (2. order) :-0.2226737E-03  (-0.1020806E-05)
 number of electron     216.9999983 magnetization      24.9994358
 augmentation part       -1.9959440 magnetization      16.7223024

 DIPCOR: dipole corrections for dipol
 direction  3 min pos     1,
 dipolmoment           0.000000      0.000000     -0.366080 electrons x Angstroem
 Tr[quadrupol]     -5246.542249

 energy correction for charged system         0.000000 eV
 dipol+quadrupol energy correction           -0.004792 eV
 added-field ion interaction          0.068997 eV  (added to PSCEN)


 Broyden mixing:
  rms(total) = 0.65509E-03    rms(broyden)= 0.65505E-03
  rms(prec ) = 0.79021E-03
  weight for this iteration     100.00

 eigenvalues of (default mixing * dielectric matrix)
  average eigenvalue GAMMA=   1.3462
  6.4861  2.3477  2.3477  2.3425  1.2814  1.2814  1.2030  1.2030  1.0728  0.8203
  0.8203  0.3789  0.7025  0.6101  0.6101  0.6078  0.5462  0.4545  0.4613

 Free energy of the ion-electron system (eV)
  ---------------------------------------------------
  alpha Z        PSCENC =       109.52656903
  Ewald energy   TEWEN  =     24459.73926070
  -Hartree energ DENC   =    -35227.52900498
  -exchange      EXHF   =         0.00000000
  -V(xc)+E(xc)   XCENC  =       348.78919711
  PAW double counting   =     15133.64635407   -14985.96620775
  entropy T*S    EENTRO =        -0.00255085
  eigenvalues    EBANDS =     -2056.53608847
  atomic energy  EATOM  =     12060.75887678
  Solvation  Ediel_sol  =         0.00000000
  ---------------------------------------------------
  free energy    TOTEN  =      -157.57359434 eV

  energy without entropy =     -157.57104350  energy(sigma->0) =     -157.57231892


--------------------------------------------------------------------------------------------------------




--------------------------------------- Iteration      1(  25)  ---------------------------------------


    POTLOK:  cpu time      0.6153: real time      6.7623
    SETDIJ:  cpu time      0.2795: real time      3.1148
     EDDAV:  cpu time    200.2419: real time   2214.0760
       DOS:  cpu time      0.2072: real time      2.2881
    CHARGE:  cpu time      5.6709: real time     62.6637
    MIXING:  cpu time      0.2249: real time      2.5133
    --------------------------------------------
      LOOP:  cpu time    207.2397: real time   2291.4180

 eigenvalue-minimisations  :  3880
 total energy-change (2. order) :-0.6003400E-04  (-0.1026854E-06)
 number of electron     216.9999983 magnetization      25.0004385
 augmentation part       -1.9959513 magnetization      16.7233288

 DIPCOR: dipole corrections for dipol
 direction  3 min pos     1,
 dipolmoment           0.000000      0.000000     -0.366789 electrons x Angstroem
 Tr[quadrupol]     -5246.553343

 energy correction for charged system         0.000000 eV
 dipol+quadrupol energy correction           -0.004810 eV
 added-field ion interaction          0.069130 eV  (added to PSCEN)


 Broyden mixing:
  rms(total) = 0.39739E-03    rms(broyden)= 0.39738E-03
  rms(prec ) = 0.54165E-03
  weight for this iteration     100.00

 eigenvalues of (default mixing * dielectric matrix)
  average eigenvalue GAMMA=   1.3466
  6.6373  2.5171  2.3370  2.3370  1.3082  1.3082  1.1724  1.1724  1.2365  0.8671
  0.8671  0.8058  0.3789  0.6123  0.6123  0.6508  0.6508  0.5435  0.4545  0.4623

 Free energy of the ion-electron system (eV)
  ---------------------------------------------------
  alpha Z        PSCENC =       109.52668399
  Ewald energy   TEWEN  =     24459.73926070
  -Hartree energ DENC   =    -35227.61646969
  -exchange      EXHF   =         0.00000000
  -V(xc)+E(xc)   XCENC  =       348.78911726
  PAW double counting   =     15133.95193916   -14986.27189580
  entropy T*S    EENTRO =        -0.00255373
  eigenvalues    EBANDS =     -2056.44861304
  atomic energy  EATOM  =     12060.75887678
  Solvation  Ediel_sol  =         0.00000000
  ---------------------------------------------------
  free energy    TOTEN  =      -157.57365437 eV

  energy without entropy =     -157.57110064  energy(sigma->0) =     -157.57237751


--------------------------------------------------------------------------------------------------------




--------------------------------------- Iteration      1(  26)  ---------------------------------------


    POTLOK:  cpu time      0.6193: real time      6.8213
    SETDIJ:  cpu time      0.2725: real time      3.0337
     EDDAV:  cpu time    203.0739: real time   2245.3491
       DOS:  cpu time      0.3992: real time      4.3999
    CHARGE:  cpu time      5.8538: real time     64.7126
    MIXING:  cpu time      0.2612: real time      2.9023
    --------------------------------------------
      LOOP:  cpu time    210.4799: real time   2327.2190

 eigenvalue-minimisations  :  4104
 total energy-change (2. order) :-0.5632086E-04  (-0.1622752E-06)
 number of electron     216.9999983 magnetization      25.0009236
 augmentation part       -1.9959948 magnetization      16.7238080

 DIPCOR: dipole corrections for dipol
 direction  3 min pos     1,
 dipolmoment           0.000000      0.000000     -0.367659 electrons x Angstroem
 Tr[quadrupol]     -5246.567191

 energy correction for charged system         0.000000 eV
 dipol+quadrupol energy correction           -0.004833 eV
 added-field ion interaction          0.069294 eV  (added to PSCEN)


 Broyden mixing:
  rms(total) = 0.27634E-03    rms(broyden)= 0.27632E-03
  rms(prec ) = 0.39310E-03
  weight for this iteration     100.00

 eigenvalues of (default mixing * dielectric matrix)
  average eigenvalue GAMMA=   1.3563
  6.7644  2.7634  2.3599  2.3599  1.3768  1.3768  1.1294  1.1294  1.2267  1.2267
  0.8595  0.8595  0.3789  0.7436  0.6128  0.6128  0.6209  0.6209  0.5422  0.4545
  0.4627

 Free energy of the ion-electron system (eV)
  ---------------------------------------------------
  alpha Z        PSCENC =       109.52682516
  Ewald energy   TEWEN  =     24459.73926070
  -Hartree energ DENC   =    -35227.72031901
  -exchange      EXHF   =         0.00000000
  -V(xc)+E(xc)   XCENC  =       348.78908573
  PAW double counting   =     15133.93197855   -14986.25181884
  entropy T*S    EENTRO =        -0.00254734
  eigenvalues    EBANDS =     -2056.34505244
  atomic energy  EATOM  =     12060.75887678
  Solvation  Ediel_sol  =         0.00000000
  ---------------------------------------------------
  free energy    TOTEN  =      -157.57371070 eV

  energy without entropy =     -157.57116336  energy(sigma->0) =     -157.57243703


--------------------------------------------------------------------------------------------------------




--------------------------------------- Iteration      1(  27)  ---------------------------------------


    POTLOK:  cpu time      0.5869: real time      6.4606
    SETDIJ:  cpu time      0.2603: real time      2.9004
     EDDAV:  cpu time    194.8030: real time   2154.1100
       DOS:  cpu time      0.2229: real time      2.4641
    CHARGE:  cpu time      5.8641: real time     64.8038
    MIXING:  cpu time      0.2650: real time      2.9462
    --------------------------------------------
      LOOP:  cpu time    202.0021: real time   2233.6850

 eigenvalue-minimisations  :  3616
 total energy-change (2. order) :-0.3904504E-04  (-0.1012093E-06)
 number of electron     216.9999983 magnetization      25.0009012
 augmentation part       -1.9960121 magnetization      16.7237796

 DIPCOR: dipole corrections for dipol
 direction  3 min pos     1,
 dipolmoment           0.000000      0.000000     -0.368408 electrons x Angstroem
 Tr[quadrupol]     -5246.579251

 energy correction for charged system         0.000000 eV
 dipol+quadrupol energy correction           -0.004853 eV
 added-field ion interaction          0.069436 eV  (added to PSCEN)


 Broyden mixing:
  rms(total) = 0.19950E-03    rms(broyden)= 0.19950E-03
  rms(prec ) = 0.29021E-03
  weight for this iteration     100.00

 eigenvalues of (default mixing * dielectric matrix)
  average eigenvalue GAMMA=   1.3491
  6.8183  2.7772  2.4129  2.4129  1.3849  1.3849  1.1758  1.1758  1.3434  1.3055
  0.9196  0.8175  0.8175  0.3789  0.4545  0.4625  0.6451  0.6451  0.6182  0.6182
  0.5494  0.5623

 Free energy of the ion-electron system (eV)
  ---------------------------------------------------
  alpha Z        PSCENC =       109.52694659
  Ewald energy   TEWEN  =     24459.73926070
  -Hartree energ DENC   =    -35227.80508700
  -exchange      EXHF   =         0.00000000
  -V(xc)+E(xc)   XCENC  =       348.78902647
  PAW double counting   =     15133.92153158   -14986.24135465
  entropy T*S    EENTRO =        -0.00254858
  eigenvalues    EBANDS =     -2056.26040164
  atomic energy  EATOM  =     12060.75887678
  Solvation  Ediel_sol  =         0.00000000
  ---------------------------------------------------
  free energy    TOTEN  =      -157.57374974 eV

  energy without entropy =     -157.57120116  energy(sigma->0) =     -157.57247545


--------------------------------------------------------------------------------------------------------




--------------------------------------- Iteration      1(  28)  ---------------------------------------


    POTLOK:  cpu time      0.6263: real time      6.9033
    SETDIJ:  cpu time      0.2626: real time      2.9047
     EDDAV:  cpu time    193.2203: real time   2136.3406
       DOS:  cpu time      0.2860: real time      3.1855
    CHARGE:  cpu time      5.8877: real time     65.0901
    MIXING:  cpu time      0.2637: real time      2.9458
    --------------------------------------------
      LOOP:  cpu time    200.5466: real time   2217.3700

 eigenvalue-minimisations  :  3568
 total energy-change (2. order) :-0.3270847E-04  (-0.5438537E-07)
 number of electron     216.9999983 magnetization      25.0008574
 augmentation part       -1.9959767 magnetization      16.7237573

 DIPCOR: dipole corrections for dipol
 direction  3 min pos     1,
 dipolmoment           0.000000      0.000000     -0.368912 electrons x Angstroem
 Tr[quadrupol]     -5246.587487

 energy correction for charged system         0.000000 eV
 dipol+quadrupol energy correction           -0.004866 eV
 added-field ion interaction          0.069531 eV  (added to PSCEN)


 Broyden mixing:
  rms(total) = 0.16573E-03    rms(broyden)= 0.16572E-03
  rms(prec ) = 0.23754E-03
  weight for this iteration     100.00

 eigenvalues of (default mixing * dielectric matrix)
  average eigenvalue GAMMA=   1.3320
  6.8648  2.8695  2.3951  2.3951  1.6769  1.3591  1.3591  1.1700  1.1700  1.0786
  1.0786  0.8259  0.8259  0.3789  0.7172  0.6016  0.6016  0.6105  0.6105  0.4545
  0.4622  0.5806  0.5502

 Free energy of the ion-electron system (eV)
  ---------------------------------------------------
  alpha Z        PSCENC =       109.52702834
  Ewald energy   TEWEN  =     24459.73926070
  -Hartree energ DENC   =    -35227.85659892
  -exchange      EXHF   =         0.00000000
  -V(xc)+E(xc)   XCENC  =       348.78921266
  PAW double counting   =     15133.98685368   -14986.30688663
  entropy T*S    EENTRO =        -0.00255020
  eigenvalues    EBANDS =     -2056.20897887
  atomic energy  EATOM  =     12060.75887678
  Solvation  Ediel_sol  =         0.00000000
  ---------------------------------------------------
  free energy    TOTEN  =      -157.57378245 eV

  energy without entropy =     -157.57123225  energy(sigma->0) =     -157.57250735


--------------------------------------------------------------------------------------------------------




--------------------------------------- Iteration      1(  29)  ---------------------------------------


    POTLOK:  cpu time      0.6351: real time      6.9985
    SETDIJ:  cpu time      0.2720: real time      3.0266
     EDDAV:  cpu time    178.2557: real time   1287.8310
       DOS:  cpu time      0.1754: real time      1.0560
    CHARGE:  cpu time      5.3963: real time     32.4875
    MIXING:  cpu time      0.2325: real time      1.4094
    --------------------------------------------
      LOOP:  cpu time    184.9671: real time   1332.8090

 eigenvalue-minimisations  :  3528
 total energy-change (2. order) :-0.2940823E-04  (-0.3920567E-07)
 number of electron     216.9999983 magnetization      25.0005655
 augmentation part       -1.9959764 magnetization      16.7234589

 DIPCOR: dipole corrections for dipol
 direction  3 min pos     1,
 dipolmoment           0.000000      0.000000     -0.369414 electrons x Angstroem
 Tr[quadrupol]     -5246.596026

 energy correction for charged system         0.000000 eV
 dipol+quadrupol energy correction           -0.004879 eV
 added-field ion interaction          0.069625 eV  (added to PSCEN)


 Broyden mixing:
  rms(total) = 0.13081E-03    rms(broyden)= 0.13081E-03
  rms(prec ) = 0.18500E-03
  weight for this iteration     100.00

 eigenvalues of (default mixing * dielectric matrix)
  average eigenvalue GAMMA=   1.3415
  6.8846  2.9074  2.3830  2.3830  1.9805  1.3744  1.3744  1.1674  1.1674  1.2284
  1.1379  1.1379  0.8165  0.8165  0.3789  0.6722  0.6282  0.6282  0.5909  0.5909
  0.5344  0.4545  0.4623  0.4962

 Free energy of the ion-electron system (eV)
  ---------------------------------------------------
  alpha Z        PSCENC =       109.52710958
  Ewald energy   TEWEN  =     24459.73926070
  -Hartree energ DENC   =    -35227.90889497
  -exchange      EXHF   =         0.00000000
  -V(xc)+E(xc)   XCENC  =       348.78935310
  PAW double counting   =     15133.99674713   -14986.31693201
  entropy T*S    EENTRO =        -0.00255131
  eigenvalues    EBANDS =     -2056.15678087
  atomic energy  EATOM  =     12060.75887678
  Solvation  Ediel_sol  =         0.00000000
  ---------------------------------------------------
  free energy    TOTEN  =      -157.57381186 eV

  energy without entropy =     -157.57126054  energy(sigma->0) =     -157.57253620


--------------------------------------------------------------------------------------------------------




--------------------------------------- Iteration      1(  30)  ---------------------------------------


    POTLOK:  cpu time      0.5916: real time      3.5539
    SETDIJ:  cpu time      0.2611: real time      1.5781
     EDDAV:  cpu time    176.3005: real time   1061.5790
       DOS:  cpu time      0.2004: real time      1.2211
    CHARGE:  cpu time      5.3898: real time     32.4461
    MIXING:  cpu time      0.2569: real time      1.5578
    --------------------------------------------
      LOOP:  cpu time    183.0003: real time   1101.9360

 eigenvalue-minimisations  :  3592
 total energy-change (2. order) :-0.4045981E-04  (-0.6232541E-07)
 number of electron     216.9999983 magnetization      25.0004584
 augmentation part       -1.9959999 magnetization      16.7233465

 DIPCOR: dipole corrections for dipol
 direction  3 min pos     1,
 dipolmoment           0.000000      0.000000     -0.370170 electrons x Angstroem
 Tr[quadrupol]     -5246.609643

 energy correction for charged system         0.000000 eV
 dipol+quadrupol energy correction           -0.004899 eV
 added-field ion interaction          0.069768 eV  (added to PSCEN)


 Broyden mixing:
  rms(total) = 0.13013E-03    rms(broyden)= 0.13013E-03
  rms(prec ) = 0.14936E-03
  weight for this iteration     100.00

 eigenvalues of (default mixing * dielectric matrix)
  average eigenvalue GAMMA=   1.3610
  6.9177  3.2886  2.3935  2.3935  2.3540  1.4198  1.4198  1.3372  1.3372  1.1684
  1.1684  0.9120  0.8351  0.8351  0.8205  0.3789  0.6485  0.6485  0.6032  0.6032
  0.6182  0.5418  0.4545  0.4633  0.4633

 Free energy of the ion-electron system (eV)
  ---------------------------------------------------
  alpha Z        PSCENC =       109.52723218
  Ewald energy   TEWEN  =     24459.73926070
  -Hartree energ DENC   =    -35227.98797234
  -exchange      EXHF   =         0.00000000
  -V(xc)+E(xc)   XCENC  =       348.78935636
  PAW double counting   =     15133.97923220   -14986.29950344
  entropy T*S    EENTRO =        -0.00254832
  eigenvalues    EBANDS =     -2056.07778645
  atomic energy  EATOM  =     12060.75887678
  Solvation  Ediel_sol  =         0.00000000
  ---------------------------------------------------
  free energy    TOTEN  =      -157.57385232 eV

  energy without entropy =     -157.57130400  energy(sigma->0) =     -157.57257816


--------------------------------------------------------------------------------------------------------




--------------------------------------- Iteration      1(  31)  ---------------------------------------


    POTLOK:  cpu time      0.5929: real time      3.5675
    SETDIJ:  cpu time      0.2548: real time      1.5356
     EDDAV:  cpu time    170.3134: real time    944.0651
       DOS:  cpu time      0.2182: real time      1.0989
    CHARGE:  cpu time      5.3445: real time     26.8118
    MIXING:  cpu time      0.2044: real time      1.0371
    --------------------------------------------
      LOOP:  cpu time    176.9281: real time    978.1160

 eigenvalue-minimisations  :  3544
 total energy-change (2. order) :-0.7896502E-05  (-0.4628859E-07)
 number of electron     216.9999983 magnetization      25.0003343
 augmentation part       -1.9959775 magnetization      16.7232344

 DIPCOR: dipole corrections for dipol
 direction  3 min pos     1,
 dipolmoment           0.000000      0.000000     -0.370471 electrons x Angstroem
 Tr[quadrupol]     -5246.615761

 energy correction for charged system         0.000000 eV
 dipol+quadrupol energy correction           -0.004907 eV
 added-field ion interaction          0.069824 eV  (added to PSCEN)


 Broyden mixing:
  rms(total) = 0.88368E-04    rms(broyden)= 0.88366E-04
  rms(prec ) = 0.10258E-03
  weight for this iteration     100.00

 eigenvalues of (default mixing * dielectric matrix)
  average eigenvalue GAMMA=   1.3668
  6.9349  3.9473  2.5835  2.3648  2.3648  1.4037  1.4037  1.3705  1.3705  1.1770
  1.1770  0.9398  0.9398  0.7864  0.7864  0.3789  0.6340  0.6340  0.6575  0.6063
  0.6063  0.5897  0.5453  0.4545  0.4621  0.4174

 Free energy of the ion-electron system (eV)
  ---------------------------------------------------
  alpha Z        PSCENC =       109.52728097
  Ewald energy   TEWEN  =     24459.73926070
  -Hartree energ DENC   =    -35228.02356489
  -exchange      EXHF   =         0.00000000
  -V(xc)+E(xc)   XCENC  =       348.78945678
  PAW double counting   =     15133.96071178   -14986.28090763
  entropy T*S    EENTRO =        -0.00254749
  eigenvalues    EBANDS =     -2056.04242723
  atomic energy  EATOM  =     12060.75887678
  Solvation  Ediel_sol  =         0.00000000
  ---------------------------------------------------
  free energy    TOTEN  =      -157.57386021 eV

  energy without entropy =     -157.57131272  energy(sigma->0) =     -157.57258647


--------------------------------------------------------------------------------------------------------




--------------------------------------- Iteration      1(  32)  ---------------------------------------


    POTLOK:  cpu time      0.5761: real time      2.8823
    SETDIJ:  cpu time      0.2527: real time      1.2778
     EDDAV:  cpu time    165.4815: real time    830.3721
       DOS:  cpu time      0.1315: real time      0.6640
    CHARGE:  cpu time      5.3281: real time     26.7323
    MIXING:  cpu time      0.2616: real time      1.3186
    --------------------------------------------
      LOOP:  cpu time    172.0315: real time    863.2470

 eigenvalue-minimisations  :  3472
 total energy-change (2. order) :-0.4314054E-05  (-0.2016157E-07)
 number of electron     216.9999983 magnetization      25.0001877
 augmentation part       -1.9959794 magnetization      16.7230853

 DIPCOR: dipole corrections for dipol
 direction  3 min pos     1,
 dipolmoment           0.000000      0.000000     -0.370623 electrons x Angstroem
 Tr[quadrupol]     -5246.619244

 energy correction for charged system         0.000000 eV
 dipol+quadrupol energy correction           -0.004911 eV
 added-field ion interaction          0.069853 eV  (added to PSCEN)


 Broyden mixing:
  rms(total) = 0.54435E-04    rms(broyden)= 0.54434E-04
  rms(prec ) = 0.67247E-04
  weight for this iteration     100.00

 eigenvalues of (default mixing * dielectric matrix)
  average eigenvalue GAMMA=   1.3793
  6.9410  4.5401  2.7014  2.3645  2.3645  1.4101  1.4101  1.4195  1.1829  1.1829
  1.2003  1.2003  0.9896  0.8229  0.8229  0.3789  0.7235  0.6210  0.6210  0.6533
  0.6080  0.6080  0.5932  0.5437  0.4545  0.4622  0.4214

 Free energy of the ion-electron system (eV)
  ---------------------------------------------------
  alpha Z        PSCENC =       109.52730555
  Ewald energy   TEWEN  =     24459.73926070
  -Hartree energ DENC   =    -35228.04226311
  -exchange      EXHF   =         0.00000000
  -V(xc)+E(xc)   XCENC  =       348.78950668
  PAW double counting   =     15133.96549571   -14986.28565391
  entropy T*S    EENTRO =        -0.00254905
  eigenvalues    EBANDS =     -2056.02384388
  atomic energy  EATOM  =     12060.75887678
  Solvation  Ediel_sol  =         0.00000000
  ---------------------------------------------------
  free energy    TOTEN  =      -157.57386453 eV

  energy without entropy =     -157.57131548  energy(sigma->0) =     -157.57259000


--------------------------------------------------------------------------------------------------------




--------------------------------------- Iteration      1(  33)  ---------------------------------------


    POTLOK:  cpu time      0.5985: real time      3.0009
    SETDIJ:  cpu time      0.2572: real time      1.2981
     EDDAV:  cpu time    156.1435: real time    783.5271
       DOS:  cpu time      0.2063: real time      1.0390
    CHARGE:  cpu time      5.4093: real time     27.1381
    MIXING:  cpu time      0.2241: real time      1.1209
    --------------------------------------------
      LOOP:  cpu time    162.8389: real time    817.1240

 eigenvalue-minimisations  :  3120
 total energy-change (2. order) :-0.5171263E-05  (-0.7410140E-08)
 number of electron     216.9999983 magnetization      25.0000955
 augmentation part       -1.9959727 magnetization      16.7229948

 DIPCOR: dipole corrections for dipol
 direction  3 min pos     1,
 dipolmoment           0.000000      0.000000     -0.370730 electrons x Angstroem
 Tr[quadrupol]     -5246.622477

 energy correction for charged system         0.000000 eV
 dipol+quadrupol energy correction           -0.004914 eV
 added-field ion interaction          0.069873 eV  (added to PSCEN)


 Broyden mixing:
  rms(total) = 0.39794E-04    rms(broyden)= 0.39794E-04
  rms(prec ) = 0.49042E-04
  weight for this iteration     100.00

 eigenvalues of (default mixing * dielectric matrix)
  average eigenvalue GAMMA=   1.4037
  6.9593  5.1556  2.6175  2.4668  2.4668  1.4713  1.4713  1.4998  1.4998  1.1784
  1.1784  1.2169  0.9773  0.9773  0.7933  0.7933  0.3789  0.5992  0.5992  0.6611
  0.6611  0.6133  0.6133  0.5766  0.5446  0.4624  0.4545  0.4152

 Free energy of the ion-electron system (eV)
  ---------------------------------------------------
  alpha Z        PSCENC =       109.52732282
  Ewald energy   TEWEN  =     24459.73926070
  -Hartree energ DENC   =    -35228.05844178
  -exchange      EXHF   =         0.00000000
  -V(xc)+E(xc)   XCENC  =       348.78952034
  PAW double counting   =     15133.96408952   -14986.28418808
  entropy T*S    EENTRO =        -0.00255016
  eigenvalues    EBANDS =     -2056.00775984
  atomic energy  EATOM  =     12060.75887678
  Solvation  Ediel_sol  =         0.00000000
  ---------------------------------------------------
  free energy    TOTEN  =      -157.57386970 eV

  energy without entropy =     -157.57131953  energy(sigma->0) =     -157.57259462


--------------------------------------------------------------------------------------------------------




--------------------------------------- Iteration      1(  34)  ---------------------------------------


    POTLOK:  cpu time      0.5765: real time      2.8989
    SETDIJ:  cpu time      0.2602: real time      1.3011
     EDDAV:  cpu time    157.4535: real time    790.0952
       DOS:  cpu time      0.1534: real time      0.7779
    CHARGE:  cpu time      5.0846: real time     25.5097
    MIXING:  cpu time      0.1975: real time      0.9982
    --------------------------------------------
      LOOP:  cpu time    163.7258: real time    821.5810

 eigenvalue-minimisations  :  3152
 total energy-change (2. order) :-0.4582231E-05  (-0.6414797E-08)
 number of electron     216.9999983 magnetization      25.0000690
 augmentation part       -1.9959820 magnetization      16.7229649

 DIPCOR: dipole corrections for dipol
 direction  3 min pos     1,
 dipolmoment           0.000000      0.000000     -0.370793 electrons x Angstroem
 Tr[quadrupol]     -5246.625281

 energy correction for charged system         0.000000 eV
 dipol+quadrupol energy correction           -0.004916 eV
 added-field ion interaction          0.069885 eV  (added to PSCEN)


 Broyden mixing:
  rms(total) = 0.40202E-04    rms(broyden)= 0.40202E-04
  rms(prec ) = 0.44355E-04
  weight for this iteration     100.00

 eigenvalues of (default mixing * dielectric matrix)
  average eigenvalue GAMMA=   1.4115
  7.0184  5.7162  2.6386  2.6386  2.1955  1.7768  1.7768  1.4409  1.4409  1.1781
  1.1781  1.2358  0.9748  0.9748  0.7595  0.7595  0.6387  0.6387  0.3789  0.6639
  0.6639  0.6416  0.6025  0.6025  0.4545  0.4625  0.5375  0.5375  0.4072

 Free energy of the ion-electron system (eV)
  ---------------------------------------------------
  alpha Z        PSCENC =       109.52733300
  Ewald energy   TEWEN  =     24459.73926070
  -Hartree energ DENC   =    -35228.07248738
  -exchange      EXHF   =         0.00000000
  -V(xc)+E(xc)   XCENC  =       348.78952536
  PAW double counting   =     15133.93845104   -14986.25847368
  entropy T*S    EENTRO =        -0.00254973
  eigenvalues    EBANDS =     -2055.99381038
  atomic energy  EATOM  =     12060.75887678
  Solvation  Ediel_sol  =         0.00000000
  ---------------------------------------------------
  free energy    TOTEN  =      -157.57387428 eV

  energy without entropy =     -157.57132455  energy(sigma->0) =     -157.57259942


--------------------------------------------------------------------------------------------------------




--------------------------------------- Iteration      1(  35)  ---------------------------------------


    POTLOK:  cpu time      0.5901: real time      2.9600
    SETDIJ:  cpu time      0.2462: real time      1.2390
     EDDAV:  cpu time    154.8974: real time    777.2622
       DOS:  cpu time      0.1982: real time      1.0019
    CHARGE:  cpu time      5.2473: real time     26.3324
    MIXING:  cpu time      0.2814: real time      1.4175
    --------------------------------------------
      LOOP:  cpu time    161.4606: real time    810.2130

 eigenvalue-minimisations  :  3056
 total energy-change (2. order) :-0.2051558E-05  (-0.3866433E-08)
 number of electron     216.9999983 magnetization      25.0000398
 augmentation part       -1.9959790 magnetization      16.7229362

 DIPCOR: dipole corrections for dipol
 direction  3 min pos     1,
 dipolmoment           0.000000      0.000000     -0.370806 electrons x Angstroem
 Tr[quadrupol]     -5246.626509

 energy correction for charged system         0.000000 eV
 dipol+quadrupol energy correction           -0.004916 eV
 added-field ion interaction          0.069888 eV  (added to PSCEN)


 Broyden mixing:
  rms(total) = 0.27634E-04    rms(broyden)= 0.27634E-04
  rms(prec ) = 0.31226E-04
  weight for this iteration     100.00

 eigenvalues of (default mixing * dielectric matrix)
  average eigenvalue GAMMA=   1.4357
  7.1811  6.4252  3.0511  2.4621  2.3210  2.3210  1.4220  1.4220  1.3129  1.3129
  1.1816  1.1816  1.0158  0.9496  0.9496  0.7596  0.7596  0.6504  0.6504  0.3789
  0.6595  0.6021  0.6021  0.5660  0.5660  0.4545  0.4624  0.5271  0.5172  0.4050

 Free energy of the ion-electron system (eV)
  ---------------------------------------------------
  alpha Z        PSCENC =       109.52733517
  Ewald energy   TEWEN  =     24459.73926070
  -Hartree energ DENC   =    -35228.07862068
  -exchange      EXHF   =         0.00000000
  -V(xc)+E(xc)   XCENC  =       348.78953654
  PAW double counting   =     15133.93283991   -14986.25284896
  entropy T*S    EENTRO =        -0.00254962
  eigenvalues    EBANDS =     -2055.98770617
  atomic energy  EATOM  =     12060.75887678
  Solvation  Ediel_sol  =         0.00000000
  ---------------------------------------------------
  free energy    TOTEN  =      -157.57387633 eV

  energy without entropy =     -157.57132671  energy(sigma->0) =     -157.57260152


--------------------------------------------------------------------------------------------------------




--------------------------------------- Iteration      1(  36)  ---------------------------------------


    POTLOK:  cpu time      0.6206: real time      3.1195
    SETDIJ:  cpu time      0.2823: real time      1.4195
     EDDAV:  cpu time    153.2735: real time    769.2043
       DOS:  cpu time      0.2021: real time      1.0227
    CHARGE:  cpu time      5.3837: real time     27.0141
    MIXING:  cpu time      0.2610: real time      1.3179
    --------------------------------------------
      LOOP:  cpu time    160.0232: real time    803.0980

 eigenvalue-minimisations  :  2984
 total energy-change (2. order) :-0.1720677E-05  (-0.3005632E-08)
 number of electron     216.9999983 magnetization      25.0000205
 augmentation part       -1.9959798 magnetization      16.7229167

 DIPCOR: dipole corrections for dipol
 direction  3 min pos     1,
 dipolmoment           0.000000      0.000000     -0.370808 electrons x Angstroem
 Tr[quadrupol]     -5246.627481

 energy correction for charged system         0.000000 eV
 dipol+quadrupol energy correction           -0.004916 eV
 added-field ion interaction          0.069888 eV  (added to PSCEN)


 Broyden mixing:
  rms(total) = 0.27028E-04    rms(broyden)= 0.27028E-04
  rms(prec ) = 0.29169E-04
  weight for this iteration     100.00

 eigenvalues of (default mixing * dielectric matrix)
  average eigenvalue GAMMA=   1.4398
  7.4169  6.6786  3.2221  2.4990  2.3562  2.3562  1.4273  1.4273  1.2815  1.2815
  1.1884  1.1884  1.2242  0.9719  0.9719  0.7914  0.7914  0.7173  0.3789  0.6560
  0.6560  0.5420  0.5420  0.5999  0.5999  0.5985  0.5415  0.4545  0.4624  0.4426
  0.3687

 Free energy of the ion-electron system (eV)
  ---------------------------------------------------
  alpha Z        PSCENC =       109.52733547
  Ewald energy   TEWEN  =     24459.73926070
  -Hartree energ DENC   =    -35228.08290817
  -exchange      EXHF   =         0.00000000
  -V(xc)+E(xc)   XCENC  =       348.78954234
  PAW double counting   =     15133.93626487   -14986.25627508
  entropy T*S    EENTRO =        -0.00254948
  eigenvalues    EBANDS =     -2055.98342550
  atomic energy  EATOM  =     12060.75887678
  Solvation  Ediel_sol  =         0.00000000
  ---------------------------------------------------
  free energy    TOTEN  =      -157.57387805 eV

  energy without entropy =     -157.57132857  energy(sigma->0) =     -157.57260331


--------------------------------------------------------------------------------------------------------




--------------------------------------- Iteration      1(  37)  ---------------------------------------


    POTLOK:  cpu time      0.5737: real time      2.8681
    SETDIJ:  cpu time      0.2481: real time      1.2439
     EDDAV:  cpu time    153.9037: real time    772.3182
       DOS:  cpu time      0.1782: real time      0.8989
    CHARGE:  cpu time      5.4362: real time     27.2736
    MIXING:  cpu time      0.2295: real time      1.1583
    --------------------------------------------
      LOOP:  cpu time    160.5696: real time    805.7610

 eigenvalue-minimisations  :  2928
 total energy-change (2. order) :-0.1113585E-05  (-0.2110436E-08)
 number of electron     216.9999983 magnetization      24.9999994
 augmentation part       -1.9959798 magnetization      16.7228937

 DIPCOR: dipole corrections for dipol
 direction  3 min pos     1,
 dipolmoment           0.000000      0.000000     -0.370795 electrons x Angstroem
 Tr[quadrupol]     -5246.628024

 energy correction for charged system         0.000000 eV
 dipol+quadrupol energy correction           -0.004916 eV
 added-field ion interaction          0.069885 eV  (added to PSCEN)


 Broyden mixing:
  rms(total) = 0.15872E-04    rms(broyden)= 0.15871E-04
  rms(prec ) = 0.18151E-04
  weight for this iteration     100.00

 eigenvalues of (default mixing * dielectric matrix)
  average eigenvalue GAMMA=   1.4510
  7.6607  6.7913  3.2951  2.6359  2.3396  2.3396  1.5534  1.5534  1.3775  1.3775
  1.1757  1.1757  1.1773  1.1773  0.8916  0.8916  0.7682  0.7682  0.3789  0.5870
  0.5870  0.6618  0.6618  0.5929  0.5929  0.5986  0.5986  0.5463  0.4545  0.4624
  0.4204  0.3404

 Free energy of the ion-electron system (eV)
  ---------------------------------------------------
  alpha Z        PSCENC =       109.52733335
  Ewald energy   TEWEN  =     24459.73926070
  -Hartree energ DENC   =    -35228.08489007
  -exchange      EXHF   =         0.00000000
  -V(xc)+E(xc)   XCENC  =       348.78954100
  PAW double counting   =     15133.93445570   -14986.25447251
  entropy T*S    EENTRO =        -0.00254950
  eigenvalues    EBANDS =     -2055.98143462
  atomic energy  EATOM  =     12060.75887678
  Solvation  Ediel_sol  =         0.00000000
  ---------------------------------------------------
  free energy    TOTEN  =      -157.57387917 eV

  energy without entropy =     -157.57132967  energy(sigma->0) =     -157.57260442


--------------------------------------------------------------------------------------------------------




--------------------------------------- Iteration      1(  38)  ---------------------------------------


    POTLOK:  cpu time      0.6006: real time      3.0031
    SETDIJ:  cpu time      0.2598: real time      1.3129
     EDDAV:  cpu time    156.3646: real time    784.6721
       DOS:  cpu time      0.2101: real time      1.0589
    CHARGE:  cpu time      5.3390: real time     26.7908
    MIXING:  cpu time      0.3052: real time      1.5372
    --------------------------------------------
      LOOP:  cpu time    163.0794: real time    818.3750

 eigenvalue-minimisations  :  3008
 total energy-change (2. order) :-0.1271452E-05  (-0.2516385E-08)
 number of electron     216.9999983 magnetization      24.9999913
 augmentation part       -1.9959828 magnetization      16.7228836

 DIPCOR: dipole corrections for dipol
 direction  3 min pos     1,
 dipolmoment           0.000000      0.000000     -0.370767 electrons x Angstroem
 Tr[quadrupol]     -5246.628587

 energy correction for charged system         0.000000 eV
 dipol+quadrupol energy correction           -0.004915 eV
 added-field ion interaction          0.069880 eV  (added to PSCEN)


 Broyden mixing:
  rms(total) = 0.21205E-04    rms(broyden)= 0.21205E-04
  rms(prec ) = 0.22287E-04
  weight for this iteration     100.00

 eigenvalues of (default mixing * dielectric matrix)
  average eigenvalue GAMMA=   1.4674
  8.0157  6.8471  3.4887  2.7160  2.3639  2.3639  1.6503  1.6503  1.4483  1.4483
  1.1786  1.1786  1.2542  1.2542  0.9512  0.9512  0.7747  0.7747  0.3789  0.7135
  0.5966  0.5966  0.6567  0.6202  0.6202  0.5847  0.5847  0.5613  0.5494  0.4545
  0.4624  0.4156  0.3195

 Free energy of the ion-electron system (eV)
  ---------------------------------------------------
  alpha Z        PSCENC =       109.52732890
  Ewald energy   TEWEN  =     24459.73926070
  -Hartree energ DENC   =    -35228.08647685
  -exchange      EXHF   =         0.00000000
  -V(xc)+E(xc)   XCENC  =       348.78951781
  PAW double counting   =     15133.93063881   -14986.25065304
  entropy T*S    EENTRO =        -0.00254933
  eigenvalues    EBANDS =     -2055.97982422
  atomic energy  EATOM  =     12060.75887678
  Solvation  Ediel_sol  =         0.00000000
  ---------------------------------------------------
  free energy    TOTEN  =      -157.57388044 eV

  energy without entropy =     -157.57133111  energy(sigma->0) =     -157.57260578


--------------------------------------------------------------------------------------------------------




--------------------------------------- Iteration      1(  39)  ---------------------------------------


    POTLOK:  cpu time      0.5955: real time      2.9741
    SETDIJ:  cpu time      0.2719: real time      1.3770
     EDDAV:  cpu time    157.9091: real time    792.4180
       DOS:  cpu time      0.1584: real time      0.7989
    --------------------------------------------
      LOOP:  cpu time    158.9349: real time    797.5680

 eigenvalue-minimisations  :  3064
 total energy-change (2. order) :-0.9251671E-06  (-0.2245001E-08)
 number of electron     216.9999983 magnetization      24.9999913
 augmentation part       -1.9959828 magnetization      16.7228836

 DIPCOR: dipole corrections for dipol
 direction  3 min pos     1,
 dipolmoment           0.000000      0.000000     -0.370741 electrons x Angstroem
 Tr[quadrupol]     -5246.629058

 energy correction for charged system         0.000000 eV
 dipol+quadrupol energy correction           -0.004914 eV
 added-field ion interaction          0.069875 eV  (added to PSCEN)


 Free energy of the ion-electron system (eV)
  ---------------------------------------------------
  alpha Z        PSCENC =       109.52732466
  Ewald energy   TEWEN  =     24459.73926070
  -Hartree energ DENC   =    -35228.08782217
  -exchange      EXHF   =         0.00000000
  -V(xc)+E(xc)   XCENC  =       348.78950922
  PAW double counting   =     15133.93262340   -14986.25263721
  entropy T*S    EENTRO =        -0.00254926
  eigenvalues    EBANDS =     -2055.97846751
  atomic energy  EATOM  =     12060.75887678
  Solvation  Ediel_sol  =         0.00000000
  ---------------------------------------------------
  free energy    TOTEN  =      -157.57388136 eV

  energy without entropy =     -157.57133210  energy(sigma->0) =     -157.57260673


--------------------------------------------------------------------------------------------------------




 average (electrostatic) potential at core
  the test charge radii are     1.1394  0.9406  0.5201
  (the norm of the test charge is              1.0000)
       1 -52.7118       2 -52.0963       3 -52.0963       4 -52.6561       5 -52.6561
       6 -52.7060       7 -52.7060       8 -52.7118       9 -99.1251      10 -99.0309
      11 -99.1276      12 -99.2379      13 -99.1321      14 -99.1300      15 -99.1276
      16 -99.1097      17 -98.8472      18 -99.1300      19-101.7105      20 -99.1178
      21 -98.8472      22 -99.1383      23 -99.1156      24 -99.1178      25 -99.1321
      26 -99.1250      27 -99.1156      28 -99.1097      29 -99.1251      30 -99.1250
      31 -99.1577      32 -99.2379      33 -44.3119
 
 
 
 E-fermi :  -2.5332     XC(G=0):  -2.9745     alpha+bet : -2.3926

 val. band max:       -2.6088208621   @ k =   0.4000   0.2000   0.0000
 cond. band min:      -2.4559027004   @ k =   0.0000   0.0000   0.0000
 fundamental gap:      0.1529181617
 Fermi energy:        -2.5331948213

 spin component 1

 k-point     1 :       0.0000    0.0000    0.0000
  band No.  band energies     occupation 
      1     -21.8688      1.00000
      2     -19.4261      1.00000
      3     -19.1454      1.00000
      4     -19.0812      1.00000
      5     -19.0344      1.00000
      6     -18.8769      1.00000
      7     -18.8544      1.00000
      8     -18.7782      1.00000
      9     -18.6404      1.00000
     10     -18.5629      1.00000
     11     -18.5617      1.00000
     12     -18.5233      1.00000
     13     -18.5232      1.00000
     14     -18.4912      1.00000
     15     -18.4898      1.00000
     16     -18.4677      1.00000
     17     -18.4594      1.00000
     18     -18.4534      1.00000
     19     -18.4330      1.00000
     20     -18.4248      1.00000
     21     -18.4030      1.00000
     22     -18.3768      1.00000
     23     -18.2659      1.00000
     24     -18.2620      1.00000
     25     -12.6382      1.00000
     26      -9.9402      1.00000
     27      -9.4063      1.00000
     28      -9.1767      1.00000
     29      -9.1517      1.00000
     30      -8.8481      1.00000
     31      -8.8346      1.00000
     32      -8.7195      1.00000
     33      -8.5585      1.00000
     34      -8.5160      1.00000
     35      -8.4875      1.00000
     36      -8.3301      1.00000
     37      -8.3203      1.00000
     38      -8.3109      1.00000
     39      -8.2914      1.00000
     40      -8.2897      1.00000
     41      -8.2622      1.00000
     42      -8.2003      1.00000
     43      -8.1895      1.00000
     44      -8.1820      1.00000
     45      -8.0939      1.00000
     46      -8.0745      1.00000
     47      -8.0463      1.00000
     48      -8.0355      1.00000
     49      -8.0295      1.00000
     50      -7.9859      1.00000
     51      -7.9702      1.00000
     52      -7.8796      1.00000
     53      -7.8279      1.00000
     54      -7.7804      1.00000
     55      -7.7802      1.00000
     56      -7.5363      1.00000
     57      -7.4843      1.00000
     58      -7.4534      1.00000
     59      -7.4371      1.00000
     60      -7.3769      1.00000
     61      -7.3629      1.00000
     62      -7.3294      1.00000
     63      -7.3021      1.00000
     64      -7.2801      1.00000
     65      -7.2044      1.00000
     66      -7.0496      1.00000
     67      -7.0308      1.00000
     68      -6.9854      1.00000
     69      -6.9372      1.00000
     70      -6.9360      1.00000
     71      -6.9023      1.00000
     72      -6.8829      1.00000
     73      -6.7291      1.00000
     74      -6.5417      1.00000
     75      -6.5087      1.00000
     76      -6.4282      1.00000
     77      -6.2925      1.00000
     78      -6.2893      1.00000
     79      -6.2391      1.00000
     80      -6.2346      1.00000
     81      -6.0929      1.00000
     82      -6.0306      1.00000
     83      -6.0134      1.00000
     84      -5.9899      1.00000
     85      -5.9887      1.00000
     86      -5.9732      1.00000
     87      -5.8770      1.00000
     88      -5.8485      1.00000
     89      -5.7591      1.00000
     90      -5.6878      1.00000
     91      -5.6658      1.00000
     92      -5.5958      1.00000
     93      -5.5956      1.00000
     94      -5.5423      1.00000
     95      -5.5251      1.00000
     96      -5.5061      1.00000
     97      -4.9948      1.00000
     98      -4.9885      1.00000
     99      -4.9826      1.00000
    100      -4.9576      1.00000
    101      -4.7584      1.00000
    102      -4.6928      1.00000
    103      -4.6843      1.00000
    104      -4.6687      1.00000
    105      -4.6197      1.00000
    106      -4.6121      1.00000
    107      -4.5752      1.00000
    108      -4.5751      1.00000
    109      -4.5361      1.00000
    110      -4.4458      1.00000
    111      -4.4262      1.00000
    112      -4.3982      1.00000
    113      -4.3589      1.00000
    114      -4.3393      1.00000
    115      -4.3166      1.00000
    116      -4.2893      1.00000
    117      -4.1550      1.00000
    118      -4.1280      1.00000
    119      -4.1129      1.00000
    120      -4.0631      1.00000
    121      -2.6169      0.99108
    122      -2.4559      0.01440
    123      -2.4383      0.00365
    124      -2.4311      0.00193
    125      -2.4167      0.00049
    126      -2.3931      0.00004
    127      -2.3657      0.00000
    128      -2.3407      0.00000
    129      -2.3391      0.00000
    130      -2.3054      0.00000
    131      -2.3021      0.00000
    132      -2.2972      0.00000
    133      -2.2237      0.00000
    134      -2.2002      0.00000
    135      -2.0690      0.00000
    136      -2.0666      0.00000
    137      -0.4855      0.00000
    138       1.4314      0.00000
    139       1.9579      0.00000
    140       2.4117      0.00000
    141       2.4521      0.00000
    142       2.5358      0.00000
    143       2.6867      0.00000
    144       2.8872      0.00000

 k-point     2 :       0.2000    0.0000    0.0000
  band No.  band energies     occupation 
      1     -21.8688      1.00000
      2     -19.4083      1.00000
      3     -19.1888      1.00000
      4     -19.1078      1.00000
      5     -19.0139      1.00000
      6     -18.8597      1.00000
      7     -18.8439      1.00000
      8     -18.7404      1.00000
      9     -18.6346      1.00000
     10     -18.5735      1.00000
     11     -18.5616      1.00000
     12     -18.5423      1.00000
     13     -18.5262      1.00000
     14     -18.5039      1.00000
     15     -18.4964      1.00000
     16     -18.4803      1.00000
     17     -18.4510      1.00000
     18     -18.4475      1.00000
     19     -18.4272      1.00000
     20     -18.4153      1.00000
     21     -18.4044      1.00000
     22     -18.3781      1.00000
     23     -18.2668      1.00000
     24     -18.2635      1.00000
     25     -12.6383      1.00000
     26      -9.9319      1.00000
     27      -9.3911      1.00000
     28      -9.1590      1.00000
     29      -9.1228      1.00000
     30      -8.8620      1.00000
     31      -8.8281      1.00000
     32      -8.7161      1.00000
     33      -8.5775      1.00000
     34      -8.5408      1.00000
     35      -8.5105      1.00000
     36      -8.3492      1.00000
     37      -8.3174      1.00000
     38      -8.3016      1.00000
     39      -8.2983      1.00000
     40      -8.2792      1.00000
     41      -8.2597      1.00000
     42      -8.2122      1.00000
     43      -8.1973      1.00000
     44      -8.1814      1.00000
     45      -8.1177      1.00000
     46      -8.1038      1.00000
     47      -8.0751      1.00000
     48      -8.0446      1.00000
     49      -7.9994      1.00000
     50      -7.9743      1.00000
     51      -7.9374      1.00000
     52      -7.8961      1.00000
     53      -7.8474      1.00000
     54      -7.7877      1.00000
     55      -7.7598      1.00000
     56      -7.6727      1.00000
     57      -7.6202      1.00000
     58      -7.5606      1.00000
     59      -7.4728      1.00000
     60      -7.4157      1.00000
     61      -7.3406      1.00000
     62      -7.3017      1.00000
     63      -7.2232      1.00000
     64      -7.1170      1.00000
     65      -7.0925      1.00000
     66      -7.0450      1.00000
     67      -6.9958      1.00000
     68      -6.9723      1.00000
     69      -6.9017      1.00000
     70      -6.8558      1.00000
     71      -6.7506      1.00000
     72      -6.7422      1.00000
     73      -6.6746      1.00000
     74      -6.5490      1.00000
     75      -6.5167      1.00000
     76      -6.4475      1.00000
     77      -6.3321      1.00000
     78      -6.3141      1.00000
     79      -6.2699      1.00000
     80      -6.2405      1.00000
     81      -6.0949      1.00000
     82      -6.0804      1.00000
     83      -6.0465      1.00000
     84      -6.0082      1.00000
     85      -5.9883      1.00000
     86      -5.9804      1.00000
     87      -5.9048      1.00000
     88      -5.8233      1.00000
     89      -5.7724      1.00000
     90      -5.7415      1.00000
     91      -5.6827      1.00000
     92      -5.6652      1.00000
     93      -5.6431      1.00000
     94      -5.6341      1.00000
     95      -5.5598      1.00000
     96      -5.5527      1.00000
     97      -4.9710      1.00000
     98      -4.9463      1.00000
     99      -4.9377      1.00000
    100      -4.9242      1.00000
    101      -4.7584      1.00000
    102      -4.6821      1.00000
    103      -4.6682      1.00000
    104      -4.6661      1.00000
    105      -4.6308      1.00000
    106      -4.6009      1.00000
    107      -4.5681      1.00000
    108      -4.5524      1.00000
    109      -4.5118      1.00000
    110      -4.4342      1.00000
    111      -4.4230      1.00000
    112      -4.3905      1.00000
    113      -4.3627      1.00000
    114      -4.3313      1.00000
    115      -4.3156      1.00000
    116      -4.2888      1.00000
    117      -4.1704      1.00000
    118      -4.1416      1.00000
    119      -4.1180      1.00000
    120      -4.0706      1.00000
    121      -2.6144      0.98920
    122      -2.4536      0.01222
    123      -2.4337      0.00245
    124      -2.4225      0.00087
    125      -2.4158      0.00045
    126      -2.3917      0.00003
    127      -2.3814      0.00001
    128      -2.3654      0.00000
    129      -2.3279      0.00000
    130      -2.3111      0.00000
    131      -2.3025      0.00000
    132      -2.2651      0.00000
    133      -2.2357      0.00000
    134      -2.2016      0.00000
    135      -2.0757      0.00000
    136      -2.0655      0.00000
    137      -0.4840      0.00000
    138       1.5069      0.00000
    139       2.0185      0.00000
    140       2.3081      0.00000
    141       2.4659      0.00000
    142       2.4825      0.00000
    143       2.6370      0.00000
    144       2.6639      0.00000

 k-point     3 :       0.0000    0.2000    0.0000
  band No.  band energies     occupation 
      1     -21.8688      1.00000
      2     -19.4086      1.00000
      3     -19.1720      1.00000
      4     -19.1082      1.00000
      5     -19.0541      1.00000
      6     -18.8489      1.00000
      7     -18.8045      1.00000
      8     -18.7638      1.00000
      9     -18.6339      1.00000
     10     -18.5728      1.00000
     11     -18.5633      1.00000
     12     -18.5382      1.00000
     13     -18.5308      1.00000
     14     -18.5121      1.00000
     15     -18.4991      1.00000
     16     -18.4703      1.00000
     17     -18.4530      1.00000
     18     -18.4439      1.00000
     19     -18.4274      1.00000
     20     -18.4190      1.00000
     21     -18.4015      1.00000
     22     -18.3796      1.00000
     23     -18.2671      1.00000
     24     -18.2632      1.00000
     25     -12.6382      1.00000
     26      -9.9368      1.00000
     27      -9.3805      1.00000
     28      -9.1686      1.00000
     29      -9.1181      1.00000
     30      -8.8673      1.00000
     31      -8.8315      1.00000
     32      -8.7054      1.00000
     33      -8.5868      1.00000
     34      -8.5239      1.00000
     35      -8.4963      1.00000
     36      -8.3509      1.00000
     37      -8.3252      1.00000
     38      -8.3093      1.00000
     39      -8.3001      1.00000
     40      -8.2763      1.00000
     41      -8.2662      1.00000
     42      -8.2182      1.00000
     43      -8.2046      1.00000
     44      -8.1673      1.00000
     45      -8.1184      1.00000
     46      -8.1028      1.00000
     47      -8.0623      1.00000
     48      -8.0376      1.00000
     49      -8.0130      1.00000
     50      -7.9588      1.00000
     51      -7.9468      1.00000
     52      -7.8775      1.00000
     53      -7.8361      1.00000
     54      -7.7979      1.00000
     55      -7.7704      1.00000
     56      -7.6738      1.00000
     57      -7.6390      1.00000
     58      -7.5739      1.00000
     59      -7.4797      1.00000
     60      -7.4465      1.00000
     61      -7.3976      1.00000
     62      -7.2780      1.00000
     63      -7.1749      1.00000
     64      -7.1173      1.00000
     65      -7.0963      1.00000
     66      -7.0286      1.00000
     67      -6.9885      1.00000
     68      -6.9704      1.00000
     69      -6.9100      1.00000
     70      -6.8395      1.00000
     71      -6.7553      1.00000
     72      -6.7330      1.00000
     73      -6.6556      1.00000
     74      -6.5474      1.00000
     75      -6.5235      1.00000
     76      -6.4345      1.00000
     77      -6.3272      1.00000
     78      -6.3119      1.00000
     79      -6.2784      1.00000
     80      -6.2588      1.00000
     81      -6.1154      1.00000
     82      -6.0544      1.00000
     83      -6.0270      1.00000
     84      -6.0201      1.00000
     85      -5.9936      1.00000
     86      -5.9747      1.00000
     87      -5.9020      1.00000
     88      -5.8517      1.00000
     89      -5.7562      1.00000
     90      -5.7238      1.00000
     91      -5.6848      1.00000
     92      -5.6680      1.00000
     93      -5.6592      1.00000
     94      -5.6378      1.00000
     95      -5.5707      1.00000
     96      -5.5586      1.00000
     97      -4.9693      1.00000
     98      -4.9445      1.00000
     99      -4.9406      1.00000
    100      -4.9246      1.00000
    101      -4.7457      1.00000
    102      -4.6880      1.00000
    103      -4.6750      1.00000
    104      -4.6574      1.00000
    105      -4.6136      1.00000
    106      -4.5962      1.00000
    107      -4.5868      1.00000
    108      -4.5457      1.00000
    109      -4.5168      1.00000
    110      -4.4366      1.00000
    111      -4.4227      1.00000
    112      -4.3928      1.00000
    113      -4.3584      1.00000
    114      -4.3358      1.00000
    115      -4.3099      1.00000
    116      -4.2946      1.00000
    117      -4.1709      1.00000
    118      -4.1437      1.00000
    119      -4.1134      1.00000
    120      -4.0722      1.00000
    121      -2.6145      0.98929
    122      -2.4522      0.01096
    123      -2.4383      0.00363
    124      -2.4225      0.00087
    125      -2.4185      0.00059
    126      -2.3946      0.00004
    127      -2.3720      0.00000
    128      -2.3591      0.00000
    129      -2.3433      0.00000
    130      -2.3179      0.00000
    131      -2.2909      0.00000
    132      -2.2659      0.00000
    133      -2.2223      0.00000
    134      -2.2032      0.00000
    135      -2.0839      0.00000
    136      -2.0645      0.00000
    137      -0.4834      0.00000
    138       1.5070      0.00000
    139       2.0193      0.00000
    140       2.3225      0.00000
    141       2.4234      0.00000
    142       2.4796      0.00000
    143       2.6420      0.00000
    144       2.7488      0.00000

 k-point     4 :       0.4000    0.0000    0.0000
  band No.  band energies     occupation 
      1     -21.8688      1.00000
      2     -19.3575      1.00000
      3     -19.2758      1.00000
      4     -19.1233      1.00000
      5     -19.0090      1.00000
      6     -18.8333      1.00000
      7     -18.8225      1.00000
      8     -18.6643      1.00000
      9     -18.6226      1.00000
     10     -18.5884      1.00000
     11     -18.5818      1.00000
     12     -18.5713      1.00000
     13     -18.5329      1.00000
     14     -18.5206      1.00000
     15     -18.5083      1.00000
     16     -18.5020      1.00000
     17     -18.4387      1.00000
     18     -18.4353      1.00000
     19     -18.4222      1.00000
     20     -18.4101      1.00000
     21     -18.3996      1.00000
     22     -18.3820      1.00000
     23     -18.2681      1.00000
     24     -18.2662      1.00000
     25     -12.6385      1.00000
     26      -9.9181      1.00000
     27      -9.3710      1.00000
     28      -9.1232      1.00000
     29      -9.0355      1.00000
     30      -8.9226      1.00000
     31      -8.7969      1.00000
     32      -8.7150      1.00000
     33      -8.6235      1.00000
     34      -8.5806      1.00000
     35      -8.5696      1.00000
     36      -8.3776      1.00000
     37      -8.3170      1.00000
     38      -8.3108      1.00000
     39      -8.2919      1.00000
     40      -8.2713      1.00000
     41      -8.2493      1.00000
     42      -8.2276      1.00000
     43      -8.2242      1.00000
     44      -8.1839      1.00000
     45      -8.1643      1.00000
     46      -8.1098      1.00000
     47      -8.0817      1.00000
     48      -8.0229      1.00000
     49      -7.9869      1.00000
     50      -7.9429      1.00000
     51      -7.9258      1.00000
     52      -7.8961      1.00000
     53      -7.8720      1.00000
     54      -7.8155      1.00000
     55      -7.7853      1.00000
     56      -7.7522      1.00000
     57      -7.7172      1.00000
     58      -7.6411      1.00000
     59      -7.6239      1.00000
     60      -7.4132      1.00000
     61      -7.3052      1.00000
     62      -7.2071      1.00000
     63      -7.1284      1.00000
     64      -7.0691      1.00000
     65      -7.0503      1.00000
     66      -7.0030      1.00000
     67      -6.9594      1.00000
     68      -6.8915      1.00000
     69      -6.7767      1.00000
     70      -6.6935      1.00000
     71      -6.6558      1.00000
     72      -6.5683      1.00000
     73      -6.5477      1.00000
     74      -6.4899      1.00000
     75      -6.4461      1.00000
     76      -6.4086      1.00000
     77      -6.3507      1.00000
     78      -6.3209      1.00000
     79      -6.3021      1.00000
     80      -6.2636      1.00000
     81      -6.1531      1.00000
     82      -6.1323      1.00000
     83      -6.1176      1.00000
     84      -6.0722      1.00000
     85      -6.0561      1.00000
     86      -6.0113      1.00000
     87      -6.0050      1.00000
     88      -5.9388      1.00000
     89      -5.8378      1.00000
     90      -5.8274      1.00000
     91      -5.8011      1.00000
     92      -5.7195      1.00000
     93      -5.6886      1.00000
     94      -5.6209      1.00000
     95      -5.6083      1.00000
     96      -5.6022      1.00000
     97      -4.9213      1.00000
     98      -4.8942      1.00000
     99      -4.8886      1.00000
    100      -4.8575      1.00000
    101      -4.7722      1.00000
    102      -4.6773      1.00000
    103      -4.6690      1.00000
    104      -4.6525      1.00000
    105      -4.6138      1.00000
    106      -4.5969      1.00000
    107      -4.5543      1.00000
    108      -4.5167      1.00000
    109      -4.4788      1.00000
    110      -4.4176      1.00000
    111      -4.4114      1.00000
    112      -4.3862      1.00000
    113      -4.3612      1.00000
    114      -4.3152      1.00000
    115      -4.3088      1.00000
    116      -4.2829      1.00000
    117      -4.1981      1.00000
    118      -4.1710      1.00000
    119      -4.1323      1.00000
    120      -4.0824      1.00000
    121      -2.6097      0.98479
    122      -2.4437      0.00567
    123      -2.4303      0.00180
    124      -2.4147      0.00040
    125      -2.4006      0.00009
    126      -2.3935      0.00004
    127      -2.3913      0.00003
    128      -2.3808      0.00001
    129      -2.3503      0.00000
    130      -2.3241      0.00000
    131      -2.3113      0.00000
    132      -2.2723      0.00000
    133      -2.2198      0.00000
    134      -2.1846      0.00000
    135      -2.0810      0.00000
    136      -2.0585      0.00000
    137      -0.4820      0.00000
    138       1.7099      0.00000
    139       1.9909      0.00000
    140       2.2026      0.00000
    141       2.3868      0.00000
    142       2.4605      0.00000
    143       2.5708      0.00000
    144       2.6669      0.00000

 k-point     5 :       0.0000    0.4000    0.0000
  band No.  band energies     occupation 
      1     -21.8688      1.00000
      2     -19.3636      1.00000
      3     -19.2470      1.00000
      4     -19.1271      1.00000
      5     -19.0668      1.00000
      6     -18.8164      1.00000
      7     -18.7665      1.00000
      8     -18.6896      1.00000
      9     -18.6175      1.00000
     10     -18.5957      1.00000
     11     -18.5769      1.00000
     12     -18.5674      1.00000
     13     -18.5515      1.00000
     14     -18.5351      1.00000
     15     -18.5105      1.00000
     16     -18.4795      1.00000
     17     -18.4446      1.00000
     18     -18.4298      1.00000
     19     -18.4245      1.00000
     20     -18.4066      1.00000
     21     -18.3979      1.00000
     22     -18.3871      1.00000
     23     -18.2691      1.00000
     24     -18.2651      1.00000
     25     -12.6383      1.00000
     26      -9.9315      1.00000
     27      -9.3331      1.00000
     28      -9.1534      1.00000
     29      -9.0520      1.00000
     30      -8.8907      1.00000
     31      -8.8256      1.00000
     32      -8.6901      1.00000
     33      -8.6429      1.00000
     34      -8.5475      1.00000
     35      -8.5136      1.00000
     36      -8.3925      1.00000
     37      -8.3473      1.00000
     38      -8.3200      1.00000
     39      -8.3004      1.00000
     40      -8.2732      1.00000
     41      -8.2598      1.00000
     42      -8.2467      1.00000
     43      -8.2154      1.00000
     44      -8.1888      1.00000
     45      -8.1457      1.00000
     46      -8.0952      1.00000
     47      -8.0420      1.00000
     48      -8.0068      1.00000
     49      -7.9873      1.00000
     50      -7.9654      1.00000
     51      -7.9299      1.00000
     52      -7.8893      1.00000
     53      -7.8701      1.00000
     54      -7.8339      1.00000
     55      -7.7874      1.00000
     56      -7.7627      1.00000
     57      -7.7172      1.00000
     58      -7.6979      1.00000
     59      -7.5936      1.00000
     60      -7.4708      1.00000
     61      -7.3809      1.00000
     62      -7.2328      1.00000
     63      -7.1049      1.00000
     64      -7.0382      1.00000
     65      -7.0227      1.00000
     66      -6.9689      1.00000
     67      -6.9634      1.00000
     68      -6.8369      1.00000
     69      -6.7725      1.00000
     70      -6.7085      1.00000
     71      -6.6261      1.00000
     72      -6.6015      1.00000
     73      -6.5064      1.00000
     74      -6.4828      1.00000
     75      -6.4289      1.00000
     76      -6.3837      1.00000
     77      -6.3562      1.00000
     78      -6.3260      1.00000
     79      -6.3157      1.00000
     80      -6.2768      1.00000
     81      -6.1793      1.00000
     82      -6.1110      1.00000
     83      -6.0988      1.00000
     84      -6.0558      1.00000
     85      -6.0296      1.00000
     86      -6.0140      1.00000
     87      -6.0025      1.00000
     88      -5.9252      1.00000
     89      -5.9028      1.00000
     90      -5.8596      1.00000
     91      -5.8001      1.00000
     92      -5.7251      1.00000
     93      -5.6784      1.00000
     94      -5.6568      1.00000
     95      -5.6160      1.00000
     96      -5.6059      1.00000
     97      -4.9211      1.00000
     98      -4.8967      1.00000
     99      -4.8830      1.00000
    100      -4.8689      1.00000
    101      -4.7280      1.00000
    102      -4.6817      1.00000
    103      -4.6739      1.00000
    104      -4.6481      1.00000
    105      -4.6099      1.00000
    106      -4.5908      1.00000
    107      -4.5581      1.00000
    108      -4.5170      1.00000
    109      -4.4798      1.00000
    110      -4.4342      1.00000
    111      -4.4076      1.00000
    112      -4.3736      1.00000
    113      -4.3523      1.00000
    114      -4.3306      1.00000
    115      -4.3124      1.00000
    116      -4.2843      1.00000
    117      -4.2100      1.00000
    118      -4.1730      1.00000
    119      -4.1101      1.00000
    120      -4.0928      1.00000
    121      -2.6110      0.98611
    122      -2.4521      0.01094
    123      -2.4364      0.00309
    124      -2.4195      0.00065
    125      -2.4018      0.00010
    126      -2.3940      0.00004
    127      -2.3839      0.00001
    128      -2.3675      0.00000
    129      -2.3581      0.00000
    130      -2.3168      0.00000
    131      -2.3080      0.00000
    132      -2.2518      0.00000
    133      -2.2151      0.00000
    134      -2.2021      0.00000
    135      -2.0956      0.00000
    136      -2.0525      0.00000
    137      -0.4803      0.00000
    138       1.7099      0.00000
    139       1.9955      0.00000
    140       2.2051      0.00000
    141       2.3553      0.00000
    142       2.4620      0.00000
    143       2.5613      0.00000
    144       2.6705      0.00000

 k-point     6 :       0.2000    0.2000    0.0000
  band No.  band energies     occupation 
      1     -21.8688      1.00000
      2     -19.3749      1.00000
      3     -19.2338      1.00000
      4     -19.1510      1.00000
      5     -18.9955      1.00000
      6     -18.8851      1.00000
      7     -18.7550      1.00000
      8     -18.7078      1.00000
      9     -18.6241      1.00000
     10     -18.5934      1.00000
     11     -18.5639      1.00000
     12     -18.5543      1.00000
     13     -18.5441      1.00000
     14     -18.5316      1.00000
     15     -18.5095      1.00000
     16     -18.4781      1.00000
     17     -18.4548      1.00000
     18     -18.4281      1.00000
     19     -18.4248      1.00000
     20     -18.4071      1.00000
     21     -18.4032      1.00000
     22     -18.3823      1.00000
     23     -18.2683      1.00000
     24     -18.2652      1.00000
     25     -12.6384      1.00000
     26      -9.9259      1.00000
     27      -9.3608      1.00000
     28      -9.1425      1.00000
     29      -9.0641      1.00000
     30      -8.9006      1.00000
     31      -8.8082      1.00000
     32      -8.7047      1.00000
     33      -8.6186      1.00000
     34      -8.5614      1.00000
     35      -8.5298      1.00000
     36      -8.3787      1.00000
     37      -8.3332      1.00000
     38      -8.3127      1.00000
     39      -8.2970      1.00000
     40      -8.2765      1.00000
     41      -8.2546      1.00000
     42      -8.2314      1.00000
     43      -8.2097      1.00000
     44      -8.1882      1.00000
     45      -8.1552      1.00000
     46      -8.1064      1.00000
     47      -8.0704      1.00000
     48      -8.0235      1.00000
     49      -7.9707      1.00000
     50      -7.9593      1.00000
     51      -7.9243      1.00000
     52      -7.9002      1.00000
     53      -7.8556      1.00000
     54      -7.8212      1.00000
     55      -7.7772      1.00000
     56      -7.7494      1.00000
     57      -7.7190      1.00000
     58      -7.6896      1.00000
     59      -7.5110      1.00000
     60      -7.4334      1.00000
     61      -7.3874      1.00000
     62      -7.2347      1.00000
     63      -7.1518      1.00000
     64      -7.1147      1.00000
     65      -7.0152      1.00000
     66      -6.9440      1.00000
     67      -6.8949      1.00000
     68      -6.8645      1.00000
     69      -6.8334      1.00000
     70      -6.7429      1.00000
     71      -6.6773      1.00000
     72      -6.5833      1.00000
     73      -6.5725      1.00000
     74      -6.5126      1.00000
     75      -6.5027      1.00000
     76      -6.4368      1.00000
     77      -6.3454      1.00000
     78      -6.3391      1.00000
     79      -6.3121      1.00000
     80      -6.2802      1.00000
     81      -6.1497      1.00000
     82      -6.1283      1.00000
     83      -6.0832      1.00000
     84      -6.0488      1.00000
     85      -6.0083      1.00000
     86      -5.9705      1.00000
     87      -5.9434      1.00000
     88      -5.8829      1.00000
     89      -5.8610      1.00000
     90      -5.8031      1.00000
     91      -5.7559      1.00000
     92      -5.7168      1.00000
     93      -5.6833      1.00000
     94      -5.6560      1.00000
     95      -5.6398      1.00000
     96      -5.6093      1.00000
     97      -4.9218      1.00000
     98      -4.9046      1.00000
     99      -4.8985      1.00000
    100      -4.8737      1.00000
    101      -4.7523      1.00000
    102      -4.6785      1.00000
    103      -4.6707      1.00000
    104      -4.6493      1.00000
    105      -4.6135      1.00000
    106      -4.5882      1.00000
    107      -4.5746      1.00000
    108      -4.5180      1.00000
    109      -4.4853      1.00000
    110      -4.4278      1.00000
    111      -4.4143      1.00000
    112      -4.3791      1.00000
    113      -4.3621      1.00000
    114      -4.3240      1.00000
    115      -4.3085      1.00000
    116      -4.2896      1.00000
    117      -4.1969      1.00000
    118      -4.1638      1.00000
    119      -4.1227      1.00000
    120      -4.0821      1.00000
    121      -2.6113      0.98643
    122      -2.4489      0.00859
    123      -2.4335      0.00239
    124      -2.4205      0.00072
    125      -2.4027      0.00011
    126      -2.3955      0.00005
    127      -2.3857      0.00002
    128      -2.3728      0.00000
    129      -2.3555      0.00000
    130      -2.3184      0.00000
    131      -2.2920      0.00000
    132      -2.2616      0.00000
    133      -2.2388      0.00000
    134      -2.1878      0.00000
    135      -2.0836      0.00000
    136      -2.0570      0.00000
    137      -0.4818      0.00000
    138       1.6454      0.00000
    139       2.1095      0.00000
    140       2.2004      0.00000
    141       2.2199      0.00000
    142       2.6019      0.00000
    143       2.6131      0.00000
    144       2.6688      0.00000

 k-point     7 :      -0.2000    0.4000    0.0000
  band No.  band energies     occupation 
      1     -21.8688      1.00000
      2     -19.3763      1.00000
      3     -19.2191      1.00000
      4     -19.1428      1.00000
      5     -19.0569      1.00000
      6     -18.8309      1.00000
      7     -18.7427      1.00000
      8     -18.7296      1.00000
      9     -18.6206      1.00000
     10     -18.5828      1.00000
     11     -18.5772      1.00000
     12     -18.5572      1.00000
     13     -18.5485      1.00000
     14     -18.5339      1.00000
     15     -18.5147      1.00000
     16     -18.4656      1.00000
     17     -18.4540      1.00000
     18     -18.4365      1.00000
     19     -18.4154      1.00000
     20     -18.4152      1.00000
     21     -18.3970      1.00000
     22     -18.3857      1.00000
     23     -18.2683      1.00000
     24     -18.2650      1.00000
     25     -12.6383      1.00000
     26      -9.9338      1.00000
     27      -9.3407      1.00000
     28      -9.1547      1.00000
     29      -9.0743      1.00000
     30      -8.8626      1.00000
     31      -8.8443      1.00000
     32      -8.6815      1.00000
     33      -8.6444      1.00000
     34      -8.5214      1.00000
     35      -8.5155      1.00000
     36      -8.3979      1.00000
     37      -8.3322      1.00000
     38      -8.3302      1.00000
     39      -8.3046      1.00000
     40      -8.2667      1.00000
     41      -8.2615      1.00000
     42      -8.2476      1.00000
     43      -8.2143      1.00000
     44      -8.1713      1.00000
     45      -8.1447      1.00000
     46      -8.1176      1.00000
     47      -8.0198      1.00000
     48      -8.0045      1.00000
     49      -8.0031      1.00000
     50      -7.9484      1.00000
     51      -7.9400      1.00000
     52      -7.8804      1.00000
     53      -7.8498      1.00000
     54      -7.8119      1.00000
     55      -7.7951      1.00000
     56      -7.7538      1.00000
     57      -7.7459      1.00000
     58      -7.7020      1.00000
     59      -7.5675      1.00000
     60      -7.4430      1.00000
     61      -7.4178      1.00000
     62      -7.1753      1.00000
     63      -7.1645      1.00000
     64      -7.1233      1.00000
     65      -6.9969      1.00000
     66      -6.9207      1.00000
     67      -6.8977      1.00000
     68      -6.8454      1.00000
     69      -6.8135      1.00000
     70      -6.7879      1.00000
     71      -6.6755      1.00000
     72      -6.5935      1.00000
     73      -6.5563      1.00000
     74      -6.4920      1.00000
     75      -6.4817      1.00000
     76      -6.3894      1.00000
     77      -6.3708      1.00000
     78      -6.3508      1.00000
     79      -6.3096      1.00000
     80      -6.2729      1.00000
     81      -6.1788      1.00000
     82      -6.1210      1.00000
     83      -6.0450      1.00000
     84      -6.0263      1.00000
     85      -6.0072      1.00000
     86      -5.9967      1.00000
     87      -5.9648      1.00000
     88      -5.8777      1.00000
     89      -5.8605      1.00000
     90      -5.8318      1.00000
     91      -5.7386      1.00000
     92      -5.7359      1.00000
     93      -5.7110      1.00000
     94      -5.6623      1.00000
     95      -5.6533      1.00000
     96      -5.5914      1.00000
     97      -4.9141      1.00000
     98      -4.9107      1.00000
     99      -4.8984      1.00000
    100      -4.8750      1.00000
    101      -4.7315      1.00000
    102      -4.6993      1.00000
    103      -4.6519      1.00000
    104      -4.6456      1.00000
    105      -4.6148      1.00000
    106      -4.5847      1.00000
    107      -4.5748      1.00000
    108      -4.5181      1.00000
    109      -4.4904      1.00000
    110      -4.4198      1.00000
    111      -4.4171      1.00000
    112      -4.3942      1.00000
    113      -4.3471      1.00000
    114      -4.3309      1.00000
    115      -4.3114      1.00000
    116      -4.2920      1.00000
    117      -4.1979      1.00000
    118      -4.1685      1.00000
    119      -4.1079      1.00000
    120      -4.0902      1.00000
    121      -2.6112      0.98637
    122      -2.4484      0.00821
    123      -2.4400      0.00419
    124      -2.4172      0.00052
    125      -2.4111      0.00028
    126      -2.3988      0.00007
    127      -2.3789      0.00001
    128      -2.3679      0.00000
    129      -2.3576      0.00000
    130      -2.3130      0.00000
    131      -2.3101      0.00000
    132      -2.2418      0.00000
    133      -2.2263      0.00000
    134      -2.1887      0.00000
    135      -2.1026      0.00000
    136      -2.0523      0.00000
    137      -0.4808      0.00000
    138       1.6459      0.00000
    139       2.1100      0.00000
    140       2.2036      0.00000
    141       2.2170      0.00000
    142       2.5844      0.00000
    143       2.6072      0.00000
    144       2.6633      0.00000

 k-point     8 :       0.4000    0.2000    0.0000
  band No.  band energies     occupation 
      1     -21.8688      1.00000
      2     -19.3166      1.00000
      3     -19.3077      1.00000
      4     -19.1662      1.00000
      5     -18.9549      1.00000
      6     -18.9153      1.00000
      7     -18.7331      1.00000
      8     -18.6466      1.00000
      9     -18.6320      1.00000
     10     -18.5994      1.00000
     11     -18.5779      1.00000
     12     -18.5753      1.00000
     13     -18.5498      1.00000
     14     -18.5347      1.00000
     15     -18.5238      1.00000
     16     -18.4825      1.00000
     17     -18.4485      1.00000
     18     -18.4273      1.00000
     19     -18.4206      1.00000
     20     -18.4047      1.00000
     21     -18.3984      1.00000
     22     -18.3854      1.00000
     23     -18.2681      1.00000
     24     -18.2673      1.00000
     25     -12.6384      1.00000
     26      -9.9190      1.00000
     27      -9.3523      1.00000
     28      -9.1169      1.00000
     29      -9.0048      1.00000
     30      -8.9497      1.00000
     31      -8.7567      1.00000
     32      -8.7271      1.00000
     33      -8.6477      1.00000
     34      -8.5794      1.00000
     35      -8.5702      1.00000
     36      -8.4003      1.00000
     37      -8.3346      1.00000
     38      -8.3243      1.00000
     39      -8.2847      1.00000
     40      -8.2764      1.00000
     41      -8.2468      1.00000
     42      -8.2372      1.00000
     43      -8.2249      1.00000
     44      -8.2210      1.00000
     45      -8.1695      1.00000
     46      -8.0946      1.00000
     47      -8.0557      1.00000
     48      -7.9987      1.00000
     49      -7.9566      1.00000
     50      -7.9450      1.00000
     51      -7.9232      1.00000
     52      -7.8882      1.00000
     53      -7.8680      1.00000
     54      -7.8635      1.00000
     55      -7.8165      1.00000
     56      -7.7953      1.00000
     57      -7.7755      1.00000
     58      -7.5943      1.00000
     59      -7.5886      1.00000
     60      -7.5176      1.00000
     61      -7.3533      1.00000
     62      -7.1898      1.00000
     63      -7.1275      1.00000
     64      -7.0950      1.00000
     65      -7.0113      1.00000
     66      -6.9191      1.00000
     67      -6.8352      1.00000
     68      -6.7593      1.00000
     69      -6.7205      1.00000
     70      -6.6828      1.00000
     71      -6.6407      1.00000
     72      -6.6021      1.00000
     73      -6.5072      1.00000
     74      -6.4947      1.00000
     75      -6.4687      1.00000
     76      -6.4450      1.00000
     77      -6.3641      1.00000
     78      -6.3464      1.00000
     79      -6.2736      1.00000
     80      -6.1821      1.00000
     81      -6.1738      1.00000
     82      -6.1471      1.00000
     83      -6.1283      1.00000
     84      -6.1114      1.00000
     85      -6.1032      1.00000
     86      -6.0219      1.00000
     87      -5.9765      1.00000
     88      -5.9637      1.00000
     89      -5.8677      1.00000
     90      -5.8466      1.00000
     91      -5.8043      1.00000
     92      -5.7404      1.00000
     93      -5.7070      1.00000
     94      -5.7046      1.00000
     95      -5.6452      1.00000
     96      -5.6153      1.00000
     97      -4.8892      1.00000
     98      -4.8878      1.00000
     99      -4.8625      1.00000
    100      -4.8391      1.00000
    101      -4.7681      1.00000
    102      -4.6798      1.00000
    103      -4.6757      1.00000
    104      -4.6439      1.00000
    105      -4.6001      1.00000
    106      -4.5833      1.00000
    107      -4.5709      1.00000
    108      -4.4955      1.00000
    109      -4.4708      1.00000
    110      -4.4169      1.00000
    111      -4.4046      1.00000
    112      -4.3863      1.00000
    113      -4.3609      1.00000
    114      -4.3102      1.00000
    115      -4.3047      1.00000
    116      -4.2887      1.00000
    117      -4.2121      1.00000
    118      -4.1816      1.00000
    119      -4.1307      1.00000
    120      -4.0881      1.00000
    121      -2.6088      0.98378
    122      -2.4408      0.00447
    123      -2.4379      0.00353
    124      -2.4072      0.00018
    125      -2.3993      0.00008
    126      -2.3955      0.00005
    127      -2.3891      0.00002
    128      -2.3742      0.00000
    129      -2.3652      0.00000
    130      -2.3522      0.00000
    131      -2.2909      0.00000
    132      -2.2821      0.00000
    133      -2.2153      0.00000
    134      -2.1757      0.00000
    135      -2.0843      0.00000
    136      -2.0482      0.00000
    137      -0.4809      0.00000
    138       1.8840      0.00000
    139       1.8860      0.00000
    140       2.1390      0.00000
    141       2.3492      0.00000
    142       2.3998      0.00000
    143       2.6253      0.00000
    144       2.6499      0.00000

 k-point     9 :      -0.2000   -0.4000    0.0000
  band No.  band energies     occupation 
      1     -21.8688      1.00000
      2     -19.3359      1.00000
      3     -19.2736      1.00000
      4     -19.1742      1.00000
      5     -19.0106      1.00000
      6     -18.8655      1.00000
      7     -18.7093      1.00000
      8     -18.6677      1.00000
      9     -18.6257      1.00000
     10     -18.5977      1.00000
     11     -18.5866      1.00000
     12     -18.5718      1.00000
     13     -18.5552      1.00000
     14     -18.5439      1.00000
     15     -18.5233      1.00000
     16     -18.4693      1.00000
     17     -18.4534      1.00000
     18     -18.4314      1.00000
     19     -18.4154      1.00000
     20     -18.4045      1.00000
     21     -18.3959      1.00000
     22     -18.3898      1.00000
     23     -18.2689      1.00000
     24     -18.2664      1.00000
     25     -12.6383      1.00000
     26      -9.9272      1.00000
     27      -9.3272      1.00000
     28      -9.1369      1.00000
     29      -9.0373      1.00000
     30      -8.8978      1.00000
     31      -8.7964      1.00000
     32      -8.7016      1.00000
     33      -8.6593      1.00000
     34      -8.5562      1.00000
     35      -8.5319      1.00000
     36      -8.4190      1.00000
     37      -8.3470      1.00000
     38      -8.3331      1.00000
     39      -8.2942      1.00000
     40      -8.2701      1.00000
     41      -8.2581      1.00000
     42      -8.2465      1.00000
     43      -8.2349      1.00000
     44      -8.2077      1.00000
     45      -8.1619      1.00000
     46      -8.0768      1.00000
     47      -8.0172      1.00000
     48      -7.9888      1.00000
     49      -7.9765      1.00000
     50      -7.9499      1.00000
     51      -7.9313      1.00000
     52      -7.9032      1.00000
     53      -7.8809      1.00000
     54      -7.8433      1.00000
     55      -7.8220      1.00000
     56      -7.7978      1.00000
     57      -7.7779      1.00000
     58      -7.6083      1.00000
     59      -7.5935      1.00000
     60      -7.5443      1.00000
     61      -7.3902      1.00000
     62      -7.1966      1.00000
     63      -7.1211      1.00000
     64      -7.0949      1.00000
     65      -6.9847      1.00000
     66      -6.9027      1.00000
     67      -6.8102      1.00000
     68      -6.7408      1.00000
     69      -6.7270      1.00000
     70      -6.6864      1.00000
     71      -6.6450      1.00000
     72      -6.6076      1.00000
     73      -6.5192      1.00000
     74      -6.4718      1.00000
     75      -6.4493      1.00000
     76      -6.4319      1.00000
     77      -6.3753      1.00000
     78      -6.3464      1.00000
     79      -6.2694      1.00000
     80      -6.2138      1.00000
     81      -6.1577      1.00000
     82      -6.1366      1.00000
     83      -6.1168      1.00000
     84      -6.0955      1.00000
     85      -6.0657      1.00000
     86      -6.0358      1.00000
     87      -5.9871      1.00000
     88      -5.9601      1.00000
     89      -5.9008      1.00000
     90      -5.8565      1.00000
     91      -5.8242      1.00000
     92      -5.7499      1.00000
     93      -5.7214      1.00000
     94      -5.7090      1.00000
     95      -5.6422      1.00000
     96      -5.6137      1.00000
     97      -4.8925      1.00000
     98      -4.8804      1.00000
     99      -4.8680      1.00000
    100      -4.8447      1.00000
    101      -4.7388      1.00000
    102      -4.6941      1.00000
    103      -4.6630      1.00000
    104      -4.6416      1.00000
    105      -4.6125      1.00000
    106      -4.5808      1.00000
    107      -4.5596      1.00000
    108      -4.4990      1.00000
    109      -4.4703      1.00000
    110      -4.4259      1.00000
    111      -4.4023      1.00000
    112      -4.3803      1.00000
    113      -4.3509      1.00000
    114      -4.3264      1.00000
    115      -4.3115      1.00000
    116      -4.2796      1.00000
    117      -4.2234      1.00000
    118      -4.1821      1.00000
    119      -4.1136      1.00000
    120      -4.0972      1.00000
    121      -2.6095      0.98454
    122      -2.4496      0.00902
    123      -2.4379      0.00351
    124      -2.4117      0.00029
    125      -2.4013      0.00010
    126      -2.3961      0.00005
    127      -2.3864      0.00002
    128      -2.3702      0.00000
    129      -2.3601      0.00000
    130      -2.3440      0.00000
    131      -2.3022      0.00000
    132      -2.2594      0.00000
    133      -2.2203      0.00000
    134      -2.1797      0.00000
    135      -2.0937      0.00000
    136      -2.0446      0.00000
    137      -0.4798      0.00000
    138       1.8708      0.00000
    139       1.9027      0.00000
    140       2.1329      0.00000
    141       2.3535      0.00000
    142       2.3992      0.00000
    143       2.5821      0.00000
    144       2.6627      0.00000
 Fermi energy:        -2.5331948213

 spin component 2

 k-point     1 :       0.0000    0.0000    0.0000
  band No.  band energies     occupation 
      1     -21.7921      1.00000
      2     -19.3992      1.00000
      3     -19.1273      1.00000
      4     -19.0624      1.00000
      5     -19.0158      1.00000
      6     -18.8710      1.00000
      7     -18.8440      1.00000
      8     -18.7720      1.00000
      9     -18.6503      1.00000
     10     -18.5744      1.00000
     11     -18.5662      1.00000
     12     -18.5317      1.00000
     13     -18.5314      1.00000
     14     -18.4993      1.00000
     15     -18.4968      1.00000
     16     -18.4765      1.00000
     17     -18.4662      1.00000
     18     -18.4600      1.00000
     19     -18.4357      1.00000
     20     -18.4244      1.00000
     21     -18.4113      1.00000
     22     -18.3835      1.00000
     23     -18.2490      1.00000
     24     -18.2425      1.00000
     25     -12.4185      1.00000
     26      -9.6927      1.00000
     27      -9.1535      1.00000
     28      -8.9239      1.00000
     29      -8.8929      1.00000
     30      -8.6097      1.00000
     31      -8.5755      1.00000
     32      -8.4348      1.00000
     33      -8.3042      1.00000
     34      -8.2512      1.00000
     35      -8.2077      1.00000
     36      -8.1833      1.00000
     37      -8.1393      1.00000
     38      -8.1221      1.00000
     39      -8.0243      1.00000
     40      -7.9883      1.00000
     41      -7.9661      1.00000
     42      -7.9650      1.00000
     43      -7.8867      1.00000
     44      -7.8862      1.00000
     45      -7.8273      1.00000
     46      -7.8176      1.00000
     47      -7.7714      1.00000
     48      -7.7334      1.00000
     49      -7.7079      1.00000
     50      -7.6753      1.00000
     51      -7.6236      1.00000
     52      -7.5958      1.00000
     53      -7.5351      1.00000
     54      -7.4068      1.00000
     55      -7.3931      1.00000
     56      -7.2444      1.00000
     57      -7.1556      1.00000
     58      -7.1215      1.00000
     59      -7.0958      1.00000
     60      -7.0937      1.00000
     61      -7.0630      1.00000
     62      -7.0174      1.00000
     63      -7.0131      1.00000
     64      -6.9445      1.00000
     65      -6.9298      1.00000
     66      -6.7824      1.00000
     67      -6.7221      1.00000
     68      -6.7108      1.00000
     69      -6.6499      1.00000
     70      -6.6285      1.00000
     71      -6.5067      1.00000
     72      -6.4385      1.00000
     73      -6.4204      1.00000
     74      -6.4155      1.00000
     75      -6.3868      1.00000
     76      -6.2477      1.00000
     77      -6.1965      1.00000
     78      -6.0885      1.00000
     79      -6.0794      1.00000
     80      -6.0045      1.00000
     81      -5.9973      1.00000
     82      -5.9767      1.00000
     83      -5.9415      1.00000
     84      -5.8806      1.00000
     85      -5.8225      1.00000
     86      -5.7811      1.00000
     87      -5.7054      1.00000
     88      -5.6484      1.00000
     89      -5.6222      1.00000
     90      -5.5774      1.00000
     91      -5.5743      1.00000
     92      -5.4750      1.00000
     93      -5.4602      1.00000
     94      -5.4239      1.00000
     95      -5.4108      1.00000
     96      -5.3473      1.00000
     97      -2.0875      0.00000
     98      -2.0583      0.00000
     99      -2.0521      0.00000
    100      -2.0111      0.00000
    101      -2.0106      0.00000
    102      -1.9384      0.00000
    103      -1.8273      0.00000
    104      -1.8111      0.00000
    105      -1.7958      0.00000
    106      -1.7489      0.00000
    107      -1.7399      0.00000
    108      -1.7129      0.00000
    109      -1.6816      0.00000
    110      -1.6340      0.00000
    111      -1.5814      0.00000
    112      -1.5631      0.00000
    113      -1.5436      0.00000
    114      -1.5010      0.00000
    115      -1.4928      0.00000
    116      -1.4104      0.00000
    117      -1.3163      0.00000
    118      -1.3095      0.00000
    119      -1.2276      0.00000
    120      -1.0997      0.00000
    121      -1.0865      0.00000
    122      -1.0768      0.00000
    123      -1.0546      0.00000
    124      -1.0193      0.00000
    125      -1.0123      0.00000
    126      -0.9983      0.00000
    127      -0.9944      0.00000
    128      -0.9890      0.00000
    129      -0.9341      0.00000
    130      -0.9003      0.00000
    131      -0.8701      0.00000
    132      -0.8572      0.00000
    133      -0.6473      0.00000
    134      -0.5799      0.00000
    135      -0.5210      0.00000
    136      -0.4470      0.00000
    137       0.2988      0.00000
    138       1.5976      0.00000
    139       2.0532      0.00000
    140       2.5004      0.00000
    141       2.6437      0.00000
    142       2.6637      0.00000
    143       2.8856      0.00000
    144       2.9682      0.00000

 k-point     2 :       0.2000    0.0000    0.0000
  band No.  band energies     occupation 
      1     -21.7921      1.00000
      2     -19.3819      1.00000
      3     -19.1691      1.00000
      4     -19.0904      1.00000
      5     -18.9924      1.00000
      6     -18.8538      1.00000
      7     -18.8348      1.00000
      8     -18.7367      1.00000
      9     -18.6443      1.00000
     10     -18.5841      1.00000
     11     -18.5676      1.00000
     12     -18.5507      1.00000
     13     -18.5348      1.00000
     14     -18.5101      1.00000
     15     -18.5039      1.00000
     16     -18.4845      1.00000
     17     -18.4580      1.00000
     18     -18.4554      1.00000
     19     -18.4321      1.00000
     20     -18.4158      1.00000
     21     -18.4122      1.00000
     22     -18.3849      1.00000
     23     -18.2494      1.00000
     24     -18.2441      1.00000
     25     -12.4185      1.00000
     26      -9.6855      1.00000
     27      -9.1419      1.00000
     28      -8.9085      1.00000
     29      -8.8655      1.00000
     30      -8.6244      1.00000
     31      -8.5666      1.00000
     32      -8.4342      1.00000
     33      -8.3228      1.00000
     34      -8.2694      1.00000
     35      -8.2166      1.00000
     36      -8.1789      1.00000
     37      -8.1239      1.00000
     38      -8.1185      1.00000
     39      -8.0394      1.00000
     40      -8.0113      1.00000
     41      -8.0006      1.00000
     42      -7.9685      1.00000
     43      -7.9243      1.00000
     44      -7.8691      1.00000
     45      -7.8286      1.00000
     46      -7.8100      1.00000
     47      -7.7633      1.00000
     48      -7.7513      1.00000
     49      -7.7143      1.00000
     50      -7.6525      1.00000
     51      -7.6397      1.00000
     52      -7.5926      1.00000
     53      -7.5197      1.00000
     54      -7.4503      1.00000
     55      -7.3751      1.00000
     56      -7.3339      1.00000
     57      -7.2765      1.00000
     58      -7.2367      1.00000
     59      -7.1289      1.00000
     60      -7.0743      1.00000
     61      -7.0187      1.00000
     62      -7.0024      1.00000
     63      -6.9224      1.00000
     64      -6.8616      1.00000
     65      -6.8441      1.00000
     66      -6.7597      1.00000
     67      -6.7271      1.00000
     68      -6.6575      1.00000
     69      -6.6209      1.00000
     70      -6.6001      1.00000
     71      -6.4933      1.00000
     72      -6.4214      1.00000
     73      -6.3829      1.00000
     74      -6.3102      1.00000
     75      -6.3024      1.00000
     76      -6.2233      1.00000
     77      -6.1764      1.00000
     78      -6.1444      1.00000
     79      -6.1122      1.00000
     80      -6.0512      1.00000
     81      -6.0205      1.00000
     82      -5.9767      1.00000
     83      -5.9298      1.00000
     84      -5.8881      1.00000
     85      -5.8086      1.00000
     86      -5.7703      1.00000
     87      -5.6966      1.00000
     88      -5.6550      1.00000
     89      -5.6358      1.00000
     90      -5.6076      1.00000
     91      -5.5704      1.00000
     92      -5.5228      1.00000
     93      -5.4897      1.00000
     94      -5.4827      1.00000
     95      -5.4384      1.00000
     96      -5.3893      1.00000
     97      -2.0763      0.00000
     98      -2.0452      0.00000
     99      -2.0338      0.00000
    100      -2.0104      0.00000
    101      -1.9899      0.00000
    102      -1.9344      0.00000
    103      -1.8511      0.00000
    104      -1.8163      0.00000
    105      -1.7849      0.00000
    106      -1.7554      0.00000
    107      -1.7085      0.00000
    108      -1.7033      0.00000
    109      -1.6621      0.00000
    110      -1.6365      0.00000
    111      -1.6054      0.00000
    112      -1.5865      0.00000
    113      -1.5428      0.00000
    114      -1.5133      0.00000
    115      -1.4996      0.00000
    116      -1.4059      0.00000
    117      -1.3391      0.00000
    118      -1.2935      0.00000
    119      -1.2428      0.00000
    120      -1.0998      0.00000
    121      -1.0798      0.00000
    122      -1.0684      0.00000
    123      -1.0419      0.00000
    124      -1.0175      0.00000
    125      -1.0046      0.00000
    126      -0.9979      0.00000
    127      -0.9908      0.00000
    128      -0.9852      0.00000
    129      -0.9331      0.00000
    130      -0.9061      0.00000
    131      -0.8846      0.00000
    132      -0.8660      0.00000
    133      -0.6466      0.00000
    134      -0.5786      0.00000
    135      -0.5215      0.00000
    136      -0.4507      0.00000
    137       0.3036      0.00000
    138       1.6617      0.00000
    139       2.1152      0.00000
    140       2.4383      0.00000
    141       2.5624      0.00000
    142       2.5844      0.00000
    143       2.7597      0.00000
    144       2.9127      0.00000

 k-point     3 :       0.0000    0.2000    0.0000
  band No.  band energies     occupation 
      1     -21.7921      1.00000
      2     -19.3824      1.00000
      3     -19.1538      1.00000
      4     -19.0875      1.00000
      5     -19.0346      1.00000
      6     -18.8416      1.00000
      7     -18.7991      1.00000
      8     -18.7574      1.00000
      9     -18.6436      1.00000
     10     -18.5818      1.00000
     11     -18.5701      1.00000
     12     -18.5459      1.00000
     13     -18.5387      1.00000
     14     -18.5201      1.00000
     15     -18.5062      1.00000
     16     -18.4772      1.00000
     17     -18.4585      1.00000
     18     -18.4522      1.00000
     19     -18.4315      1.00000
     20     -18.4190      1.00000
     21     -18.4098      1.00000
     22     -18.3864      1.00000
     23     -18.2498      1.00000
     24     -18.2436      1.00000
     25     -12.4185      1.00000
     26      -9.6899      1.00000
     27      -9.1299      1.00000
     28      -8.9179      1.00000
     29      -8.8636      1.00000
     30      -8.6250      1.00000
     31      -8.5749      1.00000
     32      -8.4234      1.00000
     33      -8.3292      1.00000
     34      -8.2586      1.00000
     35      -8.2104      1.00000
     36      -8.1827      1.00000
     37      -8.1341      1.00000
     38      -8.1061      1.00000
     39      -8.0396      1.00000
     40      -8.0136      1.00000
     41      -7.9939      1.00000
     42      -7.9661      1.00000
     43      -7.9221      1.00000
     44      -7.8974      1.00000
     45      -7.8324      1.00000
     46      -7.8019      1.00000
     47      -7.7580      1.00000
     48      -7.7361      1.00000
     49      -7.7060      1.00000
     50      -7.6582      1.00000
     51      -7.6199      1.00000
     52      -7.5929      1.00000
     53      -7.5314      1.00000
     54      -7.4431      1.00000
     55      -7.3982      1.00000
     56      -7.3311      1.00000
     57      -7.2916      1.00000
     58      -7.2420      1.00000
     59      -7.1526      1.00000
     60      -7.0955      1.00000
     61      -7.0721      1.00000
     62      -6.9815      1.00000
     63      -6.8707      1.00000
     64      -6.8510      1.00000
     65      -6.8397      1.00000
     66      -6.7549      1.00000
     67      -6.7165      1.00000
     68      -6.6774      1.00000
     69      -6.6277      1.00000
     70      -6.5693      1.00000
     71      -6.4784      1.00000
     72      -6.4343      1.00000
     73      -6.3778      1.00000
     74      -6.3195      1.00000
     75      -6.2957      1.00000
     76      -6.2106      1.00000
     77      -6.1823      1.00000
     78      -6.1320      1.00000
     79      -6.1134      1.00000
     80      -6.0832      1.00000
     81      -6.0168      1.00000
     82      -5.9594      1.00000
     83      -5.9349      1.00000
     84      -5.8734      1.00000
     85      -5.8102      1.00000
     86      -5.7718      1.00000
     87      -5.7059      1.00000
     88      -5.6686      1.00000
     89      -5.6188      1.00000
     90      -5.5857      1.00000
     91      -5.5769      1.00000
     92      -5.5312      1.00000
     93      -5.5071      1.00000
     94      -5.4801      1.00000
     95      -5.4495      1.00000
     96      -5.3851      1.00000
     97      -2.0741      0.00000
     98      -2.0467      0.00000
     99      -2.0375      0.00000
    100      -2.0077      0.00000
    101      -1.9890      0.00000
    102      -1.9305      0.00000
    103      -1.8487      0.00000
    104      -1.8139      0.00000
    105      -1.7874      0.00000
    106      -1.7470      0.00000
    107      -1.7234      0.00000
    108      -1.7003      0.00000
    109      -1.6670      0.00000
    110      -1.6483      0.00000
    111      -1.6001      0.00000
    112      -1.5745      0.00000
    113      -1.5450      0.00000
    114      -1.5069      0.00000
    115      -1.4991      0.00000
    116      -1.4127      0.00000
    117      -1.3297      0.00000
    118      -1.3099      0.00000
    119      -1.2396      0.00000
    120      -1.1091      0.00000
    121      -1.0740      0.00000
    122      -1.0656      0.00000
    123      -1.0460      0.00000
    124      -1.0181      0.00000
    125      -1.0078      0.00000
    126      -0.9959      0.00000
    127      -0.9879      0.00000
    128      -0.9779      0.00000
    129      -0.9353      0.00000
    130      -0.9030      0.00000
    131      -0.8853      0.00000
    132      -0.8620      0.00000
    133      -0.6555      0.00000
    134      -0.5792      0.00000
    135      -0.5213      0.00000
    136      -0.4468      0.00000
    137       0.3043      0.00000
    138       1.6622      0.00000
    139       2.1159      0.00000
    140       2.4469      0.00000
    141       2.5634      0.00000
    142       2.5713      0.00000
    143       2.7453      0.00000
    144       2.9123      0.00000

 k-point     4 :       0.4000    0.0000    0.0000
  band No.  band energies     occupation 
      1     -21.7921      1.00000
      2     -19.3324      1.00000
      3     -19.2538      1.00000
      4     -19.1061      1.00000
      5     -18.9860      1.00000
      6     -18.8272      1.00000
      7     -18.8135      1.00000
      8     -18.6671      1.00000
      9     -18.6313      1.00000
     10     -18.5975      1.00000
     11     -18.5916      1.00000
     12     -18.5803      1.00000
     13     -18.5338      1.00000
     14     -18.5269      1.00000
     15     -18.5141      1.00000
     16     -18.5084      1.00000
     17     -18.4452      1.00000
     18     -18.4430      1.00000
     19     -18.4283      1.00000
     20     -18.4173      1.00000
     21     -18.4009      1.00000
     22     -18.3897      1.00000
     23     -18.2495      1.00000
     24     -18.2473      1.00000
     25     -12.4187      1.00000
     26      -9.6736      1.00000
     27      -9.1278      1.00000
     28      -8.8765      1.00000
     29      -8.7847      1.00000
     30      -8.6829      1.00000
     31      -8.5318      1.00000
     32      -8.4419      1.00000
     33      -8.3650      1.00000
     34      -8.2940      1.00000
     35      -8.2628      1.00000
     36      -8.1428      1.00000
     37      -8.1132      1.00000
     38      -8.0979      1.00000
     39      -8.0846      1.00000
     40      -8.0670      1.00000
     41      -8.0380      1.00000
     42      -7.9565      1.00000
     43      -7.9275      1.00000
     44      -7.8982      1.00000
     45      -7.8638      1.00000
     46      -7.8183      1.00000
     47      -7.7819      1.00000
     48      -7.7405      1.00000
     49      -7.6947      1.00000
     50      -7.6384      1.00000
     51      -7.6212      1.00000
     52      -7.5505      1.00000
     53      -7.5387      1.00000
     54      -7.4607      1.00000
     55      -7.4245      1.00000
     56      -7.3815      1.00000
     57      -7.3409      1.00000
     58      -7.2941      1.00000
     59      -7.2740      1.00000
     60      -7.0968      1.00000
     61      -6.9977      1.00000
     62      -6.9541      1.00000
     63      -6.8421      1.00000
     64      -6.7945      1.00000
     65      -6.7672      1.00000
     66      -6.7583      1.00000
     67      -6.7018      1.00000
     68      -6.6339      1.00000
     69      -6.5191      1.00000
     70      -6.4982      1.00000
     71      -6.3837      1.00000
     72      -6.3527      1.00000
     73      -6.3135      1.00000
     74      -6.2947      1.00000
     75      -6.2695      1.00000
     76      -6.1778      1.00000
     77      -6.1485      1.00000
     78      -6.1278      1.00000
     79      -6.0545      1.00000
     80      -6.0393      1.00000
     81      -6.0221      1.00000
     82      -5.9906      1.00000
     83      -5.9395      1.00000
     84      -5.9200      1.00000
     85      -5.8764      1.00000
     86      -5.7926      1.00000
     87      -5.7559      1.00000
     88      -5.6981      1.00000
     89      -5.6569      1.00000
     90      -5.6294      1.00000
     91      -5.5959      1.00000
     92      -5.5833      1.00000
     93      -5.5559      1.00000
     94      -5.5102      1.00000
     95      -5.4802      1.00000
     96      -5.4647      1.00000
     97      -2.0793      0.00000
     98      -2.0163      0.00000
     99      -2.0048      0.00000
    100      -1.9797      0.00000
    101      -1.9433      0.00000
    102      -1.9357      0.00000
    103      -1.8682      0.00000
    104      -1.8294      0.00000
    105      -1.7803      0.00000
    106      -1.7565      0.00000
    107      -1.7183      0.00000
    108      -1.7011      0.00000
    109      -1.6392      0.00000
    110      -1.6284      0.00000
    111      -1.6031      0.00000
    112      -1.5967      0.00000
    113      -1.5569      0.00000
    114      -1.5366      0.00000
    115      -1.5230      0.00000
    116      -1.3914      0.00000
    117      -1.3592      0.00000
    118      -1.2856      0.00000
    119      -1.2754      0.00000
    120      -1.1019      0.00000
    121      -1.0698      0.00000
    122      -1.0459      0.00000
    123      -1.0249      0.00000
    124      -1.0078      0.00000
    125      -1.0024      0.00000
    126      -0.9945      0.00000
    127      -0.9907      0.00000
    128      -0.9655      0.00000
    129      -0.9431      0.00000
    130      -0.9297      0.00000
    131      -0.9078      0.00000
    132      -0.8666      0.00000
    133      -0.6459      0.00000
    134      -0.5750      0.00000
    135      -0.5245      0.00000
    136      -0.4502      0.00000
    137       0.3103      0.00000
    138       1.8396      0.00000
    139       2.1208      0.00000
    140       2.2907      0.00000
    141       2.4923      0.00000
    142       2.5594      0.00000
    143       2.6833      0.00000
    144       2.7520      0.00000

 k-point     5 :       0.0000    0.4000    0.0000
  band No.  band energies     occupation 
      1     -21.7921      1.00000
      2     -19.3399      1.00000
      3     -19.2247      1.00000
      4     -19.1061      1.00000
      5     -19.0473      1.00000
      6     -18.8086      1.00000
      7     -18.7613      1.00000
      8     -18.6905      1.00000
      9     -18.6251      1.00000
     10     -18.6045      1.00000
     11     -18.5839      1.00000
     12     -18.5715      1.00000
     13     -18.5572      1.00000
     14     -18.5455      1.00000
     15     -18.5174      1.00000
     16     -18.4857      1.00000
     17     -18.4513      1.00000
     18     -18.4366      1.00000
     19     -18.4288      1.00000
     20     -18.4094      1.00000
     21     -18.4053      1.00000
     22     -18.3943      1.00000
     23     -18.2511      1.00000
     24     -18.2455      1.00000
     25     -12.4185      1.00000
     26      -9.6854      1.00000
     27      -9.0875      1.00000
     28      -8.9060      1.00000
     29      -8.8088      1.00000
     30      -8.6422      1.00000
     31      -8.5734      1.00000
     32      -8.4127      1.00000
     33      -8.3772      1.00000
     34      -8.2738      1.00000
     35      -8.2262      1.00000
     36      -8.1510      1.00000
     37      -8.1232      1.00000
     38      -8.1099      1.00000
     39      -8.0812      1.00000
     40      -8.0687      1.00000
     41      -8.0331      1.00000
     42      -7.9660      1.00000
     43      -7.9311      1.00000
     44      -7.9019      1.00000
     45      -7.8480      1.00000
     46      -7.8187      1.00000
     47      -7.7612      1.00000
     48      -7.7274      1.00000
     49      -7.6853      1.00000
     50      -7.6434      1.00000
     51      -7.6143      1.00000
     52      -7.5707      1.00000
     53      -7.5440      1.00000
     54      -7.4907      1.00000
     55      -7.3968      1.00000
     56      -7.3805      1.00000
     57      -7.3688      1.00000
     58      -7.3384      1.00000
     59      -7.2539      1.00000
     60      -7.1252      1.00000
     61      -7.0859      1.00000
     62      -6.9689      1.00000
     63      -6.8003      1.00000
     64      -6.7809      1.00000
     65      -6.7756      1.00000
     66      -6.7215      1.00000
     67      -6.6969      1.00000
     68      -6.5802      1.00000
     69      -6.5153      1.00000
     70      -6.4732      1.00000
     71      -6.4417      1.00000
     72      -6.3489      1.00000
     73      -6.3018      1.00000
     74      -6.2582      1.00000
     75      -6.2145      1.00000
     76      -6.2019      1.00000
     77      -6.1887      1.00000
     78      -6.1405      1.00000
     79      -6.0768      1.00000
     80      -6.0298      1.00000
     81      -6.0078      1.00000
     82      -5.9638      1.00000
     83      -5.9355      1.00000
     84      -5.8899      1.00000
     85      -5.8584      1.00000
     86      -5.7984      1.00000
     87      -5.7548      1.00000
     88      -5.7024      1.00000
     89      -5.6734      1.00000
     90      -5.6249      1.00000
     91      -5.6061      1.00000
     92      -5.5759      1.00000
     93      -5.5686      1.00000
     94      -5.5525      1.00000
     95      -5.5083      1.00000
     96      -5.4418      1.00000
     97      -2.0551      0.00000
     98      -2.0283      0.00000
     99      -2.0143      0.00000
    100      -1.9897      0.00000
    101      -1.9432      0.00000
    102      -1.9238      0.00000
    103      -1.8771      0.00000
    104      -1.7986      0.00000
    105      -1.7757      0.00000
    106      -1.7510      0.00000
    107      -1.7181      0.00000
    108      -1.7121      0.00000
    109      -1.6834      0.00000
    110      -1.6443      0.00000
    111      -1.6003      0.00000
    112      -1.5771      0.00000
    113      -1.5483      0.00000
    114      -1.5190      0.00000
    115      -1.5116      0.00000
    116      -1.4162      0.00000
    117      -1.3417      0.00000
    118      -1.3228      0.00000
    119      -1.2585      0.00000
    120      -1.1258      0.00000
    121      -1.0571      0.00000
    122      -1.0461      0.00000
    123      -1.0340      0.00000
    124      -1.0144      0.00000
    125      -1.0017      0.00000
    126      -0.9941      0.00000
    127      -0.9739      0.00000
    128      -0.9571      0.00000
    129      -0.9441      0.00000
    130      -0.9141      0.00000
    131      -0.9019      0.00000
    132      -0.8704      0.00000
    133      -0.6653      0.00000
    134      -0.5767      0.00000
    135      -0.5213      0.00000
    136      -0.4455      0.00000
    137       0.3128      0.00000
    138       1.8387      0.00000
    139       2.1306      0.00000
    140       2.2927      0.00000
    141       2.4806      0.00000
    142       2.5591      0.00000
    143       2.6577      0.00000
    144       2.7532      0.00000

 k-point     6 :       0.2000    0.2000    0.0000
  band No.  band energies     occupation 
      1     -21.7921      1.00000
      2     -19.3498      1.00000
      3     -19.2137      1.00000
      4     -19.1291      1.00000
      5     -18.9773      1.00000
      6     -18.8739      1.00000
      7     -18.7526      1.00000
      8     -18.7060      1.00000
      9     -18.6331      1.00000
     10     -18.6026      1.00000
     11     -18.5711      1.00000
     12     -18.5630      1.00000
     13     -18.5518      1.00000
     14     -18.5369      1.00000
     15     -18.5139      1.00000
     16     -18.4846      1.00000
     17     -18.4613      1.00000
     18     -18.4352      1.00000
     19     -18.4308      1.00000
     20     -18.4122      1.00000
     21     -18.4069      1.00000
     22     -18.3894      1.00000
     23     -18.2502      1.00000
     24     -18.2459      1.00000
     25     -12.4186      1.00000
     26      -9.6805      1.00000
     27      -9.1158      1.00000
     28      -8.8948      1.00000
     29      -8.8130      1.00000
     30      -8.6599      1.00000
     31      -8.5461      1.00000
     32      -8.4297      1.00000
     33      -8.3587      1.00000
     34      -8.2819      1.00000
     35      -8.2364      1.00000
     36      -8.1576      1.00000
     37      -8.1201      1.00000
     38      -8.1031      1.00000
     39      -8.0787      1.00000
     40      -8.0422      1.00000
     41      -8.0293      1.00000
     42      -7.9553      1.00000
     43      -7.9408      1.00000
     44      -7.9222      1.00000
     45      -7.8583      1.00000
     46      -7.8134      1.00000
     47      -7.7595      1.00000
     48      -7.7175      1.00000
     49      -7.6816      1.00000
     50      -7.6425      1.00000
     51      -7.6201      1.00000
     52      -7.5835      1.00000
     53      -7.5376      1.00000
     54      -7.4691      1.00000
     55      -7.4188      1.00000
     56      -7.3852      1.00000
     57      -7.3414      1.00000
     58      -7.3244      1.00000
     59      -7.1795      1.00000
     60      -7.1211      1.00000
     61      -7.0664      1.00000
     62      -6.9680      1.00000
     63      -6.8748      1.00000
     64      -6.8186      1.00000
     65      -6.7403      1.00000
     66      -6.6651      1.00000
     67      -6.6486      1.00000
     68      -6.5942      1.00000
     69      -6.5800      1.00000
     70      -6.5114      1.00000
     71      -6.4778      1.00000
     72      -6.4165      1.00000
     73      -6.3383      1.00000
     74      -6.2564      1.00000
     75      -6.2276      1.00000
     76      -6.1976      1.00000
     77      -6.1498      1.00000
     78      -6.1360      1.00000
     79      -6.0990      1.00000
     80      -6.0905      1.00000
     81      -6.0310      1.00000
     82      -6.0049      1.00000
     83      -5.9224      1.00000
     84      -5.8830      1.00000
     85      -5.8028      1.00000
     86      -5.7630      1.00000
     87      -5.7473      1.00000
     88      -5.6934      1.00000
     89      -5.6626      1.00000
     90      -5.6220      1.00000
     91      -5.5798      1.00000
     92      -5.5682      1.00000
     93      -5.5468      1.00000
     94      -5.5345      1.00000
     95      -5.4940      1.00000
     96      -5.4457      1.00000
     97      -2.0672      0.00000
     98      -2.0289      0.00000
     99      -2.0054      0.00000
    100      -1.9938      0.00000
    101      -1.9592      0.00000
    102      -1.9314      0.00000
    103      -1.8717      0.00000
    104      -1.8223      0.00000
    105      -1.7717      0.00000
    106      -1.7501      0.00000
    107      -1.7128      0.00000
    108      -1.7007      0.00000
    109      -1.6627      0.00000
    110      -1.6308      0.00000
    111      -1.6074      0.00000
    112      -1.6006      0.00000
    113      -1.5472      0.00000
    114      -1.5248      0.00000
    115      -1.5103      0.00000
    116      -1.4047      0.00000
    117      -1.3503      0.00000
    118      -1.2988      0.00000
    119      -1.2617      0.00000
    120      -1.1108      0.00000
    121      -1.0729      0.00000
    122      -1.0510      0.00000
    123      -1.0316      0.00000
    124      -1.0149      0.00000
    125      -0.9962      0.00000
    126      -0.9948      0.00000
    127      -0.9812      0.00000
    128      -0.9707      0.00000
    129      -0.9375      0.00000
    130      -0.9203      0.00000
    131      -0.8978      0.00000
    132      -0.8702      0.00000
    133      -0.6529      0.00000
    134      -0.5763      0.00000
    135      -0.5224      0.00000
    136      -0.4490      0.00000
    137       0.3100      0.00000
    138       1.7827      0.00000
    139       2.2318      0.00000
    140       2.2997      0.00000
    141       2.3245      0.00000
    142       2.6911      0.00000
    143       2.7473      0.00000
    144       2.7662      0.00000

 k-point     7 :      -0.2000    0.4000    0.0000
  band No.  band energies     occupation 
      1     -21.7921      1.00000
      2     -19.3518      1.00000
      3     -19.1985      1.00000
      4     -19.1204      1.00000
      5     -19.0380      1.00000
      6     -18.8231      1.00000
      7     -18.7390      1.00000
      8     -18.7273      1.00000
      9     -18.6292      1.00000
     10     -18.5886      1.00000
     11     -18.5862      1.00000
     12     -18.5635      1.00000
     13     -18.5551      1.00000
     14     -18.5415      1.00000
     15     -18.5225      1.00000
     16     -18.4720      1.00000
     17     -18.4603      1.00000
     18     -18.4441      1.00000
     19     -18.4211      1.00000
     20     -18.4148      1.00000
     21     -18.4055      1.00000
     22     -18.3927      1.00000
     23     -18.2508      1.00000
     24     -18.2452      1.00000
     25     -12.4185      1.00000
     26      -9.6875      1.00000
     27      -9.0930      1.00000
     28      -8.9076      1.00000
     29      -8.8287      1.00000
     30      -8.6111      1.00000
     31      -8.5974      1.00000
     32      -8.4027      1.00000
     33      -8.3774      1.00000
     34      -8.2607      1.00000
     35      -8.2255      1.00000
     36      -8.1645      1.00000
     37      -8.1297      1.00000
     38      -8.1067      1.00000
     39      -8.0622      1.00000
     40      -8.0577      1.00000
     41      -8.0125      1.00000
     42      -7.9907      1.00000
     43      -7.9390      1.00000
     44      -7.8809      1.00000
     45      -7.8625      1.00000
     46      -7.8500      1.00000
     47      -7.7098      1.00000
     48      -7.7057      1.00000
     49      -7.6795      1.00000
     50      -7.6339      1.00000
     51      -7.6280      1.00000
     52      -7.5758      1.00000
     53      -7.5629      1.00000
     54      -7.4551      1.00000
     55      -7.4432      1.00000
     56      -7.3785      1.00000
     57      -7.3551      1.00000
     58      -7.3340      1.00000
     59      -7.2595      1.00000
     60      -7.1142      1.00000
     61      -7.0928      1.00000
     62      -6.9181      1.00000
     63      -6.8704      1.00000
     64      -6.8267      1.00000
     65      -6.7447      1.00000
     66      -6.6432      1.00000
     67      -6.6391      1.00000
     68      -6.6014      1.00000
     69      -6.5565      1.00000
     70      -6.5201      1.00000
     71      -6.4525      1.00000
     72      -6.4306      1.00000
     73      -6.3516      1.00000
     74      -6.2213      1.00000
     75      -6.2199      1.00000
     76      -6.1998      1.00000
     77      -6.1788      1.00000
     78      -6.1356      1.00000
     79      -6.1030      1.00000
     80      -6.0776      1.00000
     81      -6.0201      1.00000
     82      -6.0087      1.00000
     83      -5.8966      1.00000
     84      -5.8862      1.00000
     85      -5.7863      1.00000
     86      -5.7665      1.00000
     87      -5.7418      1.00000
     88      -5.7039      1.00000
     89      -5.6795      1.00000
     90      -5.6092      1.00000
     91      -5.6009      1.00000
     92      -5.5687      1.00000
     93      -5.5643      1.00000
     94      -5.5331      1.00000
     95      -5.5137      1.00000
     96      -5.4338      1.00000
     97      -2.0613      0.00000
     98      -2.0343      0.00000
     99      -2.0129      0.00000
    100      -1.9843      0.00000
    101      -1.9683      0.00000
    102      -1.9194      0.00000
    103      -1.8550      0.00000
    104      -1.8300      0.00000
    105      -1.7803      0.00000
    106      -1.7417      0.00000
    107      -1.7094      0.00000
    108      -1.6966      0.00000
    109      -1.6934      0.00000
    110      -1.6355      0.00000
    111      -1.6204      0.00000
    112      -1.5627      0.00000
    113      -1.5546      0.00000
    114      -1.5130      0.00000
    115      -1.5120      0.00000
    116      -1.4153      0.00000
    117      -1.3385      0.00000
    118      -1.3223      0.00000
    119      -1.2547      0.00000
    120      -1.1232      0.00000
    121      -1.0654      0.00000
    122      -1.0443      0.00000
    123      -1.0379      0.00000
    124      -1.0151      0.00000
    125      -1.0084      0.00000
    126      -0.9982      0.00000
    127      -0.9698      0.00000
    128      -0.9559      0.00000
    129      -0.9366      0.00000
    130      -0.9119      0.00000
    131      -0.9113      0.00000
    132      -0.8603      0.00000
    133      -0.6670      0.00000
    134      -0.5771      0.00000
    135      -0.5221      0.00000
    136      -0.4433      0.00000
    137       0.3111      0.00000
    138       1.7843      0.00000
    139       2.2339      0.00000
    140       2.3081      0.00000
    141       2.3147      0.00000
    142       2.6920      0.00000
    143       2.7484      0.00000
    144       2.7601      0.00000

 k-point     8 :       0.4000    0.2000    0.0000
  band No.  band energies     occupation 
      1     -21.7921      1.00000
      2     -19.2919      1.00000
      3     -19.2866      1.00000
      4     -19.1440      1.00000
      5     -18.9369      1.00000
      6     -18.9032      1.00000
      7     -18.7305      1.00000
      8     -18.6536      1.00000
      9     -18.6356      1.00000
     10     -18.6077      1.00000
     11     -18.5862      1.00000
     12     -18.5856      1.00000
     13     -18.5548      1.00000
     14     -18.5385      1.00000
     15     -18.5279      1.00000
     16     -18.4895      1.00000
     17     -18.4553      1.00000
     18     -18.4339      1.00000
     19     -18.4277      1.00000
     20     -18.4117      1.00000
     21     -18.3987      1.00000
     22     -18.3943      1.00000
     23     -18.2496      1.00000
     24     -18.2482      1.00000
     25     -12.4187      1.00000
     26      -9.6745      1.00000
     27      -9.1104      1.00000
     28      -8.8726      1.00000
     29      -8.7591      1.00000
     30      -8.7049      1.00000
     31      -8.4917      1.00000
     32      -8.4647      1.00000
     33      -8.3818      1.00000
     34      -8.2912      1.00000
     35      -8.2659      1.00000
     36      -8.1248      1.00000
     37      -8.1209      1.00000
     38      -8.1005      1.00000
     39      -8.0918      1.00000
     40      -8.0745      1.00000
     41      -8.0594      1.00000
     42      -7.9730      1.00000
     43      -7.9372      1.00000
     44      -7.9365      1.00000
     45      -7.8845      1.00000
     46      -7.7989      1.00000
     47      -7.7637      1.00000
     48      -7.7028      1.00000
     49      -7.6662      1.00000
     50      -7.6378      1.00000
     51      -7.6034      1.00000
     52      -7.5553      1.00000
     53      -7.5446      1.00000
     54      -7.4824      1.00000
     55      -7.4403      1.00000
     56      -7.4390      1.00000
     57      -7.3745      1.00000
     58      -7.2716      1.00000
     59      -7.2568      1.00000
     60      -7.1851      1.00000
     61      -7.0546      1.00000
     62      -6.9548      1.00000
     63      -6.8497      1.00000
     64      -6.7953      1.00000
     65      -6.7384      1.00000
     66      -6.6584      1.00000
     67      -6.5711      1.00000
     68      -6.5582      1.00000
     69      -6.4911      1.00000
     70      -6.4324      1.00000
     71      -6.3906      1.00000
     72      -6.3753      1.00000
     73      -6.3149      1.00000
     74      -6.3141      1.00000
     75      -6.2554      1.00000
     76      -6.2470      1.00000
     77      -6.1629      1.00000
     78      -6.1316      1.00000
     79      -6.1162      1.00000
     80      -6.0588      1.00000
     81      -6.0090      1.00000
     82      -5.9256      1.00000
     83      -5.9049      1.00000
     84      -5.8683      1.00000
     85      -5.8672      1.00000
     86      -5.8025      1.00000
     87      -5.7579      1.00000
     88      -5.7116      1.00000
     89      -5.6691      1.00000
     90      -5.6373      1.00000
     91      -5.6160      1.00000
     92      -5.5967      1.00000
     93      -5.5670      1.00000
     94      -5.5505      1.00000
     95      -5.5191      1.00000
     96      -5.4901      1.00000
     97      -2.0718      0.00000
     98      -2.0101      0.00000
     99      -1.9906      0.00000
    100      -1.9657      0.00000
    101      -1.9430      0.00000
    102      -1.9143      0.00000
    103      -1.9031      0.00000
    104      -1.8289      0.00000
    105      -1.7700      0.00000
    106      -1.7448      0.00000
    107      -1.7282      0.00000
    108      -1.7015      0.00000
    109      -1.6659      0.00000
    110      -1.6279      0.00000
    111      -1.6041      0.00000
    112      -1.5822      0.00000
    113      -1.5581      0.00000
    114      -1.5356      0.00000
    115      -1.5241      0.00000
    116      -1.3942      0.00000
    117      -1.3603      0.00000
    118      -1.2925      0.00000
    119      -1.2828      0.00000
    120      -1.1105      0.00000
    121      -1.0735      0.00000
    122      -1.0433      0.00000
    123      -1.0225      0.00000
    124      -1.0170      0.00000
    125      -0.9927      0.00000
    126      -0.9846      0.00000
    127      -0.9772      0.00000
    128      -0.9688      0.00000
    129      -0.9460      0.00000
    130      -0.9240      0.00000
    131      -0.9116      0.00000
    132      -0.8680      0.00000
    133      -0.6518      0.00000
    134      -0.5735      0.00000
    135      -0.5244      0.00000
    136      -0.4469      0.00000
    137       0.3130      0.00000
    138       1.9760      0.00000
    139       2.0374      0.00000
    140       2.2680      0.00000
    141       2.4366      0.00000
    142       2.4790      0.00000
    143       2.7092      0.00000
    144       2.8922      0.00000

 k-point     9 :      -0.2000   -0.4000    0.0000
  band No.  band energies     occupation 
      1     -21.7921      1.00000
      2     -19.3138      1.00000
      3     -19.2504      1.00000
      4     -19.1504      1.00000
      5     -18.9939      1.00000
      6     -18.8536      1.00000
      7     -18.7087      1.00000
      8     -18.6718      1.00000
      9     -18.6290      1.00000
     10     -18.6045      1.00000
     11     -18.5941      1.00000
     12     -18.5787      1.00000
     13     -18.5633      1.00000
     14     -18.5503      1.00000
     15     -18.5294      1.00000
     16     -18.4759      1.00000
     17     -18.4598      1.00000
     18     -18.4379      1.00000
     19     -18.4216      1.00000
     20     -18.4067      1.00000
     21     -18.4022      1.00000
     22     -18.3980      1.00000
     23     -18.2508      1.00000
     24     -18.2468      1.00000
     25     -12.4186      1.00000
     26      -9.6817      1.00000
     27      -9.0840      1.00000
     28      -8.8919      1.00000
     29      -8.7940      1.00000
     30      -8.6532      1.00000
     31      -8.5427      1.00000
     32      -8.4303      1.00000
     33      -8.3875      1.00000
     34      -8.2779      1.00000
     35      -8.2411      1.00000
     36      -8.1340      1.00000
     37      -8.1223      1.00000
     38      -8.1103      1.00000
     39      -8.0911      1.00000
     40      -8.0812      1.00000
     41      -8.0422      1.00000
     42      -8.0012      1.00000
     43      -7.9535      1.00000
     44      -7.9181      1.00000
     45      -7.8664      1.00000
     46      -7.7948      1.00000
     47      -7.7383      1.00000
     48      -7.6951      1.00000
     49      -7.6847      1.00000
     50      -7.6338      1.00000
     51      -7.6109      1.00000
     52      -7.5675      1.00000
     53      -7.5254      1.00000
     54      -7.5119      1.00000
     55      -7.4510      1.00000
     56      -7.4139      1.00000
     57      -7.3732      1.00000
     58      -7.3023      1.00000
     59      -7.2648      1.00000
     60      -7.2086      1.00000
     61      -7.0799      1.00000
     62      -6.9341      1.00000
     63      -6.8584      1.00000
     64      -6.8029      1.00000
     65      -6.7436      1.00000
     66      -6.6142      1.00000
     67      -6.5666      1.00000
     68      -6.5372      1.00000
     69      -6.4888      1.00000
     70      -6.4332      1.00000
     71      -6.4214      1.00000
     72      -6.3556      1.00000
     73      -6.3193      1.00000
     74      -6.2740      1.00000
     75      -6.2460      1.00000
     76      -6.2424      1.00000
     77      -6.2099      1.00000
     78      -6.1516      1.00000
     79      -6.1126      1.00000
     80      -6.0461      1.00000
     81      -5.9728      1.00000
     82      -5.9435      1.00000
     83      -5.8936      1.00000
     84      -5.8558      1.00000
     85      -5.8228      1.00000
     86      -5.8058      1.00000
     87      -5.7714      1.00000
     88      -5.7147      1.00000
     89      -5.6982      1.00000
     90      -5.6389      1.00000
     91      -5.6138      1.00000
     92      -5.5927      1.00000
     93      -5.5759      1.00000
     94      -5.5615      1.00000
     95      -5.5581      1.00000
     96      -5.4692      1.00000
     97      -2.0565      0.00000
     98      -2.0215      0.00000
     99      -1.9918      0.00000
    100      -1.9759      0.00000
    101      -1.9369      0.00000
    102      -1.9186      0.00000
    103      -1.8976      0.00000
    104      -1.8112      0.00000
    105      -1.7737      0.00000
    106      -1.7353      0.00000
    107      -1.7235      0.00000
    108      -1.7126      0.00000
    109      -1.6841      0.00000
    110      -1.6396      0.00000
    111      -1.6156      0.00000
    112      -1.5663      0.00000
    113      -1.5487      0.00000
    114      -1.5256      0.00000
    115      -1.5188      0.00000
    116      -1.4099      0.00000
    117      -1.3509      0.00000
    118      -1.3169      0.00000
    119      -1.2687      0.00000
    120      -1.1248      0.00000
    121      -1.0678      0.00000
    122      -1.0418      0.00000
    123      -1.0317      0.00000
    124      -1.0116      0.00000
    125      -0.9976      0.00000
    126      -0.9931      0.00000
    127      -0.9646      0.00000
    128      -0.9542      0.00000
    129      -0.9393      0.00000
    130      -0.9264      0.00000
    131      -0.9102      0.00000
    132      -0.8669      0.00000
    133      -0.6637      0.00000
    134      -0.5746      0.00000
    135      -0.5225      0.00000
    136      -0.4441      0.00000
    137       0.3145      0.00000
    138       1.9664      0.00000
    139       2.0565      0.00000
    140       2.2579      0.00000
    141       2.4441      0.00000
    142       2.4721      0.00000
    143       2.7105      0.00000
    144       2.8523      0.00000


--------------------------------------------------------------------------------------------------------


 soft charge-density along one line, spin component            1
         0         1         2         3         4         5         6         7         8         9
 total charge-density along one line
 
 soft charge-density along one line, spin component            2
         0         1         2         3         4         5         6         7         8         9
 total charge-density along one line
 
 pseudopotential strength for first ion, spin component:            1
 -9.642   0.197   0.001  -0.001   0.001  -9.969   0.190   0.001
  0.197  -9.504  -0.001  -0.001   0.001   0.190  -9.836  -0.001
  0.001  -0.001  -9.789  -0.000  -0.000   0.001  -0.001 -10.111
 -0.001  -0.001  -0.000  -9.502  -0.199  -0.001  -0.001  -0.000
  0.001   0.001  -0.000  -0.199  -9.641   0.000   0.001  -0.000
 -9.969   0.190   0.001  -0.001   0.000 -10.259   0.184   0.001
  0.190  -9.836  -0.001  -0.001   0.001   0.184 -10.131  -0.001
  0.001  -0.001 -10.111  -0.000  -0.000   0.001  -0.001 -10.396
 -0.001  -0.001  -0.000  -9.834  -0.192  -0.001  -0.001  -0.000
  0.000   0.001  -0.000  -0.192  -9.969   0.000   0.001  -0.000
  0.000   0.000   0.000   0.000  -0.000   0.000   0.000   0.000
  0.001   0.001   0.001   0.001  -0.000   0.001   0.001   0.001
  0.001   0.001  -0.000   0.000  -0.003   0.001   0.001  -0.000
  0.000   0.001   0.001   0.001  -0.000   0.000   0.001   0.001
 -0.002   0.000  -0.000   0.001   0.001  -0.002   0.000  -0.000
  0.001   0.001  -0.000   0.000  -0.003   0.001   0.001  -0.000
  0.000   0.001   0.001   0.001  -0.000   0.000   0.001   0.001
 -0.002   0.000  -0.000   0.001   0.000  -0.002   0.000  -0.000
 pseudopotential strength for first ion, spin component:            2
 -7.959  -0.261   0.002  -0.001  -0.001  -8.342  -0.252   0.002
 -0.261  -8.150  -0.000  -0.001   0.000  -0.252  -8.527  -0.000
  0.002  -0.000  -7.780  -0.000  -0.001   0.002  -0.000  -8.169
 -0.001  -0.001  -0.000  -8.150   0.259  -0.001  -0.001  -0.000
 -0.001   0.000  -0.001   0.259  -7.960  -0.001   0.000  -0.001
 -8.342  -0.252   0.002  -0.001  -0.001  -8.687  -0.243   0.002
 -0.252  -8.527  -0.000  -0.001   0.000  -0.243  -8.865  -0.000
  0.002  -0.000  -8.169  -0.000  -0.001   0.002  -0.000  -8.520
 -0.001  -0.001  -0.000  -8.526   0.250  -0.001  -0.001  -0.000
 -0.001   0.000  -0.001   0.250  -8.343  -0.001   0.000  -0.001
  0.000  -0.000   0.000   0.000  -0.000   0.000  -0.000   0.000
  0.001  -0.000   0.000   0.001  -0.000   0.001  -0.000  -0.000
  0.000   0.000  -0.000  -0.000  -0.001   0.000   0.000  -0.000
 -0.000   0.000   0.001   0.000   0.000  -0.000   0.000   0.001
  0.000  -0.000  -0.000   0.001   0.001  -0.000  -0.000  -0.000
  0.000   0.000  -0.000  -0.000  -0.000   0.000   0.000  -0.000
 -0.000   0.000   0.001   0.000   0.000  -0.000   0.000   0.001
  0.001  -0.000  -0.000   0.000   0.001   0.000  -0.000  -0.000
 total augmentation occupancy for first ion, spin component:            1
  3.878  -1.309   0.025  -0.003  -0.021  -2.880   0.122  -0.019   0.003   0.016  -0.004  -0.000  -0.004  -0.001   0.097  -0.000
 -1.309   2.837  -0.008   0.008  -0.004   0.120  -2.673   0.006  -0.006   0.003  -0.004   0.000  -0.005  -0.003  -0.038  -0.000
  0.025  -0.008   4.644   0.002  -0.015  -0.019   0.007  -2.800  -0.001   0.012   0.065  -0.010   0.000  -0.002   0.001  -0.000
 -0.003   0.008   0.002   2.825   1.300   0.002  -0.006  -0.001  -2.664  -0.115  -0.005   0.000   0.034  -0.004  -0.004  -0.000
 -0.021  -0.004  -0.015   1.300   3.858   0.016   0.002   0.012  -0.116  -2.864  -0.000   0.000   0.101   0.001  -0.001  -0.004
 -2.880   0.120  -0.019   0.002   0.016   2.837   0.808   0.015  -0.002  -0.012   0.003   0.000   0.002   0.001  -0.108   0.000
  0.122  -2.673   0.007  -0.006   0.002   0.808   3.279  -0.006   0.005  -0.001   0.002  -0.000   0.002   0.001   0.031   0.000
 -0.019   0.006  -2.800  -0.001   0.012   0.015  -0.006   2.085   0.001  -0.010  -0.072   0.013  -0.000   0.002  -0.001   0.000
  0.003  -0.006  -0.001  -2.664  -0.116  -0.002   0.005   0.001   3.273  -0.812   0.004  -0.000  -0.029   0.002   0.003   0.000
  0.016   0.003   0.012  -0.115  -2.864  -0.012  -0.001  -0.010  -0.812   2.825   0.001  -0.000  -0.111  -0.000   0.001   0.004
 -0.004  -0.004   0.065  -0.005  -0.000   0.003   0.002  -0.072   0.004   0.001   1.838  -0.220  -0.000  -0.000   0.000   0.000
 -0.000   0.000  -0.010   0.000   0.000   0.000  -0.000   0.013  -0.000  -0.000  -0.220   0.034  -0.000  -0.000  -0.000  -0.000
 -0.004  -0.005   0.000   0.034   0.101   0.002   0.002  -0.000  -0.029  -0.111  -0.000  -0.000   0.283  -0.000  -0.000  -0.008
 -0.001  -0.003  -0.002  -0.004   0.001   0.001   0.001   0.002   0.002  -0.000  -0.000  -0.000  -0.000   0.275  -0.000  -0.000
  0.097  -0.038   0.001  -0.004  -0.001  -0.108   0.031  -0.001   0.003   0.001   0.000  -0.000  -0.000  -0.000   0.284  -0.000
 -0.000  -0.000  -0.000  -0.000  -0.004   0.000   0.000   0.000   0.000   0.004   0.000  -0.000  -0.008  -0.000  -0.000   0.000
 -0.000   0.000   0.001   0.000   0.000   0.000   0.000  -0.000   0.000  -0.000   0.000   0.000  -0.000  -0.008  -0.000   0.000
 -0.004  -0.000  -0.000   0.001   0.001   0.004   0.000   0.000  -0.000  -0.000   0.000   0.000  -0.000  -0.000  -0.008   0.000
 total augmentation occupancy for first ion, spin component:            2
  2.634  -2.162   0.026  -0.004  -0.019  -1.180   1.271  -0.019   0.004   0.014  -0.003  -0.000  -0.002  -0.001   0.014   0.000
 -2.162   1.087  -0.009   0.006   0.000   1.270  -0.276   0.007  -0.005  -0.001  -0.003  -0.000  -0.002  -0.001  -0.029   0.000
  0.026  -0.009   4.086   0.002  -0.013  -0.019   0.007  -2.022  -0.002   0.009  -0.006   0.002  -0.000  -0.001   0.000  -0.000
 -0.004   0.006   0.002   1.077   2.149   0.003  -0.004  -0.002  -0.269  -1.260  -0.002  -0.000   0.027  -0.002  -0.002  -0.000
 -0.019   0.000  -0.013   2.149   2.614   0.014  -0.001   0.009  -1.261  -1.165   0.001  -0.000   0.016   0.001   0.000   0.000
 -1.180   1.270  -0.019   0.003   0.014   0.467  -0.794   0.013  -0.002  -0.009   0.002   0.000   0.002   0.001  -0.004  -0.000
  1.271  -0.276   0.007  -0.004  -0.001  -0.794  -0.092  -0.005   0.003   0.001   0.002   0.000   0.002   0.001   0.015  -0.000
 -0.019   0.007  -2.022  -0.002   0.009   0.013  -0.005   0.996   0.001  -0.006   0.010  -0.002   0.000   0.001  -0.000   0.000
  0.004  -0.005  -0.002  -0.269  -1.261  -0.002   0.003   0.001  -0.097   0.787   0.002   0.000  -0.013   0.001   0.002   0.000
  0.014  -0.001   0.009  -1.260  -1.165  -0.009   0.001  -0.006   0.787   0.456  -0.001   0.000  -0.006  -0.001  -0.000  -0.000
 -0.003  -0.003  -0.006  -0.002   0.001   0.002   0.002   0.010   0.002  -0.001  -0.043   0.049   0.000   0.000  -0.000  -0.000
 -0.000  -0.000   0.002  -0.000  -0.000   0.000   0.000  -0.002   0.000   0.000   0.049  -0.009  -0.000  -0.000  -0.000  -0.000
 -0.002  -0.002  -0.000   0.027   0.016   0.002   0.002   0.000  -0.013  -0.006   0.000  -0.000   0.017   0.000   0.000   0.002
 -0.001  -0.001  -0.001  -0.002   0.001   0.001   0.001   0.001   0.001  -0.001   0.000  -0.000   0.000   0.014  -0.000  -0.000
  0.014  -0.029   0.000  -0.002   0.000  -0.004   0.015  -0.000   0.002  -0.000  -0.000  -0.000   0.000  -0.000   0.017  -0.000
  0.000   0.000  -0.000  -0.000   0.000  -0.000  -0.000   0.000   0.000  -0.000  -0.000  -0.000   0.002  -0.000  -0.000  -0.000
 -0.000   0.000   0.001   0.000   0.000   0.000  -0.000  -0.000  -0.000  -0.000   0.000   0.000   0.000   0.001  -0.000  -0.000
  0.001  -0.000  -0.000   0.001   0.001  -0.001   0.000   0.000  -0.000  -0.000   0.000  -0.000   0.000  -0.000   0.002  -0.000


------------------------ aborting loop because EDIFF is reached ----------------------------------------


    CHARGE:  cpu time      4.8011: real time     24.0947
    FORLOC:  cpu time      0.0620: real time      0.3183
    FORNL :  cpu time     13.2519: real time     66.5190
    STRESS:  cpu time     39.8330: real time    199.9580
    FORCOR:  cpu time      0.4480: real time      2.2530
    FORHAR:  cpu time      0.1074: real time      0.5400
    MIXING:  cpu time      0.2509: real time      1.2560
    OFIELD:  cpu time      0.0000: real time      0.0000

  FORCE on cell =-STRESS in cart. coord.  units (eV):
  Direction    XX          YY          ZZ          XY          YZ          ZX
  --------------------------------------------------------------------------------------
  Alpha Z   109.46236   109.46236   109.46236
  Ewald   31165.21628 31157.45660-37862.95817     6.72008     6.29909    -3.63678
  Hartree 33672.34517 33669.88882-32114.14516     2.12726     3.18138    -1.83677
  E(xc)    -841.81644  -841.76201  -842.56405    -0.04716    -0.08004     0.04621
  Local  -68955.40077-68946.14146 65866.68332    -8.01810   -10.76315     6.21411
  n-local  1907.30381  1907.78714  1904.76214    -0.55903    -0.34229     0.25160
  augment  -234.94034  -235.41088  -234.80475     0.40692     0.56378    -0.32537
  Kinetic  3184.74914  3182.79858  3177.49787     1.29236     2.56841    -1.51538
  Fock        0.00000     0.00000     0.00000     0.00000     0.00000     0.00000
  -------------------------------------------------------------------------------------
  Total       6.68615     4.31221     3.93357     2.05589     1.41772    -0.81842
  in kB       4.22951     2.72781     2.48829     1.30051     0.89682    -0.51771
  external pressure =        3.15 kB  Pullay stress =        0.00 kB


 VOLUME and BASIS-vectors are now :
 -----------------------------------------------------------------------------
  energy-cutoff  :      400.00
  volume of cell :     2532.77
      direct lattice vectors                 reciprocal lattice vectors
    12.092548997  0.000000000  0.000000000     0.082695551  0.047744299 -0.000000000
    -6.046274499 10.472454628  0.000000000     0.000000000  0.095488597  0.000000000
     0.000000000  0.000000000 20.000000000     0.000000000 -0.000000000  0.050000000

  length of vectors
    12.092548997 12.092548997 20.000000000     0.095488597  0.095488597  0.050000000


 FORCES acting on ions
    electron-ion (+dipol)            ewald-force                    non-local-force                 convergence-correction
 -----------------------------------------------------------------------------------------------
   0.187E+01 -.167E+00 0.225E+01   -.199E+01 0.723E-01 -.241E+01   0.450E-01 0.561E-01 0.786E-01   -.164E-04 0.676E-06 0.623E-04
   0.948E+00 0.129E+01 0.495E+01   -.241E+01 -.358E+01 -.677E+01   0.490E+00 0.132E+01 0.981E+00   -.339E-05 0.900E-06 0.436E-04
   -.159E+01 -.174E+00 0.495E+01   0.430E+01 0.302E+00 -.677E+01   -.139E+01 0.238E+00 0.981E+00   0.917E-06 0.339E-05 0.436E-04
   -.911E+00 0.588E+00 0.144E+01   0.876E+00 -.390E+00 -.175E+01   0.355E-01 -.103E+00 0.143E+00   0.216E-04 -.403E-06 0.457E-04
   -.542E-01 0.108E+01 0.144E+01   -.100E+00 -.953E+00 -.175E+01   0.718E-01 -.825E-01 0.143E+00   -.104E-04 -.189E-04 0.457E-04
   0.530E+00 -.272E+00 0.151E+01   -.637E+00 0.393E+00 -.167E+01   0.521E-01 -.572E-01 0.798E-01   -.303E-05 -.432E-05 0.559E-04
   -.297E-01 -.595E+00 0.151E+01   -.224E-01 0.748E+00 -.167E+01   0.235E-01 -.737E-01 0.798E-01   0.526E-05 0.464E-06 0.559E-04
   -.790E+00 -.170E+01 0.225E+01   0.933E+00 0.176E+01 -.241E+01   -.710E-01 -.109E-01 0.786E-01   0.762E-05 0.145E-04 0.623E-04
   0.721E+02 -.278E+00 0.483E+03   -.741E+02 0.282E+00 -.486E+03   0.202E+01 -.647E-02 0.298E+01   0.343E-05 -.182E-04 0.100E-03
   -.368E+02 0.637E+02 0.487E+03   0.376E+02 -.652E+02 -.489E+03   -.942E+00 0.163E+01 0.264E+01   0.133E-04 -.230E-04 0.365E-04
   -.340E+02 -.621E+02 0.486E+03   0.349E+02 0.637E+02 -.489E+03   -.911E+00 -.145E+01 0.308E+01   -.420E-04 0.213E-04 0.692E-04
   -.676E+02 -.239E+01 -.479E+03   0.694E+02 0.241E+01 0.482E+03   -.174E+01 -.385E-01 -.280E+01   -.183E-04 -.153E-04 0.143E-04
   0.358E+02 -.620E+02 -.480E+03   -.368E+02 0.637E+02 0.483E+03   0.101E+01 -.168E+01 -.287E+01   0.235E-04 -.579E-05 0.302E-05
   0.412E+02 0.645E+02 -.478E+03   -.423E+02 -.664E+02 0.481E+03   0.977E+00 0.195E+01 -.254E+01   -.577E-04 0.173E-04 0.316E-04
   0.708E+02 -.161E+01 0.486E+03   -.726E+02 0.160E+01 -.489E+03   0.171E+01 0.623E-01 0.308E+01   0.256E-05 0.471E-04 0.692E-04
   -.353E+02 0.622E+02 0.483E+03   0.363E+02 -.639E+02 -.486E+03   -.967E+00 0.172E+01 0.302E+01   0.196E-06 0.189E-04 0.106E-03
   -.373E+02 -.620E+02 0.484E+03   0.381E+02 0.637E+02 -.487E+03   -.346E+00 -.183E+01 0.236E+01   0.422E-04 -.699E-05 0.563E-04
   -.764E+02 -.343E+01 -.478E+03   0.787E+02 0.345E+01 0.481E+03   -.218E+01 0.129E+00 -.254E+01   0.139E-04 0.586E-04 0.316E-04
   0.363E+02 -.629E+02 -.429E+03   -.368E+02 0.637E+02 0.424E+03   -.235E-01 0.407E-01 0.575E+01   -.948E-05 0.164E-04 0.517E-04
   0.303E+02 0.647E+02 -.478E+03   -.312E+02 -.664E+02 0.481E+03   0.906E+00 0.157E+01 -.251E+01   0.332E-04 -.249E-04 0.296E-04
   0.724E+02 0.130E+01 0.484E+03   -.742E+02 -.116E+01 -.487E+03   0.175E+01 -.614E+00 0.236E+01   -.150E-04 -.400E-04 0.563E-04
   -.353E+02 0.611E+02 0.484E+03   0.362E+02 -.628E+02 -.487E+03   -.979E+00 0.170E+01 0.296E+01   0.993E-06 -.172E-05 0.820E-04
   -.358E+02 -.613E+02 0.483E+03   0.368E+02 0.631E+02 -.486E+03   -.958E+00 -.176E+01 0.300E+01   -.564E-05 0.292E-05 0.875E-04
   -.712E+02 0.607E+01 -.478E+03   0.731E+02 -.616E+01 0.481E+03   -.182E+01 0.242E-02 -.251E+01   0.494E-05 -.412E-04 0.296E-04
   0.358E+02 -.620E+02 -.480E+03   -.368E+02 0.637E+02 0.483E+03   0.956E+00 -.171E+01 -.287E+01   -.676E-05 -.233E-04 0.302E-05
   0.358E+02 0.622E+02 -.480E+03   -.368E+02 -.639E+02 0.483E+03   0.103E+01 0.168E+01 -.287E+01   -.514E-05 -.203E-05 0.155E-04
   0.710E+02 0.353E+00 0.483E+03   -.730E+02 -.329E+00 -.486E+03   0.201E+01 -.522E-01 0.300E+01   0.291E-06 0.634E-05 0.875E-04
   -.362E+02 0.617E+02 0.483E+03   0.372E+02 -.634E+02 -.486E+03   -.100E+01 0.170E+01 0.302E+01   -.165E-04 0.928E-05 0.106E-03
   -.358E+02 -.626E+02 0.483E+03   0.368E+02 0.643E+02 -.486E+03   -.100E+01 -.175E+01 0.298E+01   0.141E-04 -.121E-04 0.100E-03
   -.717E+02 0.103E+00 -.480E+03   0.737E+02 -.880E-01 0.483E+03   -.197E+01 -.515E-01 -.287E+01   0.433E-05 0.344E-05 0.155E-04
   0.358E+02 -.620E+02 -.480E+03   -.368E+02 0.637E+02 0.483E+03   0.994E+00 -.172E+01 -.287E+01   -.315E-06 0.545E-06 0.215E-04
   0.359E+02 0.573E+02 -.479E+03   -.368E+02 -.589E+02 0.482E+03   0.905E+00 0.149E+01 -.280E+01   0.224E-04 0.816E-05 0.143E-04
   0.169E+01 -.292E+01 -.138E+03   -.169E+01 0.292E+01 0.144E+03   -.197E-02 0.341E-02 -.492E+01   -.879E-06 0.152E-05 0.874E-06
 -----------------------------------------------------------------------------------------------
   0.132E+01 -.229E+01 -.783E+01   -.273E-13 0.977E-14 -.625E-12   -.132E+01 0.229E+01 0.782E+01   0.371E-05 -.643E-05 0.163E-02
 
 
 POSITION                                       TOTAL-FORCE (eV/Angst)
 -----------------------------------------------------------------------------------
      0.00000      3.49082     10.00000        -0.077533     -0.038621     -0.079941
      3.02314      1.74541     10.00000        -0.976679     -0.959485     -0.833257
      6.04627      3.49082     10.00000         1.319278      0.366087     -0.833257
      9.06941      1.74541     10.00000         0.000204      0.094980     -0.166280
     -3.02314      8.72705     10.00000        -0.082357      0.047314     -0.166280
     -0.00000      6.98164     10.00000        -0.054375      0.064460     -0.085087
      3.02314      8.72705     10.00000        -0.028637      0.079320     -0.085087
      6.04627      6.98164     10.00000         0.072213      0.047835     -0.079941
     -0.85071      5.23623      8.66428         0.007077     -0.002948      0.019488
      4.96006      1.88138      8.66428        -0.079265      0.137292      0.178102
      1.93692      3.35485      8.66428         0.018263      0.124166      0.008912
      0.85071      5.23623     11.33572         0.043085     -0.016759      0.077791
     -1.93692      3.35485     11.33572         0.013012      0.015508      0.021021
      1.08621      1.88138     11.33572        -0.144741      0.041263      0.201450
      5.19556      5.23623      8.66428        -0.116663      0.046267      0.008912
     -1.08621      1.88138      8.66428         0.018366      0.014836      0.032899
      7.98320      3.35485      8.66428         0.456502     -0.153497     -0.214746
      6.89698      5.23623     11.33572         0.036635      0.145981      0.201450
      4.10935      3.35485     11.33572        -0.479119      0.829858      0.535200
      7.13249      1.88138     11.33572         0.013214     -0.142241      0.200500
      2.17243      0.00000      8.66428        -0.095319     -0.472090     -0.214746
      1.93692      7.11760      8.66428         0.001819     -0.003151      0.000156
     -1.08621      8.59108      8.66428         0.016231     -0.028180      0.017216
      3.87385      0.00000     11.33572         0.116577     -0.082565      0.200500
     -4.96006      8.59108     11.33572        -0.019936     -0.003515      0.021021
     -1.93692      7.11760     11.33572         0.023432     -0.032520      0.039329
      8.21870      0.00000      8.66428         0.016289     -0.028147      0.017216
     -4.10935      7.11760      8.66428        -0.022032     -0.008487      0.032899
      4.96006      8.59108      8.66428        -0.000986     -0.007603      0.019488
      9.92012      0.00000     11.33572         0.016447     -0.036553      0.039329
      1.08621      8.59108     11.33572        -0.003856      0.006679      0.027019
      4.10935      7.11760     11.33572        -0.007029     -0.045692      0.077791
      4.10935      3.35485     12.63572        -0.000120      0.000208      0.780934
 -----------------------------------------------------------------------------------
    total drift:                               -0.000007      0.000012      0.000154


--------------------------------------------------------------------------------------------------------



  FREE ENERGIE OF THE ION-ELECTRON SYSTEM (eV)
  ---------------------------------------------------
  free  energy   TOTEN  =      -157.57388136 eV

  energy  without entropy=     -157.57133210  energy(sigma->0) =     -157.57260673
 


--------------------------------------------------------------------------------------------------------


    POTLOK:  cpu time      0.8488: real time      4.2600


--------------------------------------------------------------------------------------------------------




--------------------------------------------------------------------------------------------------------


      MLFF:  cpu time      0.0166: real time      0.1022
    WAVPRE:  cpu time      0.0694: real time      0.3318
    FEWALD:  cpu time      0.0459: real time      0.2381

 real space projection operators:
  total allocation   :      12405.45 KBytes
  max/ min on nodes  :       3119.91       3086.08

    ORTHCH:  cpu time     14.6536: real time     73.5444
     LOOP+:  cpu time   9386.0838: real time  92840.3629


--------------------------------------- Ionic step        2  -------------------------------------------




--------------------------------------- Iteration      2(   1)  ---------------------------------------


    POTLOK:  cpu time      0.5462: real time      2.7189
    SETDIJ:  cpu time      0.2527: real time      1.2766
     EDDAV:  cpu time    200.4771: real time   1006.0331
       DOS:  cpu time      0.1943: real time      0.9790
    CHARGE:  cpu time      5.1164: real time     25.6842
    MIXING:  cpu time      0.0892: real time      0.4577
    --------------------------------------------
      LOOP:  cpu time    206.6760: real time   1037.1495

 eigenvalue-minimisations  :  5424
 total energy-change (2. order) : 0.1270039E+00  (-0.3401065E+01)
 number of electron     216.9999982 magnetization      24.9999939
 augmentation part       -2.0577815 magnetization      16.6972919

 DIPCOR: dipole corrections for dipol
 direction  3 min pos     1,
 dipolmoment           0.000000      0.000000     -0.370731 electrons x Angstroem
 Tr[quadrupol]     -5239.882709

 energy correction for charged system         0.000000 eV
 dipol+quadrupol energy correction           -0.004914 eV
 added-field ion interaction          0.066860 eV  (added to PSCEN)


 Broyden mixing:
  rms(total) = 0.45388E+00    rms(broyden)= 0.45365E+00
  rms(prec ) = 0.45589E+00
  weight for this iteration     100.00

 Free energy of the ion-electron system (eV)
  ---------------------------------------------------
  alpha Z        PSCENC =       109.52430929
  Ewald energy   TEWEN  =     24409.06841687
  -Hartree energ DENC   =    -35179.58704678
  -exchange      EXHF   =         0.00000000
  -V(xc)+E(xc)   XCENC  =       348.75686286
  PAW double counting   =     15133.93441668   -14986.25443309
  entropy T*S    EENTRO =        -0.00114579
  eigenvalues    EBANDS =     -2053.64713339
  atomic energy  EATOM  =     12060.75887678
  Solvation  Ediel_sol  =         0.00000000
  ---------------------------------------------------
  free energy    TOTEN  =      -157.44687657 eV

  energy without entropy =     -157.44573078  energy(sigma->0) =     -157.44630367


--------------------------------------------------------------------------------------------------------




--------------------------------------- Iteration      2(   2)  ---------------------------------------


    POTLOK:  cpu time      0.5599: real time      2.8013
    SETDIJ:  cpu time      0.2568: real time      1.2977
     EDDAV:  cpu time    236.4688: real time   1186.6420
       DOS:  cpu time      0.1914: real time      0.9600
    CHARGE:  cpu time      5.5350: real time     27.7749
    MIXING:  cpu time      0.1176: real time      0.5981
    --------------------------------------------
      LOOP:  cpu time    243.1296: real time   1220.0740

 eigenvalue-minimisations  :  7432
 total energy-change (2. order) :-0.3439162E+00  (-0.1679763E+00)
 number of electron     216.9999982 magnetization      24.9999944
 augmentation part       -1.9516233 magnetization      16.7594859

 DIPCOR: dipole corrections for dipol
 direction  3 min pos     1,
 dipolmoment           0.000000      0.000000     -0.345378 electrons x Angstroem
 Tr[quadrupol]     -5239.895603

 energy correction for charged system         0.000000 eV
 dipol+quadrupol energy correction           -0.004265 eV
 added-field ion interaction          0.062287 eV  (added to PSCEN)


 Broyden mixing:
  rms(total) = 0.32869E+00    rms(broyden)= 0.32865E+00
  rms(prec ) = 0.33091E+00
  weight for this iteration     100.00

 eigenvalues of (default mixing * dielectric matrix)
  average eigenvalue GAMMA=   0.5753
  0.5753

 Free energy of the ion-electron system (eV)
  ---------------------------------------------------
  alpha Z        PSCENC =       109.52038618
  Ewald energy   TEWEN  =     24409.06841687
  -Hartree energ DENC   =    -35178.93432373
  -exchange      EXHF   =         0.00000000
  -V(xc)+E(xc)   XCENC  =       348.63543925
  PAW double counting   =     15111.98171181   -14963.93788884
  entropy T*S    EENTRO =        -0.00015535
  eigenvalues    EBANDS =     -2054.88325572
  atomic energy  EATOM  =     12060.75887678
  Solvation  Ediel_sol  =         0.00000000
  ---------------------------------------------------
  free energy    TOTEN  =      -157.79079275 eV

  energy without entropy =     -157.79063740  energy(sigma->0) =     -157.79071508


--------------------------------------------------------------------------------------------------------




--------------------------------------- Iteration      2(   3)  ---------------------------------------


    POTLOK:  cpu time      0.6348: real time      3.1791
    SETDIJ:  cpu time      0.2600: real time      1.3039
     EDDAV:  cpu time    240.9484: real time   1209.1090
       DOS:  cpu time      0.1915: real time      0.9601
    CHARGE:  cpu time      5.5374: real time     27.7943
    MIXING:  cpu time      0.1170: real time      0.5976
    --------------------------------------------
      LOOP:  cpu time    247.6891: real time   1242.9440

 eigenvalue-minimisations  :  7704
 total energy-change (2. order) :-0.5480258E-01  (-0.7057080E-02)
 number of electron     216.9999982 magnetization      24.9999949
 augmentation part       -1.9816701 magnetization      16.7469663

 DIPCOR: dipole corrections for dipol
 direction  3 min pos     1,
 dipolmoment           0.000000      0.000000     -0.336126 electrons x Angstroem
 Tr[quadrupol]     -5239.898007

 energy correction for charged system         0.000000 eV
 dipol+quadrupol energy correction           -0.004039 eV
 added-field ion interaction          0.060619 eV  (added to PSCEN)


 Broyden mixing:
  rms(total) = 0.98808E-01    rms(broyden)= 0.98802E-01
  rms(prec ) = 0.10113E+00
  weight for this iteration     100.00

 eigenvalues of (default mixing * dielectric matrix)
  average eigenvalue GAMMA=   0.6520
  0.6520  0.6520

 Free energy of the ion-electron system (eV)
  ---------------------------------------------------
  alpha Z        PSCENC =       109.51894298
  Ewald energy   TEWEN  =     24409.06841687
  -Hartree energ DENC   =    -35179.44899018
  -exchange      EXHF   =         0.00000000
  -V(xc)+E(xc)   XCENC  =       348.64907264
  PAW double counting   =     15103.44252161   -14955.58406805
  entropy T*S    EENTRO =        -0.00104267
  eigenvalues    EBANDS =     -2054.24932532
  atomic energy  EATOM  =     12060.75887678
  Solvation  Ediel_sol  =         0.00000000
  ---------------------------------------------------
  free energy    TOTEN  =      -157.84559534 eV

  energy without entropy =     -157.84455267  energy(sigma->0) =     -157.84507400


--------------------------------------------------------------------------------------------------------




--------------------------------------- Iteration      2(   4)  ---------------------------------------


    POTLOK:  cpu time      0.6105: real time      3.0516
    SETDIJ:  cpu time      0.2525: real time      1.2844
     EDDAV:  cpu time    243.2050: real time   1220.4200
       DOS:  cpu time      0.1557: real time      0.7802
    CHARGE:  cpu time      5.4285: real time     27.2377
    MIXING:  cpu time      0.1018: real time      0.5181
    --------------------------------------------
      LOOP:  cpu time    249.7540: real time   1253.2920

 eigenvalue-minimisations  :  7752
 total energy-change (2. order) : 0.7405298E-02  (-0.1065155E-02)
 number of electron     216.9999982 magnetization      24.9999958
 augmentation part       -1.9963648 magnetization      16.7429742

 DIPCOR: dipole corrections for dipol
 direction  3 min pos     1,
 dipolmoment           0.000000      0.000000     -0.329772 electrons x Angstroem
 Tr[quadrupol]     -5239.896569

 energy correction for charged system         0.000000 eV
 dipol+quadrupol energy correction           -0.003888 eV
 added-field ion interaction          0.059473 eV  (added to PSCEN)


 Broyden mixing:
  rms(total) = 0.64684E-01    rms(broyden)= 0.64683E-01
  rms(prec ) = 0.65964E-01
  weight for this iteration     100.00

 eigenvalues of (default mixing * dielectric matrix)
  average eigenvalue GAMMA=   0.7656
  1.0186  0.7331  0.5450

 Free energy of the ion-electron system (eV)
  ---------------------------------------------------
  alpha Z        PSCENC =       109.51794838
  Ewald energy   TEWEN  =     24409.06841687
  -Hartree energ DENC   =    -35179.61526484
  -exchange      EXHF   =         0.00000000
  -V(xc)+E(xc)   XCENC  =       348.65375422
  PAW double counting   =     15099.76244908   -14951.97159778
  entropy T*S    EENTRO =        -0.00075247
  eigenvalues    EBANDS =     -2054.01202028
  atomic energy  EATOM  =     12060.75887678
  Solvation  Ediel_sol  =         0.00000000
  ---------------------------------------------------
  free energy    TOTEN  =      -157.83819004 eV

  energy without entropy =     -157.83743757  energy(sigma->0) =     -157.83781380


--------------------------------------------------------------------------------------------------------




--------------------------------------- Iteration      2(   5)  ---------------------------------------


    POTLOK:  cpu time      0.6027: real time      3.0131
    SETDIJ:  cpu time      0.2649: real time      1.3379
     EDDAV:  cpu time    240.2250: real time   1205.4690
       DOS:  cpu time      0.1675: real time      0.8401
    CHARGE:  cpu time      5.4048: real time     27.1147
    MIXING:  cpu time      0.1247: real time      0.6372
    --------------------------------------------
      LOOP:  cpu time    246.7898: real time   1238.4120

 eigenvalue-minimisations  :  7608
 total energy-change (2. order) : 0.6373706E-02  (-0.8293064E-03)
 number of electron     216.9999982 magnetization      24.9999965
 augmentation part       -1.9855969 magnetization      16.7415104

 DIPCOR: dipole corrections for dipol
 direction  3 min pos     1,
 dipolmoment           0.000000      0.000000     -0.324469 electrons x Angstroem
 Tr[quadrupol]     -5239.897123

 energy correction for charged system         0.000000 eV
 dipol+quadrupol energy correction           -0.003764 eV
 added-field ion interaction          0.058517 eV  (added to PSCEN)


 Broyden mixing:
  rms(total) = 0.37596E-01    rms(broyden)= 0.37593E-01
  rms(prec ) = 0.38114E-01
  weight for this iteration     100.00

 eigenvalues of (default mixing * dielectric matrix)
  average eigenvalue GAMMA=   0.9831
  1.9170  0.8462  0.6757  0.4934

 Free energy of the ion-electron system (eV)
  ---------------------------------------------------
  alpha Z        PSCENC =       109.51711604
  Ewald energy   TEWEN  =     24409.06841687
  -Hartree energ DENC   =    -35179.75862065
  -exchange      EXHF   =         0.00000000
  -V(xc)+E(xc)   XCENC  =       348.67572439
  PAW double counting   =     15094.98229127   -14947.21555308
  entropy T*S    EENTRO =        -0.00122916
  eigenvalues    EBANDS =     -2053.85883878
  atomic energy  EATOM  =     12060.75887678
  Solvation  Ediel_sol  =         0.00000000
  ---------------------------------------------------
  free energy    TOTEN  =      -157.83181633 eV

  energy without entropy =     -157.83058717  energy(sigma->0) =     -157.83120175


--------------------------------------------------------------------------------------------------------




--------------------------------------- Iteration      2(   6)  ---------------------------------------


    POTLOK:  cpu time      0.6002: real time      3.0028
    SETDIJ:  cpu time      0.2644: real time      1.3373
     EDDAV:  cpu time    243.1686: real time   1220.3080
       DOS:  cpu time      0.1954: real time      0.9800
    CHARGE:  cpu time      4.9547: real time     24.8517
    MIXING:  cpu time      0.1347: real time      0.6793
    --------------------------------------------
      LOOP:  cpu time    249.3181: real time   1251.1590

 eigenvalue-minimisations  :  7824
 total energy-change (2. order) :-0.5657113E-03  (-0.2318663E-03)
 number of electron     216.9999982 magnetization      24.9999969
 augmentation part       -1.9961991 magnetization      16.7399651

 DIPCOR: dipole corrections for dipol
 direction  3 min pos     1,
 dipolmoment           0.000000      0.000000     -0.322093 electrons x Angstroem
 Tr[quadrupol]     -5239.908316

 energy correction for charged system         0.000000 eV
 dipol+quadrupol energy correction           -0.003709 eV
 added-field ion interaction          0.058088 eV  (added to PSCEN)


 Broyden mixing:
  rms(total) = 0.16620E-01    rms(broyden)= 0.16619E-01
  rms(prec ) = 0.16940E-01
  weight for this iteration     100.00

 eigenvalues of (default mixing * dielectric matrix)
  average eigenvalue GAMMA=   0.9672
  1.9964  0.9695  0.7932  0.6006  0.4762

 Free energy of the ion-electron system (eV)
  ---------------------------------------------------
  alpha Z        PSCENC =       109.51674252
  Ewald energy   TEWEN  =     24409.06841687
  -Hartree energ DENC   =    -35180.07556613
  -exchange      EXHF   =         0.00000000
  -V(xc)+E(xc)   XCENC  =       348.68290363
  PAW double counting   =     15092.22554680   -14944.50814350
  entropy T*S    EENTRO =        -0.00097919
  eigenvalues    EBANDS =     -2053.50017981
  atomic energy  EATOM  =     12060.75887678
  Solvation  Ediel_sol  =         0.00000000
  ---------------------------------------------------
  free energy    TOTEN  =      -157.83238204 eV

  energy without entropy =     -157.83140285  energy(sigma->0) =     -157.83189245


--------------------------------------------------------------------------------------------------------




--------------------------------------- Iteration      2(   7)  ---------------------------------------


    POTLOK:  cpu time      0.6005: real time      3.0182
    SETDIJ:  cpu time      0.2490: real time      1.2578
     EDDAV:  cpu time    239.6014: real time   1202.4280
       DOS:  cpu time      0.2074: real time      1.0441
    CHARGE:  cpu time      5.3497: real time     26.8425
    MIXING:  cpu time      0.1390: real time      0.6995
    --------------------------------------------
      LOOP:  cpu time    246.1469: real time   1235.2900

 eigenvalue-minimisations  :  7648
 total energy-change (2. order) :-0.3518097E-02  (-0.4923507E-04)
 number of electron     216.9999982 magnetization      24.9999974
 augmentation part       -1.9936464 magnetization      16.7401723

 DIPCOR: dipole corrections for dipol
 direction  3 min pos     1,
 dipolmoment           0.000000      0.000000     -0.322349 electrons x Angstroem
 Tr[quadrupol]     -5239.913961

 energy correction for charged system         0.000000 eV
 dipol+quadrupol energy correction           -0.003715 eV
 added-field ion interaction          0.058134 eV  (added to PSCEN)


 Broyden mixing:
  rms(total) = 0.95792E-02    rms(broyden)= 0.95788E-02
  rms(prec ) = 0.97406E-02
  weight for this iteration     100.00

 eigenvalues of (default mixing * dielectric matrix)
  average eigenvalue GAMMA=   1.0202
  2.2556  1.0550  1.0550  0.6459  0.6459  0.4635

 Free energy of the ion-electron system (eV)
  ---------------------------------------------------
  alpha Z        PSCENC =       109.51678278
  Ewald energy   TEWEN  =     24409.06841687
  -Hartree energ DENC   =    -35180.13593435
  -exchange      EXHF   =         0.00000000
  -V(xc)+E(xc)   XCENC  =       348.67996213
  PAW double counting   =     15091.83688923   -14944.10775553
  entropy T*S    EENTRO =        -0.00114147
  eigenvalues    EBANDS =     -2053.45199658
  atomic energy  EATOM  =     12060.75887678
  Solvation  Ediel_sol  =         0.00000000
  ---------------------------------------------------
  free energy    TOTEN  =      -157.83590014 eV

  energy without entropy =     -157.83475867  energy(sigma->0) =     -157.83532941


--------------------------------------------------------------------------------------------------------




--------------------------------------- Iteration      2(   8)  ---------------------------------------


    POTLOK:  cpu time      0.5986: real time      2.9889
    SETDIJ:  cpu time      0.2533: real time      1.2781
     EDDAV:  cpu time    240.8588: real time   1208.7160
       DOS:  cpu time      0.1993: real time      1.0000
    CHARGE:  cpu time      5.2896: real time     26.5374
    MIXING:  cpu time      0.1141: real time      0.5785
    --------------------------------------------
      LOOP:  cpu time    247.3136: real time   1241.0990

 eigenvalue-minimisations  :  7584
 total energy-change (2. order) :-0.3178023E-02  (-0.1612827E-04)
 number of electron     216.9999982 magnetization      24.9999977
 augmentation part       -1.9922710 magnetization      16.7407264

 DIPCOR: dipole corrections for dipol
 direction  3 min pos     1,
 dipolmoment           0.000000      0.000000     -0.322817 electrons x Angstroem
 Tr[quadrupol]     -5239.919562

 energy correction for charged system         0.000000 eV
 dipol+quadrupol energy correction           -0.003726 eV
 added-field ion interaction          0.058219 eV  (added to PSCEN)


 Broyden mixing:
  rms(total) = 0.52077E-02    rms(broyden)= 0.52073E-02
  rms(prec ) = 0.53262E-02
  weight for this iteration     100.00

 eigenvalues of (default mixing * dielectric matrix)
  average eigenvalue GAMMA=   1.0447
  2.5119  1.1924  1.1924  0.6950  0.6950  0.5652  0.4607

 Free energy of the ion-electron system (eV)
  ---------------------------------------------------
  alpha Z        PSCENC =       109.51685629
  Ewald energy   TEWEN  =     24409.06841687
  -Hartree energ DENC   =    -35180.21769346
  -exchange      EXHF   =         0.00000000
  -V(xc)+E(xc)   XCENC  =       348.67770133
  PAW double counting   =     15090.38955940   -14942.65872765
  entropy T*S    EENTRO =        -0.00106376
  eigenvalues    EBANDS =     -2053.37300398
  atomic energy  EATOM  =     12060.75887678
  Solvation  Ediel_sol  =         0.00000000
  ---------------------------------------------------
  free energy    TOTEN  =      -157.83907816 eV

  energy without entropy =     -157.83801441  energy(sigma->0) =     -157.83854628


--------------------------------------------------------------------------------------------------------




--------------------------------------- Iteration      2(   9)  ---------------------------------------


    POTLOK:  cpu time      0.5758: real time      2.8743
    SETDIJ:  cpu time      0.2638: real time      1.3367
     EDDAV:  cpu time    238.5372: real time   1197.0575
       DOS:  cpu time      0.1769: real time      0.8815
    CHARGE:  cpu time      4.9507: real time     24.8497
    MIXING:  cpu time      0.1199: real time      0.6003
    --------------------------------------------
      LOOP:  cpu time    244.6243: real time   1227.6000

 eigenvalue-minimisations  :  7536
 total energy-change (2. order) :-0.2802365E-02  (-0.5258158E-05)
 number of electron     216.9999982 magnetization      24.9999980
 augmentation part       -1.9937310 magnetization      16.7404756

 DIPCOR: dipole corrections for dipol
 direction  3 min pos     1,
 dipolmoment           0.000000      0.000000     -0.323706 electrons x Angstroem
 Tr[quadrupol]     -5239.924142

 energy correction for charged system         0.000000 eV
 dipol+quadrupol energy correction           -0.003746 eV
 added-field ion interaction          0.058379 eV  (added to PSCEN)


 Broyden mixing:
  rms(total) = 0.36774E-02    rms(broyden)= 0.36774E-02
  rms(prec ) = 0.37532E-02
  weight for this iteration     100.00

 eigenvalues of (default mixing * dielectric matrix)
  average eigenvalue GAMMA=   1.0380
  2.5287  1.2955  1.2955  0.8522  0.7384  0.4536  0.5699  0.5699

 Free energy of the ion-electron system (eV)
  ---------------------------------------------------
  alpha Z        PSCENC =       109.51699609
  Ewald energy   TEWEN  =     24409.06841687
  -Hartree energ DENC   =    -35180.28838408
  -exchange      EXHF   =         0.00000000
  -V(xc)+E(xc)   XCENC  =       348.67613093
  PAW double counting   =     15089.76035139   -14942.03173510
  entropy T*S    EENTRO =        -0.00109129
  eigenvalues    EBANDS =     -2053.30144211
  atomic energy  EATOM  =     12060.75887678
  Solvation  Ediel_sol  =         0.00000000
  ---------------------------------------------------
  free energy    TOTEN  =      -157.84188053 eV

  energy without entropy =     -157.84078924  energy(sigma->0) =     -157.84133488


--------------------------------------------------------------------------------------------------------




--------------------------------------- Iteration      2(  10)  ---------------------------------------


    POTLOK:  cpu time      0.5856: real time      2.9322
    SETDIJ:  cpu time      0.2489: real time      1.2578
     EDDAV:  cpu time    232.1528: real time   1165.0570
       DOS:  cpu time      0.1476: real time      0.7400
    CHARGE:  cpu time      5.3487: real time     26.8497
    MIXING:  cpu time      0.1575: real time      0.7933
    --------------------------------------------
      LOOP:  cpu time    238.6410: real time   1197.6300

 eigenvalue-minimisations  :  7248
 total energy-change (2. order) :-0.3178112E-02  (-0.4931056E-05)
 number of electron     216.9999982 magnetization      24.9999983
 augmentation part       -1.9931821 magnetization      16.7407426

 DIPCOR: dipole corrections for dipol
 direction  3 min pos     1,
 dipolmoment           0.000000      0.000000     -0.324950 electrons x Angstroem
 Tr[quadrupol]     -5239.928584

 energy correction for charged system         0.000000 eV
 dipol+quadrupol energy correction           -0.003775 eV
 added-field ion interaction          0.058603 eV  (added to PSCEN)


 Broyden mixing:
  rms(total) = 0.20034E-02    rms(broyden)= 0.20033E-02
  rms(prec ) = 0.20543E-02
  weight for this iteration     100.00

 eigenvalues of (default mixing * dielectric matrix)
  average eigenvalue GAMMA=   1.0564
  2.4567  1.4114  1.2127  1.2127  0.9422  0.6924  0.5981  0.4535  0.5280

 Free energy of the ion-electron system (eV)
  ---------------------------------------------------
  alpha Z        PSCENC =       109.51719162
  Ewald energy   TEWEN  =     24409.06841687
  -Hartree energ DENC   =    -35180.33528472
  -exchange      EXHF   =         0.00000000
  -V(xc)+E(xc)   XCENC  =       348.67200821
  PAW double counting   =     15089.40324338   -14941.66921413
  entropy T*S    EENTRO =        -0.00108958
  eigenvalues    EBANDS =     -2053.25920707
  atomic energy  EATOM  =     12060.75887678
  Solvation  Ediel_sol  =         0.00000000
  ---------------------------------------------------
  free energy    TOTEN  =      -157.84505864 eV

  energy without entropy =     -157.84396906  energy(sigma->0) =     -157.84451385


--------------------------------------------------------------------------------------------------------




--------------------------------------- Iteration      2(  11)  ---------------------------------------


    POTLOK:  cpu time      0.5959: real time      2.9822
    SETDIJ:  cpu time      0.2449: real time      1.2378
     EDDAV:  cpu time    236.7950: real time   1188.2940
       DOS:  cpu time      0.2113: real time      1.0600
    CHARGE:  cpu time      5.4097: real time     27.1423
    MIXING:  cpu time      0.1651: real time      0.8377
    --------------------------------------------
      LOOP:  cpu time    243.4219: real time   1221.5540

 eigenvalue-minimisations  :  7320
 total energy-change (2. order) :-0.2341040E-02  (-0.2590481E-05)
 number of electron     216.9999982 magnetization      24.9999985
 augmentation part       -1.9930239 magnetization      16.7408636

 DIPCOR: dipole corrections for dipol
 direction  3 min pos     1,
 dipolmoment           0.000000      0.000000     -0.325924 electrons x Angstroem
 Tr[quadrupol]     -5239.932388

 energy correction for charged system         0.000000 eV
 dipol+quadrupol energy correction           -0.003798 eV
 added-field ion interaction          0.058779 eV  (added to PSCEN)


 Broyden mixing:
  rms(total) = 0.13013E-02    rms(broyden)= 0.13013E-02
  rms(prec ) = 0.13468E-02
  weight for this iteration     100.00

 eigenvalues of (default mixing * dielectric matrix)
  average eigenvalue GAMMA=   1.0855
  2.5784  1.9681  1.1383  1.1383  1.0317  0.7400  0.6517  0.6517  0.4533  0.5040

 Free energy of the ion-electron system (eV)
  ---------------------------------------------------
  alpha Z        PSCENC =       109.51734464
  Ewald energy   TEWEN  =     24409.06841687
  -Hartree energ DENC   =    -35180.38203374
  -exchange      EXHF   =         0.00000000
  -V(xc)+E(xc)   XCENC  =       348.66956564
  PAW double counting   =     15089.05121738   -14941.31532144
  entropy T*S    EENTRO =        -0.00107252
  eigenvalues    EBANDS =     -2053.21439330
  atomic energy  EATOM  =     12060.75887678
  Solvation  Ediel_sol  =         0.00000000
  ---------------------------------------------------
  free energy    TOTEN  =      -157.84739968 eV

  energy without entropy =     -157.84632716  energy(sigma->0) =     -157.84686342


--------------------------------------------------------------------------------------------------------




--------------------------------------- Iteration      2(  12)  ---------------------------------------


    POTLOK:  cpu time      0.6026: real time      3.0136
    SETDIJ:  cpu time      0.2565: real time      1.2974
     EDDAV:  cpu time    219.3199: real time   1100.6050
       DOS:  cpu time      0.1396: real time      0.7001
    CHARGE:  cpu time      5.1678: real time     25.9365
    MIXING:  cpu time      0.1419: real time      0.7184
    --------------------------------------------
      LOOP:  cpu time    225.6284: real time   1132.2710

 eigenvalue-minimisations  :  6544
 total energy-change (2. order) :-0.1220754E-02  (-0.8281168E-06)
 number of electron     216.9999982 magnetization      24.9999987
 augmentation part       -1.9932953 magnetization      16.7408090

 DIPCOR: dipole corrections for dipol
 direction  3 min pos     1,
 dipolmoment           0.000000      0.000000     -0.326478 electrons x Angstroem
 Tr[quadrupol]     -5239.934777

 energy correction for charged system         0.000000 eV
 dipol+quadrupol energy correction           -0.003811 eV
 added-field ion interaction          0.058879 eV  (added to PSCEN)


 Broyden mixing:
  rms(total) = 0.92450E-03    rms(broyden)= 0.92448E-03
  rms(prec ) = 0.96157E-03
  weight for this iteration     100.00

 eigenvalues of (default mixing * dielectric matrix)
  average eigenvalue GAMMA=   1.0748
  2.7092  2.0766  1.1907  1.1907  0.9053  0.9053  0.6547  0.6242  0.6242  0.4551
  0.4866

 Free energy of the ion-electron system (eV)
  ---------------------------------------------------
  alpha Z        PSCENC =       109.51743156
  Ewald energy   TEWEN  =     24409.06841687
  -Hartree energ DENC   =    -35180.41522427
  -exchange      EXHF   =         0.00000000
  -V(xc)+E(xc)   XCENC  =       348.66873473
  PAW double counting   =     15088.94115128   -14941.20588489
  entropy T*S    EENTRO =        -0.00108621
  eigenvalues    EBANDS =     -2053.18103629
  atomic energy  EATOM  =     12060.75887678
  Solvation  Ediel_sol  =         0.00000000
  ---------------------------------------------------
  free energy    TOTEN  =      -157.84862044 eV

  energy without entropy =     -157.84753422  energy(sigma->0) =     -157.84807733


--------------------------------------------------------------------------------------------------------




--------------------------------------- Iteration      2(  13)  ---------------------------------------


    POTLOK:  cpu time      0.6026: real time      3.0131
    SETDIJ:  cpu time      0.2451: real time      1.2379
     EDDAV:  cpu time    217.6802: real time   1092.3560
       DOS:  cpu time      0.1834: real time      0.9190
    CHARGE:  cpu time      5.4301: real time     27.2533
    MIXING:  cpu time      0.1331: real time      0.6776
    --------------------------------------------
      LOOP:  cpu time    224.2745: real time   1125.4570

 eigenvalue-minimisations  :  6352
 total energy-change (2. order) :-0.1157720E-02  (-0.8608594E-06)
 number of electron     216.9999982 magnetization      24.9999989
 augmentation part       -1.9931017 magnetization      16.7408713

 DIPCOR: dipole corrections for dipol
 direction  3 min pos     1,
 dipolmoment           0.000000      0.000000     -0.327128 electrons x Angstroem
 Tr[quadrupol]     -5239.937161

 energy correction for charged system         0.000000 eV
 dipol+quadrupol energy correction           -0.003826 eV
 added-field ion interaction          0.058996 eV  (added to PSCEN)


 Broyden mixing:
  rms(total) = 0.73865E-03    rms(broyden)= 0.73863E-03
  rms(prec ) = 0.76593E-03
  weight for this iteration     100.00

 eigenvalues of (default mixing * dielectric matrix)
  average eigenvalue GAMMA=   1.0825
  2.8195  1.9950  1.2296  1.2296  1.0875  1.0875  0.7477  0.7004  0.5800  0.5800
  0.4574  0.4759

 Free energy of the ion-electron system (eV)
  ---------------------------------------------------
  alpha Z        PSCENC =       109.51753370
  Ewald energy   TEWEN  =     24409.06841687
  -Hartree energ DENC   =    -35180.44403902
  -exchange      EXHF   =         0.00000000
  -V(xc)+E(xc)   XCENC  =       348.66750954
  PAW double counting   =     15088.88317836   -14941.14721487
  entropy T*S    EENTRO =        -0.00107593
  eigenvalues    EBANDS =     -2053.15296358
  atomic energy  EATOM  =     12060.75887678
  Solvation  Ediel_sol  =         0.00000000
  ---------------------------------------------------
  free energy    TOTEN  =      -157.84977816 eV

  energy without entropy =     -157.84870223  energy(sigma->0) =     -157.84924019


--------------------------------------------------------------------------------------------------------




--------------------------------------- Iteration      2(  14)  ---------------------------------------


    POTLOK:  cpu time      0.5852: real time      2.9275
    SETDIJ:  cpu time      0.2525: real time      1.2805
     EDDAV:  cpu time    200.1038: real time   1004.1630
       DOS:  cpu time      0.1077: real time      0.5400
    CHARGE:  cpu time      5.2065: real time     26.1333
    MIXING:  cpu time      0.1511: real time      0.7596
    --------------------------------------------
      LOOP:  cpu time    206.4067: real time   1035.8040

 eigenvalue-minimisations  :  5456
 total energy-change (2. order) :-0.1145892E-02  (-0.1041499E-05)
 number of electron     216.9999982 magnetization      24.9999991
 augmentation part       -1.9931084 magnetization      16.7408666

 DIPCOR: dipole corrections for dipol
 direction  3 min pos     1,
 dipolmoment           0.000000      0.000000     -0.327919 electrons x Angstroem
 Tr[quadrupol]     -5239.939991

 energy correction for charged system         0.000000 eV
 dipol+quadrupol energy correction           -0.003845 eV
 added-field ion interaction          0.059139 eV  (added to PSCEN)


 Broyden mixing:
  rms(total) = 0.51761E-03    rms(broyden)= 0.51760E-03
  rms(prec ) = 0.53776E-03
  weight for this iteration     100.00

 eigenvalues of (default mixing * dielectric matrix)
  average eigenvalue GAMMA=   1.1981
  3.4256  2.4666  1.4470  1.4470  1.1727  1.1727  0.9604  0.7118  0.6386  0.5985
  0.5985  0.4559  0.4799

 Free energy of the ion-electron system (eV)
  ---------------------------------------------------
  alpha Z        PSCENC =       109.51765778
  Ewald energy   TEWEN  =     24409.06841687
  -Hartree energ DENC   =    -35180.47975186
  -exchange      EXHF   =         0.00000000
  -V(xc)+E(xc)   XCENC  =       348.66665704
  PAW double counting   =     15088.83346223   -14941.09770337
  entropy T*S    EENTRO =        -0.00107904
  eigenvalues    EBANDS =     -2053.11746047
  atomic energy  EATOM  =     12060.75887678
  Solvation  Ediel_sol  =         0.00000000
  ---------------------------------------------------
  free energy    TOTEN  =      -157.85092405 eV

  energy without entropy =     -157.84984501  energy(sigma->0) =     -157.85038453


--------------------------------------------------------------------------------------------------------




--------------------------------------- Iteration      2(  15)  ---------------------------------------


    POTLOK:  cpu time      0.5689: real time      2.8461
    SETDIJ:  cpu time      0.2571: real time      1.2979
     EDDAV:  cpu time    196.7612: real time    987.3840
       DOS:  cpu time      0.1834: real time      0.9201
    CHARGE:  cpu time      5.1576: real time     25.8778
    MIXING:  cpu time      0.1456: real time      0.7381
    --------------------------------------------
      LOOP:  cpu time    203.0737: real time   1019.0640

 eigenvalue-minimisations  :  5344
 total energy-change (2. order) :-0.1294147E-02  (-0.2315994E-05)
 number of electron     216.9999982 magnetization      24.9999993
 augmentation part       -1.9931983 magnetization      16.7408580

 DIPCOR: dipole corrections for dipol
 direction  3 min pos     1,
 dipolmoment           0.000000      0.000000     -0.329076 electrons x Angstroem
 Tr[quadrupol]     -5239.944138

 energy correction for charged system         0.000000 eV
 dipol+quadrupol energy correction           -0.003872 eV
 added-field ion interaction          0.059347 eV  (added to PSCEN)


 Broyden mixing:
  rms(total) = 0.27639E-03    rms(broyden)= 0.27637E-03
  rms(prec ) = 0.28818E-03
  weight for this iteration     100.00

 eigenvalues of (default mixing * dielectric matrix)
  average eigenvalue GAMMA=   1.2468
  4.2974  2.5259  1.4369  1.4369  1.1693  1.1693  1.0302  0.9342  0.6845  0.6395
  0.5984  0.5984  0.4559  0.4785

 Free energy of the ion-electron system (eV)
  ---------------------------------------------------
  alpha Z        PSCENC =       109.51783930
  Ewald energy   TEWEN  =     24409.06841687
  -Hartree energ DENC   =    -35180.52953826
  -exchange      EXHF   =         0.00000000
  -V(xc)+E(xc)   XCENC  =       348.66562358
  PAW double counting   =     15088.79612215   -14941.06049990
  entropy T*S    EENTRO =        -0.00108272
  eigenvalues    EBANDS =     -2053.06797599
  atomic energy  EATOM  =     12060.75887678
  Solvation  Ediel_sol  =         0.00000000
  ---------------------------------------------------
  free energy    TOTEN  =      -157.85221819 eV

  energy without entropy =     -157.85113548  energy(sigma->0) =     -157.85167683


--------------------------------------------------------------------------------------------------------




--------------------------------------- Iteration      2(  16)  ---------------------------------------


    POTLOK:  cpu time      0.5560: real time      2.7821
    SETDIJ:  cpu time      0.2420: real time      1.2190
     EDDAV:  cpu time    209.1542: real time   1049.6150
       DOS:  cpu time      0.1834: real time      0.9200
    CHARGE:  cpu time      5.2972: real time     26.5774
    MIXING:  cpu time      0.1900: real time      0.9586
    --------------------------------------------
      LOOP:  cpu time    215.6228: real time   1082.0720

 eigenvalue-minimisations  :  5984
 total energy-change (2. order) :-0.4975513E-03  (-0.9451116E-06)
 number of electron     216.9999982 magnetization      24.9999994
 augmentation part       -1.9931434 magnetization      16.7408685

 DIPCOR: dipole corrections for dipol
 direction  3 min pos     1,
 dipolmoment           0.000000      0.000000     -0.329741 electrons x Angstroem
 Tr[quadrupol]     -5239.946440

 energy correction for charged system         0.000000 eV
 dipol+quadrupol energy correction           -0.003887 eV
 added-field ion interaction          0.059467 eV  (added to PSCEN)


 Broyden mixing:
  rms(total) = 0.18554E-03    rms(broyden)= 0.18554E-03
  rms(prec ) = 0.19292E-03
  weight for this iteration     100.00

 eigenvalues of (default mixing * dielectric matrix)
  average eigenvalue GAMMA=   1.3277
  5.3771  2.5595  1.9340  1.3100  1.3100  1.1572  1.1572  0.9521  0.7547  0.6425
  0.6425  0.5927  0.5927  0.4559  0.4777

 Free energy of the ion-electron system (eV)
  ---------------------------------------------------
  alpha Z        PSCENC =       109.51794351
  Ewald energy   TEWEN  =     24409.06841687
  -Hartree energ DENC   =    -35180.55412631
  -exchange      EXHF   =         0.00000000
  -V(xc)+E(xc)   XCENC  =       348.66526726
  PAW double counting   =     15088.79312524   -14941.05743063
  entropy T*S    EENTRO =        -0.00108361
  eigenvalues    EBANDS =     -2053.04370487
  atomic energy  EATOM  =     12060.75887678
  Solvation  Ediel_sol  =         0.00000000
  ---------------------------------------------------
  free energy    TOTEN  =      -157.85271575 eV

  energy without entropy =     -157.85163214  energy(sigma->0) =     -157.85217394


--------------------------------------------------------------------------------------------------------




--------------------------------------- Iteration      2(  17)  ---------------------------------------


    POTLOK:  cpu time      0.6003: real time      3.0026
    SETDIJ:  cpu time      0.2505: real time      1.2594
     EDDAV:  cpu time    196.9933: real time    988.5460
       DOS:  cpu time      0.2003: real time      1.0011
    CHARGE:  cpu time      5.3645: real time     26.9200
    MIXING:  cpu time      0.1973: real time      0.9979
    --------------------------------------------
      LOOP:  cpu time    203.6062: real time   1021.7270

 eigenvalue-minimisations  :  5112
 total energy-change (2. order) :-0.2190313E-03  (-0.3782498E-06)
 number of electron     216.9999982 magnetization      24.9999994
 augmentation part       -1.9931737 magnetization      16.7408625

 DIPCOR: dipole corrections for dipol
 direction  3 min pos     1,
 dipolmoment           0.000000      0.000000     -0.330189 electrons x Angstroem
 Tr[quadrupol]     -5239.947906

 energy correction for charged system         0.000000 eV
 dipol+quadrupol energy correction           -0.003898 eV
 added-field ion interaction          0.059548 eV  (added to PSCEN)


 Broyden mixing:
  rms(total) = 0.11990E-03    rms(broyden)= 0.11989E-03
  rms(prec ) = 0.12557E-03
  weight for this iteration     100.00

 eigenvalues of (default mixing * dielectric matrix)
  average eigenvalue GAMMA=   1.3609
  6.0727  2.6323  2.0252  1.4058  1.4058  1.1773  1.1773  0.9012  0.9012  0.6850
  0.6850  0.4559  0.4778  0.5938  0.5938  0.5839

 Free energy of the ion-electron system (eV)
  ---------------------------------------------------
  alpha Z        PSCENC =       109.51801378
  Ewald energy   TEWEN  =     24409.06841687
  -Hartree energ DENC   =    -35180.56856424
  -exchange      EXHF   =         0.00000000
  -V(xc)+E(xc)   XCENC  =       348.66512593
  PAW double counting   =     15088.78977406   -14941.05417774
  entropy T*S    EENTRO =        -0.00108348
  eigenvalues    EBANDS =     -2053.02931675
  atomic energy  EATOM  =     12060.75887678
  Solvation  Ediel_sol  =         0.00000000
  ---------------------------------------------------
  free energy    TOTEN  =      -157.85293478 eV

  energy without entropy =     -157.85185130  energy(sigma->0) =     -157.85239304


--------------------------------------------------------------------------------------------------------




--------------------------------------- Iteration      2(  18)  ---------------------------------------


    POTLOK:  cpu time      0.5966: real time      2.9864
    SETDIJ:  cpu time      0.2568: real time      1.2976
     EDDAV:  cpu time    174.2050: real time    874.1810
       DOS:  cpu time      0.1476: real time      0.7400
    CHARGE:  cpu time      5.2368: real time     26.2795
    MIXING:  cpu time      0.1908: real time      0.9475
    --------------------------------------------
      LOOP:  cpu time    180.6336: real time    906.4320

 eigenvalue-minimisations  :  4048
 total energy-change (2. order) :-0.6014663E-04  (-0.7998514E-07)
 number of electron     216.9999982 magnetization      24.9999994
 augmentation part       -1.9931805 magnetization      16.7408607

 DIPCOR: dipole corrections for dipol
 direction  3 min pos     1,
 dipolmoment           0.000000      0.000000     -0.330417 electrons x Angstroem
 Tr[quadrupol]     -5239.948605

 energy correction for charged system         0.000000 eV
 dipol+quadrupol energy correction           -0.003903 eV
 added-field ion interaction          0.059589 eV  (added to PSCEN)


 Broyden mixing:
  rms(total) = 0.99314E-04    rms(broyden)= 0.99313E-04
  rms(prec ) = 0.10349E-03
  weight for this iteration     100.00

 eigenvalues of (default mixing * dielectric matrix)
  average eigenvalue GAMMA=   1.3599
  6.3747  2.6916  2.0109  1.5618  1.5618  1.1703  1.1703  0.9677  0.9677  0.7274
  0.7274  0.5991  0.5991  0.6104  0.4788  0.4560  0.4429

 Free energy of the ion-electron system (eV)
  ---------------------------------------------------
  alpha Z        PSCENC =       109.51804938
  Ewald energy   TEWEN  =     24409.06841687
  -Hartree energ DENC   =    -35180.57350368
  -exchange      EXHF   =         0.00000000
  -V(xc)+E(xc)   XCENC  =       348.66505173
  PAW double counting   =     15088.79276143   -14941.05710870
  entropy T*S    EENTRO =        -0.00108312
  eigenvalues    EBANDS =     -2053.02445562
  atomic energy  EATOM  =     12060.75887678
  Solvation  Ediel_sol  =         0.00000000
  ---------------------------------------------------
  free energy    TOTEN  =      -157.85299492 eV

  energy without entropy =     -157.85191180  energy(sigma->0) =     -157.85245336


--------------------------------------------------------------------------------------------------------




--------------------------------------- Iteration      2(  19)  ---------------------------------------


    POTLOK:  cpu time      0.5758: real time      2.8940
    SETDIJ:  cpu time      0.2689: real time      1.3580
     EDDAV:  cpu time    164.2668: real time    824.3520
       DOS:  cpu time      0.1954: real time      0.9791
    CHARGE:  cpu time      5.6328: real time     28.2562
    MIXING:  cpu time      0.1771: real time      0.8977
    --------------------------------------------
      LOOP:  cpu time    171.1168: real time    858.7370

 eigenvalue-minimisations  :  3632
 total energy-change (2. order) :-0.1830671E-04  (-0.4740266E-07)
 number of electron     216.9999982 magnetization      24.9999994
 augmentation part       -1.9931643 magnetization      16.7408672

 DIPCOR: dipole corrections for dipol
 direction  3 min pos     1,
 dipolmoment           0.000000      0.000000     -0.330553 electrons x Angstroem
 Tr[quadrupol]     -5239.949028

 energy correction for charged system         0.000000 eV
 dipol+quadrupol energy correction           -0.003907 eV
 added-field ion interaction          0.059614 eV  (added to PSCEN)


 Broyden mixing:
  rms(total) = 0.86181E-04    rms(broyden)= 0.86180E-04
  rms(prec ) = 0.89221E-04
  weight for this iteration     100.00

 eigenvalues of (default mixing * dielectric matrix)
  average eigenvalue GAMMA=   1.3580
  6.7149  2.7557  2.0287  1.6517  1.6517  1.1679  1.1679  1.0344  1.0344  0.8461
  0.7324  0.6215  0.6215  0.5993  0.5993  0.4559  0.4778  0.2829

 Free energy of the ion-electron system (eV)
  ---------------------------------------------------
  alpha Z        PSCENC =       109.51807084
  Ewald energy   TEWEN  =     24409.06841687
  -Hartree energ DENC   =    -35180.57546863
  -exchange      EXHF   =         0.00000000
  -V(xc)+E(xc)   XCENC  =       348.66501864
  PAW double counting   =     15088.79205329   -14941.05633611
  entropy T*S    EENTRO =        -0.00108319
  eigenvalues    EBANDS =     -2053.02256171
  atomic energy  EATOM  =     12060.75887678
  Solvation  Ediel_sol  =         0.00000000
  ---------------------------------------------------
  free energy    TOTEN  =      -157.85301323 eV

  energy without entropy =     -157.85193004  energy(sigma->0) =     -157.85247163


--------------------------------------------------------------------------------------------------------




--------------------------------------- Iteration      2(  20)  ---------------------------------------


    POTLOK:  cpu time      0.6027: real time      3.0176
    SETDIJ:  cpu time      0.2606: real time      1.3175
     EDDAV:  cpu time    168.0535: real time    843.3360
       DOS:  cpu time      0.1316: real time      0.6600
    CHARGE:  cpu time      5.4145: real time     27.1653
    MIXING:  cpu time      0.1740: real time      0.8786
    --------------------------------------------
      LOOP:  cpu time    174.6367: real time    876.3750

 eigenvalue-minimisations  :  3656
 total energy-change (2. order) :-0.7852781E-05  (-0.5275563E-07)
 number of electron     216.9999982 magnetization      24.9999994
 augmentation part       -1.9931700 magnetization      16.7408666

 DIPCOR: dipole corrections for dipol
 direction  3 min pos     1,
 dipolmoment           0.000000      0.000000     -0.330667 electrons x Angstroem
 Tr[quadrupol]     -5239.949396

 energy correction for charged system         0.000000 eV
 dipol+quadrupol energy correction           -0.003909 eV
 added-field ion interaction          0.059634 eV  (added to PSCEN)


 Broyden mixing:
  rms(total) = 0.65716E-04    rms(broyden)= 0.65715E-04
  rms(prec ) = 0.67900E-04
  weight for this iteration     100.00

 eigenvalues of (default mixing * dielectric matrix)
  average eigenvalue GAMMA=   1.3611
  7.0801  2.8458  2.3152  1.5459  1.5459  1.1648  1.1648  1.1760  1.1760  0.9126
  0.7240  0.4559  0.4778  0.6163  0.6163  0.6287  0.5815  0.5815  0.2517

 Free energy of the ion-electron system (eV)
  ---------------------------------------------------
  alpha Z        PSCENC =       109.51808869
  Ewald energy   TEWEN  =     24409.06841687
  -Hartree energ DENC   =    -35180.57695339
  -exchange      EXHF   =         0.00000000
  -V(xc)+E(xc)   XCENC  =       348.66499405
  PAW double counting   =     15088.79185106   -14941.05610063
  entropy T*S    EENTRO =        -0.00108304
  eigenvalues    EBANDS =     -2053.02111147
  atomic energy  EATOM  =     12060.75887678
  Solvation  Ediel_sol  =         0.00000000
  ---------------------------------------------------
  free energy    TOTEN  =      -157.85302108 eV

  energy without entropy =     -157.85193804  energy(sigma->0) =     -157.85247956


--------------------------------------------------------------------------------------------------------




--------------------------------------- Iteration      2(  21)  ---------------------------------------


    POTLOK:  cpu time      0.6307: real time      3.1553
    SETDIJ:  cpu time      0.2569: real time      1.2978
     EDDAV:  cpu time    161.4974: real time    810.4190
       DOS:  cpu time      0.1435: real time      0.7200
    CHARGE:  cpu time      5.2721: real time     26.4504
    MIXING:  cpu time      0.1809: real time      0.9176
    --------------------------------------------
      LOOP:  cpu time    167.9814: real time    842.9600

 eigenvalue-minimisations  :  3504
 total energy-change (2. order) :-0.1751439E-05  (-0.3139198E-07)
 number of electron     216.9999982 magnetization      24.9999994
 augmentation part       -1.9931658 magnetization      16.7408680

 DIPCOR: dipole corrections for dipol
 direction  3 min pos     1,
 dipolmoment           0.000000      0.000000     -0.330735 electrons x Angstroem
 Tr[quadrupol]     -5239.949628

 energy correction for charged system         0.000000 eV
 dipol+quadrupol energy correction           -0.003911 eV
 added-field ion interaction          0.059647 eV  (added to PSCEN)


 Broyden mixing:
  rms(total) = 0.43390E-04    rms(broyden)= 0.43389E-04
  rms(prec ) = 0.45540E-04
  weight for this iteration     100.00

 eigenvalues of (default mixing * dielectric matrix)
  average eigenvalue GAMMA=   1.3457
  7.1906  2.8947  2.3870  1.4937  1.4937  1.2766  1.2766  1.1920  1.1920  0.9556
  0.8045  0.6900  0.6399  0.5971  0.5971  0.5739  0.4559  0.4743  0.4977  0.2319

 Free energy of the ion-electron system (eV)
  ---------------------------------------------------
  alpha Z        PSCENC =       109.51809927
  Ewald energy   TEWEN  =     24409.06841687
  -Hartree energ DENC   =    -35180.57772820
  -exchange      EXHF   =         0.00000000
  -V(xc)+E(xc)   XCENC  =       348.66498185
  PAW double counting   =     15088.79275725   -14941.05699822
  entropy T*S    EENTRO =        -0.00108307
  eigenvalues    EBANDS =     -2053.02034539
  atomic energy  EATOM  =     12060.75887678
  Solvation  Ediel_sol  =         0.00000000
  ---------------------------------------------------
  free energy    TOTEN  =      -157.85302283 eV

  energy without entropy =     -157.85193977  energy(sigma->0) =     -157.85248130


--------------------------------------------------------------------------------------------------------




--------------------------------------- Iteration      2(  22)  ---------------------------------------


    POTLOK:  cpu time      0.5794: real time      2.9021
    SETDIJ:  cpu time      0.2531: real time      1.2819
     EDDAV:  cpu time    157.7576: real time    791.6730
       DOS:  cpu time      0.1994: real time      1.0001
    --------------------------------------------
      LOOP:  cpu time    158.7895: real time    796.8570

 eigenvalue-minimisations  :  3128
 total energy-change (2. order) :-0.4765097E-06  (-0.1537605E-07)
 number of electron     216.9999982 magnetization      24.9999994
 augmentation part       -1.9931658 magnetization      16.7408680

 DIPCOR: dipole corrections for dipol
 direction  3 min pos     1,
 dipolmoment           0.000000      0.000000     -0.330772 electrons x Angstroem
 Tr[quadrupol]     -5239.949764

 energy correction for charged system         0.000000 eV
 dipol+quadrupol energy correction           -0.003912 eV
 added-field ion interaction          0.059653 eV  (added to PSCEN)


 Free energy of the ion-electron system (eV)
  ---------------------------------------------------
  alpha Z        PSCENC =       109.51810503
  Ewald energy   TEWEN  =     24409.06841687
  -Hartree energ DENC   =    -35180.57785972
  -exchange      EXHF   =         0.00000000
  -V(xc)+E(xc)   XCENC  =       348.66497935
  PAW double counting   =     15088.79299150   -14941.05723869
  entropy T*S    EENTRO =        -0.00108295
  eigenvalues    EBANDS =     -2053.02021149
  atomic energy  EATOM  =     12060.75887678
  Solvation  Ediel_sol  =         0.00000000
  ---------------------------------------------------
  free energy    TOTEN  =      -157.85302331 eV

  energy without entropy =     -157.85194036  energy(sigma->0) =     -157.85248184


--------------------------------------------------------------------------------------------------------




 average (electrostatic) potential at core
  the test charge radii are     1.1394  0.9406  0.5201
  (the norm of the test charge is              1.0000)
       1 -52.7099       2 -52.0342       3 -52.0342       4 -52.6756       5 -52.6756
       6 -52.7070       7 -52.7070       8 -52.7099       9 -99.1391      10 -98.9262
      11 -99.1457      12 -99.1939      13 -99.1289      14 -99.0817      15 -99.1457
      16 -99.1483      17 -98.9941      18 -99.0817      19-101.3725      20 -99.0810
      21 -98.9941      22 -99.1427      23 -99.1399      24 -99.0810      25 -99.1289
      26 -99.1078      27 -99.1399      28 -99.1483      29 -99.1391      30 -99.1078
      31 -99.1427      32 -99.1939      33 -44.0600
 
 
 
 E-fermi :  -2.5411     XC(G=0):  -2.9811     alpha+bet : -2.3927

 val. band max:       -2.6269651258   @ k =   0.4000   0.2000   0.0000
 cond. band min:      -2.4477251189   @ k =   0.2000   0.0000   0.0000
 fundamental gap:      0.1792400069
 Fermi energy:        -2.5410539046

 spin component 1

 k-point     1 :       0.0000    0.0000    0.0000
  band No.  band energies     occupation 
      1     -21.4491      1.00000
      2     -19.4235      1.00000
      3     -19.1348      1.00000
      4     -19.0956      1.00000
      5     -19.0252      1.00000
      6     -18.8663      1.00000
      7     -18.8463      1.00000
      8     -18.7628      1.00000
      9     -18.6336      1.00000
     10     -18.5534      1.00000
     11     -18.5386      1.00000
     12     -18.5185      1.00000
     13     -18.5165      1.00000
     14     -18.4899      1.00000
     15     -18.4866      1.00000
     16     -18.4660      1.00000
     17     -18.4638      1.00000
     18     -18.4509      1.00000
     19     -18.4405      1.00000
     20     -18.4184      1.00000
     21     -18.3946      1.00000
     22     -18.3910      1.00000
     23     -18.3588      1.00000
     24     -18.3389      1.00000
     25     -12.1867      1.00000
     26      -9.5766      1.00000
     27      -9.2557      1.00000
     28      -9.1743      1.00000
     29      -9.1411      1.00000
     30      -8.7671      1.00000
     31      -8.7308      1.00000
     32      -8.6974      1.00000
     33      -8.5754      1.00000
     34      -8.5096      1.00000
     35      -8.4687      1.00000
     36      -8.3339      1.00000
     37      -8.3215      1.00000
     38      -8.3207      1.00000
     39      -8.2857      1.00000
     40      -8.2705      1.00000
     41      -8.2647      1.00000
     42      -8.2164      1.00000
     43      -8.2002      1.00000
     44      -8.1580      1.00000
     45      -8.0832      1.00000
     46      -8.0648      1.00000
     47      -8.0590      1.00000
     48      -8.0444      1.00000
     49      -8.0114      1.00000
     50      -7.9791      1.00000
     51      -7.9770      1.00000
     52      -7.8570      1.00000
     53      -7.8484      1.00000
     54      -7.7755      1.00000
     55      -7.7433      1.00000
     56      -7.5419      1.00000
     57      -7.4741      1.00000
     58      -7.4491      1.00000
     59      -7.4121      1.00000
     60      -7.3461      1.00000
     61      -7.3363      1.00000
     62      -7.3135      1.00000
     63      -7.2993      1.00000
     64      -7.2798      1.00000
     65      -7.2209      1.00000
     66      -7.0312      1.00000
     67      -7.0180      1.00000
     68      -6.9892      1.00000
     69      -6.9730      1.00000
     70      -6.9567      1.00000
     71      -6.8951      1.00000
     72      -6.8785      1.00000
     73      -6.7971      1.00000
     74      -6.5483      1.00000
     75      -6.5234      1.00000
     76      -6.4392      1.00000
     77      -6.3133      1.00000
     78      -6.2994      1.00000
     79      -6.2536      1.00000
     80      -6.2333      1.00000
     81      -6.0952      1.00000
     82      -6.0513      1.00000
     83      -6.0242      1.00000
     84      -6.0093      1.00000
     85      -5.9992      1.00000
     86      -5.9695      1.00000
     87      -5.8797      1.00000
     88      -5.8622      1.00000
     89      -5.7654      1.00000
     90      -5.7163      1.00000
     91      -5.6724      1.00000
     92      -5.6232      1.00000
     93      -5.5625      1.00000
     94      -5.5516      1.00000
     95      -5.5343      1.00000
     96      -5.5295      1.00000
     97      -4.9879      1.00000
     98      -4.9872      1.00000
     99      -4.9839      1.00000
    100      -4.9502      1.00000
    101      -4.7519      1.00000
    102      -4.7194      1.00000
    103      -4.6828      1.00000
    104      -4.6721      1.00000
    105      -4.6299      1.00000
    106      -4.6085      1.00000
    107      -4.5654      1.00000
    108      -4.5546      1.00000
    109      -4.5244      1.00000
    110      -4.4486      1.00000
    111      -4.4335      1.00000
    112      -4.3885      1.00000
    113      -4.3585      1.00000
    114      -4.3156      1.00000
    115      -4.2790      1.00000
    116      -4.2367      1.00000
    117      -4.1535      1.00000
    118      -4.1037      1.00000
    119      -4.0445      1.00000
    120      -3.9647      1.00000
    121      -2.6410      0.99764
    122      -2.4428      0.00273
    123      -2.4362      0.00151
    124      -2.4309      0.00091
    125      -2.4154      0.00019
    126      -2.3949      0.00002
    127      -2.3621      0.00000
    128      -2.3552      0.00000
    129      -2.3438      0.00000
    130      -2.3076      0.00000
    131      -2.3057      0.00000
    132      -2.2972      0.00000
    133      -2.2368      0.00000
    134      -2.2125      0.00000
    135      -2.0762      0.00000
    136      -2.0131      0.00000
    137      -0.4175      0.00000
    138       1.4547      0.00000
    139       1.9522      0.00000
    140       2.4201      0.00000
    141       2.5006      0.00000
    142       2.5848      0.00000
    143       2.7509      0.00000
    144       2.8731      0.00000

 k-point     2 :       0.2000    0.0000    0.0000
  band No.  band energies     occupation 
      1     -21.4490      1.00000
      2     -19.4060      1.00000
      3     -19.1787      1.00000
      4     -19.1222      1.00000
      5     -18.9996      1.00000
      6     -18.8512      1.00000
      7     -18.8346      1.00000
      8     -18.7287      1.00000
      9     -18.6271      1.00000
     10     -18.5657      1.00000
     11     -18.5449      1.00000
     12     -18.5389      1.00000
     13     -18.5203      1.00000
     14     -18.5012      1.00000
     15     -18.4877      1.00000
     16     -18.4641      1.00000
     17     -18.4579      1.00000
     18     -18.4517      1.00000
     19     -18.4290      1.00000
     20     -18.4183      1.00000
     21     -18.3927      1.00000
     22     -18.3900      1.00000
     23     -18.3646      1.00000
     24     -18.3401      1.00000
     25     -12.1869      1.00000
     26      -9.5614      1.00000
     27      -9.2346      1.00000
     28      -9.1563      1.00000
     29      -9.1130      1.00000
     30      -8.7784      1.00000
     31      -8.7252      1.00000
     32      -8.7146      1.00000
     33      -8.5904      1.00000
     34      -8.5332      1.00000
     35      -8.4967      1.00000
     36      -8.3559      1.00000
     37      -8.3217      1.00000
     38      -8.3071      1.00000
     39      -8.2763      1.00000
     40      -8.2672      1.00000
     41      -8.2601      1.00000
     42      -8.2322      1.00000
     43      -8.1909      1.00000
     44      -8.1692      1.00000
     45      -8.1066      1.00000
     46      -8.0956      1.00000
     47      -8.0910      1.00000
     48      -8.0361      1.00000
     49      -7.9963      1.00000
     50      -7.9733      1.00000
     51      -7.9459      1.00000
     52      -7.8750      1.00000
     53      -7.8606      1.00000
     54      -7.7854      1.00000
     55      -7.7395      1.00000
     56      -7.6717      1.00000
     57      -7.6002      1.00000
     58      -7.5357      1.00000
     59      -7.4489      1.00000
     60      -7.4336      1.00000
     61      -7.3179      1.00000
     62      -7.2835      1.00000
     63      -7.1951      1.00000
     64      -7.1300      1.00000
     65      -7.0798      1.00000
     66      -7.0433      1.00000
     67      -7.0047      1.00000
     68      -6.9868      1.00000
     69      -6.9092      1.00000
     70      -6.8555      1.00000
     71      -6.7728      1.00000
     72      -6.7437      1.00000
     73      -6.7200      1.00000
     74      -6.5512      1.00000
     75      -6.5293      1.00000
     76      -6.4583      1.00000
     77      -6.3525      1.00000
     78      -6.3261      1.00000
     79      -6.2826      1.00000
     80      -6.2397      1.00000
     81      -6.1163      1.00000
     82      -6.0894      1.00000
     83      -6.0523      1.00000
     84      -6.0270      1.00000
     85      -5.9927      1.00000
     86      -5.9775      1.00000
     87      -5.9187      1.00000
     88      -5.8239      1.00000
     89      -5.7733      1.00000
     90      -5.7567      1.00000
     91      -5.6991      1.00000
     92      -5.6720      1.00000
     93      -5.6655      1.00000
     94      -5.6330      1.00000
     95      -5.5723      1.00000
     96      -5.5567      1.00000
     97      -4.9690      1.00000
     98      -4.9478      1.00000
     99      -4.9413      1.00000
    100      -4.9127      1.00000
    101      -4.7523      1.00000
    102      -4.6906      1.00000
    103      -4.6787      1.00000
    104      -4.6654      1.00000
    105      -4.6314      1.00000
    106      -4.6140      1.00000
    107      -4.5563      1.00000
    108      -4.5335      1.00000
    109      -4.5069      1.00000
    110      -4.4349      1.00000
    111      -4.4314      1.00000
    112      -4.3867      1.00000
    113      -4.3637      1.00000
    114      -4.3099      1.00000
    115      -4.2816      1.00000
    116      -4.2392      1.00000
    117      -4.1637      1.00000
    118      -4.1118      1.00000
    119      -4.0403      1.00000
    120      -3.9759      1.00000
    121      -2.6361      0.99639
    122      -2.4477      0.00415
    123      -2.4330      0.00112
    124      -2.4274      0.00065
    125      -2.4107      0.00011
    126      -2.3933      0.00001
    127      -2.3860      0.00001
    128      -2.3628      0.00000
    129      -2.3263      0.00000
    130      -2.3164      0.00000
    131      -2.3011      0.00000
    132      -2.2798      0.00000
    133      -2.2438      0.00000
    134      -2.2154      0.00000
    135      -2.0777      0.00000
    136      -2.0163      0.00000
    137      -0.4158      0.00000
    138       1.5312      0.00000
    139       2.0125      0.00000
    140       2.3553      0.00000
    141       2.4851      0.00000
    142       2.5135      0.00000
    143       2.6493      0.00000
    144       2.7039      0.00000

 k-point     3 :       0.0000    0.2000    0.0000
  band No.  band energies     occupation 
      1     -21.4491      1.00000
      2     -19.4060      1.00000
      3     -19.1688      1.00000
      4     -19.1113      1.00000
      5     -19.0454      1.00000
      6     -18.8424      1.00000
      7     -18.7983      1.00000
      8     -18.7443      1.00000
      9     -18.6264      1.00000
     10     -18.5606      1.00000
     11     -18.5476      1.00000
     12     -18.5321      1.00000
     13     -18.5253      1.00000
     14     -18.5064      1.00000
     15     -18.4961      1.00000
     16     -18.4745      1.00000
     17     -18.4516      1.00000
     18     -18.4429      1.00000
     19     -18.4325      1.00000
     20     -18.4160      1.00000
     21     -18.3954      1.00000
     22     -18.3894      1.00000
     23     -18.3617      1.00000
     24     -18.3398      1.00000
     25     -12.1868      1.00000
     26      -9.5706      1.00000
     27      -9.2198      1.00000
     28      -9.1641      1.00000
     29      -9.1058      1.00000
     30      -8.7740      1.00000
     31      -8.7594      1.00000
     32      -8.6873      1.00000
     33      -8.6028      1.00000
     34      -8.5147      1.00000
     35      -8.4802      1.00000
     36      -8.3470      1.00000
     37      -8.3306      1.00000
     38      -8.3140      1.00000
     39      -8.2944      1.00000
     40      -8.2784      1.00000
     41      -8.2526      1.00000
     42      -8.2261      1.00000
     43      -8.1976      1.00000
     44      -8.1718      1.00000
     45      -8.1197      1.00000
     46      -8.1079      1.00000
     47      -8.0568      1.00000
     48      -8.0232      1.00000
     49      -8.0094      1.00000
     50      -7.9642      1.00000
     51      -7.9487      1.00000
     52      -7.8572      1.00000
     53      -7.8533      1.00000
     54      -7.7836      1.00000
     55      -7.7474      1.00000
     56      -7.6584      1.00000
     57      -7.6297      1.00000
     58      -7.5733      1.00000
     59      -7.4606      1.00000
     60      -7.4319      1.00000
     61      -7.3507      1.00000
     62      -7.2490      1.00000
     63      -7.1829      1.00000
     64      -7.1269      1.00000
     65      -7.1012      1.00000
     66      -7.0282      1.00000
     67      -7.0112      1.00000
     68      -6.9755      1.00000
     69      -6.9169      1.00000
     70      -6.8519      1.00000
     71      -6.7533      1.00000
     72      -6.7378      1.00000
     73      -6.6903      1.00000
     74      -6.5545      1.00000
     75      -6.5376      1.00000
     76      -6.4483      1.00000
     77      -6.3429      1.00000
     78      -6.3213      1.00000
     79      -6.2943      1.00000
     80      -6.2642      1.00000
     81      -6.1207      1.00000
     82      -6.0614      1.00000
     83      -6.0489      1.00000
     84      -6.0245      1.00000
     85      -6.0038      1.00000
     86      -5.9855      1.00000
     87      -5.9171      1.00000
     88      -5.8501      1.00000
     89      -5.7678      1.00000
     90      -5.7418      1.00000
     91      -5.6986      1.00000
     92      -5.6709      1.00000
     93      -5.6614      1.00000
     94      -5.6391      1.00000
     95      -5.5851      1.00000
     96      -5.5697      1.00000
     97      -4.9676      1.00000
     98      -4.9476      1.00000
     99      -4.9345      1.00000
    100      -4.9167      1.00000
    101      -4.7396      1.00000
    102      -4.7127      1.00000
    103      -4.6773      1.00000
    104      -4.6607      1.00000
    105      -4.6166      1.00000
    106      -4.5910      1.00000
    107      -4.5777      1.00000
    108      -4.5262      1.00000
    109      -4.5121      1.00000
    110      -4.4380      1.00000
    111      -4.4303      1.00000
    112      -4.3857      1.00000
    113      -4.3574      1.00000
    114      -4.3170      1.00000
    115      -4.2774      1.00000
    116      -4.2448      1.00000
    117      -4.1661      1.00000
    118      -4.1142      1.00000
    119      -4.0423      1.00000
    120      -3.9719      1.00000
    121      -2.6375      0.99681
    122      -2.4410      0.00233
    123      -2.4374      0.00169
    124      -2.4252      0.00052
    125      -2.4156      0.00019
    126      -2.3973      0.00002
    127      -2.3710      0.00000
    128      -2.3616      0.00000
    129      -2.3436      0.00000
    130      -2.3286      0.00000
    131      -2.2923      0.00000
    132      -2.2694      0.00000
    133      -2.2372      0.00000
    134      -2.2135      0.00000
    135      -2.0925      0.00000
    136      -2.0105      0.00000
    137      -0.4153      0.00000
    138       1.5312      0.00000
    139       2.0133      0.00000
    140       2.3670      0.00000
    141       2.4689      0.00000
    142       2.4891      0.00000
    143       2.6715      0.00000
    144       2.7585      0.00000

 k-point     4 :       0.4000    0.0000    0.0000
  band No.  band energies     occupation 
      1     -21.4490      1.00000
      2     -19.3568      1.00000
      3     -19.2680      1.00000
      4     -19.1342      1.00000
      5     -18.9908      1.00000
      6     -18.8263      1.00000
      7     -18.8101      1.00000
      8     -18.6578      1.00000
      9     -18.6099      1.00000
     10     -18.5885      1.00000
     11     -18.5790      1.00000
     12     -18.5746      1.00000
     13     -18.5118      1.00000
     14     -18.5108      1.00000
     15     -18.4994      1.00000
     16     -18.4793      1.00000
     17     -18.4455      1.00000
     18     -18.4395      1.00000
     19     -18.4280      1.00000
     20     -18.4095      1.00000
     21     -18.3949      1.00000
     22     -18.3866      1.00000
     23     -18.3701      1.00000
     24     -18.3441      1.00000
     25     -12.1871      1.00000
     26      -9.5358      1.00000
     27      -9.2167      1.00000
     28      -9.1169      1.00000
     29      -9.0137      1.00000
     30      -8.8155      1.00000
     31      -8.7717      1.00000
     32      -8.7063      1.00000
     33      -8.6175      1.00000
     34      -8.5782      1.00000
     35      -8.5583      1.00000
     36      -8.3885      1.00000
     37      -8.3095      1.00000
     38      -8.2990      1.00000
     39      -8.2875      1.00000
     40      -8.2696      1.00000
     41      -8.2475      1.00000
     42      -8.2390      1.00000
     43      -8.2167      1.00000
     44      -8.1675      1.00000
     45      -8.1543      1.00000
     46      -8.1149      1.00000
     47      -8.0727      1.00000
     48      -8.0194      1.00000
     49      -7.9928      1.00000
     50      -7.9441      1.00000
     51      -7.9274      1.00000
     52      -7.8967      1.00000
     53      -7.8710      1.00000
     54      -7.8181      1.00000
     55      -7.7660      1.00000
     56      -7.7563      1.00000
     57      -7.6940      1.00000
     58      -7.6396      1.00000
     59      -7.5819      1.00000
     60      -7.4379      1.00000
     61      -7.2642      1.00000
     62      -7.1664      1.00000
     63      -7.1155      1.00000
     64      -7.0781      1.00000
     65      -7.0529      1.00000
     66      -7.0063      1.00000
     67      -6.9837      1.00000
     68      -6.8857      1.00000
     69      -6.7773      1.00000
     70      -6.7183      1.00000
     71      -6.6590      1.00000
     72      -6.5917      1.00000
     73      -6.5741      1.00000
     74      -6.4936      1.00000
     75      -6.4579      1.00000
     76      -6.4355      1.00000
     77      -6.3555      1.00000
     78      -6.3262      1.00000
     79      -6.3099      1.00000
     80      -6.2611      1.00000
     81      -6.1781      1.00000
     82      -6.1484      1.00000
     83      -6.1209      1.00000
     84      -6.0792      1.00000
     85      -6.0594      1.00000
     86      -6.0161      1.00000
     87      -5.9951      1.00000
     88      -5.9481      1.00000
     89      -5.8431      1.00000
     90      -5.8264      1.00000
     91      -5.8077      1.00000
     92      -5.7443      1.00000
     93      -5.7014      1.00000
     94      -5.6398      1.00000
     95      -5.6224      1.00000
     96      -5.6005      1.00000
     97      -4.9201      1.00000
     98      -4.9032      1.00000
     99      -4.8852      1.00000
    100      -4.8523      1.00000
    101      -4.7660      1.00000
    102      -4.6778      1.00000
    103      -4.6627      1.00000
    104      -4.6483      1.00000
    105      -4.6350      1.00000
    106      -4.6158      1.00000
    107      -4.5331      1.00000
    108      -4.5023      1.00000
    109      -4.4799      1.00000
    110      -4.4213      1.00000
    111      -4.4172      1.00000
    112      -4.3902      1.00000
    113      -4.3683      1.00000
    114      -4.2966      1.00000
    115      -4.2858      1.00000
    116      -4.2478      1.00000
    117      -4.1787      1.00000
    118      -4.1286      1.00000
    119      -4.0264      1.00000
    120      -4.0020      1.00000
    121      -2.6276      0.99281
    122      -2.4451      0.00332
    123      -2.4334      0.00117
    124      -2.4161      0.00020
    125      -2.4053      0.00006
    126      -2.3981      0.00003
    127      -2.3938      0.00002
    128      -2.3609      0.00000
    129      -2.3549      0.00000
    130      -2.3307      0.00000
    131      -2.3215      0.00000
    132      -2.2632      0.00000
    133      -2.2315      0.00000
    134      -2.2010      0.00000
    135      -2.0827      0.00000
    136      -2.0115      0.00000
    137      -0.4134      0.00000
    138       1.7372      0.00000
    139       2.0288      0.00000
    140       2.1907      0.00000
    141       2.4236      0.00000
    142       2.4485      0.00000
    143       2.6055      0.00000
    144       2.6764      0.00000

 k-point     5 :       0.0000    0.4000    0.0000
  band No.  band energies     occupation 
      1     -21.4490      1.00000
      2     -19.3605      1.00000
      3     -19.2479      1.00000
      4     -19.1242      1.00000
      5     -19.0582      1.00000
      6     -18.8153      1.00000
      7     -18.7515      1.00000
      8     -18.6711      1.00000
      9     -18.6066      1.00000
     10     -18.5889      1.00000
     11     -18.5689      1.00000
     12     -18.5580      1.00000
     13     -18.5438      1.00000
     14     -18.5295      1.00000
     15     -18.5076      1.00000
     16     -18.4866      1.00000
     17     -18.4383      1.00000
     18     -18.4331      1.00000
     19     -18.4227      1.00000
     20     -18.4097      1.00000
     21     -18.3972      1.00000
     22     -18.3872      1.00000
     23     -18.3673      1.00000
     24     -18.3416      1.00000
     25     -12.1869      1.00000
     26      -9.5617      1.00000
     27      -9.1775      1.00000
     28      -9.1037      1.00000
     29      -9.0279      1.00000
     30      -8.8332      1.00000
     31      -8.7874      1.00000
     32      -8.6913      1.00000
     33      -8.6423      1.00000
     34      -8.5307      1.00000
     35      -8.4980      1.00000
     36      -8.3755      1.00000
     37      -8.3545      1.00000
     38      -8.3144      1.00000
     39      -8.2921      1.00000
     40      -8.2825      1.00000
     41      -8.2656      1.00000
     42      -8.2502      1.00000
     43      -8.2236      1.00000
     44      -8.1943      1.00000
     45      -8.1507      1.00000
     46      -8.0866      1.00000
     47      -8.0293      1.00000
     48      -8.0021      1.00000
     49      -7.9748      1.00000
     50      -7.9637      1.00000
     51      -7.9333      1.00000
     52      -7.8926      1.00000
     53      -7.8497      1.00000
     54      -7.8142      1.00000
     55      -7.7809      1.00000
     56      -7.7654      1.00000
     57      -7.7135      1.00000
     58      -7.6865      1.00000
     59      -7.5814      1.00000
     60      -7.4352      1.00000
     61      -7.3418      1.00000
     62      -7.1738      1.00000
     63      -7.1088      1.00000
     64      -7.0547      1.00000
     65      -7.0308      1.00000
     66      -7.0068      1.00000
     67      -6.9780      1.00000
     68      -6.8553      1.00000
     69      -6.7688      1.00000
     70      -6.7340      1.00000
     71      -6.6435      1.00000
     72      -6.6031      1.00000
     73      -6.5123      1.00000
     74      -6.4822      1.00000
     75      -6.4379      1.00000
     76      -6.3887      1.00000
     77      -6.3721      1.00000
     78      -6.3317      1.00000
     79      -6.3237      1.00000
     80      -6.2976      1.00000
     81      -6.1821      1.00000
     82      -6.1199      1.00000
     83      -6.1080      1.00000
     84      -6.0667      1.00000
     85      -6.0367      1.00000
     86      -6.0337      1.00000
     87      -6.0109      1.00000
     88      -5.9414      1.00000
     89      -5.9068      1.00000
     90      -5.8607      1.00000
     91      -5.7987      1.00000
     92      -5.7351      1.00000
     93      -5.6981      1.00000
     94      -5.6642      1.00000
     95      -5.6308      1.00000
     96      -5.6118      1.00000
     97      -4.9183      1.00000
     98      -4.8980      1.00000
     99      -4.8820      1.00000
    100      -4.8613      1.00000
    101      -4.7219      1.00000
    102      -4.6982      1.00000
    103      -4.6793      1.00000
    104      -4.6505      1.00000
    105      -4.6070      1.00000
    106      -4.5765      1.00000
    107      -4.5683      1.00000
    108      -4.4934      1.00000
    109      -4.4809      1.00000
    110      -4.4332      1.00000
    111      -4.4106      1.00000
    112      -4.3751      1.00000
    113      -4.3518      1.00000
    114      -4.3261      1.00000
    115      -4.2746      1.00000
    116      -4.2602      1.00000
    117      -4.1918      1.00000
    118      -4.1322      1.00000
    119      -4.0345      1.00000
    120      -3.9875      1.00000
    121      -2.6322      0.99502
    122      -2.4446      0.00318
    123      -2.4370      0.00163
    124      -2.4227      0.00041
    125      -2.4077      0.00008
    126      -2.3946      0.00002
    127      -2.3781      0.00000
    128      -2.3658      0.00000
    129      -2.3596      0.00000
    130      -2.3313      0.00000
    131      -2.3076      0.00000
    132      -2.2511      0.00000
    133      -2.2241      0.00000
    134      -2.2132      0.00000
    135      -2.1063      0.00000
    136      -2.0023      0.00000
    137      -0.4120      0.00000
    138       1.7367      0.00000
    139       2.0340      0.00000
    140       2.1909      0.00000
    141       2.3987      0.00000
    142       2.4536      0.00000
    143       2.5876      0.00000
    144       2.6780      0.00000

 k-point     6 :       0.2000    0.2000    0.0000
  band No.  band energies     occupation 
      1     -21.4490      1.00000
      2     -19.3727      1.00000
      3     -19.2286      1.00000
      4     -19.1553      1.00000
      5     -18.9850      1.00000
      6     -18.8765      1.00000
      7     -18.7452      1.00000
      8     -18.6962      1.00000
      9     -18.6143      1.00000
     10     -18.5872      1.00000
     11     -18.5600      1.00000
     12     -18.5499      1.00000
     13     -18.5363      1.00000
     14     -18.5209      1.00000
     15     -18.4963      1.00000
     16     -18.4704      1.00000
     17     -18.4571      1.00000
     18     -18.4345      1.00000
     19     -18.4247      1.00000
     20     -18.4122      1.00000
     21     -18.3954      1.00000
     22     -18.3864      1.00000
     23     -18.3688      1.00000
     24     -18.3418      1.00000
     25     -12.1870      1.00000
     26      -9.5510      1.00000
     27      -9.1974      1.00000
     28      -9.1352      1.00000
     29      -9.0412      1.00000
     30      -8.8013      1.00000
     31      -8.7730      1.00000
     32      -8.6968      1.00000
     33      -8.6253      1.00000
     34      -8.5499      1.00000
     35      -8.5190      1.00000
     36      -8.3792      1.00000
     37      -8.3281      1.00000
     38      -8.3065      1.00000
     39      -8.2963      1.00000
     40      -8.2758      1.00000
     41      -8.2566      1.00000
     42      -8.2338      1.00000
     43      -8.2126      1.00000
     44      -8.1765      1.00000
     45      -8.1536      1.00000
     46      -8.1077      1.00000
     47      -8.0625      1.00000
     48      -8.0128      1.00000
     49      -7.9712      1.00000
     50      -7.9587      1.00000
     51      -7.9313      1.00000
     52      -7.8811      1.00000
     53      -7.8687      1.00000
     54      -7.8121      1.00000
     55      -7.7790      1.00000
     56      -7.7325      1.00000
     57      -7.7118      1.00000
     58      -7.6774      1.00000
     59      -7.4771      1.00000
     60      -7.4101      1.00000
     61      -7.3776      1.00000
     62      -7.2008      1.00000
     63      -7.1494      1.00000
     64      -7.0977      1.00000
     65      -7.0368      1.00000
     66      -6.9579      1.00000
     67      -6.9113      1.00000
     68      -6.8651      1.00000
     69      -6.8427      1.00000
     70      -6.7555      1.00000
     71      -6.6959      1.00000
     72      -6.6061      1.00000
     73      -6.5747      1.00000
     74      -6.5227      1.00000
     75      -6.5049      1.00000
     76      -6.4478      1.00000
     77      -6.3744      1.00000
     78      -6.3364      1.00000
     79      -6.3198      1.00000
     80      -6.2853      1.00000
     81      -6.1636      1.00000
     82      -6.1336      1.00000
     83      -6.1051      1.00000
     84      -6.0569      1.00000
     85      -6.0030      1.00000
     86      -5.9811      1.00000
     87      -5.9570      1.00000
     88      -5.8957      1.00000
     89      -5.8583      1.00000
     90      -5.8047      1.00000
     91      -5.7608      1.00000
     92      -5.7240      1.00000
     93      -5.7000      1.00000
     94      -5.6678      1.00000
     95      -5.6608      1.00000
     96      -5.6132      1.00000
     97      -4.9216      1.00000
     98      -4.9045      1.00000
     99      -4.8990      1.00000
    100      -4.8675      1.00000
    101      -4.7465      1.00000
    102      -4.6841      1.00000
    103      -4.6721      1.00000
    104      -4.6567      1.00000
    105      -4.6183      1.00000
    106      -4.5927      1.00000
    107      -4.5659      1.00000
    108      -4.4988      1.00000
    109      -4.4856      1.00000
    110      -4.4303      1.00000
    111      -4.4185      1.00000
    112      -4.3818      1.00000
    113      -4.3644      1.00000
    114      -4.3092      1.00000
    115      -4.2821      1.00000
    116      -4.2491      1.00000
    117      -4.1807      1.00000
    118      -4.1260      1.00000
    119      -4.0332      1.00000
    120      -3.9902      1.00000
    121      -2.6312      0.99462
    122      -2.4459      0.00354
    123      -2.4359      0.00146
    124      -2.4207      0.00033
    125      -2.4068      0.00007
    126      -2.3999      0.00003
    127      -2.3843      0.00000
    128      -2.3658      0.00000
    129      -2.3555      0.00000
    130      -2.3292      0.00000
    131      -2.2893      0.00000
    132      -2.2710      0.00000
    133      -2.2412      0.00000
    134      -2.2030      0.00000
    135      -2.0887      0.00000
    136      -2.0087      0.00000
    137      -0.4134      0.00000
    138       1.6718      0.00000
    139       2.1194      0.00000
    140       2.2284      0.00000
    141       2.2474      0.00000
    142       2.6116      0.00000
    143       2.6221      0.00000
    144       2.6505      0.00000

 k-point     7 :      -0.2000    0.4000    0.0000
  band No.  band energies     occupation 
      1     -21.4490      1.00000
      2     -19.3732      1.00000
      3     -19.2227      1.00000
      4     -19.1335      1.00000
      5     -19.0527      1.00000
      6     -18.8274      1.00000
      7     -18.7375      1.00000
      8     -18.7044      1.00000
      9     -18.6107      1.00000
     10     -18.5730      1.00000
     11     -18.5652      1.00000
     12     -18.5471      1.00000
     13     -18.5429      1.00000
     14     -18.5322      1.00000
     15     -18.5095      1.00000
     16     -18.4782      1.00000
     17     -18.4491      1.00000
     18     -18.4338      1.00000
     19     -18.4201      1.00000
     20     -18.4091      1.00000
     21     -18.3987      1.00000
     22     -18.3891      1.00000
     23     -18.3641      1.00000
     24     -18.3412      1.00000
     25     -12.1869      1.00000
     26      -9.5653      1.00000
     27      -9.1676      1.00000
     28      -9.1517      1.00000
     29      -9.0272      1.00000
     30      -8.8020      1.00000
     31      -8.7954      1.00000
     32      -8.6669      1.00000
     33      -8.6597      1.00000
     34      -8.5091      1.00000
     35      -8.4994      1.00000
     36      -8.3857      1.00000
     37      -8.3375      1.00000
     38      -8.3253      1.00000
     39      -8.2968      1.00000
     40      -8.2849      1.00000
     41      -8.2564      1.00000
     42      -8.2544      1.00000
     43      -8.2139      1.00000
     44      -8.1829      1.00000
     45      -8.1511      1.00000
     46      -8.1080      1.00000
     47      -8.0087      1.00000
     48      -7.9938      1.00000
     49      -7.9928      1.00000
     50      -7.9475      1.00000
     51      -7.9457      1.00000
     52      -7.8693      1.00000
     53      -7.8623      1.00000
     54      -7.7837      1.00000
     55      -7.7836      1.00000
     56      -7.7449      1.00000
     57      -7.7368      1.00000
     58      -7.6980      1.00000
     59      -7.5358      1.00000
     60      -7.4331      1.00000
     61      -7.3610      1.00000
     62      -7.1679      1.00000
     63      -7.1659      1.00000
     64      -7.1141      1.00000
     65      -7.0258      1.00000
     66      -6.9198      1.00000
     67      -6.9049      1.00000
     68      -6.8625      1.00000
     69      -6.8203      1.00000
     70      -6.8112      1.00000
     71      -6.6863      1.00000
     72      -6.6052      1.00000
     73      -6.5535      1.00000
     74      -6.5006      1.00000
     75      -6.4813      1.00000
     76      -6.4125      1.00000
     77      -6.3848      1.00000
     78      -6.3441      1.00000
     79      -6.3263      1.00000
     80      -6.3018      1.00000
     81      -6.1820      1.00000
     82      -6.1282      1.00000
     83      -6.0604      1.00000
     84      -6.0475      1.00000
     85      -6.0058      1.00000
     86      -6.0034      1.00000
     87      -5.9833      1.00000
     88      -5.8746      1.00000
     89      -5.8640      1.00000
     90      -5.8416      1.00000
     91      -5.7580      1.00000
     92      -5.7470      1.00000
     93      -5.7207      1.00000
     94      -5.6607      1.00000
     95      -5.6338      1.00000
     96      -5.6314      1.00000
     97      -4.9207      1.00000
     98      -4.9025      1.00000
     99      -4.8966      1.00000
    100      -4.8664      1.00000
    101      -4.7326      1.00000
    102      -4.7145      1.00000
    103      -4.6577      1.00000
    104      -4.6469      1.00000
    105      -4.6113      1.00000
    106      -4.5774      1.00000
    107      -4.5725      1.00000
    108      -4.4981      1.00000
    109      -4.4911      1.00000
    110      -4.4243      1.00000
    111      -4.4186      1.00000
    112      -4.3852      1.00000
    113      -4.3463      1.00000
    114      -4.3290      1.00000
    115      -4.2720      1.00000
    116      -4.2611      1.00000
    117      -4.1861      1.00000
    118      -4.1295      1.00000
    119      -4.0386      1.00000
    120      -3.9817      1.00000
    121      -2.6333      0.99545
    122      -2.4397      0.00207
    123      -2.4357      0.00144
    124      -2.4197      0.00030
    125      -2.4146      0.00017
    126      -2.4020      0.00004
    127      -2.3815      0.00000
    128      -2.3676      0.00000
    129      -2.3574      0.00000
    130      -2.3164      0.00000
    131      -2.3120      0.00000
    132      -2.2502      0.00000
    133      -2.2360      0.00000
    134      -2.1974      0.00000
    135      -2.1127      0.00000
    136      -2.0012      0.00000
    137      -0.4125      0.00000
    138       1.6721      0.00000
    139       2.1221      0.00000
    140       2.2300      0.00000
    141       2.2440      0.00000
    142       2.6034      0.00000
    143       2.6152      0.00000
    144       2.6475      0.00000

 k-point     8 :       0.4000    0.2000    0.0000
  band No.  band energies     occupation 
      1     -21.4490      1.00000
      2     -19.3209      1.00000
      3     -19.2967      1.00000
      4     -19.1691      1.00000
      5     -18.9428      1.00000
      6     -18.9075      1.00000
      7     -18.7193      1.00000
      8     -18.6360      1.00000
      9     -18.6267      1.00000
     10     -18.5913      1.00000
     11     -18.5847      1.00000
     12     -18.5745      1.00000
     13     -18.5396      1.00000
     14     -18.5155      1.00000
     15     -18.5070      1.00000
     16     -18.4687      1.00000
     17     -18.4539      1.00000
     18     -18.4390      1.00000
     19     -18.4192      1.00000
     20     -18.4050      1.00000
     21     -18.3959      1.00000
     22     -18.3890      1.00000
     23     -18.3693      1.00000
     24     -18.3441      1.00000
     25     -12.1871      1.00000
     26      -9.5378      1.00000
     27      -9.1936      1.00000
     28      -9.1144      1.00000
     29      -8.9439      1.00000
     30      -8.8718      1.00000
     31      -8.7517      1.00000
     32      -8.7179      1.00000
     33      -8.6424      1.00000
     34      -8.5744      1.00000
     35      -8.5556      1.00000
     36      -8.4018      1.00000
     37      -8.3206      1.00000
     38      -8.3198      1.00000
     39      -8.2817      1.00000
     40      -8.2754      1.00000
     41      -8.2575      1.00000
     42      -8.2412      1.00000
     43      -8.2317      1.00000
     44      -8.2090      1.00000
     45      -8.1699      1.00000
     46      -8.0604      1.00000
     47      -8.0569      1.00000
     48      -7.9962      1.00000
     49      -7.9604      1.00000
     50      -7.9350      1.00000
     51      -7.9280      1.00000
     52      -7.8949      1.00000
     53      -7.8708      1.00000
     54      -7.8613      1.00000
     55      -7.8212      1.00000
     56      -7.7711      1.00000
     57      -7.7504      1.00000
     58      -7.6007      1.00000
     59      -7.5985      1.00000
     60      -7.4461      1.00000
     61      -7.3528      1.00000
     62      -7.1457      1.00000
     63      -7.1074      1.00000
     64      -7.1014      1.00000
     65      -7.0326      1.00000
     66      -6.9404      1.00000
     67      -6.8279      1.00000
     68      -6.7797      1.00000
     69      -6.7257      1.00000
     70      -6.6941      1.00000
     71      -6.6315      1.00000
     72      -6.6273      1.00000
     73      -6.5428      1.00000
     74      -6.5112      1.00000
     75      -6.4730      1.00000
     76      -6.4545      1.00000
     77      -6.3753      1.00000
     78      -6.3407      1.00000
     79      -6.2868      1.00000
     80      -6.1942      1.00000
     81      -6.1933      1.00000
     82      -6.1447      1.00000
     83      -6.1404      1.00000
     84      -6.1152      1.00000
     85      -6.1102      1.00000
     86      -6.0180      1.00000
     87      -5.9920      1.00000
     88      -5.9642      1.00000
     89      -5.8681      1.00000
     90      -5.8485      1.00000
     91      -5.8173      1.00000
     92      -5.7509      1.00000
     93      -5.7202      1.00000
     94      -5.7187      1.00000
     95      -5.6493      1.00000
     96      -5.6356      1.00000
     97      -4.8920      1.00000
     98      -4.8838      1.00000
     99      -4.8667      1.00000
    100      -4.8347      1.00000
    101      -4.7617      1.00000
    102      -4.6852      1.00000
    103      -4.6692      1.00000
    104      -4.6413      1.00000
    105      -4.6269      1.00000
    106      -4.5859      1.00000
    107      -4.5543      1.00000
    108      -4.4783      1.00000
    109      -4.4724      1.00000
    110      -4.4164      1.00000
    111      -4.4163      1.00000
    112      -4.3885      1.00000
    113      -4.3667      1.00000
    114      -4.3021      1.00000
    115      -4.2850      1.00000
    116      -4.2550      1.00000
    117      -4.1879      1.00000
    118      -4.1350      1.00000
    119      -4.0188      1.00000
    120      -4.0110      1.00000
    121      -2.6270      0.99245
    122      -2.4421      0.00257
    123      -2.4375      0.00170
    124      -2.4122      0.00013
    125      -2.4018      0.00004
    126      -2.3958      0.00002
    127      -2.3943      0.00002
    128      -2.3743      0.00000
    129      -2.3663      0.00000
    130      -2.3510      0.00000
    131      -2.2977      0.00000
    132      -2.2721      0.00000
    133      -2.2237      0.00000
    134      -2.1914      0.00000
    135      -2.0882      0.00000
    136      -2.0029      0.00000
    137      -0.4123      0.00000
    138       1.9016      0.00000
    139       1.9330      0.00000
    140       2.1750      0.00000
    141       2.3358      0.00000
    142       2.3773      0.00000
    143       2.6089      0.00000
    144       2.6703      0.00000

 k-point     9 :      -0.2000   -0.4000    0.0000
  band No.  band energies     occupation 
      1     -21.4490      1.00000
      2     -19.3314      1.00000
      3     -19.2763      1.00000
      4     -19.1693      1.00000
      5     -19.0036      1.00000
      6     -18.8585      1.00000
      7     -18.6984      1.00000
      8     -18.6455      1.00000
      9     -18.6207      1.00000
     10     -18.5899      1.00000
     11     -18.5777      1.00000
     12     -18.5683      1.00000
     13     -18.5523      1.00000
     14     -18.5368      1.00000
     15     -18.5127      1.00000
     16     -18.4744      1.00000
     17     -18.4459      1.00000
     18     -18.4361      1.00000
     19     -18.4156      1.00000
     20     -18.4048      1.00000
     21     -18.3982      1.00000
     22     -18.3885      1.00000
     23     -18.3685      1.00000
     24     -18.3424      1.00000
     25     -12.1870      1.00000
     26      -9.5537      1.00000
     27      -9.1624      1.00000
     28      -9.1180      1.00000
     29      -8.9558      1.00000
     30      -8.8586      1.00000
     31      -8.7826      1.00000
     32      -8.7087      1.00000
     33      -8.6528      1.00000
     34      -8.5401      1.00000
     35      -8.5180      1.00000
     36      -8.4056      1.00000
     37      -8.3464      1.00000
     38      -8.3296      1.00000
     39      -8.2824      1.00000
     40      -8.2753      1.00000
     41      -8.2639      1.00000
     42      -8.2602      1.00000
     43      -8.2382      1.00000
     44      -8.2187      1.00000
     45      -8.1674      1.00000
     46      -8.0498      1.00000
     47      -8.0038      1.00000
     48      -7.9814      1.00000
     49      -7.9704      1.00000
     50      -7.9439      1.00000
     51      -7.9218      1.00000
     52      -7.9192      1.00000
     53      -7.8693      1.00000
     54      -7.8367      1.00000
     55      -7.8305      1.00000
     56      -7.7815      1.00000
     57      -7.7627      1.00000
     58      -7.6232      1.00000
     59      -7.5863      1.00000
     60      -7.4880      1.00000
     61      -7.3457      1.00000
     62      -7.1802      1.00000
     63      -7.1151      1.00000
     64      -7.0783      1.00000
     65      -7.0155      1.00000
     66      -6.9164      1.00000
     67      -6.8320      1.00000
     68      -6.7692      1.00000
     69      -6.7128      1.00000
     70      -6.6912      1.00000
     71      -6.6733      1.00000
     72      -6.6185      1.00000
     73      -6.5258      1.00000
     74      -6.4796      1.00000
     75      -6.4648      1.00000
     76      -6.4420      1.00000
     77      -6.3685      1.00000
     78      -6.3545      1.00000
     79      -6.2768      1.00000
     80      -6.2249      1.00000
     81      -6.1773      1.00000
     82      -6.1416      1.00000
     83      -6.1202      1.00000
     84      -6.1032      1.00000
     85      -6.0776      1.00000
     86      -6.0547      1.00000
     87      -5.9867      1.00000
     88      -5.9749      1.00000
     89      -5.9091      1.00000
     90      -5.8561      1.00000
     91      -5.8327      1.00000
     92      -5.7527      1.00000
     93      -5.7342      1.00000
     94      -5.7133      1.00000
     95      -5.6540      1.00000
     96      -5.6336      1.00000
     97      -4.8924      1.00000
     98      -4.8763      1.00000
     99      -4.8696      1.00000
    100      -4.8404      1.00000
    101      -4.7358      1.00000
    102      -4.7038      1.00000
    103      -4.6597      1.00000
    104      -4.6447      1.00000
    105      -4.6146      1.00000
    106      -4.5734      1.00000
    107      -4.5655      1.00000
    108      -4.4790      1.00000
    109      -4.4720      1.00000
    110      -4.4256      1.00000
    111      -4.4046      1.00000
    112      -4.3816      1.00000
    113      -4.3541      1.00000
    114      -4.3250      1.00000
    115      -4.2760      1.00000
    116      -4.2631      1.00000
    117      -4.1972      1.00000
    118      -4.1368      1.00000
    119      -4.0293      1.00000
    120      -3.9965      1.00000
    121      -2.6297      0.99392
    122      -2.4441      0.00304
    123      -2.4380      0.00177
    124      -2.4163      0.00021
    125      -2.4083      0.00009
    126      -2.3961      0.00002
    127      -2.3848      0.00000
    128      -2.3697      0.00000
    129      -2.3587      0.00000
    130      -2.3544      0.00000
    131      -2.2969      0.00000
    132      -2.2624      0.00000
    133      -2.2277      0.00000
    134      -2.1914      0.00000
    135      -2.1023      0.00000
    136      -1.9977      0.00000
    137      -0.4114      0.00000
    138       1.8934      0.00000
    139       1.9451      0.00000
    140       2.1690      0.00000
    141       2.3354      0.00000
    142       2.3831      0.00000
    143       2.5868      0.00000
    144       2.6652      0.00000
 Fermi energy:        -2.5410539046

 spin component 2

 k-point     1 :       0.0000    0.0000    0.0000
  band No.  band energies     occupation 
      1     -21.3969      1.00000
      2     -19.3961      1.00000
      3     -19.1169      1.00000
      4     -19.0742      1.00000
      5     -19.0067      1.00000
      6     -18.8600      1.00000
      7     -18.8335      1.00000
      8     -18.7576      1.00000
      9     -18.6439      1.00000
     10     -18.5653      1.00000
     11     -18.5437      1.00000
     12     -18.5278      1.00000
     13     -18.5256      1.00000
     14     -18.4998      1.00000
     15     -18.4932      1.00000
     16     -18.4742      1.00000
     17     -18.4708      1.00000
     18     -18.4441      1.00000
     19     -18.4405      1.00000
     20     -18.4247      1.00000
     21     -18.3988      1.00000
     22     -18.3839      1.00000
     23     -18.3522      1.00000
     24     -18.3283      1.00000
     25     -12.0180      1.00000
     26      -9.3490      1.00000
     27      -9.0040      1.00000
     28      -8.9211      1.00000
     29      -8.8832      1.00000
     30      -8.5298      1.00000
     31      -8.5060      1.00000
     32      -8.4351      1.00000
     33      -8.3184      1.00000
     34      -8.2549      1.00000
     35      -8.2155      1.00000
     36      -8.1636      1.00000
     37      -8.1238      1.00000
     38      -8.0984      1.00000
     39      -8.0243      1.00000
     40      -7.9856      1.00000
     41      -7.9697      1.00000
     42      -7.9648      1.00000
     43      -7.8946      1.00000
     44      -7.8709      1.00000
     45      -7.8168      1.00000
     46      -7.8107      1.00000
     47      -7.7846      1.00000
     48      -7.7270      1.00000
     49      -7.7080      1.00000
     50      -7.6703      1.00000
     51      -7.6388      1.00000
     52      -7.5966      1.00000
     53      -7.5081      1.00000
     54      -7.3768      1.00000
     55      -7.3602      1.00000
     56      -7.2408      1.00000
     57      -7.1311      1.00000
     58      -7.1146      1.00000
     59      -7.0960      1.00000
     60      -7.0861      1.00000
     61      -7.0333      1.00000
     62      -7.0069      1.00000
     63      -6.9776      1.00000
     64      -6.9712      1.00000
     65      -6.9417      1.00000
     66      -6.7581      1.00000
     67      -6.7313      1.00000
     68      -6.7277      1.00000
     69      -6.6807      1.00000
     70      -6.6167      1.00000
     71      -6.5398      1.00000
     72      -6.4550      1.00000
     73      -6.4451      1.00000
     74      -6.4116      1.00000
     75      -6.3747      1.00000
     76      -6.2636      1.00000
     77      -6.2334      1.00000
     78      -6.0897      1.00000
     79      -6.0724      1.00000
     80      -6.0221      1.00000
     81      -6.0058      1.00000
     82      -5.9934      1.00000
     83      -5.9700      1.00000
     84      -5.8940      1.00000
     85      -5.8147      1.00000
     86      -5.7866      1.00000
     87      -5.7094      1.00000
     88      -5.6470      1.00000
     89      -5.6317      1.00000
     90      -5.6113      1.00000
     91      -5.5778      1.00000
     92      -5.4948      1.00000
     93      -5.4375      1.00000
     94      -5.4295      1.00000
     95      -5.4245      1.00000
     96      -5.3953      1.00000
     97      -2.0669      0.00000
     98      -2.0569      0.00000
     99      -2.0490      0.00000
    100      -2.0143      0.00000
    101      -1.9851      0.00000
    102      -1.9424      0.00000
    103      -1.8149      0.00000
    104      -1.8026      0.00000
    105      -1.7783      0.00000
    106      -1.7528      0.00000
    107      -1.7117      0.00000
    108      -1.7050      0.00000
    109      -1.6696      0.00000
    110      -1.6218      0.00000
    111      -1.5874      0.00000
    112      -1.5540      0.00000
    113      -1.5366      0.00000
    114      -1.4982      0.00000
    115      -1.4842      0.00000
    116      -1.3666      0.00000
    117      -1.2666      0.00000
    118      -1.2277      0.00000
    119      -1.2034      0.00000
    120      -1.0897      0.00000
    121      -1.0885      0.00000
    122      -1.0569      0.00000
    123      -1.0422      0.00000
    124      -1.0210      0.00000
    125      -1.0123      0.00000
    126      -1.0007      0.00000
    127      -0.9973      0.00000
    128      -0.9871      0.00000
    129      -0.9304      0.00000
    130      -0.8860      0.00000
    131      -0.8600      0.00000
    132      -0.8531      0.00000
    133      -0.6477      0.00000
    134      -0.5643      0.00000
    135      -0.5021      0.00000
    136      -0.3430      0.00000
    137       0.2365      0.00000
    138       1.6016      0.00000
    139       2.0364      0.00000
    140       2.4755      0.00000
    141       2.6826      0.00000
    142       2.6978      0.00000
    143       2.9231      0.00000
    144       2.9845      0.00000

 k-point     2 :       0.2000    0.0000    0.0000
  band No.  band energies     occupation 
      1     -21.3969      1.00000
      2     -19.3790      1.00000
      3     -19.1588      1.00000
      4     -19.1030      1.00000
      5     -18.9775      1.00000
      6     -18.8449      1.00000
      7     -18.8237      1.00000
      8     -18.7256      1.00000
      9     -18.6373      1.00000
     10     -18.5769      1.00000
     11     -18.5523      1.00000
     12     -18.5487      1.00000
     13     -18.5276      1.00000
     14     -18.5097      1.00000
     15     -18.4941      1.00000
     16     -18.4668      1.00000
     17     -18.4616      1.00000
     18     -18.4541      1.00000
     19     -18.4309      1.00000
     20     -18.4238      1.00000
     21     -18.3993      1.00000
     22     -18.3801      1.00000
     23     -18.3561      1.00000
     24     -18.3305      1.00000
     25     -12.0181      1.00000
     26      -9.3366      1.00000
     27      -8.9886      1.00000
     28      -8.9049      1.00000
     29      -8.8565      1.00000
     30      -8.5337      1.00000
     31      -8.5186      1.00000
     32      -8.4328      1.00000
     33      -8.3353      1.00000
     34      -8.2697      1.00000
     35      -8.2167      1.00000
     36      -8.1656      1.00000
     37      -8.1161      1.00000
     38      -8.1055      1.00000
     39      -8.0352      1.00000
     40      -8.0120      1.00000
     41      -7.9963      1.00000
     42      -7.9692      1.00000
     43      -7.9273      1.00000
     44      -7.8595      1.00000
     45      -7.8207      1.00000
     46      -7.7970      1.00000
     47      -7.7745      1.00000
     48      -7.7381      1.00000
     49      -7.7217      1.00000
     50      -7.6532      1.00000
     51      -7.6352      1.00000
     52      -7.5953      1.00000
     53      -7.5115      1.00000
     54      -7.4158      1.00000
     55      -7.3605      1.00000
     56      -7.3298      1.00000
     57      -7.2617      1.00000
     58      -7.2141      1.00000
     59      -7.1133      1.00000
     60      -7.0830      1.00000
     61      -6.9948      1.00000
     62      -6.9467      1.00000
     63      -6.9408      1.00000
     64      -6.8731      1.00000
     65      -6.8354      1.00000
     66      -6.7503      1.00000
     67      -6.7375      1.00000
     68      -6.6807      1.00000
     69      -6.6346      1.00000
     70      -6.5883      1.00000
     71      -6.5250      1.00000
     72      -6.4383      1.00000
     73      -6.4143      1.00000
     74      -6.3050      1.00000
     75      -6.2877      1.00000
     76      -6.2281      1.00000
     77      -6.2244      1.00000
     78      -6.1394      1.00000
     79      -6.1247      1.00000
     80      -6.0566      1.00000
     81      -6.0371      1.00000
     82      -5.9991      1.00000
     83      -5.9405      1.00000
     84      -5.8942      1.00000
     85      -5.8037      1.00000
     86      -5.7749      1.00000
     87      -5.7079      1.00000
     88      -5.6499      1.00000
     89      -5.6426      1.00000
     90      -5.6250      1.00000
     91      -5.5764      1.00000
     92      -5.5521      1.00000
     93      -5.4961      1.00000
     94      -5.4679      1.00000
     95      -5.4558      1.00000
     96      -5.4350      1.00000
     97      -2.0498      0.00000
     98      -2.0362      0.00000
     99      -2.0289      0.00000
    100      -2.0185      0.00000
    101      -1.9739      0.00000
    102      -1.9323      0.00000
    103      -1.8331      0.00000
    104      -1.8102      0.00000
    105      -1.7801      0.00000
    106      -1.7388      0.00000
    107      -1.7141      0.00000
    108      -1.7014      0.00000
    109      -1.6366      0.00000
    110      -1.6327      0.00000
    111      -1.6052      0.00000
    112      -1.5646      0.00000
    113      -1.5471      0.00000
    114      -1.5127      0.00000
    115      -1.4872      0.00000
    116      -1.3602      0.00000
    117      -1.2703      0.00000
    118      -1.2278      0.00000
    119      -1.2149      0.00000
    120      -1.0852      0.00000
    121      -1.0758      0.00000
    122      -1.0540      0.00000
    123      -1.0389      0.00000
    124      -1.0198      0.00000
    125      -1.0055      0.00000
    126      -0.9995      0.00000
    127      -0.9914      0.00000
    128      -0.9817      0.00000
    129      -0.9321      0.00000
    130      -0.8960      0.00000
    131      -0.8779      0.00000
    132      -0.8559      0.00000
    133      -0.6469      0.00000
    134      -0.5615      0.00000
    135      -0.5020      0.00000
    136      -0.3457      0.00000
    137       0.2404      0.00000
    138       1.6675      0.00000
    139       2.0979      0.00000
    140       2.4645      0.00000
    141       2.5392      0.00000
    142       2.6096      0.00000
    143       2.7774      0.00000
    144       2.8946      0.00000

 k-point     3 :       0.0000    0.2000    0.0000
  band No.  band energies     occupation 
      1     -21.3969      1.00000
      2     -19.3794      1.00000
      3     -19.1500      1.00000
      4     -19.0892      1.00000
      5     -19.0256      1.00000
      6     -18.8339      1.00000
      7     -18.7916      1.00000
      8     -18.7390      1.00000
      9     -18.6367      1.00000
     10     -18.5718      1.00000
     11     -18.5523      1.00000
     12     -18.5406      1.00000
     13     -18.5351      1.00000
     14     -18.5154      1.00000
     15     -18.5013      1.00000
     16     -18.4782      1.00000
     17     -18.4580      1.00000
     18     -18.4442      1.00000
     19     -18.4330      1.00000
     20     -18.4215      1.00000
     21     -18.3997      1.00000
     22     -18.3821      1.00000
     23     -18.3542      1.00000
     24     -18.3296      1.00000
     25     -12.0181      1.00000
     26      -9.3444      1.00000
     27      -8.9708      1.00000
     28      -8.9130      1.00000
     29      -8.8526      1.00000
     30      -8.5385      1.00000
     31      -8.5316      1.00000
     32      -8.4188      1.00000
     33      -8.3431      1.00000
     34      -8.2605      1.00000
     35      -8.2136      1.00000
     36      -8.1681      1.00000
     37      -8.1226      1.00000
     38      -8.0898      1.00000
     39      -8.0361      1.00000
     40      -8.0159      1.00000
     41      -7.9895      1.00000
     42      -7.9676      1.00000
     43      -7.9254      1.00000
     44      -7.8910      1.00000
     45      -7.8283      1.00000
     46      -7.7999      1.00000
     47      -7.7465      1.00000
     48      -7.7350      1.00000
     49      -7.7099      1.00000
     50      -7.6638      1.00000
     51      -7.6243      1.00000
     52      -7.5979      1.00000
     53      -7.5070      1.00000
     54      -7.4001      1.00000
     55      -7.3706      1.00000
     56      -7.3304      1.00000
     57      -7.2801      1.00000
     58      -7.2399      1.00000
     59      -7.1266      1.00000
     60      -7.0952      1.00000
     61      -7.0314      1.00000
     62      -6.9419      1.00000
     63      -6.8862      1.00000
     64      -6.8558      1.00000
     65      -6.8473      1.00000
     66      -6.7516      1.00000
     67      -6.7388      1.00000
     68      -6.6771      1.00000
     69      -6.6461      1.00000
     70      -6.5790      1.00000
     71      -6.4945      1.00000
     72      -6.4508      1.00000
     73      -6.4092      1.00000
     74      -6.3107      1.00000
     75      -6.2795      1.00000
     76      -6.2355      1.00000
     77      -6.2069      1.00000
     78      -6.1349      1.00000
     79      -6.1225      1.00000
     80      -6.0940      1.00000
     81      -6.0273      1.00000
     82      -5.9758      1.00000
     83      -5.9566      1.00000
     84      -5.8855      1.00000
     85      -5.8029      1.00000
     86      -5.7756      1.00000
     87      -5.7110      1.00000
     88      -5.6669      1.00000
     89      -5.6308      1.00000
     90      -5.6130      1.00000
     91      -5.5825      1.00000
     92      -5.5476      1.00000
     93      -5.5161      1.00000
     94      -5.4655      1.00000
     95      -5.4541      1.00000
     96      -5.4372      1.00000
     97      -2.0533      0.00000
     98      -2.0453      0.00000
     99      -2.0266      0.00000
    100      -2.0070      0.00000
    101      -1.9757      0.00000
    102      -1.9352      0.00000
    103      -1.8345      0.00000
    104      -1.8031      0.00000
    105      -1.7660      0.00000
    106      -1.7390      0.00000
    107      -1.7175      0.00000
    108      -1.6970      0.00000
    109      -1.6611      0.00000
    110      -1.6422      0.00000
    111      -1.5961      0.00000
    112      -1.5613      0.00000
    113      -1.5336      0.00000
    114      -1.5072      0.00000
    115      -1.4914      0.00000
    116      -1.3675      0.00000
    117      -1.2693      0.00000
    118      -1.2342      0.00000
    119      -1.2140      0.00000
    120      -1.0877      0.00000
    121      -1.0783      0.00000
    122      -1.0584      0.00000
    123      -1.0367      0.00000
    124      -1.0195      0.00000
    125      -1.0094      0.00000
    126      -0.9981      0.00000
    127      -0.9904      0.00000
    128      -0.9742      0.00000
    129      -0.9299      0.00000
    130      -0.8912      0.00000
    131      -0.8746      0.00000
    132      -0.8556      0.00000
    133      -0.6550      0.00000
    134      -0.5636      0.00000
    135      -0.5027      0.00000
    136      -0.3423      0.00000
    137       0.2410      0.00000
    138       1.6678      0.00000
    139       2.0985      0.00000
    140       2.4685      0.00000
    141       2.5424      0.00000
    142       2.6003      0.00000
    143       2.7645      0.00000
    144       2.8916      0.00000

 k-point     4 :       0.4000    0.0000    0.0000
  band No.  band energies     occupation 
      1     -21.3968      1.00000
      2     -19.3306      1.00000
      3     -19.2461      1.00000
      4     -19.1156      1.00000
      5     -18.9670      1.00000
      6     -18.8195      1.00000
      7     -18.7995      1.00000
      8     -18.6603      1.00000
      9     -18.6199      1.00000
     10     -18.5982      1.00000
     11     -18.5892      1.00000
     12     -18.5832      1.00000
     13     -18.5195      1.00000
     14     -18.5183      1.00000
     15     -18.5040      1.00000
     16     -18.4750      1.00000
     17     -18.4529      1.00000
     18     -18.4444      1.00000
     19     -18.4320      1.00000
     20     -18.4159      1.00000
     21     -18.4011      1.00000
     22     -18.3757      1.00000
     23     -18.3589      1.00000
     24     -18.3358      1.00000
     25     -12.0183      1.00000
     26      -9.3159      1.00000
     27      -8.9790      1.00000
     28      -8.8708      1.00000
     29      -8.7644      1.00000
     30      -8.5922      1.00000
     31      -8.5131      1.00000
     32      -8.4337      1.00000
     33      -8.3702      1.00000
     34      -8.2897      1.00000
     35      -8.2564      1.00000
     36      -8.1396      1.00000
     37      -8.1140      1.00000
     38      -8.1118      1.00000
     39      -8.0794      1.00000
     40      -8.0633      1.00000
     41      -8.0328      1.00000
     42      -7.9423      1.00000
     43      -7.9195      1.00000
     44      -7.8918      1.00000
     45      -7.8503      1.00000
     46      -7.8289      1.00000
     47      -7.7709      1.00000
     48      -7.7405      1.00000
     49      -7.6868      1.00000
     50      -7.6325      1.00000
     51      -7.6135      1.00000
     52      -7.5517      1.00000
     53      -7.5405      1.00000
     54      -7.4375      1.00000
     55      -7.4260      1.00000
     56      -7.3663      1.00000
     57      -7.3133      1.00000
     58      -7.3095      1.00000
     59      -7.2328      1.00000
     60      -7.1218      1.00000
     61      -6.9451      1.00000
     62      -6.8965      1.00000
     63      -6.8637      1.00000
     64      -6.8004      1.00000
     65      -6.7661      1.00000
     66      -6.7512      1.00000
     67      -6.7324      1.00000
     68      -6.6365      1.00000
     69      -6.5247      1.00000
     70      -6.5043      1.00000
     71      -6.3970      1.00000
     72      -6.3792      1.00000
     73      -6.3251      1.00000
     74      -6.3079      1.00000
     75      -6.2862      1.00000
     76      -6.1906      1.00000
     77      -6.1660      1.00000
     78      -6.1321      1.00000
     79      -6.0633      1.00000
     80      -6.0438      1.00000
     81      -6.0371      1.00000
     82      -5.9893      1.00000
     83      -5.9476      1.00000
     84      -5.9192      1.00000
     85      -5.8903      1.00000
     86      -5.7925      1.00000
     87      -5.7586      1.00000
     88      -5.7095      1.00000
     89      -5.6484      1.00000
     90      -5.6263      1.00000
     91      -5.6104      1.00000
     92      -5.5870      1.00000
     93      -5.5692      1.00000
     94      -5.5489      1.00000
     95      -5.5046      1.00000
     96      -5.4902      1.00000
     97      -2.0299      0.00000
     98      -2.0170      0.00000
     99      -2.0029      0.00000
    100      -1.9923      0.00000
    101      -1.9460      0.00000
    102      -1.9151      0.00000
    103      -1.8449      0.00000
    104      -1.8112      0.00000
    105      -1.7845      0.00000
    106      -1.7673      0.00000
    107      -1.7281      0.00000
    108      -1.6804      0.00000
    109      -1.6453      0.00000
    110      -1.6210      0.00000
    111      -1.6019      0.00000
    112      -1.5722      0.00000
    113      -1.5565      0.00000
    114      -1.5348      0.00000
    115      -1.5073      0.00000
    116      -1.3399      0.00000
    117      -1.2792      0.00000
    118      -1.2440      0.00000
    119      -1.2251      0.00000
    120      -1.0776      0.00000
    121      -1.0664      0.00000
    122      -1.0448      0.00000
    123      -1.0211      0.00000
    124      -1.0161      0.00000
    125      -0.9991      0.00000
    126      -0.9965      0.00000
    127      -0.9878      0.00000
    128      -0.9587      0.00000
    129      -0.9455      0.00000
    130      -0.9296      0.00000
    131      -0.8934      0.00000
    132      -0.8590      0.00000
    133      -0.6461      0.00000
    134      -0.5567      0.00000
    135      -0.5036      0.00000
    136      -0.3447      0.00000
    137       0.2460      0.00000
    138       1.8491      0.00000
    139       2.1386      0.00000
    140       2.2721      0.00000
    141       2.5156      0.00000
    142       2.5375      0.00000
    143       2.7005      0.00000
    144       2.7299      0.00000

 k-point     5 :       0.0000    0.4000    0.0000
  band No.  band energies     occupation 
      1     -21.3969      1.00000
      2     -19.3362      1.00000
      3     -19.2248      1.00000
      4     -19.1021      1.00000
      5     -19.0383      1.00000
      6     -18.8056      1.00000
      7     -18.7473      1.00000
      8     -18.6717      1.00000
      9     -18.6159      1.00000
     10     -18.5981      1.00000
     11     -18.5762      1.00000
     12     -18.5622      1.00000
     13     -18.5478      1.00000
     14     -18.5408      1.00000
     15     -18.5118      1.00000
     16     -18.4904      1.00000
     17     -18.4441      1.00000
     18     -18.4376      1.00000
     19     -18.4274      1.00000
     20     -18.4129      1.00000
     21     -18.4030      1.00000
     22     -18.3791      1.00000
     23     -18.3577      1.00000
     24     -18.3318      1.00000
     25     -12.0181      1.00000
     26      -9.3377      1.00000
     27      -8.9322      1.00000
     28      -8.8617      1.00000
     29      -8.7893      1.00000
     30      -8.5945      1.00000
     31      -8.5458      1.00000
     32      -8.4151      1.00000
     33      -8.3797      1.00000
     34      -8.2716      1.00000
     35      -8.2191      1.00000
     36      -8.1458      1.00000
     37      -8.1170      1.00000
     38      -8.1053      1.00000
     39      -8.0809      1.00000
     40      -8.0691      1.00000
     41      -8.0362      1.00000
     42      -7.9634      1.00000
     43      -7.9188      1.00000
     44      -7.9045      1.00000
     45      -7.8475      1.00000
     46      -7.8217      1.00000
     47      -7.7593      1.00000
     48      -7.7205      1.00000
     49      -7.6778      1.00000
     50      -7.6365      1.00000
     51      -7.6106      1.00000
     52      -7.5657      1.00000
     53      -7.5209      1.00000
     54      -7.4653      1.00000
     55      -7.3821      1.00000
     56      -7.3732      1.00000
     57      -7.3642      1.00000
     58      -7.3371      1.00000
     59      -7.2432      1.00000
     60      -7.1142      1.00000
     61      -7.0270      1.00000
     62      -6.9091      1.00000
     63      -6.8098      1.00000
     64      -6.7916      1.00000
     65      -6.7748      1.00000
     66      -6.7498      1.00000
     67      -6.7161      1.00000
     68      -6.5960      1.00000
     69      -6.5190      1.00000
     70      -6.4859      1.00000
     71      -6.4679      1.00000
     72      -6.3728      1.00000
     73      -6.2932      1.00000
     74      -6.2638      1.00000
     75      -6.2266      1.00000
     76      -6.2164      1.00000
     77      -6.2061      1.00000
     78      -6.1629      1.00000
     79      -6.0743      1.00000
     80      -6.0292      1.00000
     81      -6.0105      1.00000
     82      -5.9677      1.00000
     83      -5.9543      1.00000
     84      -5.8992      1.00000
     85      -5.8713      1.00000
     86      -5.8039      1.00000
     87      -5.7498      1.00000
     88      -5.7125      1.00000
     89      -5.6767      1.00000
     90      -5.6480      1.00000
     91      -5.6182      1.00000
     92      -5.5950      1.00000
     93      -5.5775      1.00000
     94      -5.5468      1.00000
     95      -5.5004      1.00000
     96      -5.4954      1.00000
     97      -2.0330      0.00000
     98      -2.0290      0.00000
     99      -1.9986      0.00000
    100      -1.9773      0.00000
    101      -1.9509      0.00000
    102      -1.9273      0.00000
    103      -1.8403      0.00000
    104      -1.7917      0.00000
    105      -1.7758      0.00000
    106      -1.7522      0.00000
    107      -1.7172      0.00000
    108      -1.6956      0.00000
    109      -1.6821      0.00000
    110      -1.6462      0.00000
    111      -1.5853      0.00000
    112      -1.5673      0.00000
    113      -1.5306      0.00000
    114      -1.5227      0.00000
    115      -1.5052      0.00000
    116      -1.3680      0.00000
    117      -1.2727      0.00000
    118      -1.2499      0.00000
    119      -1.2289      0.00000
    120      -1.1010      0.00000
    121      -1.0654      0.00000
    122      -1.0473      0.00000
    123      -1.0275      0.00000
    124      -1.0195      0.00000
    125      -1.0015      0.00000
    126      -0.9923      0.00000
    127      -0.9790      0.00000
    128      -0.9549      0.00000
    129      -0.9282      0.00000
    130      -0.9123      0.00000
    131      -0.8843      0.00000
    132      -0.8614      0.00000
    133      -0.6642      0.00000
    134      -0.5616      0.00000
    135      -0.5033      0.00000
    136      -0.3406      0.00000
    137       0.2481      0.00000
    138       1.8484      0.00000
    139       2.1450      0.00000
    140       2.2732      0.00000
    141       2.5077      0.00000
    142       2.5402      0.00000
    143       2.6781      0.00000
    144       2.7284      0.00000

 k-point     6 :       0.2000    0.2000    0.0000
  band No.  band energies     occupation 
      1     -21.3969      1.00000
      2     -19.3469      1.00000
      3     -19.2083      1.00000
      4     -19.1321      1.00000
      5     -18.9661      1.00000
      6     -18.8637      1.00000
      7     -18.7424      1.00000
      8     -18.6942      1.00000
      9     -18.6243      1.00000
     10     -18.5975      1.00000
     11     -18.5674      1.00000
     12     -18.5596      1.00000
     13     -18.5440      1.00000
     14     -18.5256      1.00000
     15     -18.5010      1.00000
     16     -18.4748      1.00000
     17     -18.4573      1.00000
     18     -18.4416      1.00000
     19     -18.4294      1.00000
     20     -18.4166      1.00000
     21     -18.4012      1.00000
     22     -18.3772      1.00000
     23     -18.3585      1.00000
     24     -18.3328      1.00000
     25     -12.0182      1.00000
     26      -9.3284      1.00000
     27      -8.9577      1.00000
     28      -8.8869      1.00000
     29      -8.7923      1.00000
     30      -8.5767      1.00000
     31      -8.5222      1.00000
     32      -8.4258      1.00000
     33      -8.3672      1.00000
     34      -8.2792      1.00000
     35      -8.2299      1.00000
     36      -8.1517      1.00000
     37      -8.1147      1.00000
     38      -8.1054      1.00000
     39      -8.0757      1.00000
     40      -8.0397      1.00000
     41      -8.0298      1.00000
     42      -7.9537      1.00000
     43      -7.9403      1.00000
     44      -7.9130      1.00000
     45      -7.8553      1.00000
     46      -7.8044      1.00000
     47      -7.7529      1.00000
     48      -7.7032      1.00000
     49      -7.6836      1.00000
     50      -7.6384      1.00000
     51      -7.6247      1.00000
     52      -7.5743      1.00000
     53      -7.5351      1.00000
     54      -7.4492      1.00000
     55      -7.4139      1.00000
     56      -7.3717      1.00000
     57      -7.3256      1.00000
     58      -7.3184      1.00000
     59      -7.1577      1.00000
     60      -7.1005      1.00000
     61      -7.0526      1.00000
     62      -6.9195      1.00000
     63      -6.8662      1.00000
     64      -6.8211      1.00000
     65      -6.7474      1.00000
     66      -6.6845      1.00000
     67      -6.6648      1.00000
     68      -6.6014      1.00000
     69      -6.5810      1.00000
     70      -6.5261      1.00000
     71      -6.4821      1.00000
     72      -6.4375      1.00000
     73      -6.3721      1.00000
     74      -6.2683      1.00000
     75      -6.2320      1.00000
     76      -6.2020      1.00000
     77      -6.1592      1.00000
     78      -6.1354      1.00000
     79      -6.1213      1.00000
     80      -6.1028      1.00000
     81      -6.0380      1.00000
     82      -6.0078      1.00000
     83      -5.9366      1.00000
     84      -5.8888      1.00000
     85      -5.8042      1.00000
     86      -5.7617      1.00000
     87      -5.7529      1.00000
     88      -5.7079      1.00000
     89      -5.6630      1.00000
     90      -5.6286      1.00000
     91      -5.5968      1.00000
     92      -5.5808      1.00000
     93      -5.5597      1.00000
     94      -5.5295      1.00000
     95      -5.5098      1.00000
     96      -5.4920      1.00000
     97      -2.0340      0.00000
     98      -2.0255      0.00000
     99      -2.0033      0.00000
    100      -1.9896      0.00000
    101      -1.9578      0.00000
    102      -1.9237      0.00000
    103      -1.8466      0.00000
    104      -1.8227      0.00000
    105      -1.7682      0.00000
    106      -1.7430      0.00000
    107      -1.7128      0.00000
    108      -1.6920      0.00000
    109      -1.6644      0.00000
    110      -1.6278      0.00000
    111      -1.6095      0.00000
    112      -1.5653      0.00000
    113      -1.5450      0.00000
    114      -1.5258      0.00000
    115      -1.4988      0.00000
    116      -1.3561      0.00000
    117      -1.2746      0.00000
    118      -1.2372      0.00000
    119      -1.2291      0.00000
    120      -1.0840      0.00000
    121      -1.0768      0.00000
    122      -1.0461      0.00000
    123      -1.0316      0.00000
    124      -1.0176      0.00000
    125      -1.0014      0.00000
    126      -0.9940      0.00000
    127      -0.9776      0.00000
    128      -0.9676      0.00000
    129      -0.9311      0.00000
    130      -0.9197      0.00000
    131      -0.8829      0.00000
    132      -0.8609      0.00000
    133      -0.6528      0.00000
    134      -0.5593      0.00000
    135      -0.5030      0.00000
    136      -0.3438      0.00000
    137       0.2458      0.00000
    138       1.7914      0.00000
    139       2.2144      0.00000
    140       2.3174      0.00000
    141       2.3447      0.00000
    142       2.6661      0.00000
    143       2.7267      0.00000
    144       2.7453      0.00000

 k-point     7 :      -0.2000    0.4000    0.0000
  band No.  band energies     occupation 
      1     -21.3969      1.00000
      2     -19.3484      1.00000
      3     -19.2007      1.00000
      4     -19.1110      1.00000
      5     -19.0327      1.00000
      6     -18.8194      1.00000
      7     -18.7320      1.00000
      8     -18.7033      1.00000
      9     -18.6207      1.00000
     10     -18.5780      1.00000
     11     -18.5754      1.00000
     12     -18.5540      1.00000
     13     -18.5518      1.00000
     14     -18.5366      1.00000
     15     -18.5155      1.00000
     16     -18.4809      1.00000
     17     -18.4566      1.00000
     18     -18.4375      1.00000
     19     -18.4238      1.00000
     20     -18.4137      1.00000
     21     -18.4022      1.00000
     22     -18.3817      1.00000
     23     -18.3556      1.00000
     24     -18.3311      1.00000
     25     -12.0181      1.00000
     26      -9.3407      1.00000
     27      -8.9210      1.00000
     28      -8.9042      1.00000
     29      -8.7880      1.00000
     30      -8.5634      1.00000
     31      -8.5628      1.00000
     32      -8.3961      1.00000
     33      -8.3899      1.00000
     34      -8.2612      1.00000
     35      -8.2199      1.00000
     36      -8.1589      1.00000
     37      -8.1218      1.00000
     38      -8.0958      1.00000
     39      -8.0586      1.00000
     40      -8.0585      1.00000
     41      -8.0204      1.00000
     42      -7.9856      1.00000
     43      -7.9448      1.00000
     44      -7.8745      1.00000
     45      -7.8591      1.00000
     46      -7.8485      1.00000
     47      -7.7144      1.00000
     48      -7.7014      1.00000
     49      -7.6613      1.00000
     50      -7.6372      1.00000
     51      -7.6316      1.00000
     52      -7.5817      1.00000
     53      -7.5235      1.00000
     54      -7.4305      1.00000
     55      -7.4112      1.00000
     56      -7.3854      1.00000
     57      -7.3455      1.00000
     58      -7.3305      1.00000
     59      -7.2387      1.00000
     60      -7.1059      1.00000
     61      -7.0294      1.00000
     62      -6.8963      1.00000
     63      -6.8726      1.00000
     64      -6.8238      1.00000
     65      -6.7719      1.00000
     66      -6.6553      1.00000
     67      -6.6305      1.00000
     68      -6.6051      1.00000
     69      -6.5801      1.00000
     70      -6.5456      1.00000
     71      -6.4509      1.00000
     72      -6.4487      1.00000
     73      -6.3798      1.00000
     74      -6.2422      1.00000
     75      -6.2222      1.00000
     76      -6.1960      1.00000
     77      -6.1905      1.00000
     78      -6.1222      1.00000
     79      -6.1217      1.00000
     80      -6.0958      1.00000
     81      -6.0344      1.00000
     82      -6.0228      1.00000
     83      -5.9094      1.00000
     84      -5.9035      1.00000
     85      -5.7781      1.00000
     86      -5.7625      1.00000
     87      -5.7481      1.00000
     88      -5.7094      1.00000
     89      -5.6894      1.00000
     90      -5.6312      1.00000
     91      -5.6189      1.00000
     92      -5.5873      1.00000
     93      -5.5690      1.00000
     94      -5.5203      1.00000
     95      -5.4993      1.00000
     96      -5.4993      1.00000
     97      -2.0373      0.00000
     98      -2.0353      0.00000
     99      -1.9912      0.00000
    100      -1.9869      0.00000
    101      -1.9646      0.00000
    102      -1.9313      0.00000
    103      -1.8297      0.00000
    104      -1.7995      0.00000
    105      -1.7688      0.00000
    106      -1.7491      0.00000
    107      -1.7156      0.00000
    108      -1.6971      0.00000
    109      -1.6850      0.00000
    110      -1.6403      0.00000
    111      -1.5847      0.00000
    112      -1.5743      0.00000
    113      -1.5241      0.00000
    114      -1.5138      0.00000
    115      -1.5109      0.00000
    116      -1.3687      0.00000
    117      -1.2697      0.00000
    118      -1.2513      0.00000
    119      -1.2251      0.00000
    120      -1.0973      0.00000
    121      -1.0745      0.00000
    122      -1.0393      0.00000
    123      -1.0323      0.00000
    124      -1.0197      0.00000
    125      -1.0107      0.00000
    126      -0.9993      0.00000
    127      -0.9741      0.00000
    128      -0.9531      0.00000
    129      -0.9303      0.00000
    130      -0.8968      0.00000
    131      -0.8935      0.00000
    132      -0.8560      0.00000
    133      -0.6655      0.00000
    134      -0.5626      0.00000
    135      -0.5040      0.00000
    136      -0.3386      0.00000
    137       0.2467      0.00000
    138       1.7924      0.00000
    139       2.2163      0.00000
    140       2.3235      0.00000
    141       2.3365      0.00000
    142       2.6675      0.00000
    143       2.7331      0.00000
    144       2.7403      0.00000

 k-point     8 :       0.4000    0.2000    0.0000
  band No.  band energies     occupation 
      1     -21.3968      1.00000
      2     -19.2948      1.00000
      3     -19.2761      1.00000
      4     -19.1459      1.00000
      5     -18.9235      1.00000
      6     -18.8942      1.00000
      7     -18.7159      1.00000
      8     -18.6383      1.00000
      9     -18.6357      1.00000
     10     -18.6007      1.00000
     11     -18.5928      1.00000
     12     -18.5846      1.00000
     13     -18.5475      1.00000
     14     -18.5176      1.00000
     15     -18.5123      1.00000
     16     -18.4692      1.00000
     17     -18.4599      1.00000
     18     -18.4439      1.00000
     19     -18.4244      1.00000
     20     -18.4120      1.00000
     21     -18.4027      1.00000
     22     -18.3768      1.00000
     23     -18.3581      1.00000
     24     -18.3358      1.00000
     25     -12.0183      1.00000
     26      -9.3178      1.00000
     27      -8.9577      1.00000
     28      -8.8697      1.00000
     29      -8.7019      1.00000
     30      -8.6442      1.00000
     31      -8.4866      1.00000
     32      -8.4568      1.00000
     33      -8.3826      1.00000
     34      -8.2863      1.00000
     35      -8.2580      1.00000
     36      -8.1225      1.00000
     37      -8.1210      1.00000
     38      -8.1038      1.00000
     39      -8.0853      1.00000
     40      -8.0815      1.00000
     41      -8.0575      1.00000
     42      -7.9789      1.00000
     43      -7.9391      1.00000
     44      -7.9280      1.00000
     45      -7.8689      1.00000
     46      -7.7742      1.00000
     47      -7.7612      1.00000
     48      -7.6856      1.00000
     49      -7.6700      1.00000
     50      -7.6306      1.00000
     51      -7.6015      1.00000
     52      -7.5516      1.00000
     53      -7.5502      1.00000
     54      -7.4657      1.00000
     55      -7.4333      1.00000
     56      -7.4279      1.00000
     57      -7.3514      1.00000
     58      -7.2855      1.00000
     59      -7.2635      1.00000
     60      -7.1116      1.00000
     61      -7.0658      1.00000
     62      -6.8921      1.00000
     63      -6.8399      1.00000
     64      -6.8023      1.00000
     65      -6.7462      1.00000
     66      -6.6817      1.00000
     67      -6.5829      1.00000
     68      -6.5591      1.00000
     69      -6.5050      1.00000
     70      -6.4343      1.00000
     71      -6.4148      1.00000
     72      -6.3755      1.00000
     73      -6.3343      1.00000
     74      -6.3284      1.00000
     75      -6.2754      1.00000
     76      -6.2457      1.00000
     77      -6.1684      1.00000
     78      -6.1481      1.00000
     79      -6.1310      1.00000
     80      -6.0899      1.00000
     81      -6.0146      1.00000
     82      -5.9227      1.00000
     83      -5.9050      1.00000
     84      -5.8757      1.00000
     85      -5.8651      1.00000
     86      -5.8047      1.00000
     87      -5.7576      1.00000
     88      -5.7213      1.00000
     89      -5.6635      1.00000
     90      -5.6421      1.00000
     91      -5.6211      1.00000
     92      -5.6001      1.00000
     93      -5.5830      1.00000
     94      -5.5813      1.00000
     95      -5.5449      1.00000
     96      -5.5255      1.00000
     97      -2.0293      0.00000
     98      -2.0136      0.00000
     99      -1.9816      0.00000
    100      -1.9741      0.00000
    101      -1.9426      0.00000
    102      -1.9154      0.00000
    103      -1.8542      0.00000
    104      -1.8327      0.00000
    105      -1.7622      0.00000
    106      -1.7533      0.00000
    107      -1.7361      0.00000
    108      -1.6783      0.00000
    109      -1.6752      0.00000
    110      -1.6263      0.00000
    111      -1.5900      0.00000
    112      -1.5809      0.00000
    113      -1.5430      0.00000
    114      -1.5300      0.00000
    115      -1.5153      0.00000
    116      -1.3418      0.00000
    117      -1.2816      0.00000
    118      -1.2432      0.00000
    119      -1.2366      0.00000
    120      -1.0822      0.00000
    121      -1.0760      0.00000
    122      -1.0441      0.00000
    123      -1.0276      0.00000
    124      -1.0176      0.00000
    125      -0.9962      0.00000
    126      -0.9765      0.00000
    127      -0.9725      0.00000
    128      -0.9637      0.00000
    129      -0.9553      0.00000
    130      -0.9147      0.00000
    131      -0.8971      0.00000
    132      -0.8602      0.00000
    133      -0.6517      0.00000
    134      -0.5565      0.00000
    135      -0.5042      0.00000
    136      -0.3417      0.00000
    137       0.2483      0.00000
    138       1.9852      0.00000
    139       2.0558      0.00000
    140       2.2857      0.00000
    141       2.4224      0.00000
    142       2.4502      0.00000
    143       2.6881      0.00000
    144       2.8909      0.00000

 k-point     9 :      -0.2000   -0.4000    0.0000
  band No.  band energies     occupation 
      1     -21.3968      1.00000
      2     -19.3090      1.00000
      3     -19.2520      1.00000
      4     -19.1448      1.00000
      5     -18.9859      1.00000
      6     -18.8457      1.00000
      7     -18.6979      1.00000
      8     -18.6509      1.00000
      9     -18.6229      1.00000
     10     -18.5987      1.00000
     11     -18.5851      1.00000
     12     -18.5759      1.00000
     13     -18.5595      1.00000
     14     -18.5416      1.00000
     15     -18.5172      1.00000
     16     -18.4791      1.00000
     17     -18.4506      1.00000
     18     -18.4409      1.00000
     19     -18.4214      1.00000
     20     -18.4088      1.00000
     21     -18.4047      1.00000
     22     -18.3788      1.00000
     23     -18.3580      1.00000
     24     -18.3331      1.00000
     25     -12.0182      1.00000
     26      -9.3312      1.00000
     27      -8.9220      1.00000
     28      -8.8759      1.00000
     29      -8.7250      1.00000
     30      -8.6231      1.00000
     31      -8.5304      1.00000
     32      -8.4363      1.00000
     33      -8.3845      1.00000
     34      -8.2742      1.00000
     35      -8.2317      1.00000
     36      -8.1292      1.00000
     37      -8.1179      1.00000
     38      -8.1030      1.00000
     39      -8.0911      1.00000
     40      -8.0845      1.00000
     41      -8.0483      1.00000
     42      -8.0021      1.00000
     43      -7.9538      1.00000
     44      -7.9243      1.00000
     45      -7.8641      1.00000
     46      -7.7744      1.00000
     47      -7.7223      1.00000
     48      -7.6897      1.00000
     49      -7.6772      1.00000
     50      -7.6313      1.00000
     51      -7.5956      1.00000
     52      -7.5708      1.00000
     53      -7.5137      1.00000
     54      -7.4932      1.00000
     55      -7.4473      1.00000
     56      -7.4129      1.00000
     57      -7.3544      1.00000
     58      -7.3003      1.00000
     59      -7.2689      1.00000
     60      -7.1728      1.00000
     61      -7.0255      1.00000
     62      -6.8997      1.00000
     63      -6.8531      1.00000
     64      -6.8037      1.00000
     65      -6.7574      1.00000
     66      -6.6356      1.00000
     67      -6.5818      1.00000
     68      -6.5495      1.00000
     69      -6.4929      1.00000
     70      -6.4688      1.00000
     71      -6.4129      1.00000
     72      -6.3809      1.00000
     73      -6.3160      1.00000
     74      -6.2796      1.00000
     75      -6.2698      1.00000
     76      -6.2523      1.00000
     77      -6.2132      1.00000
     78      -6.1704      1.00000
     79      -6.1285      1.00000
     80      -6.0679      1.00000
     81      -5.9744      1.00000
     82      -5.9410      1.00000
     83      -5.8953      1.00000
     84      -5.8556      1.00000
     85      -5.8332      1.00000
     86      -5.8178      1.00000
     87      -5.7618      1.00000
     88      -5.7235      1.00000
     89      -5.7112      1.00000
     90      -5.6488      1.00000
     91      -5.6236      1.00000
     92      -5.6088      1.00000
     93      -5.5937      1.00000
     94      -5.5750      1.00000
     95      -5.5368      1.00000
     96      -5.5256      1.00000
     97      -2.0303      0.00000
     98      -2.0185      0.00000
     99      -1.9808      0.00000
    100      -1.9649      0.00000
    101      -1.9464      0.00000
    102      -1.9293      0.00000
    103      -1.8458      0.00000
    104      -1.8127      0.00000
    105      -1.7702      0.00000
    106      -1.7415      0.00000
    107      -1.7254      0.00000
    108      -1.7026      0.00000
    109      -1.6800      0.00000
    110      -1.6396      0.00000
    111      -1.5962      0.00000
    112      -1.5603      0.00000
    113      -1.5321      0.00000
    114      -1.5267      0.00000
    115      -1.5122      0.00000
    116      -1.3605      0.00000
    117      -1.2723      0.00000
    118      -1.2566      0.00000
    119      -1.2330      0.00000
    120      -1.0974      0.00000
    121      -1.0771      0.00000
    122      -1.0393      0.00000
    123      -1.0327      0.00000
    124      -1.0148      0.00000
    125      -0.9990      0.00000
    126      -0.9917      0.00000
    127      -0.9674      0.00000
    128      -0.9511      0.00000
    129      -0.9364      0.00000
    130      -0.9129      0.00000
    131      -0.8909      0.00000
    132      -0.8602      0.00000
    133      -0.6629      0.00000
    134      -0.5595      0.00000
    135      -0.5040      0.00000
    136      -0.3392      0.00000
    137       0.2496      0.00000
    138       1.9788      0.00000
    139       2.0686      0.00000
    140       2.2782      0.00000
    141       2.4232      0.00000
    142       2.4519      0.00000
    143       2.6875      0.00000
    144       2.8430      0.00000


--------------------------------------------------------------------------------------------------------


 soft charge-density along one line, spin component            1
         0         1         2         3         4         5         6         7         8         9
 total charge-density along one line
 
 soft charge-density along one line, spin component            2
         0         1         2         3         4         5         6         7         8         9
 total charge-density along one line
 
 pseudopotential strength for first ion, spin component:            1
 -9.641   0.198   0.001  -0.001   0.001  -9.968   0.191   0.001
  0.198  -9.503  -0.001  -0.001   0.002   0.191  -9.835  -0.001
  0.001  -0.001  -9.788  -0.000  -0.001   0.001  -0.001 -10.110
 -0.001  -0.001  -0.000  -9.500  -0.198  -0.001  -0.001  -0.000
  0.001   0.002  -0.001  -0.198  -9.640   0.001   0.002  -0.001
 -9.968   0.191   0.001  -0.001   0.001 -10.258   0.184   0.001
  0.191  -9.835  -0.001  -0.001   0.002   0.184 -10.129  -0.001
  0.001  -0.001 -10.110  -0.000  -0.001   0.001  -0.001 -10.395
 -0.001  -0.001  -0.000  -9.832  -0.191  -0.001  -0.001  -0.000
  0.001   0.002  -0.001  -0.191  -9.967   0.001   0.002  -0.001
  0.000   0.001   0.000   0.000  -0.000   0.000   0.001   0.000
  0.001   0.001   0.001   0.000  -0.000   0.001   0.001   0.001
 -0.000  -0.001   0.000   0.000  -0.002  -0.000  -0.001  -0.000
  0.000  -0.000  -0.000  -0.000   0.000   0.000  -0.000  -0.000
 -0.002   0.000   0.000  -0.000   0.000  -0.002   0.000   0.000
 -0.000  -0.001   0.000   0.000  -0.002  -0.000  -0.001   0.000
  0.000  -0.000  -0.001  -0.000   0.000   0.000  -0.000  -0.001
 -0.003   0.000   0.000  -0.001  -0.000  -0.003   0.000   0.000
 pseudopotential strength for first ion, spin component:            2
 -7.958  -0.260   0.002  -0.001  -0.002  -8.341  -0.252   0.002
 -0.260  -8.150  -0.000  -0.002  -0.000  -0.252  -8.527  -0.000
  0.002  -0.000  -7.779  -0.000  -0.002   0.002  -0.000  -8.168
 -0.001  -0.002  -0.000  -8.149   0.260  -0.001  -0.002  -0.000
 -0.002  -0.000  -0.002   0.260  -7.959  -0.001  -0.000  -0.002
 -8.341  -0.252   0.002  -0.001  -0.001  -8.685  -0.243   0.002
 -0.252  -8.527  -0.000  -0.002  -0.000  -0.243  -8.865  -0.000
  0.002  -0.000  -8.168  -0.000  -0.002   0.002  -0.000  -8.519
 -0.001  -0.002  -0.000  -8.525   0.251  -0.001  -0.001  -0.000
 -0.001  -0.000  -0.002   0.251  -8.342  -0.001  -0.000  -0.002
  0.001  -0.000   0.000   0.000  -0.000   0.001  -0.000   0.000
  0.001  -0.000   0.001   0.000  -0.001   0.001  -0.000   0.000
 -0.000  -0.001   0.000  -0.000  -0.000  -0.000  -0.001   0.000
 -0.000  -0.000  -0.001  -0.000   0.000  -0.000  -0.000  -0.001
 -0.001  -0.000   0.000  -0.001  -0.000  -0.001  -0.000   0.000
 -0.001  -0.001   0.000  -0.000   0.001  -0.001  -0.001   0.000
 -0.000  -0.000  -0.001  -0.001   0.000  -0.000  -0.000  -0.001
 -0.000  -0.000   0.000  -0.001  -0.000  -0.001  -0.000   0.000
 total augmentation occupancy for first ion, spin component:            1
  3.877  -1.310   0.025  -0.003  -0.030  -2.876   0.123  -0.018   0.001   0.021  -0.012   0.000   0.006   0.001   0.096  -0.000
 -1.310   2.827  -0.014   0.008   0.002   0.122  -2.666   0.012  -0.010  -0.005  -0.002  -0.000   0.007   0.001  -0.035  -0.001
  0.025  -0.014   4.651   0.007  -0.019  -0.017   0.013  -2.806  -0.006   0.016   0.060  -0.010   0.001  -0.005   0.000  -0.000
 -0.003   0.008   0.007   2.828   1.304   0.000  -0.010  -0.006  -2.668  -0.118  -0.005  -0.000   0.037   0.002  -0.001  -0.000
 -0.030   0.002  -0.019   1.304   3.856   0.021  -0.005   0.016  -0.119  -2.863  -0.002   0.000   0.099  -0.004  -0.005  -0.004
 -2.876   0.122  -0.017   0.000   0.021   2.831   0.806   0.012   0.001  -0.015   0.011  -0.001  -0.010  -0.003  -0.107   0.000
  0.123  -2.666   0.013  -0.010  -0.005   0.806   3.274  -0.012   0.011   0.008  -0.001   0.000  -0.011  -0.003   0.027   0.001
 -0.018   0.012  -2.806  -0.006   0.016   0.012  -0.012   2.090   0.006  -0.014  -0.067   0.012  -0.001   0.005   0.000   0.000
  0.001  -0.010  -0.006  -2.668  -0.119   0.001   0.011   0.006   3.277  -0.810   0.004   0.000  -0.032  -0.004   0.000   0.000
  0.021  -0.005   0.016  -0.118  -2.863  -0.015   0.008  -0.014  -0.810   2.823   0.003  -0.001  -0.107   0.005   0.005   0.004
 -0.012  -0.002   0.060  -0.005  -0.002   0.011  -0.001  -0.067   0.004   0.003   1.838  -0.220  -0.002  -0.004  -0.004   0.000
  0.000  -0.000  -0.010  -0.000   0.000  -0.001   0.000   0.012   0.000  -0.001  -0.220   0.034   0.000   0.000   0.000  -0.000
  0.006   0.007   0.001   0.037   0.099  -0.010  -0.011  -0.001  -0.032  -0.107  -0.002   0.000   0.283  -0.000   0.000  -0.008
  0.001   0.001  -0.005   0.002  -0.004  -0.003  -0.003   0.005  -0.004   0.005  -0.004   0.000  -0.000   0.276  -0.000   0.000
  0.096  -0.035   0.000  -0.001  -0.005  -0.107   0.027   0.000   0.000   0.005  -0.004   0.000   0.000  -0.000   0.283  -0.000
 -0.000  -0.001  -0.000  -0.000  -0.004   0.000   0.001   0.000   0.000   0.004   0.000  -0.000  -0.008   0.000  -0.000   0.000
 -0.000  -0.000   0.000  -0.000   0.000   0.000   0.000  -0.000   0.000  -0.000   0.000  -0.000   0.000  -0.008  -0.000  -0.000
 -0.004  -0.000  -0.000   0.000   0.000   0.004  -0.000   0.000  -0.000  -0.000   0.000  -0.000  -0.000  -0.000  -0.008   0.000
 total augmentation occupancy for first ion, spin component:            2
  2.636  -2.161   0.028  -0.007  -0.030  -1.180   1.271  -0.021   0.005   0.021  -0.005  -0.001  -0.001  -0.001   0.012   0.000
 -2.161   1.078  -0.012   0.002   0.001   1.269  -0.270   0.009  -0.002  -0.002  -0.002   0.000  -0.002  -0.001  -0.029  -0.000
  0.028  -0.012   4.091   0.004  -0.015  -0.020   0.010  -2.026  -0.003   0.011  -0.007   0.002   0.001  -0.002   0.000  -0.000
 -0.007   0.002   0.004   1.079   2.154   0.005  -0.002  -0.004  -0.270  -1.264  -0.003  -0.000   0.026  -0.002  -0.003  -0.000
 -0.030   0.001  -0.015   2.154   2.614   0.021  -0.003   0.011  -1.265  -1.165   0.001  -0.000   0.016   0.000  -0.001   0.000
 -1.180   1.269  -0.020   0.005   0.021   0.466  -0.794   0.014  -0.004  -0.014   0.003   0.001   0.001   0.001  -0.003  -0.000
  1.271  -0.270   0.010  -0.002  -0.003  -0.794  -0.096  -0.007   0.001   0.002   0.002  -0.000   0.002   0.001   0.014   0.000
 -0.021   0.009  -2.026  -0.004   0.011   0.014  -0.007   0.999   0.002  -0.007   0.011  -0.002  -0.000   0.001   0.000   0.000
  0.005  -0.002  -0.003  -0.270  -1.265  -0.004   0.001   0.002  -0.096   0.789   0.002   0.000  -0.012   0.002   0.002   0.000
  0.021  -0.002   0.011  -1.264  -1.165  -0.014   0.002  -0.007   0.789   0.456  -0.001   0.000  -0.006  -0.001   0.000  -0.001
 -0.005  -0.002  -0.007  -0.003   0.001   0.003   0.002   0.011   0.002  -0.001  -0.043   0.049   0.000  -0.000  -0.000  -0.000
 -0.001   0.000   0.002  -0.000  -0.000   0.001  -0.000  -0.002   0.000   0.000   0.049  -0.009  -0.000  -0.000  -0.000   0.000
 -0.001  -0.002   0.001   0.026   0.016   0.001   0.002  -0.000  -0.012  -0.006   0.000  -0.000   0.017   0.000   0.000   0.002
 -0.001  -0.001  -0.002  -0.002   0.000   0.001   0.001   0.001   0.002  -0.001  -0.000  -0.000   0.000   0.014  -0.000  -0.000
  0.012  -0.029   0.000  -0.003  -0.001  -0.003   0.014   0.000   0.002   0.000  -0.000  -0.000   0.000  -0.000   0.017   0.000
  0.000  -0.000  -0.000  -0.000   0.000  -0.000   0.000   0.000   0.000  -0.001  -0.000   0.000   0.002  -0.000   0.000  -0.000
 -0.000   0.000  -0.000   0.000   0.000   0.000  -0.000   0.000  -0.000  -0.000  -0.000   0.000  -0.000   0.001  -0.000   0.000
  0.001  -0.000  -0.000   0.000   0.000  -0.001  -0.000   0.000  -0.000  -0.000  -0.000   0.000   0.000  -0.000   0.002  -0.000


------------------------ aborting loop because EDIFF is reached ----------------------------------------


    CHARGE:  cpu time      4.8862: real time     24.5136
    FORLOC:  cpu time      0.0422: real time      0.2183
    FORNL :  cpu time     13.6024: real time     68.2840
    STRESS:  cpu time     40.0081: real time    200.8150
    FORCOR:  cpu time      0.4619: real time      2.3190
    FORHAR:  cpu time      0.1036: real time      0.5240
    MIXING:  cpu time      0.1953: real time      0.9800
    OFIELD:  cpu time      0.0000: real time      0.0000

  FORCE on cell =-STRESS in cart. coord.  units (eV):
  Direction    XX          YY          ZZ          XY          YZ          ZX
  --------------------------------------------------------------------------------------
  Alpha Z   109.46236   109.46236   109.46236
  Ewald   31108.18114 31118.75509-37817.89234    -9.15731     0.22556    -0.13023
  Hartree 33624.39633 33630.56690-32074.38536    -5.34387     1.29852    -0.74970
  E(xc)    -841.65426  -841.58190  -842.38877    -0.06268    -0.13991     0.08078
  Local  -68851.28250-68867.48205 65782.62405    14.02991    -4.37057     2.52336
  n-local  1906.81495  1907.62954  1904.40276    -0.85509    -0.49576     0.33797
  augment  -234.80287  -235.47960  -234.72967     0.58549     0.81428    -0.47018
  Kinetic  3185.13202  3181.91878  3175.22737     2.36546     4.13107    -2.41303
  Fock        0.00000     0.00000     0.00000     0.00000     0.00000     0.00000
  -------------------------------------------------------------------------------------
  Total       6.00108     4.03524     2.32040     1.70247     1.45294    -0.83869
  in kB       3.79615     2.55260     1.46783     1.07695     0.91910    -0.53054
  external pressure =        2.61 kB  Pullay stress =        0.00 kB


 VOLUME and BASIS-vectors are now :
 -----------------------------------------------------------------------------
  energy-cutoff  :      400.00
  volume of cell :     2532.77
      direct lattice vectors                 reciprocal lattice vectors
    12.092548997  0.000000000  0.000000000     0.082695551  0.047744299 -0.000000000
    -6.046274499 10.472454628  0.000000000     0.000000000  0.095488597  0.000000000
     0.000000000  0.000000000 20.000000000     0.000000000 -0.000000000  0.050000000

  length of vectors
    12.092548997 12.092548997 20.000000000     0.095488597  0.095488597  0.050000000


 FORCES acting on ions
    electron-ion (+dipol)            ewald-force                    non-local-force                 convergence-correction
 -----------------------------------------------------------------------------------------------
   0.742E-01 -.608E+00 0.280E+01   -.156E+00 0.549E+00 -.284E+01   0.711E-01 0.750E-01 0.734E-01   0.570E-04 0.158E-04 -.127E-03
   -.631E+01 -.399E+01 0.109E+02   0.529E+01 0.221E+01 -.123E+02   0.715E+00 0.140E+01 0.118E+01   0.690E-04 0.671E-04 -.872E-04
   0.661E+01 0.348E+01 0.109E+02   -.456E+01 -.348E+01 -.123E+02   -.157E+01 0.808E-01 0.118E+01   -.926E-04 -.262E-04 -.872E-04
   0.229E+00 0.215E+01 0.128E+01   -.230E+00 -.208E+01 -.139E+01   0.210E-01 -.132E+00 0.181E+00   -.383E-04 -.173E-04 -.112E-03
   -.198E+01 0.879E+00 0.128E+01   0.192E+01 -.841E+00 -.139E+01   0.104E+00 -.841E-01 0.181E+00   0.341E-04 0.245E-04 -.112E-03
   -.175E+00 -.195E-01 0.196E+01   0.853E-01 0.113E+00 -.203E+01   0.802E-01 -.885E-01 0.938E-01   0.335E-04 -.688E-05 -.146E-03
   0.105E+00 0.142E+00 0.196E+01   -.141E+00 -.174E-01 -.203E+01   0.366E-01 -.114E+00 0.938E-01   -.108E-04 -.325E-04 -.146E-03
   0.490E+00 -.368E+00 0.280E+01   -.398E+00 0.409E+00 -.284E+01   -.100E+00 -.241E-01 0.734E-01   -.421E-04 -.414E-04 -.127E-03
   0.712E+02 -.867E+00 0.483E+03   -.732E+02 0.874E+00 -.486E+03   0.200E+01 -.401E-02 0.296E+01   0.528E-04 0.474E-05 -.908E-04
   -.349E+02 0.604E+02 0.476E+03   0.357E+02 -.619E+02 -.479E+03   -.938E+00 0.162E+01 0.256E+01   -.539E-06 0.934E-06 -.969E-04
   -.372E+02 -.630E+02 0.483E+03   0.382E+02 0.646E+02 -.486E+03   -.103E+01 -.160E+01 0.295E+01   0.635E-04 0.437E-05 -.604E-04
   -.673E+02 -.253E+01 -.478E+03   0.691E+02 0.255E+01 0.481E+03   -.181E+01 -.225E-01 -.286E+01   0.691E-04 -.286E-04 -.188E-03
   0.363E+02 -.617E+02 -.481E+03   -.373E+02 0.633E+02 0.484E+03   0.972E+00 -.166E+01 -.291E+01   -.393E-05 -.849E-05 -.191E-03
   0.374E+02 0.632E+02 -.481E+03   -.384E+02 -.650E+02 0.484E+03   0.839E+00 0.181E+01 -.268E+01   0.105E-03 0.322E-04 -.200E-03
   0.732E+02 0.768E+00 0.483E+03   -.751E+02 -.795E+00 -.486E+03   0.190E+01 0.858E-01 0.295E+01   -.355E-04 -.528E-04 -.604E-04
   -.364E+02 0.632E+02 0.483E+03   0.374E+02 -.649E+02 -.486E+03   -.939E+00 0.169E+01 0.295E+01   0.649E-05 0.526E-05 -.640E-04
   -.365E+02 -.622E+02 0.489E+03   0.374E+02 0.639E+02 -.491E+03   -.375E+00 -.174E+01 0.236E+01   -.120E-03 -.123E-04 -.813E-05
   -.734E+02 -.779E+00 -.481E+03   0.755E+02 0.796E+00 0.484E+03   -.198E+01 0.177E+00 -.268E+01   -.806E-04 -.752E-04 -.200E-03
   0.322E+02 -.558E+02 -.424E+03   -.327E+02 0.566E+02 0.418E+03   0.151E+00 -.262E+00 0.601E+01   0.943E-05 -.163E-04 -.205E-03
   0.360E+02 0.626E+02 -.479E+03   -.370E+02 -.643E+02 0.482E+03   0.101E+01 0.170E+01 -.269E+01   -.708E-04 0.492E-04 -.218E-03
   0.721E+02 0.497E+00 0.489E+03   -.740E+02 -.480E+00 -.491E+03   0.170E+01 -.547E+00 0.236E+01   0.708E-04 0.981E-04 -.813E-05
   -.355E+02 0.614E+02 0.483E+03   0.365E+02 -.631E+02 -.486E+03   -.989E+00 0.171E+01 0.293E+01   0.158E-04 -.273E-04 -.975E-04
   -.364E+02 -.627E+02 0.482E+03   0.374E+02 0.645E+02 -.485E+03   -.985E+00 -.176E+01 0.296E+01   0.262E-04 0.528E-04 -.989E-04
   -.722E+02 0.111E+00 -.479E+03   0.742E+02 -.132E+00 0.482E+03   -.198E+01 -.216E-01 -.269E+01   -.721E-05 0.859E-04 -.218E-03
   0.353E+02 -.623E+02 -.481E+03   -.362E+02 0.639E+02 0.484E+03   0.955E+00 -.167E+01 -.291E+01   0.932E-05 -.843E-06 -.191E-03
   0.358E+02 0.611E+02 -.480E+03   -.368E+02 -.628E+02 0.483E+03   0.101E+01 0.170E+01 -.293E+01   -.593E-05 0.215E-04 -.209E-03
   0.726E+02 0.188E+00 0.482E+03   -.746E+02 -.171E+00 -.485E+03   0.201E+01 -.251E-01 0.296E+01   -.588E-04 0.372E-05 -.989E-04
   -.365E+02 0.632E+02 0.483E+03   0.375E+02 -.648E+02 -.486E+03   -.990E+00 0.166E+01 0.295E+01   -.780E-05 -.299E-05 -.640E-04
   -.349E+02 -.621E+02 0.483E+03   0.359E+02 0.638E+02 -.486E+03   -.996E+00 -.173E+01 0.296E+01   -.305E-04 -.434E-04 -.908E-04
   -.708E+02 -.461E+00 -.480E+03   0.728E+02 0.485E+00 0.483E+03   -.198E+01 -.250E-01 -.293E+01   -.157E-04 0.159E-04 -.209E-03
   0.358E+02 -.621E+02 -.480E+03   -.368E+02 0.638E+02 0.483E+03   0.986E+00 -.171E+01 -.291E+01   0.223E-05 -.386E-05 -.211E-03
   0.358E+02 0.570E+02 -.478E+03   -.368E+02 -.586E+02 0.481E+03   0.927E+00 0.156E+01 -.286E+01   -.980E-05 -.742E-04 -.188E-03
   0.600E+00 -.104E+01 -.137E+03   -.501E+00 0.868E+00 0.142E+03   -.847E-01 0.147E+00 -.478E+01   0.635E-06 -.110E-05 -.190E-05
 -----------------------------------------------------------------------------------------------
   0.126E+01 -.218E+01 -.708E+01   0.122E-14 0.959E-13 0.426E-12   -.126E+01 0.218E+01 0.708E+01   -.609E-05 0.106E-04 -.421E-02
 
 
 POSITION                                       TOTAL-FORCE (eV/Angst)
 -----------------------------------------------------------------------------------
     -0.00374      3.48896      9.99614        -0.010214      0.015914      0.041957
      2.97602      1.69912      9.95980        -0.307779     -0.379381     -0.258054
      6.10992      3.50848      9.95980         0.482443      0.076854     -0.258054
      9.06942      1.74999      9.99198         0.020648     -0.057546      0.073736
     -3.02711      8.72933      9.99198         0.039512     -0.046655      0.073736
     -0.00262      6.98475      9.99590        -0.009697      0.005005      0.028022
      3.02176      8.73087      9.99590         0.000514      0.010901      0.028022
      6.04976      6.98394      9.99614        -0.008675      0.016802      0.041957
     -0.85037      5.23609      8.66522        -0.007623      0.003359     -0.009240
      4.95624      1.88800      8.67287        -0.085082      0.147367      0.177755
      1.93780      3.36084      8.66471        -0.028502      0.069182     -0.016125
      0.85279      5.23542     11.33948        -0.010379     -0.001740      0.003377
     -1.93630      3.35560     11.33674        -0.003724      0.008032     -0.005561
      1.07923      1.88337     11.34544        -0.209417      0.025822      0.140922
      5.18994      5.23846      8.66471        -0.045663      0.059274     -0.016125
     -1.08533      1.88209      8.66586         0.034949     -0.014710     -0.023921
      8.00522      3.34744      8.65392         0.575805     -0.061910     -0.414095
      6.89875      5.24327     11.34544         0.082346      0.194271      0.140922
      4.08624      3.39488     11.36154        -0.311913      0.540250      0.582460
      7.13313      1.87452     11.34540         0.047741     -0.000761      0.010692
     -3.87845     10.44968      8.65392        -0.234287     -0.529617     -0.414095
      1.93701      7.11745      8.66428        -0.000868      0.001503     -0.011512
     -1.08543      8.58972      8.66511         0.008087     -0.000816     -0.021852
     -2.16680     10.46847     11.34540        -0.023212     -0.041725      0.010692
      7.13153      8.59091     11.33674        -0.005094      0.007241     -0.005561
     -1.93579      7.11604     11.33762         0.004505      0.005447     -0.018414
      2.17321     10.47110      8.66511        -0.003337     -0.007411     -0.021852
      7.98214      7.11720      8.66586        -0.004735     -0.037622     -0.023921
      4.96001      8.59071      8.66522         0.000903      0.008281     -0.009240
      3.87464     10.47069     11.33762        -0.006970     -0.001178     -0.018414
      1.08603      8.59140     11.33703        -0.000439      0.000760     -0.005241
      4.10901      7.11540     11.33948         0.006696      0.008118      0.003377
      4.10935      3.35486     12.67340         0.013460     -0.023314      0.193654
 -----------------------------------------------------------------------------------
    total drift:                                0.000187     -0.000326     -0.000764


--------------------------------------------------------------------------------------------------------



  FREE ENERGIE OF THE ION-ELECTRON SYSTEM (eV)
  ---------------------------------------------------
  free  energy   TOTEN  =      -157.85302331 eV

  energy  without entropy=     -157.85194036  energy(sigma->0) =     -157.85248184
 d Force = 0.2822222E+00[ 0.178E+00, 0.386E+00]  d Energy = 0.2791419E+00 0.308E-02
 d Force = 0.5069039E+02[ 0.501E+02, 0.513E+02]  d Ewald  = 0.5067084E+02 0.195E-01
 


--------------------------------------------------------------------------------------------------------


    POTLOK:  cpu time      0.8256: real time      4.1360


--------------------------------------------------------------------------------------------------------


 Steepest descent step on ions:
 trial-energy change:   -0.279142  1 .order   -0.282222   -0.386250   -0.178194
  (g-gl).g = 0.386E+00      g.g   = 0.386E+00  gl.gl    = 0.000E+00
 g(Force)  = 0.386E+00   g(Stress)= 0.000E+00 ortho     = 0.000E+00
 gamma     =   0.00000
 trial     =   1.00000
 opt step  =   2.04679  (harmonic =   1.85647) maximal distance =0.13026922
 next E    =  -157.942756   (d E  =  -0.36888)


--------------------------------------------------------------------------------------------------------


      MLFF:  cpu time      0.0090: real time      0.0705
    WAVPRE:  cpu time      0.0691: real time      0.3261
    FEWALD:  cpu time      0.0493: real time      0.2575

 real space projection operators:
  total allocation   :      12408.00 KBytes
  max/ min on nodes  :       3119.91       3087.94

    ORTHCH:  cpu time     15.1131: real time     75.8525
     LOOP+:  cpu time   4870.9473: real time  24443.8080


--------------------------------------- Ionic step        3  -------------------------------------------




--------------------------------------- Iteration      3(   1)  ---------------------------------------


    POTLOK:  cpu time      0.5778: real time      2.8842
    SETDIJ:  cpu time      0.2567: real time      1.2968
     EDDAV:  cpu time    199.1856: real time    999.5671
       DOS:  cpu time      0.3386: real time      1.7000
    CHARGE:  cpu time      5.5461: real time     27.8426
    MIXING:  cpu time      0.0860: real time      0.4383
    --------------------------------------------
      LOOP:  cpu time    205.9909: real time   1033.7289

 eigenvalue-minimisations  :  5400
 total energy-change (2. order) : 0.3590230E+00  (-0.3727325E+01)
 number of electron     216.9999984 magnetization      24.9999994
 augmentation part       -2.0497823 magnetization      16.7141221

 DIPCOR: dipole corrections for dipol
 direction  3 min pos     1,
 dipolmoment           0.000000      0.000000     -0.330821 electrons x Angstroem
 Tr[quadrupol]     -5233.131193

 energy correction for charged system         0.000000 eV
 dipol+quadrupol energy correction           -0.003913 eV
 added-field ion interaction          0.056847 eV  (added to PSCEN)


 Broyden mixing:
  rms(total) = 0.46880E+00    rms(broyden)= 0.46855E+00
  rms(prec ) = 0.47096E+00
  weight for this iteration     100.00

 Free energy of the ion-electron system (eV)
  ---------------------------------------------------
  alpha Z        PSCENC =       109.51529758
  Ewald energy   TEWEN  =     24357.26505510
  -Hartree energ DENC   =    -35130.51877799
  -exchange      EXHF   =         0.00000000
  -V(xc)+E(xc)   XCENC  =       348.65390684
  PAW double counting   =     15088.79396986   -14941.05823153
  entropy T*S    EENTRO =        -0.00042180
  eigenvalues    EBANDS =     -2050.90367465
  atomic energy  EATOM  =     12060.75887678
  Solvation  Ediel_sol  =         0.00000000
  ---------------------------------------------------
  free energy    TOTEN  =      -157.49399981 eV

  energy without entropy =     -157.49357801  energy(sigma->0) =     -157.49378891


--------------------------------------------------------------------------------------------------------




--------------------------------------- Iteration      3(   2)  ---------------------------------------


    POTLOK:  cpu time      0.5603: real time      2.8024
    SETDIJ:  cpu time      0.2409: real time      1.2177
     EDDAV:  cpu time    235.1938: real time   1180.2830
       DOS:  cpu time      0.1555: real time      0.7800
    CHARGE:  cpu time      5.3770: real time     26.9682
    MIXING:  cpu time      0.0874: real time      0.4397
    --------------------------------------------
      LOOP:  cpu time    241.6149: real time   1212.4910

 eigenvalue-minimisations  :  7424
 total energy-change (2. order) :-0.3752312E+00  (-0.1805948E+00)
 number of electron     216.9999984 magnetization      24.9999994
 augmentation part       -1.9555792 magnetization      16.7698577

 DIPCOR: dipole corrections for dipol
 direction  3 min pos     1,
 dipolmoment           0.000000      0.000000     -0.303996 electrons x Angstroem
 Tr[quadrupol]     -5233.148603

 energy correction for charged system         0.000000 eV
 dipol+quadrupol energy correction           -0.003304 eV
 added-field ion interaction          0.052237 eV  (added to PSCEN)


 Broyden mixing:
  rms(total) = 0.32011E+00    rms(broyden)= 0.32007E+00
  rms(prec ) = 0.32242E+00
  weight for this iteration     100.00

 eigenvalues of (default mixing * dielectric matrix)
  average eigenvalue GAMMA=   0.5939
  0.5939

 Free energy of the ion-electron system (eV)
  ---------------------------------------------------
  alpha Z        PSCENC =       109.51129697
  Ewald energy   TEWEN  =     24357.26505510
  -Hartree energ DENC   =    -35129.96293063
  -exchange      EXHF   =         0.00000000
  -V(xc)+E(xc)   XCENC  =       348.52014469
  PAW double counting   =     15069.49349429   -14921.44183964
  entropy T*S    EENTRO =        -0.00004562
  eigenvalues    EBANDS =     -2052.01328295
  atomic energy  EATOM  =     12060.75887678
  Solvation  Ediel_sol  =         0.00000000
  ---------------------------------------------------
  free energy    TOTEN  =      -157.86923100 eV

  energy without entropy =     -157.86918538  energy(sigma->0) =     -157.86920819


--------------------------------------------------------------------------------------------------------




--------------------------------------- Iteration      3(   3)  ---------------------------------------


    POTLOK:  cpu time      0.6063: real time      3.0530
    SETDIJ:  cpu time      0.2581: real time      1.3030
     EDDAV:  cpu time    243.2121: real time   1220.4891
       DOS:  cpu time      0.1873: real time      0.9400
    CHARGE:  cpu time      5.0151: real time     25.1659
    MIXING:  cpu time      0.1137: real time      0.5781
    --------------------------------------------
      LOOP:  cpu time    249.3926: real time   1251.5290

 eigenvalue-minimisations  :  7704
 total energy-change (2. order) :-0.6281342E-01  (-0.7979814E-02)
 number of electron     216.9999984 magnetization      24.9999995
 augmentation part       -1.9793849 magnetization      16.7575568

 DIPCOR: dipole corrections for dipol
 direction  3 min pos     1,
 dipolmoment           0.000000      0.000000     -0.293599 electrons x Angstroem
 Tr[quadrupol]     -5233.148850

 energy correction for charged system         0.000000 eV
 dipol+quadrupol energy correction           -0.003082 eV
 added-field ion interaction          0.050451 eV  (added to PSCEN)


 Broyden mixing:
  rms(total) = 0.10322E+00    rms(broyden)= 0.10322E+00
  rms(prec ) = 0.10562E+00
  weight for this iteration     100.00

 eigenvalues of (default mixing * dielectric matrix)
  average eigenvalue GAMMA=   0.6530
  0.6604  0.6455

 Free energy of the ion-electron system (eV)
  ---------------------------------------------------
  alpha Z        PSCENC =       109.50973249
  Ewald energy   TEWEN  =     24357.26505510
  -Hartree energ DENC   =    -35130.39321373
  -exchange      EXHF   =         0.00000000
  -V(xc)+E(xc)   XCENC  =       348.52439332
  PAW double counting   =     15061.06266276   -14913.18486972
  entropy T*S    EENTRO =        -0.00031241
  eigenvalues    EBANDS =     -2051.47436901
  atomic energy  EATOM  =     12060.75887678
  Solvation  Ediel_sol  =         0.00000000
  ---------------------------------------------------
  free energy    TOTEN  =      -157.93204442 eV

  energy without entropy =     -157.93173201  energy(sigma->0) =     -157.93188821


--------------------------------------------------------------------------------------------------------




--------------------------------------- Iteration      3(   4)  ---------------------------------------


    POTLOK:  cpu time      0.5597: real time      2.7899
    SETDIJ:  cpu time      0.2443: real time      1.2371
     EDDAV:  cpu time    237.5010: real time   1191.8106
       DOS:  cpu time      0.1311: real time      0.6596
    CHARGE:  cpu time      5.3541: real time     26.8714
    MIXING:  cpu time      0.1180: real time      0.5984
    --------------------------------------------
      LOOP:  cpu time    243.9081: real time   1223.9670

 eigenvalue-minimisations  :  7560
 total energy-change (2. order) : 0.8055297E-02  (-0.1087369E-02)
 number of electron     216.9999984 magnetization      24.9999995
 augmentation part       -1.9936438 magnetization      16.7533170

 DIPCOR: dipole corrections for dipol
 direction  3 min pos     1,
 dipolmoment           0.000000      0.000000     -0.286879 electrons x Angstroem
 Tr[quadrupol]     -5233.146617

 energy correction for charged system         0.000000 eV
 dipol+quadrupol energy correction           -0.002943 eV
 added-field ion interaction          0.049296 eV  (added to PSCEN)


 Broyden mixing:
  rms(total) = 0.67058E-01    rms(broyden)= 0.67057E-01
  rms(prec ) = 0.68412E-01
  weight for this iteration     100.00

 eigenvalues of (default mixing * dielectric matrix)
  average eigenvalue GAMMA=   0.7936
  1.1072  0.7179  0.5557

 Free energy of the ion-electron system (eV)
  ---------------------------------------------------
  alpha Z        PSCENC =       109.50871722
  Ewald energy   TEWEN  =     24357.26505510
  -Hartree energ DENC   =    -35130.53432276
  -exchange      EXHF   =         0.00000000
  -V(xc)+E(xc)   XCENC  =       348.52734491
  PAW double counting   =     15057.74806679   -14909.93840666
  entropy T*S    EENTRO =        -0.00022249
  eigenvalues    EBANDS =     -2051.25909800
  atomic energy  EATOM  =     12060.75887678
  Solvation  Ediel_sol  =         0.00000000
  ---------------------------------------------------
  free energy    TOTEN  =      -157.92398912 eV

  energy without entropy =     -157.92376663  energy(sigma->0) =     -157.92387787


--------------------------------------------------------------------------------------------------------




--------------------------------------- Iteration      3(   5)  ---------------------------------------


    POTLOK:  cpu time      0.5504: real time      2.7560
    SETDIJ:  cpu time      0.2452: real time      1.2380
     EDDAV:  cpu time    239.4367: real time   1201.6180
       DOS:  cpu time      0.1755: real time      0.8800
    CHARGE:  cpu time      4.7905: real time     24.0457
    MIXING:  cpu time      0.1019: real time      0.5183
    --------------------------------------------
      LOOP:  cpu time    245.3003: real time   1231.0560

 eigenvalue-minimisations  :  7680
 total energy-change (2. order) : 0.7315569E-02  (-0.1018227E-02)
 number of electron     216.9999984 magnetization      24.9999995
 augmentation part       -1.9836786 magnetization      16.7510889

 DIPCOR: dipole corrections for dipol
 direction  3 min pos     1,
 dipolmoment           0.000000      0.000000     -0.280139 electrons x Angstroem
 Tr[quadrupol]     -5233.145582

 energy correction for charged system         0.000000 eV
 dipol+quadrupol energy correction           -0.002806 eV
 added-field ion interaction          0.048138 eV  (added to PSCEN)


 Broyden mixing:
  rms(total) = 0.37474E-01    rms(broyden)= 0.37471E-01
  rms(prec ) = 0.37972E-01
  weight for this iteration     100.00

 eigenvalues of (default mixing * dielectric matrix)
  average eigenvalue GAMMA=   1.0055
  2.0138  0.8312  0.6760  0.5009

 Free energy of the ion-electron system (eV)
  ---------------------------------------------------
  alpha Z        PSCENC =       109.50769574
  Ewald energy   TEWEN  =     24357.26505510
  -Hartree energ DENC   =    -35130.64589556
  -exchange      EXHF   =         0.00000000
  -V(xc)+E(xc)   XCENC  =       348.54900161
  PAW double counting   =     15053.38773370   -14905.60842275
  entropy T*S    EENTRO =        -0.00035478
  eigenvalues    EBANDS =     -2051.13036340
  atomic energy  EATOM  =     12060.75887678
  Solvation  Ediel_sol  =         0.00000000
  ---------------------------------------------------
  free energy    TOTEN  =      -157.91667355 eV

  energy without entropy =     -157.91631877  energy(sigma->0) =     -157.91649616


--------------------------------------------------------------------------------------------------------




--------------------------------------- Iteration      3(   6)  ---------------------------------------


    POTLOK:  cpu time      0.5944: real time      2.9686
    SETDIJ:  cpu time      0.2674: real time      1.3564
     EDDAV:  cpu time    238.0066: real time   1194.4289
       DOS:  cpu time      0.2224: real time      1.1192
    CHARGE:  cpu time      5.1606: real time     25.8904
    MIXING:  cpu time      0.1250: real time      0.6374
    --------------------------------------------
      LOOP:  cpu time    244.3764: real time   1226.4010

 eigenvalue-minimisations  :  7656
 total energy-change (2. order) :-0.9929610E-03  (-0.2516109E-03)
 number of electron     216.9999984 magnetization      24.9999995
 augmentation part       -1.9930546 magnetization      16.7497032

 DIPCOR: dipole corrections for dipol
 direction  3 min pos     1,
 dipolmoment           0.000000      0.000000     -0.277343 electrons x Angstroem
 Tr[quadrupol]     -5233.155948

 energy correction for charged system         0.000000 eV
 dipol+quadrupol energy correction           -0.002750 eV
 added-field ion interaction          0.047658 eV  (added to PSCEN)


 Broyden mixing:
  rms(total) = 0.17171E-01    rms(broyden)= 0.17170E-01
  rms(prec ) = 0.17496E-01
  weight for this iteration     100.00

 eigenvalues of (default mixing * dielectric matrix)
  average eigenvalue GAMMA=   0.9771
  2.1247  0.8978  0.7926  0.5852  0.4852

 Free energy of the ion-electron system (eV)
  ---------------------------------------------------
  alpha Z        PSCENC =       109.50727107
  Ewald energy   TEWEN  =     24357.26505510
  -Hartree energ DENC   =    -35130.92286577
  -exchange      EXHF   =         0.00000000
  -V(xc)+E(xc)   XCENC  =       348.55414803
  PAW double counting   =     15051.44471405   -14903.71107352
  entropy T*S    EENTRO =        -0.00030600
  eigenvalues    EBANDS =     -2050.81348626
  atomic energy  EATOM  =     12060.75887678
  Solvation  Ediel_sol  =         0.00000000
  ---------------------------------------------------
  free energy    TOTEN  =      -157.91766651 eV

  energy without entropy =     -157.91736051  energy(sigma->0) =     -157.91751351


--------------------------------------------------------------------------------------------------------




--------------------------------------- Iteration      3(   7)  ---------------------------------------


    POTLOK:  cpu time      0.5705: real time      2.8489
    SETDIJ:  cpu time      0.2563: real time      1.2972
     EDDAV:  cpu time    240.2573: real time   1205.6500
       DOS:  cpu time      0.1317: real time      0.6602
    CHARGE:  cpu time      4.8538: real time     24.3596
    MIXING:  cpu time      0.1373: real time      0.6819
    --------------------------------------------
      LOOP:  cpu time    246.2068: real time   1235.4977

 eigenvalue-minimisations  :  7600
 total energy-change (2. order) :-0.3555551E-02  (-0.4418291E-04)
 number of electron     216.9999984 magnetization      24.9999995
 augmentation part       -1.9916429 magnetization      16.7499183

 DIPCOR: dipole corrections for dipol
 direction  3 min pos     1,
 dipolmoment           0.000000      0.000000     -0.277518 electrons x Angstroem
 Tr[quadrupol]     -5233.161146

 energy correction for charged system         0.000000 eV
 dipol+quadrupol energy correction           -0.002754 eV
 added-field ion interaction          0.047688 eV  (added to PSCEN)


 Broyden mixing:
  rms(total) = 0.10093E-01    rms(broyden)= 0.10092E-01
  rms(prec ) = 0.10260E-01
  weight for this iteration     100.00

 eigenvalues of (default mixing * dielectric matrix)
  average eigenvalue GAMMA=   1.0038
  2.2932  0.9952  0.9952  0.6346  0.6346  0.4697

 Free energy of the ion-electron system (eV)
  ---------------------------------------------------
  alpha Z        PSCENC =       109.50729758
  Ewald energy   TEWEN  =     24357.26505510
  -Hartree energ DENC   =    -35130.97368003
  -exchange      EXHF   =         0.00000000
  -V(xc)+E(xc)   XCENC  =       348.55050469
  PAW double counting   =     15051.10486291   -14903.36173335
  entropy T*S    EENTRO =        -0.00032694
  eigenvalues    EBANDS =     -2050.77207881
  atomic energy  EATOM  =     12060.75887678
  Solvation  Ediel_sol  =         0.00000000
  ---------------------------------------------------
  free energy    TOTEN  =      -157.92122206 eV

  energy without entropy =     -157.92089512  energy(sigma->0) =     -157.92105859


--------------------------------------------------------------------------------------------------------




--------------------------------------- Iteration      3(   8)  ---------------------------------------


    POTLOK:  cpu time      0.6002: real time      3.0146
    SETDIJ:  cpu time      0.2410: real time      1.2178
     EDDAV:  cpu time    237.8167: real time   1193.4020
       DOS:  cpu time      0.1555: real time      0.7800
    CHARGE:  cpu time      5.2571: real time     26.3811
    MIXING:  cpu time      0.1214: real time      0.6019
    --------------------------------------------
      LOOP:  cpu time    244.1919: real time   1225.3973

 eigenvalue-minimisations  :  7576
 total energy-change (2. order) :-0.3389357E-02  (-0.1507872E-04)
 number of electron     216.9999984 magnetization      24.9999995
 augmentation part       -1.9896569 magnetization      16.7505820

 DIPCOR: dipole corrections for dipol
 direction  3 min pos     1,
 dipolmoment           0.000000      0.000000     -0.278006 electrons x Angstroem
 Tr[quadrupol]     -5233.166173

 energy correction for charged system         0.000000 eV
 dipol+quadrupol energy correction           -0.002763 eV
 added-field ion interaction          0.047771 eV  (added to PSCEN)


 Broyden mixing:
  rms(total) = 0.59231E-02    rms(broyden)= 0.59228E-02
  rms(prec ) = 0.60455E-02
  weight for this iteration     100.00

 eigenvalues of (default mixing * dielectric matrix)
  average eigenvalue GAMMA=   1.0442
  2.5476  1.1883  1.1883  0.6865  0.6865  0.5440  0.4685

 Free energy of the ion-electron system (eV)
  ---------------------------------------------------
  alpha Z        PSCENC =       109.50737170
  Ewald energy   TEWEN  =     24357.26505510
  -Hartree energ DENC   =    -35131.03592934
  -exchange      EXHF   =         0.00000000
  -V(xc)+E(xc)   XCENC  =       348.54793947
  PAW double counting   =     15049.79818871   -14902.05073401
  entropy T*S    EENTRO =        -0.00031291
  eigenvalues    EBANDS =     -2050.71506692
  atomic energy  EATOM  =     12060.75887678
  Solvation  Ediel_sol  =         0.00000000
  ---------------------------------------------------
  free energy    TOTEN  =      -157.92461142 eV

  energy without entropy =     -157.92429851  energy(sigma->0) =     -157.92445497


--------------------------------------------------------------------------------------------------------




--------------------------------------- Iteration      3(   9)  ---------------------------------------


    POTLOK:  cpu time      0.5976: real time      3.0083
    SETDIJ:  cpu time      0.2588: real time      1.3027
     EDDAV:  cpu time    238.8947: real time   1198.8501
       DOS:  cpu time      0.1993: real time      1.0000
    CHARGE:  cpu time      5.3214: real time     26.7016
    MIXING:  cpu time      0.1098: real time      0.5583
    --------------------------------------------
      LOOP:  cpu time    245.3816: real time   1231.4210

 eigenvalue-minimisations  :  7496
 total energy-change (2. order) :-0.3244886E-02  (-0.5873268E-05)
 number of electron     216.9999984 magnetization      24.9999995
 augmentation part       -1.9912487 magnetization      16.7504076

 DIPCOR: dipole corrections for dipol
 direction  3 min pos     1,
 dipolmoment           0.000000      0.000000     -0.278971 electrons x Angstroem
 Tr[quadrupol]     -5233.171329

 energy correction for charged system         0.000000 eV
 dipol+quadrupol energy correction           -0.002783 eV
 added-field ion interaction          0.047937 eV  (added to PSCEN)


 Broyden mixing:
  rms(total) = 0.36761E-02    rms(broyden)= 0.36760E-02
  rms(prec ) = 0.37610E-02
  weight for this iteration     100.00

 eigenvalues of (default mixing * dielectric matrix)
  average eigenvalue GAMMA=   1.0589
  2.6027  1.3204  1.3204  0.9090  0.7161  0.5838  0.5589  0.4597

 Free energy of the ion-electron system (eV)
  ---------------------------------------------------
  alpha Z        PSCENC =       109.50751845
  Ewald energy   TEWEN  =     24357.26505510
  -Hartree energ DENC   =    -35131.11351131
  -exchange      EXHF   =         0.00000000
  -V(xc)+E(xc)   XCENC  =       348.54588828
  PAW double counting   =     15048.96961697   -14901.22505142
  entropy T*S    EENTRO =        -0.00031616
  eigenvalues    EBANDS =     -2050.63593300
  atomic energy  EATOM  =     12060.75887678
  Solvation  Ediel_sol  =         0.00000000
  ---------------------------------------------------
  free energy    TOTEN  =      -157.92785631 eV

  energy without entropy =     -157.92754015  energy(sigma->0) =     -157.92769823


--------------------------------------------------------------------------------------------------------




--------------------------------------- Iteration      3(  10)  ---------------------------------------


    POTLOK:  cpu time      0.6024: real time      3.0129
    SETDIJ:  cpu time      0.2731: real time      1.3742
     EDDAV:  cpu time    226.5961: real time   1137.1170
       DOS:  cpu time      0.1835: real time      0.9201
    CHARGE:  cpu time      5.2820: real time     26.5015
    MIXING:  cpu time      0.1529: real time      0.7774
    --------------------------------------------
      LOOP:  cpu time    233.0900: real time   1169.7030

 eigenvalue-minimisations  :  6824
 total energy-change (2. order) :-0.3516756E-02  (-0.5778674E-05)
 number of electron     216.9999984 magnetization      24.9999995
 augmentation part       -1.9906915 magnetization      16.7507197

 DIPCOR: dipole corrections for dipol
 direction  3 min pos     1,
 dipolmoment           0.000000      0.000000     -0.280346 electrons x Angstroem
 Tr[quadrupol]     -5233.176291

 energy correction for charged system         0.000000 eV
 dipol+quadrupol energy correction           -0.002810 eV
 added-field ion interaction          0.048174 eV  (added to PSCEN)


 Broyden mixing:
  rms(total) = 0.18314E-02    rms(broyden)= 0.18313E-02
  rms(prec ) = 0.18866E-02
  weight for this iteration     100.00

 eigenvalues of (default mixing * dielectric matrix)
  average eigenvalue GAMMA=   1.0860
  2.5390  1.7058  1.1821  1.1821  0.8797  0.7002  0.5898  0.4599  0.5354

 Free energy of the ion-electron system (eV)
  ---------------------------------------------------
  alpha Z        PSCENC =       109.50772722
  Ewald energy   TEWEN  =     24357.26505510
  -Hartree energ DENC   =    -35131.16561502
  -exchange      EXHF   =         0.00000000
  -V(xc)+E(xc)   XCENC  =       348.54153844
  PAW double counting   =     15048.52015695   -14900.77014289
  entropy T*S    EENTRO =        -0.00031845
  eigenvalues    EBANDS =     -2050.58865121
  atomic energy  EATOM  =     12060.75887678
  Solvation  Ediel_sol  =         0.00000000
  ---------------------------------------------------
  free energy    TOTEN  =      -157.93137306 eV

  energy without entropy =     -157.93105461  energy(sigma->0) =     -157.93121384


--------------------------------------------------------------------------------------------------------




--------------------------------------- Iteration      3(  11)  ---------------------------------------


    POTLOK:  cpu time      0.6069: real time      3.0373
    SETDIJ:  cpu time      0.2499: real time      1.2617
     EDDAV:  cpu time    233.0726: real time   1169.6020
       DOS:  cpu time      0.1516: real time      0.7600
    CHARGE:  cpu time      4.9677: real time     24.9221
    MIXING:  cpu time      0.1253: real time      0.6378
    --------------------------------------------
      LOOP:  cpu time    239.1740: real time   1200.2210

 eigenvalue-minimisations  :  7208
 total energy-change (2. order) :-0.2436059E-02  (-0.2855652E-05)
 number of electron     216.9999984 magnetization      24.9999995
 augmentation part       -1.9905241 magnetization      16.7508159

 DIPCOR: dipole corrections for dipol
 direction  3 min pos     1,
 dipolmoment           0.000000      0.000000     -0.281381 electrons x Angstroem
 Tr[quadrupol]     -5233.180189

 energy correction for charged system         0.000000 eV
 dipol+quadrupol energy correction           -0.002831 eV
 added-field ion interaction          0.048351 eV  (added to PSCEN)


 Broyden mixing:
  rms(total) = 0.12269E-02    rms(broyden)= 0.12269E-02
  rms(prec ) = 0.12751E-02
  weight for this iteration     100.00

 eigenvalues of (default mixing * dielectric matrix)
  average eigenvalue GAMMA=   1.1065
  2.7334  1.9920  1.1605  1.1605  0.9439  0.7951  0.6707  0.6282  0.4610  0.5203

 Free energy of the ion-electron system (eV)
  ---------------------------------------------------
  alpha Z        PSCENC =       109.50788427
  Ewald energy   TEWEN  =     24357.26505510
  -Hartree energ DENC   =    -35131.21202534
  -exchange      EXHF   =         0.00000000
  -V(xc)+E(xc)   XCENC  =       348.53911975
  PAW double counting   =     15048.16340185   -14900.41182271
  entropy T*S    EENTRO =        -0.00031478
  eigenvalues    EBANDS =     -2050.54398404
  atomic energy  EATOM  =     12060.75887678
  Solvation  Ediel_sol  =         0.00000000
  ---------------------------------------------------
  free energy    TOTEN  =      -157.93380912 eV

  energy without entropy =     -157.93349434  energy(sigma->0) =     -157.93365173


--------------------------------------------------------------------------------------------------------




--------------------------------------- Iteration      3(  12)  ---------------------------------------


    POTLOK:  cpu time      0.5718: real time      2.8622
    SETDIJ:  cpu time      0.2530: real time      1.2778
     EDDAV:  cpu time    220.4480: real time   1106.2920
       DOS:  cpu time      0.1157: real time      0.5801
    CHARGE:  cpu time      5.3608: real time     26.8936
    MIXING:  cpu time      0.1677: real time      0.8403
    --------------------------------------------
      LOOP:  cpu time    226.9170: real time   1138.7460

 eigenvalue-minimisations  :  6456
 total energy-change (2. order) :-0.1281824E-02  (-0.8626419E-06)
 number of electron     216.9999984 magnetization      24.9999995
 augmentation part       -1.9907980 magnetization      16.7507653

 DIPCOR: dipole corrections for dipol
 direction  3 min pos     1,
 dipolmoment           0.000000      0.000000     -0.281979 electrons x Angstroem
 Tr[quadrupol]     -5233.182690

 energy correction for charged system         0.000000 eV
 dipol+quadrupol energy correction           -0.002843 eV
 added-field ion interaction          0.048454 eV  (added to PSCEN)


 Broyden mixing:
  rms(total) = 0.88815E-03    rms(broyden)= 0.88812E-03
  rms(prec ) = 0.92526E-03
  weight for this iteration     100.00

 eigenvalues of (default mixing * dielectric matrix)
  average eigenvalue GAMMA=   1.0936
  2.8193  2.0202  1.2268  1.2268  0.8844  0.8844  0.6841  0.6841  0.6198  0.4617
  0.5175

 Free energy of the ion-electron system (eV)
  ---------------------------------------------------
  alpha Z        PSCENC =       109.50797499
  Ewald energy   TEWEN  =     24357.26505510
  -Hartree energ DENC   =    -35131.24463511
  -exchange      EXHF   =         0.00000000
  -V(xc)+E(xc)   XCENC  =       348.53809281
  PAW double counting   =     15048.07043392   -14900.31952707
  entropy T*S    EENTRO =        -0.00031741
  eigenvalues    EBANDS =     -2050.51104496
  atomic energy  EATOM  =     12060.75887678
  Solvation  Ediel_sol  =         0.00000000
  ---------------------------------------------------
  free energy    TOTEN  =      -157.93509095 eV

  energy without entropy =     -157.93477354  energy(sigma->0) =     -157.93493224


--------------------------------------------------------------------------------------------------------




--------------------------------------- Iteration      3(  13)  ---------------------------------------


    POTLOK:  cpu time      0.5871: real time      2.9414
    SETDIJ:  cpu time      0.2557: real time      1.2966
     EDDAV:  cpu time    210.2362: real time   1055.0240
       DOS:  cpu time      0.2233: real time      1.1240
    CHARGE:  cpu time      5.3779: real time     26.9821
    MIXING:  cpu time      0.1771: real time      0.8939
    --------------------------------------------
      LOOP:  cpu time    216.8573: real time   1088.2620

 eigenvalue-minimisations  :  6104
 total energy-change (2. order) :-0.1200652E-02  (-0.9094784E-06)
 number of electron     216.9999984 magnetization      24.9999995
 augmentation part       -1.9905580 magnetization      16.7508202

 DIPCOR: dipole corrections for dipol
 direction  3 min pos     1,
 dipolmoment           0.000000      0.000000     -0.282684 electrons x Angstroem
 Tr[quadrupol]     -5233.185162

 energy correction for charged system         0.000000 eV
 dipol+quadrupol energy correction           -0.002857 eV
 added-field ion interaction          0.048575 eV  (added to PSCEN)


 Broyden mixing:
  rms(total) = 0.73994E-03    rms(broyden)= 0.73992E-03
  rms(prec ) = 0.76779E-03
  weight for this iteration     100.00

 eigenvalues of (default mixing * dielectric matrix)
  average eigenvalue GAMMA=   1.0973
  2.9133  1.8108  1.3045  1.3045  1.0791  1.0791  0.8266  0.6887  0.5943  0.5943
  0.4626  0.5093

 Free energy of the ion-electron system (eV)
  ---------------------------------------------------
  alpha Z        PSCENC =       109.50808179
  Ewald energy   TEWEN  =     24357.26505510
  -Hartree energ DENC   =    -35131.27234649
  -exchange      EXHF   =         0.00000000
  -V(xc)+E(xc)   XCENC  =       348.53689317
  PAW double counting   =     15048.04381032   -14900.29228079
  entropy T*S    EENTRO =        -0.00031497
  eigenvalues    EBANDS =     -2050.48406651
  atomic energy  EATOM  =     12060.75887678
  Solvation  Ediel_sol  =         0.00000000
  ---------------------------------------------------
  free energy    TOTEN  =      -157.93629160 eV

  energy without entropy =     -157.93597662  energy(sigma->0) =     -157.93613411


--------------------------------------------------------------------------------------------------------




--------------------------------------- Iteration      3(  14)  ---------------------------------------


    POTLOK:  cpu time      0.5875: real time      2.9419
    SETDIJ:  cpu time      0.2691: real time      1.3581
     EDDAV:  cpu time    198.8481: real time    997.8710
       DOS:  cpu time      0.1595: real time      0.8001
    CHARGE:  cpu time      5.4591: real time     27.3951
    MIXING:  cpu time      0.1691: real time      0.8538
    --------------------------------------------
      LOOP:  cpu time    205.4924: real time   1031.2200

 eigenvalue-minimisations  :  5520
 total energy-change (2. order) :-0.1098273E-02  (-0.1020940E-05)
 number of electron     216.9999984 magnetization      24.9999995
 augmentation part       -1.9906595 magnetization      16.7507898

 DIPCOR: dipole corrections for dipol
 direction  3 min pos     1,
 dipolmoment           0.000000      0.000000     -0.283480 electrons x Angstroem
 Tr[quadrupol]     -5233.187961

 energy correction for charged system         0.000000 eV
 dipol+quadrupol energy correction           -0.002873 eV
 added-field ion interaction          0.048712 eV  (added to PSCEN)


 Broyden mixing:
  rms(total) = 0.47933E-03    rms(broyden)= 0.47933E-03
  rms(prec ) = 0.49952E-03
  weight for this iteration     100.00

 eigenvalues of (default mixing * dielectric matrix)
  average eigenvalue GAMMA=   1.2149
  3.5429  2.4990  1.4497  1.4497  1.1745  1.1745  0.9539  0.7172  0.6548  0.6020
  0.6020  0.4623  0.5115

 Free energy of the ion-electron system (eV)
  ---------------------------------------------------
  alpha Z        PSCENC =       109.50820246
  Ewald energy   TEWEN  =     24357.26505510
  -Hartree energ DENC   =    -35131.30600270
  -exchange      EXHF   =         0.00000000
  -V(xc)+E(xc)   XCENC  =       348.53610495
  PAW double counting   =     15048.01310121   -14900.26204931
  entropy T*S    EENTRO =        -0.00031643
  eigenvalues    EBANDS =     -2050.45036193
  atomic energy  EATOM  =     12060.75887678
  Solvation  Ediel_sol  =         0.00000000
  ---------------------------------------------------
  free energy    TOTEN  =      -157.93738987 eV

  energy without entropy =     -157.93707344  energy(sigma->0) =     -157.93723165


--------------------------------------------------------------------------------------------------------




--------------------------------------- Iteration      3(  15)  ---------------------------------------


    POTLOK:  cpu time      0.5739: real time      2.8806
    SETDIJ:  cpu time      0.2625: real time      1.3194
     EDDAV:  cpu time    196.5288: real time    986.2710
       DOS:  cpu time      0.1396: real time      0.7000
    CHARGE:  cpu time      5.5170: real time     27.6874
    MIXING:  cpu time      0.1450: real time      0.7375
    --------------------------------------------
      LOOP:  cpu time    203.1669: real time   1019.5960

 eigenvalue-minimisations  :  5368
 total energy-change (2. order) :-0.1118584E-02  (-0.1800325E-05)
 number of electron     216.9999984 magnetization      24.9999995
 augmentation part       -1.9906862 magnetization      16.7507914

 DIPCOR: dipole corrections for dipol
 direction  3 min pos     1,
 dipolmoment           0.000000      0.000000     -0.284526 electrons x Angstroem
 Tr[quadrupol]     -5233.191575

 energy correction for charged system         0.000000 eV
 dipol+quadrupol energy correction           -0.002894 eV
 added-field ion interaction          0.048892 eV  (added to PSCEN)


 Broyden mixing:
  rms(total) = 0.28601E-03    rms(broyden)= 0.28599E-03
  rms(prec ) = 0.29829E-03
  weight for this iteration     100.00

 eigenvalues of (default mixing * dielectric matrix)
  average eigenvalue GAMMA=   1.2597
  4.2480  2.5642  1.1711  1.1711  1.3214  1.3214  1.2967  1.0181  0.6997  0.6463
  0.6020  0.6020  0.4624  0.5110

 Free energy of the ion-electron system (eV)
  ---------------------------------------------------
  alpha Z        PSCENC =       109.50836094
  Ewald energy   TEWEN  =     24357.26505510
  -Hartree energ DENC   =    -35131.34586197
  -exchange      EXHF   =         0.00000000
  -V(xc)+E(xc)   XCENC  =       348.53511048
  PAW double counting   =     15047.98132604   -14900.23013401
  entropy T*S    EENTRO =        -0.00031745
  eigenvalues    EBANDS =     -2050.41092436
  atomic energy  EATOM  =     12060.75887678
  Solvation  Ediel_sol  =         0.00000000
  ---------------------------------------------------
  free energy    TOTEN  =      -157.93850845 eV

  energy without entropy =     -157.93819100  energy(sigma->0) =     -157.93834973


--------------------------------------------------------------------------------------------------------




--------------------------------------- Iteration      3(  16)  ---------------------------------------


    POTLOK:  cpu time      0.5878: real time      2.9423
    SETDIJ:  cpu time      0.2566: real time      1.2977
     EDDAV:  cpu time    207.0892: real time   1039.2400
       DOS:  cpu time      0.1237: real time      0.6200
    CHARGE:  cpu time      5.2976: real time     26.5699
    MIXING:  cpu time      0.1496: real time      0.7581
    --------------------------------------------
      LOOP:  cpu time    213.5043: real time   1071.4280

 eigenvalue-minimisations  :  5840
 total energy-change (2. order) :-0.5459458E-03  (-0.1091003E-05)
 number of electron     216.9999984 magnetization      24.9999995
 augmentation part       -1.9906589 magnetization      16.7508013

 DIPCOR: dipole corrections for dipol
 direction  3 min pos     1,
 dipolmoment           0.000000      0.000000     -0.285290 electrons x Angstroem
 Tr[quadrupol]     -5233.194142

 energy correction for charged system         0.000000 eV
 dipol+quadrupol energy correction           -0.002910 eV
 added-field ion interaction          0.049023 eV  (added to PSCEN)


 Broyden mixing:
  rms(total) = 0.17831E-03    rms(broyden)= 0.17831E-03
  rms(prec ) = 0.18559E-03
  weight for this iteration     100.00

 eigenvalues of (default mixing * dielectric matrix)
  average eigenvalue GAMMA=   1.3639
  5.5045  2.6339  2.0257  1.3872  1.3872  1.1663  1.1663  0.9431  0.7691  0.4624
  0.5105  0.6513  0.6513  0.5993  0.5993

 Free energy of the ion-electron system (eV)
  ---------------------------------------------------
  alpha Z        PSCENC =       109.50847668
  Ewald energy   TEWEN  =     24357.26505510
  -Hartree energ DENC   =    -35131.37132217
  -exchange      EXHF   =         0.00000000
  -V(xc)+E(xc)   XCENC  =       348.53469487
  PAW double counting   =     15047.96621680   -14900.21497300
  entropy T*S    EENTRO =        -0.00031761
  eigenvalues    EBANDS =     -2050.38576184
  atomic energy  EATOM  =     12060.75887678
  Solvation  Ediel_sol  =         0.00000000
  ---------------------------------------------------
  free energy    TOTEN  =      -157.93905440 eV

  energy without entropy =     -157.93873679  energy(sigma->0) =     -157.93889559


--------------------------------------------------------------------------------------------------------




--------------------------------------- Iteration      3(  17)  ---------------------------------------


    POTLOK:  cpu time      0.5795: real time      2.8978
    SETDIJ:  cpu time      0.2524: real time      1.2772
     EDDAV:  cpu time    191.6538: real time    961.7640
       DOS:  cpu time      0.1775: real time      0.8820
    CHARGE:  cpu time      5.4432: real time     27.3145
    MIXING:  cpu time      0.1438: real time      0.7365
    --------------------------------------------
      LOOP:  cpu time    198.2502: real time    994.8720

 eigenvalue-minimisations  :  5080
 total energy-change (2. order) :-0.2138054E-03  (-0.4170321E-06)
 number of electron     216.9999984 magnetization      24.9999995
 augmentation part       -1.9906796 magnetization      16.7507981

 DIPCOR: dipole corrections for dipol
 direction  3 min pos     1,
 dipolmoment           0.000000      0.000000     -0.285752 electrons x Angstroem
 Tr[quadrupol]     -5233.195639

 energy correction for charged system         0.000000 eV
 dipol+quadrupol energy correction           -0.002919 eV
 added-field ion interaction          0.049102 eV  (added to PSCEN)


 Broyden mixing:
  rms(total) = 0.11494E-03    rms(broyden)= 0.11493E-03
  rms(prec ) = 0.12063E-03
  weight for this iteration     100.00

 eigenvalues of (default mixing * dielectric matrix)
  average eigenvalue GAMMA=   1.3783
  6.0744  2.7091  2.0828  1.4497  1.4497  1.1856  1.1856  0.8976  0.8976  0.6828
  0.6828  0.4624  0.6012  0.6012  0.5104  0.5800

 Free energy of the ion-electron system (eV)
  ---------------------------------------------------
  alpha Z        PSCENC =       109.50854665
  Ewald energy   TEWEN  =     24357.26505510
  -Hartree energ DENC   =    -35131.38483370
  -exchange      EXHF   =         0.00000000
  -V(xc)+E(xc)   XCENC  =       348.53455236
  PAW double counting   =     15047.96350968   -14900.21232597
  entropy T*S    EENTRO =        -0.00031768
  eigenvalues    EBANDS =     -2050.37233144
  atomic energy  EATOM  =     12060.75887678
  Solvation  Ediel_sol  =         0.00000000
  ---------------------------------------------------
  free energy    TOTEN  =      -157.93926821 eV

  energy without entropy =     -157.93895053  energy(sigma->0) =     -157.93910937


--------------------------------------------------------------------------------------------------------




--------------------------------------- Iteration      3(  18)  ---------------------------------------


    POTLOK:  cpu time      0.5828: real time      2.9211
    SETDIJ:  cpu time      0.2679: real time      1.3409
     EDDAV:  cpu time    168.0654: real time    843.3790
       DOS:  cpu time      0.1384: real time      0.6990
    CHARGE:  cpu time      4.6908: real time     23.5422
    MIXING:  cpu time      0.1532: real time      0.7777
    --------------------------------------------
      LOOP:  cpu time    173.8986: real time    872.6600

 eigenvalue-minimisations  :  3832
 total energy-change (2. order) :-0.4295887E-04  (-0.5071643E-07)
 number of electron     216.9999984 magnetization      24.9999995
 augmentation part       -1.9906833 magnetization      16.7507956

 DIPCOR: dipole corrections for dipol
 direction  3 min pos     1,
 dipolmoment           0.000000      0.000000     -0.285932 electrons x Angstroem
 Tr[quadrupol]     -5233.196207

 energy correction for charged system         0.000000 eV
 dipol+quadrupol energy correction           -0.002923 eV
 added-field ion interaction          0.049133 eV  (added to PSCEN)


 Broyden mixing:
  rms(total) = 0.97392E-04    rms(broyden)= 0.97391E-04
  rms(prec ) = 0.10160E-03
  weight for this iteration     100.00

 eigenvalues of (default mixing * dielectric matrix)
  average eigenvalue GAMMA=   1.3815
  6.4189  2.7576  2.1287  1.5799  1.5799  1.1762  1.1762  0.9722  0.9722  0.7970
  0.7096  0.6257  0.6048  0.6048  0.5110  0.4624  0.4077

 Free energy of the ion-electron system (eV)
  ---------------------------------------------------
  alpha Z        PSCENC =       109.50857398
  Ewald energy   TEWEN  =     24357.26505510
  -Hartree energ DENC   =    -35131.38825130
  -exchange      EXHF   =         0.00000000
  -V(xc)+E(xc)   XCENC  =       348.53449598
  PAW double counting   =     15047.96527846   -14900.21405242
  entropy T*S    EENTRO =        -0.00031748
  eigenvalues    EBANDS =     -2050.36897025
  atomic energy  EATOM  =     12060.75887678
  Solvation  Ediel_sol  =         0.00000000
  ---------------------------------------------------
  free energy    TOTEN  =      -157.93931116 eV

  energy without entropy =     -157.93899368  energy(sigma->0) =     -157.93915242


--------------------------------------------------------------------------------------------------------




--------------------------------------- Iteration      3(  19)  ---------------------------------------


    POTLOK:  cpu time      0.6117: real time      3.0584
    SETDIJ:  cpu time      0.2726: real time      1.3776
     EDDAV:  cpu time    168.5420: real time    845.7600
       DOS:  cpu time      0.2194: real time      1.1001
    CHARGE:  cpu time      5.3969: real time     27.0658
    MIXING:  cpu time      0.1814: real time      0.9221
    --------------------------------------------
      LOOP:  cpu time    175.2240: real time    879.2840

 eigenvalue-minimisations  :  3760
 total energy-change (2. order) :-0.1896678E-04  (-0.5935478E-07)
 number of electron     216.9999984 magnetization      24.9999995
 augmentation part       -1.9906712 magnetization      16.7508018

 DIPCOR: dipole corrections for dipol
 direction  3 min pos     1,
 dipolmoment           0.000000      0.000000     -0.286077 electrons x Angstroem
 Tr[quadrupol]     -5233.196675

 energy correction for charged system         0.000000 eV
 dipol+quadrupol energy correction           -0.002926 eV
 added-field ion interaction          0.049158 eV  (added to PSCEN)


 Broyden mixing:
  rms(total) = 0.96865E-04    rms(broyden)= 0.96864E-04
  rms(prec ) = 0.99348E-04
  weight for this iteration     100.00

 eigenvalues of (default mixing * dielectric matrix)
  average eigenvalue GAMMA=   1.3835
  6.8131  2.8438  2.1413  1.6538  1.6538  1.1784  1.1784  1.0669  1.0669  0.8760
  0.4624  0.7232  0.5107  0.6008  0.6008  0.6330  0.6330  0.2671

 Free energy of the ion-electron system (eV)
  ---------------------------------------------------
  alpha Z        PSCENC =       109.50859590
  Ewald energy   TEWEN  =     24357.26505510
  -Hartree energ DENC   =    -35131.39028034
  -exchange      EXHF   =         0.00000000
  -V(xc)+E(xc)   XCENC  =       348.53445775
  PAW double counting   =     15047.96408226   -14900.21279512
  entropy T*S    EENTRO =        -0.00031751
  eigenvalues    EBANDS =     -2050.36700495
  atomic energy  EATOM  =     12060.75887678
  Solvation  Ediel_sol  =         0.00000000
  ---------------------------------------------------
  free energy    TOTEN  =      -157.93933013 eV

  energy without entropy =     -157.93901262  energy(sigma->0) =     -157.93917138


--------------------------------------------------------------------------------------------------------




--------------------------------------- Iteration      3(  20)  ---------------------------------------


    POTLOK:  cpu time      0.5859: real time      2.9364
    SETDIJ:  cpu time      0.2487: real time      1.2576
     EDDAV:  cpu time    162.7787: real time    816.8340
       DOS:  cpu time      0.1794: real time      0.9000
    CHARGE:  cpu time      5.2616: real time     26.3934
    MIXING:  cpu time      0.2178: real time      1.0986
    --------------------------------------------
      LOOP:  cpu time    169.2722: real time    849.4200

 eigenvalue-minimisations  :  3512
 total energy-change (2. order) :-0.6315255E-05  (-0.4624173E-07)
 number of electron     216.9999984 magnetization      24.9999995
 augmentation part       -1.9906666 magnetization      16.7508039

 DIPCOR: dipole corrections for dipol
 direction  3 min pos     1,
 dipolmoment           0.000000      0.000000     -0.286179 electrons x Angstroem
 Tr[quadrupol]     -5233.197013

 energy correction for charged system         0.000000 eV
 dipol+quadrupol energy correction           -0.002928 eV
 added-field ion interaction          0.049176 eV  (added to PSCEN)


 Broyden mixing:
  rms(total) = 0.49106E-04    rms(broyden)= 0.49105E-04
  rms(prec ) = 0.51837E-04
  weight for this iteration     100.00

 eigenvalues of (default mixing * dielectric matrix)
  average eigenvalue GAMMA=   1.3729
  7.0864  2.8990  2.2884  1.5155  1.5155  1.1835  1.1835  1.2068  1.2068  0.9483
  0.7225  0.4623  0.6375  0.6375  0.5107  0.6472  0.5912  0.5912  0.2509

 Free energy of the ion-electron system (eV)
  ---------------------------------------------------
  alpha Z        PSCENC =       109.50861132
  Ewald energy   TEWEN  =     24357.26505510
  -Hartree energ DENC   =    -35131.39134050
  -exchange      EXHF   =         0.00000000
  -V(xc)+E(xc)   XCENC  =       348.53443331
  PAW double counting   =     15047.96329043   -14900.21194989
  entropy T*S    EENTRO =        -0.00031747
  eigenvalues    EBANDS =     -2050.36599553
  atomic energy  EATOM  =     12060.75887678
  Solvation  Ediel_sol  =         0.00000000
  ---------------------------------------------------
  free energy    TOTEN  =      -157.93933645 eV

  energy without entropy =     -157.93901897  energy(sigma->0) =     -157.93917771


--------------------------------------------------------------------------------------------------------




--------------------------------------- Iteration      3(  21)  ---------------------------------------


    POTLOK:  cpu time      0.5907: real time      2.9600
    SETDIJ:  cpu time      0.2492: real time      1.2580
     EDDAV:  cpu time    161.6852: real time    811.3262
       DOS:  cpu time      0.1275: real time      0.6399
    CHARGE:  cpu time      4.8915: real time     24.5418
    MIXING:  cpu time      0.1564: real time      0.7811
    --------------------------------------------
      LOOP:  cpu time    167.7005: real time    841.5070

 eigenvalue-minimisations  :  3312
 total energy-change (2. order) :-0.1393826E-05  (-0.2629078E-07)
 number of electron     216.9999984 magnetization      24.9999995
 augmentation part       -1.9906735 magnetization      16.7508008

 DIPCOR: dipole corrections for dipol
 direction  3 min pos     1,
 dipolmoment           0.000000      0.000000     -0.286232 electrons x Angstroem
 Tr[quadrupol]     -5233.197208

 energy correction for charged system         0.000000 eV
 dipol+quadrupol energy correction           -0.002929 eV
 added-field ion interaction          0.049185 eV  (added to PSCEN)


 Broyden mixing:
  rms(total) = 0.43255E-04    rms(broyden)= 0.43254E-04
  rms(prec ) = 0.45374E-04
  weight for this iteration     100.00

 eigenvalues of (default mixing * dielectric matrix)
  average eigenvalue GAMMA=   1.3554
  7.1763  2.9525  2.3521  1.5001  1.4727  1.3163  1.3163  1.2058  1.2058  0.9439
  0.8235  0.6959  0.6475  0.5953  0.5953  0.5891  0.4623  0.5201  0.5008  0.2355

 Free energy of the ion-electron system (eV)
  ---------------------------------------------------
  alpha Z        PSCENC =       109.50861938
  Ewald energy   TEWEN  =     24357.26505510
  -Hartree energ DENC   =    -35131.39178206
  -exchange      EXHF   =         0.00000000
  -V(xc)+E(xc)   XCENC  =       348.53442536
  PAW double counting   =     15047.96402242   -14900.21269044
  entropy T*S    EENTRO =        -0.00031748
  eigenvalues    EBANDS =     -2050.36554690
  atomic energy  EATOM  =     12060.75887678
  Solvation  Ediel_sol  =         0.00000000
  ---------------------------------------------------
  free energy    TOTEN  =      -157.93933784 eV

  energy without entropy =     -157.93902036  energy(sigma->0) =     -157.93917910


--------------------------------------------------------------------------------------------------------




--------------------------------------- Iteration      3(  22)  ---------------------------------------


    POTLOK:  cpu time      0.6195: real time      3.1140
    SETDIJ:  cpu time      0.2531: real time      1.2780
     EDDAV:  cpu time    156.5643: real time    785.6570
       DOS:  cpu time      0.1835: real time      0.9201
    --------------------------------------------
      LOOP:  cpu time    157.6205: real time    790.9690

 eigenvalue-minimisations  :  3088
 total energy-change (2. order) :-0.5106849E-06  (-0.1279129E-07)
 number of electron     216.9999984 magnetization      24.9999995
 augmentation part       -1.9906735 magnetization      16.7508008

 DIPCOR: dipole corrections for dipol
 direction  3 min pos     1,
 dipolmoment           0.000000      0.000000     -0.286263 electrons x Angstroem
 Tr[quadrupol]     -5233.197331

 energy correction for charged system         0.000000 eV
 dipol+quadrupol energy correction           -0.002930 eV
 added-field ion interaction          0.049190 eV  (added to PSCEN)


 Free energy of the ion-electron system (eV)
  ---------------------------------------------------
  alpha Z        PSCENC =       109.50862412
  Ewald energy   TEWEN  =     24357.26505510
  -Hartree energ DENC   =    -35131.39181654
  -exchange      EXHF   =         0.00000000
  -V(xc)+E(xc)   XCENC  =       348.53442019
  PAW double counting   =     15047.96457373   -14900.21324333
  entropy T*S    EENTRO =        -0.00031745
  eigenvalues    EBANDS =     -2050.36551095
  atomic energy  EATOM  =     12060.75887678
  Solvation  Ediel_sol  =         0.00000000
  ---------------------------------------------------
  free energy    TOTEN  =      -157.93933835 eV

  energy without entropy =     -157.93902090  energy(sigma->0) =     -157.93917963


--------------------------------------------------------------------------------------------------------




 average (electrostatic) potential at core
  the test charge radii are     1.1394  0.9406  0.5201
  (the norm of the test charge is              1.0000)
       1 -52.7081       2 -51.9993       3 -51.9993       4 -52.6912       5 -52.6912
       6 -52.7070       7 -52.7070       8 -52.7081       9 -99.1538      10 -98.8214
      11 -99.1652      12 -99.1471      13 -99.1275      14 -99.0364      15 -99.1652
      16 -99.1896      17 -99.1551      18 -99.0364      19-101.0384      20 -99.0370
      21 -99.1551      22 -99.1472      23 -99.1659      24 -99.0370      25 -99.1275
      26 -99.0857      27 -99.1659      28 -99.1896      29 -99.1538      30 -99.0857
      31 -99.1268      32 -99.1471      33 -43.7873
 
 
 
 E-fermi :  -2.5638     XC(G=0):  -2.9818     alpha+bet : -2.3927

 val. band max:       -2.6640605988   @ k =   0.4000   0.2000   0.0000
 cond. band min:      -2.4576780451   @ k =   0.2000   0.2000   0.0000
 fundamental gap:      0.2063825537
 Fermi energy:        -2.5637996325

 spin component 1

 k-point     1 :       0.0000    0.0000    0.0000
  band No.  band energies     occupation 
      1     -21.0373      1.00000
      2     -19.4292      1.00000
      3     -19.1441      1.00000
      4     -19.1154      1.00000
      5     -19.0333      1.00000
      6     -18.8729      1.00000
      7     -18.8643      1.00000
      8     -18.7618      1.00000
      9     -18.6322      1.00000
     10     -18.5808      1.00000
     11     -18.5769      1.00000
     12     -18.5369      1.00000
     13     -18.5235      1.00000
     14     -18.5025      1.00000
     15     -18.4935      1.00000
     16     -18.4869      1.00000
     17     -18.4628      1.00000
     18     -18.4527      1.00000
     19     -18.4313      1.00000
     20     -18.4132      1.00000
     21     -18.4084      1.00000
     22     -18.3830      1.00000
     23     -18.3474      1.00000
     24     -18.2556      1.00000
     25     -11.7423      1.00000
     26      -9.3120      1.00000
     27      -9.2075      1.00000
     28      -9.1755      1.00000
     29      -9.1309      1.00000
     30      -8.7283      1.00000
     31      -8.6782      1.00000
     32      -8.6040      1.00000
     33      -8.5218      1.00000
     34      -8.4926      1.00000
     35      -8.4752      1.00000
     36      -8.3569      1.00000
     37      -8.3409      1.00000
     38      -8.3274      1.00000
     39      -8.2889      1.00000
     40      -8.2627      1.00000
     41      -8.2521      1.00000
     42      -8.2356      1.00000
     43      -8.2033      1.00000
     44      -8.1366      1.00000
     45      -8.1084      1.00000
     46      -8.0724      1.00000
     47      -8.0651      1.00000
     48      -8.0396      1.00000
     49      -7.9879      1.00000
     50      -7.9816      1.00000
     51      -7.9785      1.00000
     52      -7.8565      1.00000
     53      -7.8557      1.00000
     54      -7.7692      1.00000
     55      -7.6751      1.00000
     56      -7.5489      1.00000
     57      -7.4702      1.00000
     58      -7.4656      1.00000
     59      -7.4432      1.00000
     60      -7.3360      1.00000
     61      -7.3084      1.00000
     62      -7.2720      1.00000
     63      -7.2591      1.00000
     64      -7.2436      1.00000
     65      -7.2244      1.00000
     66      -7.0440      1.00000
     67      -7.0376      1.00000
     68      -7.0119      1.00000
     69      -7.0027      1.00000
     70      -6.9175      1.00000
     71      -6.8878      1.00000
     72      -6.8706      1.00000
     73      -6.8414      1.00000
     74      -6.5455      1.00000
     75      -6.5368      1.00000
     76      -6.4460      1.00000
     77      -6.3305      1.00000
     78      -6.3276      1.00000
     79      -6.2592      1.00000
     80      -6.2286      1.00000
     81      -6.0959      1.00000
     82      -6.0948      1.00000
     83      -6.0332      1.00000
     84      -6.0160      1.00000
     85      -6.0054      1.00000
     86      -5.9546      1.00000
     87      -5.8891      1.00000
     88      -5.8826      1.00000
     89      -5.7629      1.00000
     90      -5.7373      1.00000
     91      -5.6764      1.00000
     92      -5.6489      1.00000
     93      -5.5574      1.00000
     94      -5.5504      1.00000
     95      -5.5339      1.00000
     96      -5.4969      1.00000
     97      -4.9901      1.00000
     98      -4.9862      1.00000
     99      -4.9800      1.00000
    100      -4.9436      1.00000
    101      -4.7538      1.00000
    102      -4.7473      1.00000
    103      -4.6854      1.00000
    104      -4.6758      1.00000
    105      -4.6371      1.00000
    106      -4.6088      1.00000
    107      -4.5606      1.00000
    108      -4.5419      1.00000
    109      -4.5201      1.00000
    110      -4.4504      1.00000
    111      -4.4387      1.00000
    112      -4.3849      1.00000
    113      -4.3575      1.00000
    114      -4.3063      1.00000
    115      -4.2591      1.00000
    116      -4.1987      1.00000
    117      -4.1449      1.00000
    118      -4.0864      1.00000
    119      -3.9790      1.00000
    120      -3.8483      1.00000
    121      -2.6811      0.99955
    122      -2.4408      0.00025
    123      -2.4359      0.00015
    124      -2.4323      0.00010
    125      -2.4251      0.00004
    126      -2.3961      0.00000
    127      -2.3859      0.00000
    128      -2.3535      0.00000
    129      -2.3532      0.00000
    130      -2.3088      0.00000
    131      -2.3072      0.00000
    132      -2.2938      0.00000
    133      -2.2465      0.00000
    134      -2.2218      0.00000
    135      -2.1048      0.00000
    136      -1.9864      0.00000
    137      -0.3486      0.00000
    138       1.4732      0.00000
    139       1.9515      0.00000
    140       2.4287      0.00000
    141       2.5559      0.00000
    142       2.6381      0.00000
    143       2.8222      0.00000
    144       2.8582      0.00000

 k-point     2 :       0.2000    0.0000    0.0000
  band No.  band energies     occupation 
      1     -21.0372      1.00000
      2     -19.4124      1.00000
      3     -19.1781      1.00000
      4     -19.1494      1.00000
      5     -19.0080      1.00000
      6     -18.8648      1.00000
      7     -18.8447      1.00000
      8     -18.7326      1.00000
      9     -18.6267      1.00000
     10     -18.5843      1.00000
     11     -18.5803      1.00000
     12     -18.5439      1.00000
     13     -18.5394      1.00000
     14     -18.5234      1.00000
     15     -18.5013      1.00000
     16     -18.4779      1.00000
     17     -18.4580      1.00000
     18     -18.4477      1.00000
     19     -18.4236      1.00000
     20     -18.4123      1.00000
     21     -18.4046      1.00000
     22     -18.3852      1.00000
     23     -18.3542      1.00000
     24     -18.2563      1.00000
     25     -11.7424      1.00000
     26      -9.2893      1.00000
     27      -9.1802      1.00000
     28      -9.1576      1.00000
     29      -9.1076      1.00000
     30      -8.7288      1.00000
     31      -8.6955      1.00000
     32      -8.6290      1.00000
     33      -8.5361      1.00000
     34      -8.5090      1.00000
     35      -8.5014      1.00000
     36      -8.3690      1.00000
     37      -8.3435      1.00000
     38      -8.3177      1.00000
     39      -8.2837      1.00000
     40      -8.2656      1.00000
     41      -8.2538      1.00000
     42      -8.2321      1.00000
     43      -8.1973      1.00000
     44      -8.1568      1.00000
     45      -8.1212      1.00000
     46      -8.1028      1.00000
     47      -8.0777      1.00000
     48      -8.0353      1.00000
     49      -7.9888      1.00000
     50      -7.9678      1.00000
     51      -7.9584      1.00000
     52      -7.8812      1.00000
     53      -7.8515      1.00000
     54      -7.7840      1.00000
     55      -7.7186      1.00000
     56      -7.6591      1.00000
     57      -7.5953      1.00000
     58      -7.5142      1.00000
     59      -7.4559      1.00000
     60      -7.4257      1.00000
     61      -7.2908      1.00000
     62      -7.2570      1.00000
     63      -7.1548      1.00000
     64      -7.1207      1.00000
     65      -7.0712      1.00000
     66      -7.0540      1.00000
     67      -7.0255      1.00000
     68      -6.9811      1.00000
     69      -6.9570      1.00000
     70      -6.8390      1.00000
     71      -6.7873      1.00000
     72      -6.7464      1.00000
     73      -6.7397      1.00000
     74      -6.5448      1.00000
     75      -6.5414      1.00000
     76      -6.4615      1.00000
     77      -6.3876      1.00000
     78      -6.3283      1.00000
     79      -6.2935      1.00000
     80      -6.2363      1.00000
     81      -6.1529      1.00000
     82      -6.0928      1.00000
     83      -6.0688      1.00000
     84      -6.0350      1.00000
     85      -5.9928      1.00000
     86      -5.9650      1.00000
     87      -5.9353      1.00000
     88      -5.8305      1.00000
     89      -5.7771      1.00000
     90      -5.7609      1.00000
     91      -5.7255      1.00000
     92      -5.6831      1.00000
     93      -5.6698      1.00000
     94      -5.6129      1.00000
     95      -5.5730      1.00000
     96      -5.5314      1.00000
     97      -4.9708      1.00000
     98      -4.9536      1.00000
     99      -4.9387      1.00000
    100      -4.9043      1.00000
    101      -4.7499      1.00000
    102      -4.7205      1.00000
    103      -4.6821      1.00000
    104      -4.6651      1.00000
    105      -4.6350      1.00000
    106      -4.6187      1.00000
    107      -4.5503      1.00000
    108      -4.5227      1.00000
    109      -4.5064      1.00000
    110      -4.4393      1.00000
    111      -4.4345      1.00000
    112      -4.3871      1.00000
    113      -4.3655      1.00000
    114      -4.3041      1.00000
    115      -4.2656      1.00000
    116      -4.2028      1.00000
    117      -4.1490      1.00000
    118      -4.0937      1.00000
    119      -3.9700      1.00000
    120      -3.8571      1.00000
    121      -2.6750      0.99917
    122      -2.4511      0.00072
    123      -2.4434      0.00033
    124      -2.4303      0.00008
    125      -2.4123      0.00001
    126      -2.3998      0.00000
    127      -2.3898      0.00000
    128      -2.3674      0.00000
    129      -2.3311      0.00000
    130      -2.3175      0.00000
    131      -2.2980      0.00000
    132      -2.2937      0.00000
    133      -2.2449      0.00000
    134      -2.2263      0.00000
    135      -2.1054      0.00000
    136      -1.9902      0.00000
    137      -0.3467      0.00000
    138       1.5511      0.00000
    139       2.0103      0.00000
    140       2.4088      0.00000
    141       2.4940      0.00000
    142       2.5596      0.00000
    143       2.6604      0.00000
    144       2.7450      0.00000

 k-point     3 :       0.0000    0.2000    0.0000
  band No.  band energies     occupation 
      1     -21.0373      1.00000
      2     -19.4118      1.00000
      3     -19.1822      1.00000
      4     -19.1249      1.00000
      5     -19.0518      1.00000
      6     -18.8578      1.00000
      7     -18.8128      1.00000
      8     -18.7443      1.00000
      9     -18.6246      1.00000
     10     -18.5891      1.00000
     11     -18.5826      1.00000
     12     -18.5508      1.00000
     13     -18.5292      1.00000
     14     -18.5170      1.00000
     15     -18.5037      1.00000
     16     -18.4890      1.00000
     17     -18.4548      1.00000
     18     -18.4424      1.00000
     19     -18.4264      1.00000
     20     -18.4117      1.00000
     21     -18.4088      1.00000
     22     -18.3847      1.00000
     23     -18.3532      1.00000
     24     -18.2553      1.00000
     25     -11.7423      1.00000
     26      -9.3043      1.00000
     27      -9.1799      1.00000
     28      -9.1559      1.00000
     29      -9.0916      1.00000
     30      -8.7262      1.00000
     31      -8.6946      1.00000
     32      -8.6350      1.00000
     33      -8.5495      1.00000
     34      -8.4945      1.00000
     35      -8.4835      1.00000
     36      -8.3555      1.00000
     37      -8.3491      1.00000
     38      -8.3294      1.00000
     39      -8.2992      1.00000
     40      -8.2687      1.00000
     41      -8.2406      1.00000
     42      -8.2291      1.00000
     43      -8.2091      1.00000
     44      -8.1723      1.00000
     45      -8.1393      1.00000
     46      -8.1128      1.00000
     47      -8.0522      1.00000
     48      -8.0190      1.00000
     49      -7.9947      1.00000
     50      -7.9666      1.00000
     51      -7.9537      1.00000
     52      -7.8680      1.00000
     53      -7.8504      1.00000
     54      -7.7716      1.00000
     55      -7.7140      1.00000
     56      -7.6355      1.00000
     57      -7.6230      1.00000
     58      -7.5675      1.00000
     59      -7.4521      1.00000
     60      -7.4170      1.00000
     61      -7.3135      1.00000
     62      -7.2052      1.00000
     63      -7.1864      1.00000
     64      -7.1344      1.00000
     65      -7.0977      1.00000
     66      -7.0512      1.00000
     67      -7.0294      1.00000
     68      -6.9764      1.00000
     69      -6.9256      1.00000
     70      -6.8591      1.00000
     71      -6.7587      1.00000
     72      -6.7322      1.00000
     73      -6.7055      1.00000
     74      -6.5517      1.00000
     75      -6.5497      1.00000
     76      -6.4569      1.00000
     77      -6.3746      1.00000
     78      -6.3292      1.00000
     79      -6.3022      1.00000
     80      -6.2616      1.00000
     81      -6.1303      1.00000
     82      -6.0921      1.00000
     83      -6.0578      1.00000
     84      -6.0275      1.00000
     85      -6.0090      1.00000
     86      -5.9821      1.00000
     87      -5.9384      1.00000
     88      -5.8527      1.00000
     89      -5.7763      1.00000
     90      -5.7492      1.00000
     91      -5.7118      1.00000
     92      -5.6760      1.00000
     93      -5.6634      1.00000
     94      -5.6455      1.00000
     95      -5.5741      1.00000
     96      -5.5377      1.00000
     97      -4.9710      1.00000
     98      -4.9529      1.00000
     99      -4.9271      1.00000
    100      -4.9100      1.00000
    101      -4.7455      1.00000
    102      -4.7336      1.00000
    103      -4.6837      1.00000
    104      -4.6643      1.00000
    105      -4.6235      1.00000
    106      -4.5920      1.00000
    107      -4.5682      1.00000
    108      -4.5162      1.00000
    109      -4.5108      1.00000
    110      -4.4399      1.00000
    111      -4.4357      1.00000
    112      -4.3841      1.00000
    113      -4.3569      1.00000
    114      -4.3119      1.00000
    115      -4.2621      1.00000
    116      -4.2066      1.00000
    117      -4.1525      1.00000
    118      -4.0948      1.00000
    119      -3.9756      1.00000
    120      -3.8526      1.00000
    121      -2.6770      0.99932
    122      -2.4446      0.00037
    123      -2.4398      0.00023
    124      -2.4320      0.00010
    125      -2.4178      0.00002
    126      -2.4008      0.00000
    127      -2.3765      0.00000
    128      -2.3676      0.00000
    129      -2.3475      0.00000
    130      -2.3343      0.00000
    131      -2.2932      0.00000
    132      -2.2707      0.00000
    133      -2.2472      0.00000
    134      -2.2210      0.00000
    135      -2.1225      0.00000
    136      -1.9842      0.00000
    137      -0.3463      0.00000
    138       1.5513      0.00000
    139       2.0110      0.00000
    140       2.4160      0.00000
    141       2.4953      0.00000
    142       2.5258      0.00000
    143       2.7009      0.00000
    144       2.7584      0.00000

 k-point     4 :       0.4000    0.0000    0.0000
  band No.  band energies     occupation 
      1     -21.0372      1.00000
      2     -19.3673      1.00000
      3     -19.2659      1.00000
      4     -19.1574      1.00000
      5     -18.9983      1.00000
      6     -18.8468      1.00000
      7     -18.8151      1.00000
      8     -18.6697      1.00000
      9     -18.6130      1.00000
     10     -18.6001      1.00000
     11     -18.5850      1.00000
     12     -18.5826      1.00000
     13     -18.5516      1.00000
     14     -18.5429      1.00000
     15     -18.5092      1.00000
     16     -18.4824      1.00000
     17     -18.4469      1.00000
     18     -18.4374      1.00000
     19     -18.4197      1.00000
     20     -18.4056      1.00000
     21     -18.3971      1.00000
     22     -18.3895      1.00000
     23     -18.3687      1.00000
     24     -18.2574      1.00000
     25     -11.7427      1.00000
     26      -9.2561      1.00000
     27      -9.1612      1.00000
     28      -9.1007      1.00000
     29      -9.0211      1.00000
     30      -8.7480      1.00000
     31      -8.7169      1.00000
     32      -8.6988      1.00000
     33      -8.5980      1.00000
     34      -8.5395      1.00000
     35      -8.5267      1.00000
     36      -8.4016      1.00000
     37      -8.3227      1.00000
     38      -8.3086      1.00000
     39      -8.3007      1.00000
     40      -8.2639      1.00000
     41      -8.2576      1.00000
     42      -8.2293      1.00000
     43      -8.2005      1.00000
     44      -8.1858      1.00000
     45      -8.1517      1.00000
     46      -8.1164      1.00000
     47      -8.0461      1.00000
     48      -8.0127      1.00000
     49      -8.0018      1.00000
     50      -7.9572      1.00000
     51      -7.9299      1.00000
     52      -7.9077      1.00000
     53      -7.8607      1.00000
     54      -7.8317      1.00000
     55      -7.7580      1.00000
     56      -7.7470      1.00000
     57      -7.6868      1.00000
     58      -7.6167      1.00000
     59      -7.5352      1.00000
     60      -7.4546      1.00000
     61      -7.2258      1.00000
     62      -7.1371      1.00000
     63      -7.0963      1.00000
     64      -7.0648      1.00000
     65      -7.0586      1.00000
     66      -7.0212      1.00000
     67      -6.9820      1.00000
     68      -6.8783      1.00000
     69      -6.8118      1.00000
     70      -6.7299      1.00000
     71      -6.6608      1.00000
     72      -6.6295      1.00000
     73      -6.5877      1.00000
     74      -6.5047      1.00000
     75      -6.4754      1.00000
     76      -6.4496      1.00000
     77      -6.3491      1.00000
     78      -6.3336      1.00000
     79      -6.3179      1.00000
     80      -6.2616      1.00000
     81      -6.2032      1.00000
     82      -6.1664      1.00000
     83      -6.1234      1.00000
     84      -6.0743      1.00000
     85      -6.0596      1.00000
     86      -6.0202      1.00000
     87      -5.9865      1.00000
     88      -5.9568      1.00000
     89      -5.8403      1.00000
     90      -5.8217      1.00000
     91      -5.8059      1.00000
     92      -5.7676      1.00000
     93      -5.7035      1.00000
     94      -5.6420      1.00000
     95      -5.6240      1.00000
     96      -5.5800      1.00000
     97      -4.9247      1.00000
     98      -4.9131      1.00000
     99      -4.8812      1.00000
    100      -4.8473      1.00000
    101      -4.7613      1.00000
    102      -4.6848      1.00000
    103      -4.6717      1.00000
    104      -4.6552      1.00000
    105      -4.6416      1.00000
    106      -4.6247      1.00000
    107      -4.5194      1.00000
    108      -4.4939      1.00000
    109      -4.4807      1.00000
    110      -4.4334      1.00000
    111      -4.4204      1.00000
    112      -4.3927      1.00000
    113      -4.3795      1.00000
    114      -4.3021      1.00000
    115      -4.2742      1.00000
    116      -4.2108      1.00000
    117      -4.1540      1.00000
    118      -4.1083      1.00000
    119      -3.9528      1.00000
    120      -3.8749      1.00000
    121      -2.6647      0.99783
    122      -2.4558      0.00113
    123      -2.4466      0.00046
    124      -2.4265      0.00005
    125      -2.4098      0.00001
    126      -2.4015      0.00000
    127      -2.3928      0.00000
    128      -2.3626      0.00000
    129      -2.3526      0.00000
    130      -2.3327      0.00000
    131      -2.3267      0.00000
    132      -2.2605      0.00000
    133      -2.2408      0.00000
    134      -2.2102      0.00000
    135      -2.1086      0.00000
    136      -1.9883      0.00000
    137      -0.3439      0.00000
    138       1.7608      0.00000
    139       2.0706      0.00000
    140       2.1787      0.00000
    141       2.4310      0.00000
    142       2.4649      0.00000
    143       2.6453      0.00000
    144       2.6925      0.00000

 k-point     5 :       0.0000    0.4000    0.0000
  band No.  band energies     occupation 
      1     -21.0372      1.00000
      2     -19.3653      1.00000
      3     -19.2617      1.00000
      4     -19.1374      1.00000
      5     -19.0617      1.00000
      6     -18.8373      1.00000
      7     -18.7569      1.00000
      8     -18.6831      1.00000
      9     -18.6171      1.00000
     10     -18.6012      1.00000
     11     -18.5930      1.00000
     12     -18.5823      1.00000
     13     -18.5565      1.00000
     14     -18.5319      1.00000
     15     -18.5142      1.00000
     16     -18.4918      1.00000
     17     -18.4435      1.00000
     18     -18.4313      1.00000
     19     -18.4215      1.00000
     20     -18.4151      1.00000
     21     -18.3966      1.00000
     22     -18.3888      1.00000
     23     -18.3665      1.00000
     24     -18.2549      1.00000
     25     -11.7425      1.00000
     26      -9.2968      1.00000
     27      -9.1680      1.00000
     28      -9.0565      1.00000
     29      -8.9952      1.00000
     30      -8.7609      1.00000
     31      -8.7363      1.00000
     32      -8.7017      1.00000
     33      -8.5983      1.00000
     34      -8.5030      1.00000
     35      -8.4870      1.00000
     36      -8.3756      1.00000
     37      -8.3596      1.00000
     38      -8.3280      1.00000
     39      -8.2998      1.00000
     40      -8.2839      1.00000
     41      -8.2621      1.00000
     42      -8.2552      1.00000
     43      -8.2304      1.00000
     44      -8.1991      1.00000
     45      -8.1620      1.00000
     46      -8.0884      1.00000
     47      -8.0260      1.00000
     48      -7.9968      1.00000
     49      -7.9717      1.00000
     50      -7.9672      1.00000
     51      -7.9396      1.00000
     52      -7.9005      1.00000
     53      -7.8329      1.00000
     54      -7.7979      1.00000
     55      -7.7850      1.00000
     56      -7.7540      1.00000
     57      -7.7000      1.00000
     58      -7.6519      1.00000
     59      -7.5483      1.00000
     60      -7.4301      1.00000
     61      -7.2836      1.00000
     62      -7.1217      1.00000
     63      -7.1107      1.00000
     64      -7.0846      1.00000
     65      -7.0421      1.00000
     66      -7.0301      1.00000
     67      -6.9839      1.00000
     68      -6.8763      1.00000
     69      -6.7955      1.00000
     70      -6.7232      1.00000
     71      -6.6578      1.00000
     72      -6.5980      1.00000
     73      -6.5254      1.00000
     74      -6.4979      1.00000
     75      -6.4546      1.00000
     76      -6.4115      1.00000
     77      -6.3855      1.00000
     78      -6.3426      1.00000
     79      -6.3174      1.00000
     80      -6.2918      1.00000
     81      -6.1837      1.00000
     82      -6.1379      1.00000
     83      -6.1143      1.00000
     84      -6.0852      1.00000
     85      -6.0500      1.00000
     86      -6.0412      1.00000
     87      -6.0071      1.00000
     88      -5.9444      1.00000
     89      -5.9021      1.00000
     90      -5.8519      1.00000
     91      -5.7912      1.00000
     92      -5.7499      1.00000
     93      -5.7151      1.00000
     94      -5.6801      1.00000
     95      -5.6246      1.00000
     96      -5.5759      1.00000
     97      -4.9205      1.00000
     98      -4.9065      1.00000
     99      -4.8810      1.00000
    100      -4.8541      1.00000
    101      -4.7227      1.00000
    102      -4.7133      1.00000
    103      -4.6899      1.00000
    104      -4.6527      1.00000
    105      -4.6089      1.00000
    106      -4.5780      1.00000
    107      -4.5649      1.00000
    108      -4.4880      1.00000
    109      -4.4784      1.00000
    110      -4.4363      1.00000
    111      -4.4126      1.00000
    112      -4.3797      1.00000
    113      -4.3556      1.00000
    114      -4.3294      1.00000
    115      -4.2699      1.00000
    116      -4.2203      1.00000
    117      -4.1655      1.00000
    118      -4.1093      1.00000
    119      -3.9683      1.00000
    120      -3.8608      1.00000
    121      -2.6706      0.99874
    122      -2.4549      0.00104
    123      -2.4408      0.00025
    124      -2.4298      0.00008
    125      -2.4136      0.00001
    126      -2.3970      0.00000
    127      -2.3773      0.00000
    128      -2.3708      0.00000
    129      -2.3606      0.00000
    130      -2.3393      0.00000
    131      -2.3065      0.00000
    132      -2.2512      0.00000
    133      -2.2327      0.00000
    134      -2.2200      0.00000
    135      -2.1394      0.00000
    136      -1.9775      0.00000
    137      -0.3427      0.00000
    138       1.7609      0.00000
    139       2.0745      0.00000
    140       2.1780      0.00000
    141       2.4360      0.00000
    142       2.4495      0.00000
    143       2.6242      0.00000
    144       2.6882      0.00000

 k-point     6 :       0.2000    0.2000    0.0000
  band No.  band energies     occupation 
      1     -21.0372      1.00000
      2     -19.3799      1.00000
      3     -19.2320      1.00000
      4     -19.1745      1.00000
      5     -18.9931      1.00000
      6     -18.8913      1.00000
      7     -18.7581      1.00000
      8     -18.7050      1.00000
      9     -18.6154      1.00000
     10     -18.5990      1.00000
     11     -18.5865      1.00000
     12     -18.5708      1.00000
     13     -18.5426      1.00000
     14     -18.5382      1.00000
     15     -18.5194      1.00000
     16     -18.4723      1.00000
     17     -18.4584      1.00000
     18     -18.4362      1.00000
     19     -18.4192      1.00000
     20     -18.4082      1.00000
     21     -18.4003      1.00000
     22     -18.3887      1.00000
     23     -18.3644      1.00000
     24     -18.2561      1.00000
     25     -11.7426      1.00000
     26      -9.2781      1.00000
     27      -9.1569      1.00000
     28      -9.1206      1.00000
     29      -9.0240      1.00000
     30      -8.7421      1.00000
     31      -8.7165      1.00000
     32      -8.6788      1.00000
     33      -8.5789      1.00000
     34      -8.5242      1.00000
     35      -8.5123      1.00000
     36      -8.3870      1.00000
     37      -8.3381      1.00000
     38      -8.3223      1.00000
     39      -8.3029      1.00000
     40      -8.2767      1.00000
     41      -8.2516      1.00000
     42      -8.2299      1.00000
     43      -8.2192      1.00000
     44      -8.1712      1.00000
     45      -8.1680      1.00000
     46      -8.1098      1.00000
     47      -8.0450      1.00000
     48      -8.0084      1.00000
     49      -7.9731      1.00000
     50      -7.9614      1.00000
     51      -7.9395      1.00000
     52      -7.8899      1.00000
     53      -7.8621      1.00000
     54      -7.8066      1.00000
     55      -7.7759      1.00000
     56      -7.7259      1.00000
     57      -7.6905      1.00000
     58      -7.6596      1.00000
     59      -7.4579      1.00000
     60      -7.3895      1.00000
     61      -7.3358      1.00000
     62      -7.1826      1.00000
     63      -7.1410      1.00000
     64      -7.0827      1.00000
     65      -7.0453      1.00000
     66      -6.9732      1.00000
     67      -6.9327      1.00000
     68      -6.8686      1.00000
     69      -6.8439      1.00000
     70      -6.7798      1.00000
     71      -6.6876      1.00000
     72      -6.6429      1.00000
     73      -6.5855      1.00000
     74      -6.5198      1.00000
     75      -6.5111      1.00000
     76      -6.4529      1.00000
     77      -6.4045      1.00000
     78      -6.3378      1.00000
     79      -6.3195      1.00000
     80      -6.2814      1.00000
     81      -6.1861      1.00000
     82      -6.1436      1.00000
     83      -6.1196      1.00000
     84      -6.0609      1.00000
     85      -6.0105      1.00000
     86      -5.9875      1.00000
     87      -5.9639      1.00000
     88      -5.8949      1.00000
     89      -5.8541      1.00000
     90      -5.8043      1.00000
     91      -5.7681      1.00000
     92      -5.7308      1.00000
     93      -5.7107      1.00000
     94      -5.6682      1.00000
     95      -5.6643      1.00000
     96      -5.5812      1.00000
     97      -4.9279      1.00000
     98      -4.9123      1.00000
     99      -4.8928      1.00000
    100      -4.8624      1.00000
    101      -4.7429      1.00000
    102      -4.6961      1.00000
    103      -4.6882      1.00000
    104      -4.6597      1.00000
    105      -4.6195      1.00000
    106      -4.6013      1.00000
    107      -4.5548      1.00000
    108      -4.4900      1.00000
    109      -4.4873      1.00000
    110      -4.4376      1.00000
    111      -4.4194      1.00000
    112      -4.3854      1.00000
    113      -4.3707      1.00000
    114      -4.3102      1.00000
    115      -4.2722      1.00000
    116      -4.2121      1.00000
    117      -4.1574      1.00000
    118      -4.1054      1.00000
    119      -3.9623      1.00000
    120      -3.8656      1.00000
    121      -2.6692      0.99856
    122      -2.4577      0.00134
    123      -2.4429      0.00032
    124      -2.4251      0.00004
    125      -2.4141      0.00001
    126      -2.4030      0.00000
    127      -2.3854      0.00000
    128      -2.3665      0.00000
    129      -2.3530      0.00000
    130      -2.3407      0.00000
    131      -2.2892      0.00000
    132      -2.2759      0.00000
    133      -2.2403      0.00000
    134      -2.2157      0.00000
    135      -2.1170      0.00000
    136      -1.9845      0.00000
    137      -0.3440      0.00000
    138       1.6948      0.00000
    139       2.1204      0.00000
    140       2.2663      0.00000
    141       2.2849      0.00000
    142       2.6014      0.00000
    143       2.6227      0.00000
    144       2.6406      0.00000

 k-point     7 :      -0.2000    0.4000    0.0000
  band No.  band energies     occupation 
      1     -21.0372      1.00000
      2     -19.3780      1.00000
      3     -19.2400      1.00000
      4     -19.1389      1.00000
      5     -19.0621      1.00000
      6     -18.8412      1.00000
      7     -18.7589      1.00000
      8     -18.7044      1.00000
      9     -18.6112      1.00000
     10     -18.6017      1.00000
     11     -18.6007      1.00000
     12     -18.5617      1.00000
     13     -18.5442      1.00000
     14     -18.5402      1.00000
     15     -18.5178      1.00000
     16     -18.4848      1.00000
     17     -18.4493      1.00000
     18     -18.4308      1.00000
     19     -18.4234      1.00000
     20     -18.4121      1.00000
     21     -18.4043      1.00000
     22     -18.3872      1.00000
     23     -18.3621      1.00000
     24     -18.2547      1.00000
     25     -11.7424      1.00000
     26      -9.2978      1.00000
     27      -9.1494      1.00000
     28      -9.1357      1.00000
     29      -8.9806      1.00000
     30      -8.7346      1.00000
     31      -8.7337      1.00000
     32      -8.6820      1.00000
     33      -8.5986      1.00000
     34      -8.4947      1.00000
     35      -8.4864      1.00000
     36      -8.3836      1.00000
     37      -8.3491      1.00000
     38      -8.3333      1.00000
     39      -8.3068      1.00000
     40      -8.2800      1.00000
     41      -8.2560      1.00000
     42      -8.2540      1.00000
     43      -8.2324      1.00000
     44      -8.1870      1.00000
     45      -8.1615      1.00000
     46      -8.1103      1.00000
     47      -8.0070      1.00000
     48      -7.9947      1.00000
     49      -7.9762      1.00000
     50      -7.9529      1.00000
     51      -7.9502      1.00000
     52      -7.8717      1.00000
     53      -7.8709      1.00000
     54      -7.7948      1.00000
     55      -7.7581      1.00000
     56      -7.7305      1.00000
     57      -7.6898      1.00000
     58      -7.6749      1.00000
     59      -7.4996      1.00000
     60      -7.4361      1.00000
     61      -7.3109      1.00000
     62      -7.1730      1.00000
     63      -7.1522      1.00000
     64      -7.1053      1.00000
     65      -7.0443      1.00000
     66      -6.9520      1.00000
     67      -6.9002      1.00000
     68      -6.8695      1.00000
     69      -6.8281      1.00000
     70      -6.8266      1.00000
     71      -6.6757      1.00000
     72      -6.6149      1.00000
     73      -6.5621      1.00000
     74      -6.5089      1.00000
     75      -6.5038      1.00000
     76      -6.4237      1.00000
     77      -6.4053      1.00000
     78      -6.3418      1.00000
     79      -6.3259      1.00000
     80      -6.3213      1.00000
     81      -6.1739      1.00000
     82      -6.1423      1.00000
     83      -6.0722      1.00000
     84      -6.0708      1.00000
     85      -6.0177      1.00000
     86      -6.0042      1.00000
     87      -5.9941      1.00000
     88      -5.8745      1.00000
     89      -5.8604      1.00000
     90      -5.8427      1.00000
     91      -5.7668      1.00000
     92      -5.7558      1.00000
     93      -5.7126      1.00000
     94      -5.6761      1.00000
     95      -5.6420      1.00000
     96      -5.5851      1.00000
     97      -4.9322      1.00000
     98      -4.9022      1.00000
     99      -4.8925      1.00000
    100      -4.8581      1.00000
    101      -4.7524      1.00000
    102      -4.7148      1.00000
    103      -4.6692      1.00000
    104      -4.6504      1.00000
    105      -4.6167      1.00000
    106      -4.5712      1.00000
    107      -4.5711      1.00000
    108      -4.4952      1.00000
    109      -4.4871      1.00000
    110      -4.4299      1.00000
    111      -4.4216      1.00000
    112      -4.3832      1.00000
    113      -4.3471      1.00000
    114      -4.3322      1.00000
    115      -4.2659      1.00000
    116      -4.2194      1.00000
    117      -4.1639      1.00000
    118      -4.1068      1.00000
    119      -3.9727      1.00000
    120      -3.8573      1.00000
    121      -2.6722      0.99892
    122      -2.4455      0.00041
    123      -2.4436      0.00034
    124      -2.4250      0.00004
    125      -2.4217      0.00003
    126      -2.4034      0.00000
    127      -2.3827      0.00000
    128      -2.3732      0.00000
    129      -2.3533      0.00000
    130      -2.3221      0.00000
    131      -2.3140      0.00000
    132      -2.2562      0.00000
    133      -2.2422      0.00000
    134      -2.2038      0.00000
    135      -2.1461      0.00000
    136      -1.9762      0.00000
    137      -0.3433      0.00000
    138       1.6952      0.00000
    139       2.1230      0.00000
    140       2.2728      0.00000
    141       2.2756      0.00000
    142       2.6081      0.00000
    143       2.6133      0.00000
    144       2.6352      0.00000

 k-point     8 :       0.4000    0.2000    0.0000
  band No.  band energies     occupation 
      1     -21.0372      1.00000
      2     -19.3373      1.00000
      3     -19.2905      1.00000
      4     -19.1874      1.00000
      5     -18.9536      1.00000
      6     -18.9194      1.00000
      7     -18.7338      1.00000
      8     -18.6594      1.00000
      9     -18.6224      1.00000
     10     -18.6032      1.00000
     11     -18.6020      1.00000
     12     -18.5752      1.00000
     13     -18.5534      1.00000
     14     -18.5498      1.00000
     15     -18.5274      1.00000
     16     -18.4678      1.00000
     17     -18.4512      1.00000
     18     -18.4430      1.00000
     19     -18.4121      1.00000
     20     -18.4032      1.00000
     21     -18.3969      1.00000
     22     -18.3897      1.00000
     23     -18.3745      1.00000
     24     -18.2566      1.00000
     25     -11.7427      1.00000
     26      -9.2577      1.00000
     27      -9.1434      1.00000
     28      -9.1133      1.00000
     29      -8.9300      1.00000
     30      -8.7496      1.00000
     31      -8.7470      1.00000
     32      -8.7183      1.00000
     33      -8.6153      1.00000
     34      -8.5496      1.00000
     35      -8.5270      1.00000
     36      -8.4067      1.00000
     37      -8.3298      1.00000
     38      -8.3255      1.00000
     39      -8.2987      1.00000
     40      -8.2692      1.00000
     41      -8.2690      1.00000
     42      -8.2397      1.00000
     43      -8.2286      1.00000
     44      -8.2033      1.00000
     45      -8.1830      1.00000
     46      -8.0495      1.00000
     47      -8.0297      1.00000
     48      -7.9927      1.00000
     49      -7.9778      1.00000
     50      -7.9371      1.00000
     51      -7.9315      1.00000
     52      -7.9158      1.00000
     53      -7.8747      1.00000
     54      -7.8550      1.00000
     55      -7.8248      1.00000
     56      -7.7401      1.00000
     57      -7.7195      1.00000
     58      -7.6060      1.00000
     59      -7.5962      1.00000
     60      -7.3763      1.00000
     61      -7.3332      1.00000
     62      -7.1384      1.00000
     63      -7.1109      1.00000
     64      -7.0882      1.00000
     65      -7.0218      1.00000
     66      -6.9516      1.00000
     67      -6.8164      1.00000
     68      -6.8118      1.00000
     69      -6.7316      1.00000
     70      -6.7104      1.00000
     71      -6.6465      1.00000
     72      -6.6187      1.00000
     73      -6.5945      1.00000
     74      -6.5339      1.00000
     75      -6.4750      1.00000
     76      -6.4629      1.00000
     77      -6.3758      1.00000
     78      -6.3415      1.00000
     79      -6.3022      1.00000
     80      -6.2084      1.00000
     81      -6.2031      1.00000
     82      -6.1527      1.00000
     83      -6.1456      1.00000
     84      -6.1136      1.00000
     85      -6.1066      1.00000
     86      -6.0116      1.00000
     87      -6.0112      1.00000
     88      -5.9614      1.00000
     89      -5.8585      1.00000
     90      -5.8559      1.00000
     91      -5.8114      1.00000
     92      -5.7623      1.00000
     93      -5.7230      1.00000
     94      -5.7128      1.00000
     95      -5.6688      1.00000
     96      -5.6071      1.00000
     97      -4.9011      1.00000
     98      -4.8875      1.00000
     99      -4.8660      1.00000
    100      -4.8316      1.00000
    101      -4.7556      1.00000
    102      -4.6932      1.00000
    103      -4.6645      1.00000
    104      -4.6636      1.00000
    105      -4.6331      1.00000
    106      -4.5923      1.00000
    107      -4.5397      1.00000
    108      -4.4750      1.00000
    109      -4.4679      1.00000
    110      -4.4288      1.00000
    111      -4.4226      1.00000
    112      -4.3916      1.00000
    113      -4.3758      1.00000
    114      -4.3108      1.00000
    115      -4.2763      1.00000
    116      -4.2162      1.00000
    117      -4.1594      1.00000
    118      -4.1132      1.00000
    119      -3.9533      1.00000
    120      -3.8753      1.00000
    121      -2.6641      0.99771
    122      -2.4572      0.00128
    123      -2.4459      0.00043
    124      -2.4255      0.00005
    125      -2.4062      0.00000
    126      -2.3979      0.00000
    127      -2.3964      0.00000
    128      -2.3796      0.00000
    129      -2.3673      0.00000
    130      -2.3416      0.00000
    131      -2.3029      0.00000
    132      -2.2695      0.00000
    133      -2.2289      0.00000
    134      -2.2032      0.00000
    135      -2.1155      0.00000
    136      -1.9806      0.00000
    137      -0.3427      0.00000
    138       1.9174      0.00000
    139       1.9804      0.00000
    140       2.2186      0.00000
    141       2.3178      0.00000
    142       2.3548      0.00000
    143       2.5852      0.00000
    144       2.6949      0.00000

 k-point     9 :      -0.2000   -0.4000    0.0000
  band No.  band energies     occupation 
      1     -21.0372      1.00000
      2     -19.3347      1.00000
      3     -19.2908      1.00000
      4     -19.1791      1.00000
      5     -19.0121      1.00000
      6     -18.8737      1.00000
      7     -18.7109      1.00000
      8     -18.6574      1.00000
      9     -18.6421      1.00000
     10     -18.6101      1.00000
     11     -18.5881      1.00000
     12     -18.5738      1.00000
     13     -18.5665      1.00000
     14     -18.5449      1.00000
     15     -18.5286      1.00000
     16     -18.4752      1.00000
     17     -18.4474      1.00000
     18     -18.4386      1.00000
     19     -18.4144      1.00000
     20     -18.4098      1.00000
     21     -18.3934      1.00000
     22     -18.3904      1.00000
     23     -18.3728      1.00000
     24     -18.2551      1.00000
     25     -11.7426      1.00000
     26      -9.2832      1.00000
     27      -9.1478      1.00000
     28      -9.0914      1.00000
     29      -8.8861      1.00000
     30      -8.7904      1.00000
     31      -8.7498      1.00000
     32      -8.7203      1.00000
     33      -8.6182      1.00000
     34      -8.5194      1.00000
     35      -8.5001      1.00000
     36      -8.4023      1.00000
     37      -8.3496      1.00000
     38      -8.3358      1.00000
     39      -8.2968      1.00000
     40      -8.2824      1.00000
     41      -8.2696      1.00000
     42      -8.2602      1.00000
     43      -8.2390      1.00000
     44      -8.2200      1.00000
     45      -8.1800      1.00000
     46      -8.0315      1.00000
     47      -8.0046      1.00000
     48      -7.9879      1.00000
     49      -7.9648      1.00000
     50      -7.9480      1.00000
     51      -7.9421      1.00000
     52      -7.9074      1.00000
     53      -7.8691      1.00000
     54      -7.8440      1.00000
     55      -7.8216      1.00000
     56      -7.7476      1.00000
     57      -7.7317      1.00000
     58      -7.6287      1.00000
     59      -7.5645      1.00000
     60      -7.4423      1.00000
     61      -7.3050      1.00000
     62      -7.1635      1.00000
     63      -7.1134      1.00000
     64      -7.0801      1.00000
     65      -7.0185      1.00000
     66      -6.9313      1.00000
     67      -6.8569      1.00000
     68      -6.7893      1.00000
     69      -6.7101      1.00000
     70      -6.7049      1.00000
     71      -6.6818      1.00000
     72      -6.6210      1.00000
     73      -6.5423      1.00000
     74      -6.5055      1.00000
     75      -6.4741      1.00000
     76      -6.4560      1.00000
     77      -6.3747      1.00000
     78      -6.3509      1.00000
     79      -6.2834      1.00000
     80      -6.2358      1.00000
     81      -6.1890      1.00000
     82      -6.1536      1.00000
     83      -6.1209      1.00000
     84      -6.1125      1.00000
     85      -6.0827      1.00000
     86      -6.0620      1.00000
     87      -5.9849      1.00000
     88      -5.9731      1.00000
     89      -5.9109      1.00000
     90      -5.8539      1.00000
     91      -5.8320      1.00000
     92      -5.7626      1.00000
     93      -5.7296      1.00000
     94      -5.7096      1.00000
     95      -5.6768      1.00000
     96      -5.6005      1.00000
     97      -4.9009      1.00000
     98      -4.8770      1.00000
     99      -4.8706      1.00000
    100      -4.8369      1.00000
    101      -4.7385      1.00000
    102      -4.7089      1.00000
    103      -4.6675      1.00000
    104      -4.6518      1.00000
    105      -4.6181      1.00000
    106      -4.5723      1.00000
    107      -4.5639      1.00000
    108      -4.4779      1.00000
    109      -4.4672      1.00000
    110      -4.4310      1.00000
    111      -4.4076      1.00000
    112      -4.3864      1.00000
    113      -4.3605      1.00000
    114      -4.3301      1.00000
    115      -4.2743      1.00000
    116      -4.2224      1.00000
    117      -4.1667      1.00000
    118      -4.1136      1.00000
    119      -3.9635      1.00000
    120      -3.8660      1.00000
    121      -2.6677      0.99835
    122      -2.4575      0.00132
    123      -2.4430      0.00032
    124      -2.4262      0.00005
    125      -2.4130      0.00001
    126      -2.3978      0.00000
    127      -2.3874      0.00000
    128      -2.3760      0.00000
    129      -2.3635      0.00000
    130      -2.3473      0.00000
    131      -2.2963      0.00000
    132      -2.2656      0.00000
    133      -2.2320      0.00000
    134      -2.2013      0.00000
    135      -2.1339      0.00000
    136      -1.9744      0.00000
    137      -0.3420      0.00000
    138       1.9150      0.00000
    139       1.9860      0.00000
    140       2.2130      0.00000
    141       2.3148      0.00000
    142       2.3652      0.00000
    143       2.5720      0.00000
    144       2.6883      0.00000
 Fermi energy:        -2.5637996325

 spin component 2

 k-point     1 :       0.0000    0.0000    0.0000
  band No.  band energies     occupation 
      1     -21.0035      1.00000
      2     -19.4000      1.00000
      3     -19.1225      1.00000
      4     -19.0906      1.00000
      5     -19.0122      1.00000
      6     -18.8628      1.00000
      7     -18.8468      1.00000
      8     -18.7555      1.00000
      9     -18.6404      1.00000
     10     -18.5785      1.00000
     11     -18.5724      1.00000
     12     -18.5381      1.00000
     13     -18.5341      1.00000
     14     -18.5053      1.00000
     15     -18.5030      1.00000
     16     -18.4969      1.00000
     17     -18.4697      1.00000
     18     -18.4568      1.00000
     19     -18.4332      1.00000
     20     -18.4211      1.00000
     21     -18.4086      1.00000
     22     -18.3910      1.00000
     23     -18.3513      1.00000
     24     -18.2509      1.00000
     25     -11.6182      1.00000
     26      -9.0737      1.00000
     27      -8.9458      1.00000
     28      -8.9213      1.00000
     29      -8.8728      1.00000
     30      -8.4659      1.00000
     31      -8.4380      1.00000
     32      -8.3679      1.00000
     33      -8.3418      1.00000
     34      -8.2614      1.00000
     35      -8.2324      1.00000
     36      -8.1553      1.00000
     37      -8.0896      1.00000
     38      -8.0730      1.00000
     39      -8.0348      1.00000
     40      -8.0080      1.00000
     41      -7.9697      1.00000
     42      -7.9654      1.00000
     43      -7.8997      1.00000
     44      -7.8449      1.00000
     45      -7.8264      1.00000
     46      -7.8092      1.00000
     47      -7.7980      1.00000
     48      -7.7245      1.00000
     49      -7.7102      1.00000
     50      -7.6617      1.00000
     51      -7.6576      1.00000
     52      -7.5843      1.00000
     53      -7.4906      1.00000
     54      -7.3490      1.00000
     55      -7.3179      1.00000
     56      -7.2361      1.00000
     57      -7.1642      1.00000
     58      -7.1372      1.00000
     59      -7.0996      1.00000
     60      -7.0709      1.00000
     61      -7.0174      1.00000
     62      -6.9859      1.00000
     63      -6.9539      1.00000
     64      -6.9411      1.00000
     65      -6.9134      1.00000
     66      -6.7645      1.00000
     67      -6.7590      1.00000
     68      -6.7288      1.00000
     69      -6.6979      1.00000
     70      -6.6155      1.00000
     71      -6.5409      1.00000
     72      -6.4717      1.00000
     73      -6.4699      1.00000
     74      -6.4018      1.00000
     75      -6.3510      1.00000
     76      -6.2880      1.00000
     77      -6.2459      1.00000
     78      -6.0898      1.00000
     79      -6.0772      1.00000
     80      -6.0508      1.00000
     81      -6.0356      1.00000
     82      -6.0067      1.00000
     83      -5.9635      1.00000
     84      -5.9071      1.00000
     85      -5.8038      1.00000
     86      -5.7837      1.00000
     87      -5.7178      1.00000
     88      -5.6740      1.00000
     89      -5.6344      1.00000
     90      -5.6334      1.00000
     91      -5.5776      1.00000
     92      -5.4987      1.00000
     93      -5.4438      1.00000
     94      -5.4291      1.00000
     95      -5.4146      1.00000
     96      -5.3775      1.00000
     97      -2.0781      0.00000
     98      -2.0597      0.00000
     99      -2.0560      0.00000
    100      -2.0185      0.00000
    101      -1.9769      0.00000
    102      -1.9517      0.00000
    103      -1.8191      0.00000
    104      -1.8009      0.00000
    105      -1.7738      0.00000
    106      -1.7608      0.00000
    107      -1.7109      0.00000
    108      -1.6980      0.00000
    109      -1.6629      0.00000
    110      -1.6276      0.00000
    111      -1.6150      0.00000
    112      -1.5510      0.00000
    113      -1.5208      0.00000
    114      -1.5031      0.00000
    115      -1.3765      0.00000
    116      -1.3391      0.00000
    117      -1.2525      0.00000
    118      -1.1934      0.00000
    119      -1.1686      0.00000
    120      -1.0926      0.00000
    121      -1.0844      0.00000
    122      -1.0448      0.00000
    123      -1.0319      0.00000
    124      -1.0200      0.00000
    125      -1.0081      0.00000
    126      -1.0068      0.00000
    127      -0.9962      0.00000
    128      -0.9706      0.00000
    129      -0.9172      0.00000
    130      -0.8758      0.00000
    131      -0.8457      0.00000
    132      -0.8414      0.00000
    133      -0.6652      0.00000
    134      -0.5889      0.00000
    135      -0.5120      0.00000
    136      -0.2600      0.00000
    137       0.1642      0.00000
    138       1.6120      0.00000
    139       2.0260      0.00000
    140       2.4872      0.00000
    141       2.7328      0.00000
    142       2.7422      0.00000
    143       2.9734      0.00000
    144       3.0125      0.00000

 k-point     2 :       0.2000    0.0000    0.0000
  band No.  band energies     occupation 
      1     -21.0035      1.00000
      2     -19.3835      1.00000
      3     -19.1555      1.00000
      4     -19.1272      1.00000
      5     -18.9823      1.00000
      6     -18.8504      1.00000
      7     -18.8328      1.00000
      8     -18.7281      1.00000
      9     -18.6344      1.00000
     10     -18.5886      1.00000
     11     -18.5728      1.00000
     12     -18.5529      1.00000
     13     -18.5418      1.00000
     14     -18.5292      1.00000
     15     -18.5076      1.00000
     16     -18.4813      1.00000
     17     -18.4645      1.00000
     18     -18.4556      1.00000
     19     -18.4266      1.00000
     20     -18.4192      1.00000
     21     -18.4056      1.00000
     22     -18.3929      1.00000
     23     -18.3578      1.00000
     24     -18.2515      1.00000
     25     -11.6183      1.00000
     26      -9.0541      1.00000
     27      -8.9248      1.00000
     28      -8.9050      1.00000
     29      -8.8519      1.00000
     30      -8.4794      1.00000
     31      -8.4334      1.00000
     32      -8.3876      1.00000
     33      -8.3460      1.00000
     34      -8.2714      1.00000
     35      -8.2344      1.00000
     36      -8.1534      1.00000
     37      -8.0999      1.00000
     38      -8.0936      1.00000
     39      -8.0411      1.00000
     40      -8.0272      1.00000
     41      -7.9934      1.00000
     42      -7.9681      1.00000
     43      -7.9286      1.00000
     44      -7.8517      1.00000
     45      -7.8354      1.00000
     46      -7.7817      1.00000
     47      -7.7782      1.00000
     48      -7.7303      1.00000
     49      -7.7222      1.00000
     50      -7.6595      1.00000
     51      -7.6285      1.00000
     52      -7.5953      1.00000
     53      -7.5006      1.00000
     54      -7.3900      1.00000
     55      -7.3603      1.00000
     56      -7.3114      1.00000
     57      -7.2661      1.00000
     58      -7.1963      1.00000
     59      -7.1251      1.00000
     60      -7.0776      1.00000
     61      -6.9842      1.00000
     62      -6.9257      1.00000
     63      -6.8897      1.00000
     64      -6.8554      1.00000
     65      -6.8228      1.00000
     66      -6.7720      1.00000
     67      -6.7318      1.00000
     68      -6.6955      1.00000
     69      -6.6735      1.00000
     70      -6.5927      1.00000
     71      -6.5102      1.00000
     72      -6.4623      1.00000
     73      -6.4291      1.00000
     74      -6.3010      1.00000
     75      -6.2763      1.00000
     76      -6.2616      1.00000
     77      -6.2279      1.00000
     78      -6.1522      1.00000
     79      -6.1288      1.00000
     80      -6.0779      1.00000
     81      -6.0455      1.00000
     82      -6.0106      1.00000
     83      -5.9508      1.00000
     84      -5.8988      1.00000
     85      -5.7938      1.00000
     86      -5.7751      1.00000
     87      -5.7264      1.00000
     88      -5.6684      1.00000
     89      -5.6520      1.00000
     90      -5.6298      1.00000
     91      -5.5784      1.00000
     92      -5.5614      1.00000
     93      -5.5028      1.00000
     94      -5.4719      1.00000
     95      -5.4497      1.00000
     96      -5.4077      1.00000
     97      -2.0580      0.00000
     98      -2.0451      0.00000
     99      -2.0319      0.00000
    100      -2.0198      0.00000
    101      -1.9728      0.00000
    102      -1.9371      0.00000
    103      -1.8307      0.00000
    104      -1.8138      0.00000
    105      -1.7809      0.00000
    106      -1.7319      0.00000
    107      -1.7209      0.00000
    108      -1.7061      0.00000
    109      -1.6492      0.00000
    110      -1.6324      0.00000
    111      -1.6187      0.00000
    112      -1.5547      0.00000
    113      -1.5342      0.00000
    114      -1.5148      0.00000
    115      -1.3947      0.00000
    116      -1.3322      0.00000
    117      -1.2356      0.00000
    118      -1.2034      0.00000
    119      -1.1699      0.00000
    120      -1.0889      0.00000
    121      -1.0725      0.00000
    122      -1.0415      0.00000
    123      -1.0379      0.00000
    124      -1.0212      0.00000
    125      -1.0035      0.00000
    126      -1.0014      0.00000
    127      -0.9849      0.00000
    128      -0.9689      0.00000
    129      -0.9230      0.00000
    130      -0.8909      0.00000
    131      -0.8634      0.00000
    132      -0.8365      0.00000
    133      -0.6648      0.00000
    134      -0.5853      0.00000
    135      -0.5114      0.00000
    136      -0.2618      0.00000
    137       0.1676      0.00000
    138       1.6803      0.00000
    139       2.0858      0.00000
    140       2.5025      0.00000
    141       2.5517      0.00000
    142       2.6475      0.00000
    143       2.8007      0.00000
    144       2.8752      0.00000

 k-point     3 :       0.0000    0.2000    0.0000
  band No.  band energies     occupation 
      1     -21.0035      1.00000
      2     -19.3833      1.00000
      3     -19.1598      1.00000
      4     -19.1000      1.00000
      5     -19.0292      1.00000
      6     -18.8438      1.00000
      7     -18.8021      1.00000
      8     -18.7371      1.00000
      9     -18.6328      1.00000
     10     -18.5847      1.00000
     11     -18.5805      1.00000
     12     -18.5549      1.00000
     13     -18.5391      1.00000
     14     -18.5214      1.00000
     15     -18.5127      1.00000
     16     -18.4957      1.00000
     17     -18.4612      1.00000
     18     -18.4472      1.00000
     19     -18.4290      1.00000
     20     -18.4182      1.00000
     21     -18.4093      1.00000
     22     -18.3928      1.00000
     23     -18.3566      1.00000
     24     -18.2507      1.00000
     25     -11.6182      1.00000
     26      -9.0681      1.00000
     27      -8.9244      1.00000
     28      -8.9002      1.00000
     29      -8.8372      1.00000
     30      -8.4779      1.00000
     31      -8.4467      1.00000
     32      -8.3767      1.00000
     33      -8.3562      1.00000
     34      -8.2648      1.00000
     35      -8.2335      1.00000
     36      -8.1569      1.00000
     37      -8.1039      1.00000
     38      -8.0771      1.00000
     39      -8.0396      1.00000
     40      -8.0229      1.00000
     41      -7.9899      1.00000
     42      -7.9736      1.00000
     43      -7.9291      1.00000
     44      -7.8776      1.00000
     45      -7.8346      1.00000
     46      -7.8124      1.00000
     47      -7.7499      1.00000
     48      -7.7314      1.00000
     49      -7.7023      1.00000
     50      -7.6617      1.00000
     51      -7.6305      1.00000
     52      -7.5984      1.00000
     53      -7.4899      1.00000
     54      -7.3705      1.00000
     55      -7.3437      1.00000
     56      -7.3130      1.00000
     57      -7.2832      1.00000
     58      -7.2337      1.00000
     59      -7.1144      1.00000
     60      -7.0939      1.00000
     61      -7.0078      1.00000
     62      -6.9056      1.00000
     63      -6.8846      1.00000
     64      -6.8537      1.00000
     65      -6.8378      1.00000
     66      -6.7762      1.00000
     67      -6.7475      1.00000
     68      -6.6799      1.00000
     69      -6.6511      1.00000
     70      -6.6032      1.00000
     71      -6.4807      1.00000
     72      -6.4636      1.00000
     73      -6.4308      1.00000
     74      -6.3068      1.00000
     75      -6.2749      1.00000
     76      -6.2611      1.00000
     77      -6.2098      1.00000
     78      -6.1462      1.00000
     79      -6.1386      1.00000
     80      -6.0975      1.00000
     81      -6.0372      1.00000
     82      -5.9959      1.00000
     83      -5.9620      1.00000
     84      -5.8969      1.00000
     85      -5.7954      1.00000
     86      -5.7754      1.00000
     87      -5.7219      1.00000
     88      -5.6874      1.00000
     89      -5.6417      1.00000
     90      -5.6282      1.00000
     91      -5.5835      1.00000
     92      -5.5510      1.00000
     93      -5.5192      1.00000
     94      -5.4649      1.00000
     95      -5.4568      1.00000
     96      -5.4049      1.00000
     97      -2.0614      0.00000
     98      -2.0467      0.00000
     99      -2.0389      0.00000
    100      -2.0091      0.00000
    101      -1.9713      0.00000
    102      -1.9447      0.00000
    103      -1.8363      0.00000
    104      -1.8045      0.00000
    105      -1.7638      0.00000
    106      -1.7405      0.00000
    107      -1.7164      0.00000
    108      -1.6981      0.00000
    109      -1.6641      0.00000
    110      -1.6445      0.00000
    111      -1.6143      0.00000
    112      -1.5574      0.00000
    113      -1.5219      0.00000
    114      -1.5096      0.00000
    115      -1.3889      0.00000
    116      -1.3391      0.00000
    117      -1.2472      0.00000
    118      -1.2011      0.00000
    119      -1.1699      0.00000
    120      -1.0873      0.00000
    121      -1.0799      0.00000
    122      -1.0500      0.00000
    123      -1.0324      0.00000
    124      -1.0190      0.00000
    125      -1.0057      0.00000
    126      -0.9963      0.00000
    127      -0.9933      0.00000
    128      -0.9610      0.00000
    129      -0.9160      0.00000
    130      -0.8833      0.00000
    131      -0.8568      0.00000
    132      -0.8425      0.00000
    133      -0.6724      0.00000
    134      -0.5882      0.00000
    135      -0.5129      0.00000
    136      -0.2591      0.00000
    137       0.1681      0.00000
    138       1.6804      0.00000
    139       2.0864      0.00000
    140       2.5023      0.00000
    141       2.5564      0.00000
    142       2.6421      0.00000
    143       2.7923      0.00000
    144       2.8687      0.00000

 k-point     4 :       0.4000    0.0000    0.0000
  band No.  band energies     occupation 
      1     -21.0034      1.00000
      2     -19.3384      1.00000
      3     -19.2431      1.00000
      4     -19.1355      1.00000
      5     -18.9705      1.00000
      6     -18.8288      1.00000
      7     -18.8050      1.00000
      8     -18.6696      1.00000
      9     -18.6180      1.00000
     10     -18.6070      1.00000
     11     -18.5938      1.00000
     12     -18.5870      1.00000
     13     -18.5476      1.00000
     14     -18.5437      1.00000
     15     -18.5170      1.00000
     16     -18.4816      1.00000
     17     -18.4543      1.00000
     18     -18.4460      1.00000
     19     -18.4242      1.00000
     20     -18.4113      1.00000
     21     -18.4028      1.00000
     22     -18.3935      1.00000
     23     -18.3715      1.00000
     24     -18.2525      1.00000
     25     -11.6185      1.00000
     26      -9.0236      1.00000
     27      -8.9172      1.00000
     28      -8.8622      1.00000
     29      -8.7701      1.00000
     30      -8.4906      1.00000
     31      -8.4676      1.00000
     32      -8.4280      1.00000
     33      -8.3499      1.00000
     34      -8.2833      1.00000
     35      -8.2658      1.00000
     36      -8.1385      1.00000
     37      -8.1267      1.00000
     38      -8.1180      1.00000
     39      -8.0749      1.00000
     40      -8.0713      1.00000
     41      -8.0266      1.00000
     42      -7.9391      1.00000
     43      -7.9002      1.00000
     44      -7.8798      1.00000
     45      -7.8664      1.00000
     46      -7.8390      1.00000
     47      -7.7549      1.00000
     48      -7.7422      1.00000
     49      -7.6716      1.00000
     50      -7.6304      1.00000
     51      -7.6100      1.00000
     52      -7.5600      1.00000
     53      -7.5359      1.00000
     54      -7.4358      1.00000
     55      -7.4208      1.00000
     56      -7.3464      1.00000
     57      -7.3428      1.00000
     58      -7.2731      1.00000
     59      -7.1960      1.00000
     60      -7.1444      1.00000
     61      -6.9107      1.00000
     62      -6.8583      1.00000
     63      -6.8167      1.00000
     64      -6.8108      1.00000
     65      -6.7839      1.00000
     66      -6.7494      1.00000
     67      -6.7408      1.00000
     68      -6.6251      1.00000
     69      -6.5624      1.00000
     70      -6.4802      1.00000
     71      -6.4492      1.00000
     72      -6.3931      1.00000
     73      -6.3452      1.00000
     74      -6.3221      1.00000
     75      -6.2793      1.00000
     76      -6.1992      1.00000
     77      -6.1890      1.00000
     78      -6.1349      1.00000
     79      -6.0788      1.00000
     80      -6.0518      1.00000
     81      -6.0445      1.00000
     82      -5.9839      1.00000
     83      -5.9527      1.00000
     84      -5.9138      1.00000
     85      -5.8977      1.00000
     86      -5.7868      1.00000
     87      -5.7653      1.00000
     88      -5.7336      1.00000
     89      -5.6471      1.00000
     90      -5.6343      1.00000
     91      -5.6193      1.00000
     92      -5.5954      1.00000
     93      -5.5882      1.00000
     94      -5.5395      1.00000
     95      -5.5062      1.00000
     96      -5.4585      1.00000
     97      -2.0254      0.00000
     98      -2.0185      0.00000
     99      -2.0110      0.00000
    100      -2.0010      0.00000
    101      -1.9524      0.00000
    102      -1.9214      0.00000
    103      -1.8449      0.00000
    104      -1.8071      0.00000
    105      -1.7843      0.00000
    106      -1.7739      0.00000
    107      -1.7467      0.00000
    108      -1.6715      0.00000
    109      -1.6535      0.00000
    110      -1.6194      0.00000
    111      -1.6073      0.00000
    112      -1.5744      0.00000
    113      -1.5529      0.00000
    114      -1.5372      0.00000
    115      -1.4179      0.00000
    116      -1.3128      0.00000
    117      -1.2390      0.00000
    118      -1.1986      0.00000
    119      -1.1772      0.00000
    120      -1.0868      0.00000
    121      -1.0542      0.00000
    122      -1.0482      0.00000
    123      -1.0211      0.00000
    124      -1.0181      0.00000
    125      -1.0019      0.00000
    126      -0.9968      0.00000
    127      -0.9686      0.00000
    128      -0.9546      0.00000
    129      -0.9458      0.00000
    130      -0.9214      0.00000
    131      -0.8777      0.00000
    132      -0.8359      0.00000
    133      -0.6648      0.00000
    134      -0.5791      0.00000
    135      -0.5120      0.00000
    136      -0.2608      0.00000
    137       0.1725      0.00000
    138       1.8670      0.00000
    139       2.1687      0.00000
    140       2.2547      0.00000
    141       2.5136      0.00000
    142       2.5499      0.00000
    143       2.7248      0.00000
    144       2.7515      0.00000

 k-point     5 :       0.0000    0.4000    0.0000
  band No.  band energies     occupation 
      1     -21.0034      1.00000
      2     -19.3393      1.00000
      3     -19.2358      1.00000
      4     -19.1118      1.00000
      5     -19.0394      1.00000
      6     -18.8213      1.00000
      7     -18.7503      1.00000
      8     -18.6755      1.00000
      9     -18.6163      1.00000
     10     -18.6035      1.00000
     11     -18.5950      1.00000
     12     -18.5863      1.00000
     13     -18.5622      1.00000
     14     -18.5426      1.00000
     15     -18.5224      1.00000
     16     -18.4971      1.00000
     17     -18.4480      1.00000
     18     -18.4355      1.00000
     19     -18.4267      1.00000
     20     -18.4168      1.00000
     21     -18.4011      1.00000
     22     -18.3965      1.00000
     23     -18.3687      1.00000
     24     -18.2505      1.00000
     25     -11.6183      1.00000
     26      -9.0633      1.00000
     27      -8.9185      1.00000
     28      -8.8099      1.00000
     29      -8.7505      1.00000
     30      -8.5257      1.00000
     31      -8.4831      1.00000
     32      -8.4259      1.00000
     33      -8.3551      1.00000
     34      -8.2702      1.00000
     35      -8.2331      1.00000
     36      -8.1398      1.00000
     37      -8.1169      1.00000
     38      -8.1050      1.00000
     39      -8.0831      1.00000
     40      -8.0722      1.00000
     41      -8.0351      1.00000
     42      -7.9636      1.00000
     43      -7.9181      1.00000
     44      -7.8934      1.00000
     45      -7.8539      1.00000
     46      -7.8337      1.00000
     47      -7.7624      1.00000
     48      -7.7105      1.00000
     49      -7.6792      1.00000
     50      -7.6339      1.00000
     51      -7.6152      1.00000
     52      -7.5626      1.00000
     53      -7.4998      1.00000
     54      -7.4307      1.00000
     55      -7.3968      1.00000
     56      -7.3622      1.00000
     57      -7.3440      1.00000
     58      -7.3189      1.00000
     59      -7.2183      1.00000
     60      -7.1123      1.00000
     61      -6.9819      1.00000
     62      -6.8489      1.00000
     63      -6.8237      1.00000
     64      -6.7995      1.00000
     65      -6.7856      1.00000
     66      -6.7617      1.00000
     67      -6.7205      1.00000
     68      -6.6140      1.00000
     69      -6.5522      1.00000
     70      -6.4911      1.00000
     71      -6.4618      1.00000
     72      -6.3937      1.00000
     73      -6.2968      1.00000
     74      -6.2751      1.00000
     75      -6.2519      1.00000
     76      -6.2327      1.00000
     77      -6.2009      1.00000
     78      -6.1787      1.00000
     79      -6.0680      1.00000
     80      -6.0443      1.00000
     81      -6.0123      1.00000
     82      -5.9697      1.00000
     83      -5.9650      1.00000
     84      -5.9061      1.00000
     85      -5.8812      1.00000
     86      -5.8101      1.00000
     87      -5.7461      1.00000
     88      -5.7196      1.00000
     89      -5.6890      1.00000
     90      -5.6620      1.00000
     91      -5.6249      1.00000
     92      -5.5976      1.00000
     93      -5.5776      1.00000
     94      -5.5586      1.00000
     95      -5.5079      1.00000
     96      -5.4456      1.00000
     97      -2.0391      0.00000
     98      -2.0301      0.00000
     99      -2.0103      0.00000
    100      -1.9777      0.00000
    101      -1.9582      0.00000
    102      -1.9347      0.00000
    103      -1.8337      0.00000
    104      -1.7975      0.00000
    105      -1.7822      0.00000
    106      -1.7601      0.00000
    107      -1.7200      0.00000
    108      -1.6932      0.00000
    109      -1.6791      0.00000
    110      -1.6529      0.00000
    111      -1.5911      0.00000
    112      -1.5672      0.00000
    113      -1.5306      0.00000
    114      -1.5175      0.00000
    115      -1.4058      0.00000
    116      -1.3387      0.00000
    117      -1.2443      0.00000
    118      -1.2113      0.00000
    119      -1.1748      0.00000
    120      -1.0942      0.00000
    121      -1.0752      0.00000
    122      -1.0480      0.00000
    123      -1.0256      0.00000
    124      -1.0207      0.00000
    125      -1.0009      0.00000
    126      -0.9894      0.00000
    127      -0.9781      0.00000
    128      -0.9478      0.00000
    129      -0.9132      0.00000
    130      -0.8993      0.00000
    131      -0.8681      0.00000
    132      -0.8439      0.00000
    133      -0.6820      0.00000
    134      -0.5866      0.00000
    135      -0.5143      0.00000
    136      -0.2572      0.00000
    137       0.1742      0.00000
    138       1.8666      0.00000
    139       2.1714      0.00000
    140       2.2560      0.00000
    141       2.5160      0.00000
    142       2.5471      0.00000
    143       2.7104      0.00000
    144       2.7433      0.00000

 k-point     6 :       0.2000    0.2000    0.0000
  band No.  band energies     occupation 
      1     -21.0034      1.00000
      2     -19.3519      1.00000
      3     -19.2104      1.00000
      4     -19.1478      1.00000
      5     -18.9704      1.00000
      6     -18.8730      1.00000
      7     -18.7498      1.00000
      8     -18.7003      1.00000
      9     -18.6219      1.00000
     10     -18.6041      1.00000
     11     -18.5849      1.00000
     12     -18.5727      1.00000
     13     -18.5514      1.00000
     14     -18.5427      1.00000
     15     -18.5238      1.00000
     16     -18.4775      1.00000
     17     -18.4616      1.00000
     18     -18.4439      1.00000
     19     -18.4249      1.00000
     20     -18.4121      1.00000
     21     -18.4029      1.00000
     22     -18.3958      1.00000
     23     -18.3673      1.00000
     24     -18.2515      1.00000
     25     -11.6184      1.00000
     26      -9.0454      1.00000
     27      -8.9099      1.00000
     28      -8.8705      1.00000
     29      -8.7765      1.00000
     30      -8.4924      1.00000
     31      -8.4605      1.00000
     32      -8.4199      1.00000
     33      -8.3545      1.00000
     34      -8.2760      1.00000
     35      -8.2432      1.00000
     36      -8.1449      1.00000
     37      -8.1146      1.00000
     38      -8.1058      1.00000
     39      -8.0761      1.00000
     40      -8.0535      1.00000
     41      -8.0249      1.00000
     42      -7.9559      1.00000
     43      -7.9362      1.00000
     44      -7.9083      1.00000
     45      -7.8606      1.00000
     46      -7.8021      1.00000
     47      -7.7394      1.00000
     48      -7.7010      1.00000
     49      -7.6826      1.00000
     50      -7.6384      1.00000
     51      -7.6253      1.00000
     52      -7.5734      1.00000
     53      -7.5227      1.00000
     54      -7.4403      1.00000
     55      -7.4104      1.00000
     56      -7.3567      1.00000
     57      -7.3254      1.00000
     58      -7.3021      1.00000
     59      -7.1516      1.00000
     60      -7.0863      1.00000
     61      -7.0076      1.00000
     62      -6.8889      1.00000
     63      -6.8517      1.00000
     64      -6.8204      1.00000
     65      -6.7484      1.00000
     66      -6.6987      1.00000
     67      -6.6714      1.00000
     68      -6.6163      1.00000
     69      -6.5840      1.00000
     70      -6.5507      1.00000
     71      -6.4690      1.00000
     72      -6.4508      1.00000
     73      -6.3971      1.00000
     74      -6.2861      1.00000
     75      -6.2442      1.00000
     76      -6.2058      1.00000
     77      -6.1790      1.00000
     78      -6.1403      1.00000
     79      -6.1297      1.00000
     80      -6.1070      1.00000
     81      -6.0439      1.00000
     82      -6.0021      1.00000
     83      -5.9517      1.00000
     84      -5.8924      1.00000
     85      -5.8082      1.00000
     86      -5.7712      1.00000
     87      -5.7504      1.00000
     88      -5.7271      1.00000
     89      -5.6625      1.00000
     90      -5.6378      1.00000
     91      -5.6044      1.00000
     92      -5.5900      1.00000
     93      -5.5742      1.00000
     94      -5.5313      1.00000
     95      -5.5133      1.00000
     96      -5.4469      1.00000
     97      -2.0401      0.00000
     98      -2.0258      0.00000
     99      -2.0154      0.00000
    100      -1.9880      0.00000
    101      -1.9648      0.00000
    102      -1.9276      0.00000
    103      -1.8418      0.00000
    104      -1.8265      0.00000
    105      -1.7756      0.00000
    106      -1.7412      0.00000
    107      -1.7241      0.00000
    108      -1.6929      0.00000
    109      -1.6671      0.00000
    110      -1.6304      0.00000
    111      -1.6156      0.00000
    112      -1.5610      0.00000
    113      -1.5395      0.00000
    114      -1.5246      0.00000
    115      -1.4091      0.00000
    116      -1.3278      0.00000
    117      -1.2337      0.00000
    118      -1.2101      0.00000
    119      -1.1737      0.00000
    120      -1.0882      0.00000
    121      -1.0693      0.00000
    122      -1.0445      0.00000
    123      -1.0353      0.00000
    124      -1.0194      0.00000
    125      -1.0013      0.00000
    126      -0.9926      0.00000
    127      -0.9699      0.00000
    128      -0.9615      0.00000
    129      -0.9222      0.00000
    130      -0.9098      0.00000
    131      -0.8681      0.00000
    132      -0.8394      0.00000
    133      -0.6710      0.00000
    134      -0.5832      0.00000
    135      -0.5126      0.00000
    136      -0.2600      0.00000
    137       0.1722      0.00000
    138       1.8081      0.00000
    139       2.1998      0.00000
    140       2.3449      0.00000
    141       2.3804      0.00000
    142       2.6777      0.00000
    143       2.7001      0.00000
    144       2.7205      0.00000

 k-point     7 :      -0.2000    0.4000    0.0000
  band No.  band energies     occupation 
      1     -21.0035      1.00000
      2     -19.3515      1.00000
      3     -19.2145      1.00000
      4     -19.1141      1.00000
      5     -19.0386      1.00000
      6     -18.8293      1.00000
      7     -18.7473      1.00000
      8     -18.6988      1.00000
      9     -18.6169      1.00000
     10     -18.6016      1.00000
     11     -18.5924      1.00000
     12     -18.5703      1.00000
     13     -18.5513      1.00000
     14     -18.5504      1.00000
     15     -18.5241      1.00000
     16     -18.4918      1.00000
     17     -18.4565      1.00000
     18     -18.4319      1.00000
     19     -18.4280      1.00000
     20     -18.4116      1.00000
     21     -18.4112      1.00000
     22     -18.3953      1.00000
     23     -18.3646      1.00000
     24     -18.2503      1.00000
     25     -11.6183      1.00000
     26      -9.0646      1.00000
     27      -8.9008      1.00000
     28      -8.8821      1.00000
     29      -8.7307      1.00000
     30      -8.5156      1.00000
     31      -8.4753      1.00000
     32      -8.4097      1.00000
     33      -8.3600      1.00000
     34      -8.2636      1.00000
     35      -8.2371      1.00000
     36      -8.1526      1.00000
     37      -8.1158      1.00000
     38      -8.0913      1.00000
     39      -8.0619      1.00000
     40      -8.0567      1.00000
     41      -8.0261      1.00000
     42      -7.9806      1.00000
     43      -7.9489      1.00000
     44      -7.8781      1.00000
     45      -7.8564      1.00000
     46      -7.8559      1.00000
     47      -7.7234      1.00000
     48      -7.6984      1.00000
     49      -7.6481      1.00000
     50      -7.6402      1.00000
     51      -7.6387      1.00000
     52      -7.5779      1.00000
     53      -7.5059      1.00000
     54      -7.4131      1.00000
     55      -7.3852      1.00000
     56      -7.3733      1.00000
     57      -7.3432      1.00000
     58      -7.3041      1.00000
     59      -7.2096      1.00000
     60      -7.1092      1.00000
     61      -6.9887      1.00000
     62      -6.8788      1.00000
     63      -6.8633      1.00000
     64      -6.8251      1.00000
     65      -6.7860      1.00000
     66      -6.6713      1.00000
     67      -6.6245      1.00000
     68      -6.6201      1.00000
     69      -6.5866      1.00000
     70      -6.5656      1.00000
     71      -6.4621      1.00000
     72      -6.4346      1.00000
     73      -6.4011      1.00000
     74      -6.2652      1.00000
     75      -6.2439      1.00000
     76      -6.2090      1.00000
     77      -6.1888      1.00000
     78      -6.1361      1.00000
     79      -6.1294      1.00000
     80      -6.0996      1.00000
     81      -6.0408      1.00000
     82      -6.0145      1.00000
     83      -5.9215      1.00000
     84      -5.9194      1.00000
     85      -5.7753      1.00000
     86      -5.7749      1.00000
     87      -5.7412      1.00000
     88      -5.7330      1.00000
     89      -5.6910      1.00000
     90      -5.6453      1.00000
     91      -5.6304      1.00000
     92      -5.5889      1.00000
     93      -5.5664      1.00000
     94      -5.5360      1.00000
     95      -5.5065      1.00000
     96      -5.4440      1.00000
     97      -2.0421      0.00000
     98      -2.0379      0.00000
     99      -2.0049      0.00000
    100      -1.9907      0.00000
    101      -1.9601      0.00000
    102      -1.9458      0.00000
    103      -1.8352      0.00000
    104      -1.7953      0.00000
    105      -1.7596      0.00000
    106      -1.7578      0.00000
    107      -1.7224      0.00000
    108      -1.6995      0.00000
    109      -1.6841      0.00000
    110      -1.6498      0.00000
    111      -1.5846      0.00000
    112      -1.5753      0.00000
    113      -1.5241      0.00000
    114      -1.5167      0.00000
    115      -1.4029      0.00000
    116      -1.3395      0.00000
    117      -1.2424      0.00000
    118      -1.2166      0.00000
    119      -1.1702      0.00000
    120      -1.0883      0.00000
    121      -1.0878      0.00000
    122      -1.0343      0.00000
    123      -1.0249      0.00000
    124      -1.0224      0.00000
    125      -1.0122      0.00000
    126      -0.9963      0.00000
    127      -0.9811      0.00000
    128      -0.9415      0.00000
    129      -0.9126      0.00000
    130      -0.8880      0.00000
    131      -0.8730      0.00000
    132      -0.8427      0.00000
    133      -0.6829      0.00000
    134      -0.5878      0.00000
    135      -0.5149      0.00000
    136      -0.2557      0.00000
    137       0.1730      0.00000
    138       1.8086      0.00000
    139       2.2012      0.00000
    140       2.3490      0.00000
    141       2.3734      0.00000
    142       2.6799      0.00000
    143       2.7106      0.00000
    144       2.7121      0.00000

 k-point     8 :       0.4000    0.2000    0.0000
  band No.  band energies     occupation 
      1     -21.0034      1.00000
      2     -19.3081      1.00000
      3     -19.2695      1.00000
      4     -19.1609      1.00000
      5     -18.9301      1.00000
      6     -18.9010      1.00000
      7     -18.7229      1.00000
      8     -18.6578      1.00000
      9     -18.6297      1.00000
     10     -18.6052      1.00000
     11     -18.6045      1.00000
     12     -18.5866      1.00000
     13     -18.5553      1.00000
     14     -18.5519      1.00000
     15     -18.5309      1.00000
     16     -18.4682      1.00000
     17     -18.4593      1.00000
     18     -18.4492      1.00000
     19     -18.4183      1.00000
     20     -18.4088      1.00000
     21     -18.4024      1.00000
     22     -18.3936      1.00000
     23     -18.3765      1.00000
     24     -18.2519      1.00000
     25     -11.6185      1.00000
     26      -9.0279      1.00000
     27      -8.9013      1.00000
     28      -8.8694      1.00000
     29      -8.6937      1.00000
     30      -8.5024      1.00000
     31      -8.4808      1.00000
     32      -8.4559      1.00000
     33      -8.3589      1.00000
     34      -8.2803      1.00000
     35      -8.2635      1.00000
     36      -8.1274      1.00000
     37      -8.1216      1.00000
     38      -8.1152      1.00000
     39      -8.0902      1.00000
     40      -8.0830      1.00000
     41      -8.0524      1.00000
     42      -7.9837      1.00000
     43      -7.9445      1.00000
     44      -7.9203      1.00000
     45      -7.8605      1.00000
     46      -7.7602      1.00000
     47      -7.7532      1.00000
     48      -7.6827      1.00000
     49      -7.6691      1.00000
     50      -7.6263      1.00000
     51      -7.5952      1.00000
     52      -7.5595      1.00000
     53      -7.5518      1.00000
     54      -7.4621      1.00000
     55      -7.4237      1.00000
     56      -7.4149      1.00000
     57      -7.3243      1.00000
     58      -7.2988      1.00000
     59      -7.2667      1.00000
     60      -7.0509      1.00000
     61      -7.0473      1.00000
     62      -6.8615      1.00000
     63      -6.8281      1.00000
     64      -6.8124      1.00000
     65      -6.7520      1.00000
     66      -6.6722      1.00000
     67      -6.5902      1.00000
     68      -6.5503      1.00000
     69      -6.5292      1.00000
     70      -6.4612      1.00000
     71      -6.4270      1.00000
     72      -6.3863      1.00000
     73      -6.3625      1.00000
     74      -6.3356      1.00000
     75      -6.2831      1.00000
     76      -6.2516      1.00000
     77      -6.1811      1.00000
     78      -6.1520      1.00000
     79      -6.1382      1.00000
     80      -6.1025      1.00000
     81      -6.0212      1.00000
     82      -5.9293      1.00000
     83      -5.8985      1.00000
     84      -5.8897      1.00000
     85      -5.8684      1.00000
     86      -5.8008      1.00000
     87      -5.7593      1.00000
     88      -5.7470      1.00000
     89      -5.6540      1.00000
     90      -5.6529      1.00000
     91      -5.6225      1.00000
     92      -5.6223      1.00000
     93      -5.5973      1.00000
     94      -5.5811      1.00000
     95      -5.5478      1.00000
     96      -5.4785      1.00000
     97      -2.0269      0.00000
     98      -2.0215      0.00000
     99      -1.9848      0.00000
    100      -1.9790      0.00000
    101      -1.9476      0.00000
    102      -1.9288      0.00000
    103      -1.8410      0.00000
    104      -1.8401      0.00000
    105      -1.7667      0.00000
    106      -1.7625      0.00000
    107      -1.7490      0.00000
    108      -1.6844      0.00000
    109      -1.6588      0.00000
    110      -1.6310      0.00000
    111      -1.5929      0.00000
    112      -1.5801      0.00000
    113      -1.5485      0.00000
    114      -1.5343      0.00000
    115      -1.4206      0.00000
    116      -1.3143      0.00000
    117      -1.2448      0.00000
    118      -1.1990      0.00000
    119      -1.1800      0.00000
    120      -1.0914      0.00000
    121      -1.0617      0.00000
    122      -1.0478      0.00000
    123      -1.0347      0.00000
    124      -1.0161      0.00000
    125      -0.9986      0.00000
    126      -0.9812      0.00000
    127      -0.9676      0.00000
    128      -0.9499      0.00000
    129      -0.9452      0.00000
    130      -0.9098      0.00000
    131      -0.8791      0.00000
    132      -0.8373      0.00000
    133      -0.6705      0.00000
    134      -0.5798      0.00000
    135      -0.5133      0.00000
    136      -0.2582      0.00000
    137       0.1745      0.00000
    138       2.0031      0.00000
    139       2.0858      0.00000
    140       2.3175      0.00000
    141       2.4038      0.00000
    142       2.4237      0.00000
    143       2.6626      0.00000
    144       2.9025      0.00000

 k-point     9 :      -0.2000   -0.4000    0.0000
  band No.  band energies     occupation 
      1     -21.0034      1.00000
      2     -19.3105      1.00000
      3     -19.2639      1.00000
      4     -19.1520      1.00000
      5     -18.9907      1.00000
      6     -18.8562      1.00000
      7     -18.7049      1.00000
      8     -18.6473      1.00000
      9     -18.6424      1.00000
     10     -18.6109      1.00000
     11     -18.5927      1.00000
     12     -18.5803      1.00000
     13     -18.5739      1.00000
     14     -18.5552      1.00000
     15     -18.5327      1.00000
     16     -18.4820      1.00000
     17     -18.4506      1.00000
     18     -18.4427      1.00000
     19     -18.4208      1.00000
     20     -18.4115      1.00000
     21     -18.3998      1.00000
     22     -18.3964      1.00000
     23     -18.3743      1.00000
     24     -18.2507      1.00000
     25     -11.6184      1.00000
     26      -9.0523      1.00000
     27      -8.9010      1.00000
     28      -8.8472      1.00000
     29      -8.6509      1.00000
     30      -8.5510      1.00000
     31      -8.4958      1.00000
     32      -8.4472      1.00000
     33      -8.3599      1.00000
     34      -8.2712      1.00000
     35      -8.2399      1.00000
     36      -8.1299      1.00000
     37      -8.1149      1.00000
     38      -8.1048      1.00000
     39      -8.0960      1.00000
     40      -8.0860      1.00000
     41      -8.0511      1.00000
     42      -8.0031      1.00000
     43      -7.9501      1.00000
     44      -7.9318      1.00000
     45      -7.8678      1.00000
     46      -7.7617      1.00000
     47      -7.7139      1.00000
     48      -7.6923      1.00000
     49      -7.6696      1.00000
     50      -7.6372      1.00000
     51      -7.5999      1.00000
     52      -7.5664      1.00000
     53      -7.4985      1.00000
     54      -7.4680      1.00000
     55      -7.4489      1.00000
     56      -7.4004      1.00000
     57      -7.3393      1.00000
     58      -7.3051      1.00000
     59      -7.2478      1.00000
     60      -7.1413      1.00000
     61      -6.9839      1.00000
     62      -6.8736      1.00000
     63      -6.8456      1.00000
     64      -6.8125      1.00000
     65      -6.7508      1.00000
     66      -6.6518      1.00000
     67      -6.5973      1.00000
     68      -6.5593      1.00000
     69      -6.5090      1.00000
     70      -6.4825      1.00000
     71      -6.4138      1.00000
     72      -6.4014      1.00000
     73      -6.3266      1.00000
     74      -6.2946      1.00000
     75      -6.2836      1.00000
     76      -6.2666      1.00000
     77      -6.2165      1.00000
     78      -6.1700      1.00000
     79      -6.1358      1.00000
     80      -6.0806      1.00000
     81      -5.9830      1.00000
     82      -5.9473      1.00000
     83      -5.8986      1.00000
     84      -5.8660      1.00000
     85      -5.8402      1.00000
     86      -5.8280      1.00000
     87      -5.7500      1.00000
     88      -5.7332      1.00000
     89      -5.7209      1.00000
     90      -5.6566      1.00000
     91      -5.6304      1.00000
     92      -5.6161      1.00000
     93      -5.6018      1.00000
     94      -5.5813      1.00000
     95      -5.5472      1.00000
     96      -5.4697      1.00000
     97      -2.0354      0.00000
     98      -2.0217      0.00000
     99      -1.9884      0.00000
    100      -1.9654      0.00000
    101      -1.9533      0.00000
    102      -1.9417      0.00000
    103      -1.8332      0.00000
    104      -1.8208      0.00000
    105      -1.7777      0.00000
    106      -1.7530      0.00000
    107      -1.7304      0.00000
    108      -1.7042      0.00000
    109      -1.6718      0.00000
    110      -1.6456      0.00000
    111      -1.5921      0.00000
    112      -1.5645      0.00000
    113      -1.5376      0.00000
    114      -1.5240      0.00000
    115      -1.4140      0.00000
    116      -1.3316      0.00000
    117      -1.2371      0.00000
    118      -1.2207      0.00000
    119      -1.1734      0.00000
    120      -1.0943      0.00000
    121      -1.0816      0.00000
    122      -1.0391      0.00000
    123      -1.0327      0.00000
    124      -1.0160      0.00000
    125      -1.0005      0.00000
    126      -0.9921      0.00000
    127      -0.9710      0.00000
    128      -0.9411      0.00000
    129      -0.9189      0.00000
    130      -0.9015      0.00000
    131      -0.8741      0.00000
    132      -0.8412      0.00000
    133      -0.6811      0.00000
    134      -0.5844      0.00000
    135      -0.5147      0.00000
    136      -0.2560      0.00000
    137       0.1756      0.00000
    138       2.0000      0.00000
    139       2.0925      0.00000
    140       2.3119      0.00000
    141       2.4006      0.00000
    142       2.4310      0.00000
    143       2.6610      0.00000
    144       2.8814      0.00000


--------------------------------------------------------------------------------------------------------


 soft charge-density along one line, spin component            1
         0         1         2         3         4         5         6         7         8         9
 total charge-density along one line
 
 soft charge-density along one line, spin component            2
         0         1         2         3         4         5         6         7         8         9
 total charge-density along one line
 
 pseudopotential strength for first ion, spin component:            1
 -9.640   0.198   0.002  -0.001   0.001  -9.968   0.191   0.002
  0.198  -9.501  -0.001  -0.001   0.003   0.191  -9.833  -0.001
  0.002  -0.001  -9.787   0.000  -0.001   0.002  -0.001 -10.109
 -0.001  -0.001   0.000  -9.499  -0.198  -0.001  -0.001   0.000
  0.001   0.003  -0.001  -0.198  -9.639   0.001   0.003  -0.001
 -9.968   0.191   0.002  -0.001   0.001 -10.258   0.185   0.002
  0.191  -9.833  -0.001  -0.001   0.003   0.185 -10.128  -0.001
  0.002  -0.001 -10.109   0.000  -0.001   0.002  -0.001 -10.394
 -0.001  -0.001   0.000  -9.831  -0.191  -0.001  -0.001   0.000
  0.001   0.003  -0.001  -0.191  -9.966   0.001   0.003  -0.001
  0.001   0.001   0.000   0.000  -0.000   0.001   0.001   0.000
  0.001   0.001   0.001   0.000  -0.001   0.001   0.001   0.001
 -0.001  -0.002   0.000  -0.000  -0.001  -0.001  -0.002   0.000
 -0.000  -0.001  -0.002  -0.001   0.000  -0.000  -0.001  -0.002
 -0.003  -0.000   0.000  -0.002  -0.000  -0.003  -0.000   0.000
 -0.001  -0.002   0.000   0.000  -0.002  -0.001  -0.002   0.000
  0.000  -0.001  -0.002  -0.001   0.000   0.000  -0.001  -0.002
 -0.003   0.000   0.001  -0.002  -0.001  -0.003   0.000   0.001
 pseudopotential strength for first ion, spin component:            2
 -7.956  -0.260   0.003  -0.002  -0.002  -8.339  -0.251   0.003
 -0.260  -8.150  -0.001  -0.003  -0.000  -0.251  -8.526  -0.001
  0.003  -0.001  -7.777   0.000  -0.002   0.003  -0.001  -8.167
 -0.002  -0.003   0.000  -8.147   0.261  -0.002  -0.003   0.000
 -0.002  -0.000  -0.002   0.261  -7.958  -0.002  -0.000  -0.002
 -8.339  -0.251   0.003  -0.002  -0.002  -8.684  -0.242   0.003
 -0.251  -8.526  -0.001  -0.003  -0.000  -0.242  -8.865  -0.001
  0.003  -0.001  -8.167   0.000  -0.002   0.003  -0.001  -8.518
 -0.002  -0.003   0.000  -8.524   0.252  -0.002  -0.002   0.000
 -0.002  -0.000  -0.002   0.252  -8.341  -0.002  -0.000  -0.002
  0.001  -0.000   0.000  -0.000  -0.001   0.001  -0.000   0.000
  0.002  -0.000   0.001  -0.000  -0.001   0.002  -0.000   0.001
 -0.001  -0.003   0.001  -0.000   0.001  -0.001  -0.003   0.001
 -0.000  -0.001  -0.003  -0.001   0.000  -0.000  -0.001  -0.003
 -0.001  -0.000   0.000  -0.002  -0.001  -0.002  -0.000   0.000
 -0.002  -0.003   0.001  -0.000   0.002  -0.002  -0.003   0.001
 -0.000  -0.001  -0.004  -0.002   0.000  -0.000  -0.001  -0.004
 -0.001  -0.000   0.001  -0.003  -0.002  -0.002  -0.000   0.001
 total augmentation occupancy for first ion, spin component:            1
  3.878  -1.306   0.027  -0.005  -0.037  -2.874   0.122  -0.018  -0.000   0.025  -0.020   0.001   0.018   0.004   0.095  -0.000
 -1.306   2.817  -0.019   0.008   0.006   0.120  -2.660   0.018  -0.013  -0.011   0.001  -0.000   0.020   0.006  -0.031  -0.001
  0.027  -0.019   4.657   0.011  -0.023  -0.017   0.019  -2.811  -0.010   0.019   0.056  -0.010   0.002  -0.008  -0.001   0.000
 -0.005   0.008   0.011   2.833   1.307  -0.001  -0.013  -0.011  -2.673  -0.120  -0.004  -0.000   0.039   0.007   0.001  -0.000
 -0.037   0.006  -0.023   1.307   3.853   0.025  -0.012   0.020  -0.121  -2.860  -0.003   0.000   0.096  -0.009  -0.009  -0.004
 -2.874   0.120  -0.017  -0.001   0.025   2.827   0.806   0.010   0.004  -0.016   0.019  -0.001  -0.022  -0.006  -0.106   0.000
  0.122  -2.660   0.019  -0.013  -0.012   0.806   3.270  -0.018   0.018   0.017  -0.003   0.001  -0.025  -0.008   0.023   0.001
 -0.018   0.018  -2.811  -0.011   0.020   0.010  -0.018   2.095   0.011  -0.017  -0.063   0.012  -0.003   0.009   0.001   0.000
 -0.000  -0.013  -0.010  -2.673  -0.121   0.004   0.018   0.011   3.283  -0.808   0.003   0.000  -0.035  -0.011  -0.003   0.000
  0.025  -0.011   0.019  -0.120  -2.860  -0.016   0.017  -0.017  -0.808   2.822   0.004  -0.001  -0.104   0.011   0.009   0.004
 -0.020   0.001   0.056  -0.004  -0.003   0.019  -0.003  -0.063   0.003   0.004   1.838  -0.220  -0.004  -0.007  -0.008   0.000
  0.001  -0.000  -0.010  -0.000   0.000  -0.001   0.001   0.012   0.000  -0.001  -0.220   0.034   0.000   0.001   0.001  -0.000
  0.018   0.020   0.002   0.039   0.096  -0.022  -0.025  -0.003  -0.035  -0.104  -0.004   0.000   0.282  -0.001   0.001  -0.008
  0.004   0.006  -0.008   0.007  -0.009  -0.006  -0.008   0.009  -0.011   0.011  -0.007   0.001  -0.001   0.276  -0.000   0.000
  0.095  -0.031  -0.001   0.001  -0.009  -0.106   0.023   0.001  -0.003   0.009  -0.008   0.001   0.001  -0.000   0.283  -0.000
 -0.000  -0.001   0.000  -0.000  -0.004   0.000   0.001   0.000   0.000   0.004   0.000  -0.000  -0.008   0.000  -0.000   0.000
 -0.000  -0.000  -0.001  -0.000   0.000   0.000   0.000   0.000   0.000  -0.000   0.000  -0.000   0.000  -0.008  -0.000  -0.000
 -0.004  -0.000  -0.000  -0.000  -0.000   0.004  -0.000   0.000   0.000   0.000   0.000  -0.000  -0.000  -0.000  -0.008   0.000
 total augmentation occupancy for first ion, spin component:            2
  2.639  -2.157   0.032  -0.012  -0.039  -1.181   1.269  -0.024   0.009   0.027  -0.007  -0.001   0.000  -0.001   0.011   0.001
 -2.157   1.068  -0.015  -0.004   0.001   1.266  -0.263   0.011   0.002  -0.003  -0.002   0.000  -0.002  -0.001  -0.028  -0.000
  0.032  -0.015   4.096   0.006  -0.018  -0.023   0.012  -2.030  -0.004   0.012  -0.009   0.001   0.001  -0.003  -0.000   0.000
 -0.012  -0.004   0.006   1.081   2.157   0.008   0.002  -0.005  -0.272  -1.266  -0.003  -0.001   0.026  -0.003  -0.003   0.000
 -0.039   0.001  -0.018   2.157   2.613   0.027  -0.004   0.013  -1.267  -1.164   0.002  -0.000   0.016   0.000  -0.002   0.000
 -1.181   1.266  -0.023   0.008   0.027   0.466  -0.793   0.016  -0.006  -0.018   0.004   0.001  -0.000   0.001  -0.002  -0.000
  1.269  -0.263   0.012   0.002  -0.004  -0.793  -0.100  -0.008  -0.002   0.003   0.002  -0.000   0.002   0.001   0.014   0.000
 -0.024   0.011  -2.030  -0.005   0.013   0.016  -0.008   1.002   0.003  -0.009   0.012  -0.002  -0.001   0.001   0.000  -0.000
  0.009   0.002  -0.004  -0.272  -1.267  -0.006  -0.002   0.003  -0.095   0.791   0.002   0.000  -0.012   0.002   0.002   0.000
  0.027  -0.003   0.012  -1.266  -1.164  -0.018   0.003  -0.009   0.791   0.455  -0.001   0.000  -0.006  -0.001   0.001  -0.001
 -0.007  -0.002  -0.009  -0.003   0.002   0.004   0.002   0.012   0.002  -0.001  -0.043   0.049   0.000  -0.000  -0.000  -0.000
 -0.001   0.000   0.001  -0.001  -0.000   0.001  -0.000  -0.002   0.000   0.000   0.049  -0.009  -0.000  -0.000  -0.000   0.000
  0.000  -0.002   0.001   0.026   0.016  -0.000   0.002  -0.001  -0.012  -0.006   0.000  -0.000   0.017   0.000   0.000   0.002
 -0.001  -0.001  -0.003  -0.003   0.000   0.001   0.001   0.001   0.002  -0.001  -0.000  -0.000   0.000   0.014   0.000  -0.000
  0.011  -0.028  -0.000  -0.003  -0.002  -0.002   0.014   0.000   0.002   0.001  -0.000  -0.000   0.000   0.000   0.016   0.000
  0.001  -0.000   0.000   0.000   0.000  -0.000   0.000  -0.000   0.000  -0.001  -0.000   0.000   0.002  -0.000   0.000  -0.000
  0.000   0.000  -0.001   0.000  -0.000  -0.000  -0.000   0.000  -0.000   0.000  -0.000   0.000  -0.000   0.001   0.000   0.000
  0.000   0.000  -0.000  -0.000  -0.000  -0.001  -0.000   0.000   0.000   0.000  -0.000   0.000  -0.000  -0.000   0.002  -0.000


------------------------ aborting loop because EDIFF is reached ----------------------------------------


    CHARGE:  cpu time      5.3253: real time     26.7208
    FORLOC:  cpu time      0.0440: real time      0.2362
    FORNL :  cpu time     13.1816: real time     66.1630
    STRESS:  cpu time     39.8758: real time    200.1440
    FORCOR:  cpu time      0.4261: real time      2.1400
    FORHAR:  cpu time      0.0996: real time      0.5000
    MIXING:  cpu time      0.2073: real time      1.0400
    OFIELD:  cpu time      0.0000: real time      0.0000

  FORCE on cell =-STRESS in cart. coord.  units (eV):
  Direction    XX          YY          ZZ          XY          YZ          ZX
  --------------------------------------------------------------------------------------
  Alpha Z   109.46236   109.46236   109.46236
  Ewald   31049.35280 31077.22219-37769.33443   -24.13559    -4.69979     2.71343
  Hartree 33573.82593 33588.39185-32030.82662   -12.61446    -0.62652     0.36172
  E(xc)    -841.53175  -841.43455  -842.24739    -0.08419    -0.20425     0.11792
  Local  -68742.59107-68783.08681 65691.07834    35.07103     1.29037    -0.74499
  n-local  1906.56045  1907.56554  1904.20420    -1.01994    -0.46436     0.31623
  augment  -234.70767  -235.53671  -234.71776     0.71738     0.96285    -0.55623
  Kinetic  3185.52667  3181.25721  3173.30888     3.28021     5.44281    -3.16948
  Fock        0.00000     0.00000     0.00000     0.00000     0.00000     0.00000
  -------------------------------------------------------------------------------------
  Total       5.65163     4.08719     0.92760     1.35485     1.69221    -0.97678
  in kB       3.57510     2.58547     0.58678     0.85705     1.07045    -0.61789
  external pressure =        2.25 kB  Pullay stress =        0.00 kB


 VOLUME and BASIS-vectors are now :
 -----------------------------------------------------------------------------
  energy-cutoff  :      400.00
  volume of cell :     2532.77
      direct lattice vectors                 reciprocal lattice vectors
    12.092548997  0.000000000  0.000000000     0.082695551  0.047744299 -0.000000000
    -6.046274499 10.472454628  0.000000000     0.000000000  0.095488597  0.000000000
     0.000000000  0.000000000 20.000000000     0.000000000 -0.000000000  0.050000000

  length of vectors
    12.092548997 12.092548997 20.000000000     0.095488597  0.095488597  0.050000000


 FORCES acting on ions
    electron-ion (+dipol)            ewald-force                    non-local-force                 convergence-correction
 -----------------------------------------------------------------------------------------------
   -.188E+01 -.105E+01 0.335E+01   0.184E+01 0.103E+01 -.325E+01   0.968E-01 0.911E-01 0.704E-01   0.571E-04 0.127E-04 -.122E-03
   -.128E+02 -.929E+01 0.175E+02   0.121E+02 0.798E+01 -.186E+02   0.937E+00 0.150E+01 0.138E+01   0.697E-04 0.618E-04 -.810E-04
   0.144E+02 0.642E+01 0.175E+02   -.130E+02 -.652E+01 -.186E+02   -.177E+01 -.603E-01 0.138E+01   -.884E-04 -.295E-04 -.810E-04
   0.147E+01 0.384E+01 0.103E+01   -.142E+01 -.391E+01 -.915E+00   0.161E-01 -.155E+00 0.211E+00   -.434E-04 -.148E-04 -.108E-03
   -.406E+01 0.645E+00 0.103E+01   0.410E+01 -.723E+00 -.915E+00   0.127E+00 -.917E-01 0.211E+00   0.345E-04 0.302E-04 -.108E-03
   -.915E+00 0.230E+00 0.245E+01   0.841E+00 -.166E+00 -.240E+01   0.112E+00 -.120E+00 0.106E+00   0.330E-04 -.316E-05 -.139E-03
   0.258E+00 0.907E+00 0.245E+01   -.277E+00 -.811E+00 -.240E+01   0.480E-01 -.157E+00 0.106E+00   -.137E-04 -.301E-04 -.139E-03
   0.185E+01 0.110E+01 0.335E+01   -.181E+01 -.108E+01 -.325E+01   -.127E+00 -.383E-01 0.704E-01   -.395E-04 -.431E-04 -.122E-03
   0.703E+02 -.149E+01 0.482E+03   -.723E+02 0.150E+01 -.485E+03   0.198E+01 0.343E-04 0.294E+01   0.493E-04 0.231E-04 -.773E-04
   -.328E+02 0.568E+02 0.465E+03   0.337E+02 -.583E+02 -.468E+03   -.935E+00 0.162E+01 0.249E+01   -.349E-06 0.605E-06 -.825E-04
   -.409E+02 -.637E+02 0.480E+03   0.419E+02 0.654E+02 -.483E+03   -.114E+01 -.176E+01 0.281E+01   0.725E-04 0.370E-05 -.549E-04
   -.669E+02 -.266E+01 -.478E+03   0.687E+02 0.268E+01 0.481E+03   -.189E+01 -.820E-02 -.292E+01   0.721E-04 -.110E-04 -.177E-03
   0.368E+02 -.613E+02 -.482E+03   -.378E+02 0.630E+02 0.485E+03   0.935E+00 -.165E+01 -.295E+01   -.176E-04 -.140E-04 -.178E-03
   0.331E+02 0.619E+02 -.483E+03   -.341E+02 -.635E+02 0.486E+03   0.712E+00 0.166E+01 -.283E+01   0.111E-03 0.266E-04 -.179E-03
   0.756E+02 0.356E+01 0.480E+03   -.776E+02 -.360E+01 -.483E+03   0.210E+01 0.108E+00 0.281E+01   -.395E-04 -.609E-04 -.549E-04
   -.376E+02 0.642E+02 0.482E+03   0.386E+02 -.659E+02 -.485E+03   -.921E+00 0.166E+01 0.288E+01   -.110E-05 -.440E-05 -.591E-04
   -.359E+02 -.622E+02 0.493E+03   0.370E+02 0.638E+02 -.496E+03   -.341E+00 -.164E+01 0.228E+01   -.120E-03 -.126E-04 0.456E-05
   -.702E+02 0.225E+01 -.483E+03   0.721E+02 -.224E+01 0.486E+03   -.180E+01 0.215E+00 -.283E+01   -.784E-04 -.825E-04 -.179E-03
   0.280E+02 -.486E+02 -.419E+03   -.286E+02 0.495E+02 0.413E+03   0.352E+00 -.609E+00 0.641E+01   0.256E-04 -.444E-04 -.199E-03
   0.419E+02 0.602E+02 -.480E+03   -.429E+02 -.619E+02 0.483E+03   0.110E+01 0.181E+01 -.284E+01   -.724E-04 0.491E-04 -.206E-03
   0.718E+02 -.452E-02 0.493E+03   -.738E+02 -.109E+00 -.496E+03   0.159E+01 -.524E+00 0.228E+01   0.707E-04 0.972E-04 0.456E-05
   -.357E+02 0.618E+02 0.482E+03   0.367E+02 -.635E+02 -.485E+03   -.100E+01 0.173E+01 0.291E+01   0.108E-04 -.188E-04 -.632E-04
   -.371E+02 -.643E+02 0.482E+03   0.381E+02 0.660E+02 -.485E+03   -.102E+01 -.174E+01 0.292E+01   0.250E-04 0.442E-04 -.719E-04
   -.731E+02 -.616E+01 -.480E+03   0.750E+02 0.621E+01 0.483E+03   -.212E+01 -.494E-01 -.284E+01   -.632E-05 0.873E-04 -.206E-03
   0.347E+02 -.626E+02 -.482E+03   -.356E+02 0.642E+02 0.485E+03   0.960E+00 -.163E+01 -.295E+01   0.209E-04 0.823E-05 -.178E-03
   0.358E+02 0.600E+02 -.481E+03   -.368E+02 -.616E+02 0.483E+03   0.994E+00 0.171E+01 -.298E+01   0.585E-05 0.276E-04 -.210E-03
   0.742E+02 -.281E-02 0.482E+03   -.762E+02 0.117E-01 -.485E+03   0.202E+01 0.112E-01 0.292E+01   -.508E-04 0.445E-06 -.719E-04
   -.368E+02 0.647E+02 0.482E+03   0.378E+02 -.664E+02 -.485E+03   -.977E+00 0.163E+01 0.288E+01   0.436E-05 -.125E-05 -.591E-04
   -.338E+02 -.616E+02 0.482E+03   0.348E+02 0.633E+02 -.485E+03   -.989E+00 -.171E+01 0.294E+01   -.447E-04 -.312E-04 -.773E-04
   -.699E+02 -.104E+01 -.481E+03   0.718E+02 0.108E+01 0.483E+03   -.198E+01 -.671E-02 -.298E+01   -.269E-04 0.875E-05 -.210E-03
   0.359E+02 -.622E+02 -.480E+03   -.369E+02 0.639E+02 0.483E+03   0.979E+00 -.170E+01 -.296E+01   0.597E-05 -.103E-04 -.219E-03
   0.358E+02 0.566E+02 -.478E+03   -.367E+02 -.582E+02 0.481E+03   0.951E+00 0.163E+01 -.292E+01   -.265E-04 -.680E-04 -.177E-03
   -.483E+00 0.836E+00 -.136E+03   0.652E+00 -.113E+01 0.140E+03   -.163E+00 0.282E+00 -.461E+01   0.185E-05 -.320E-05 -.486E-05
 -----------------------------------------------------------------------------------------------
   0.116E+01 -.201E+01 -.635E+01   -.198E-13 0.508E-13 0.114E-12   -.116E+01 0.201E+01 0.635E+01   0.938E-06 -.162E-05 -.388E-02
 
 
 POSITION                                       TOTAL-FORCE (eV/Angst)
 -----------------------------------------------------------------------------------
     -0.00766      3.48700      9.99211         0.059999      0.074351      0.170339
      2.92670      1.65067      9.91772         0.292599      0.188411      0.285652
      6.17654      3.52697      9.91772        -0.309468     -0.159193      0.285652
      9.06943      1.75479      9.98358         0.063067     -0.229273      0.328301
     -3.03127      8.73172      9.98358         0.167023     -0.169255      0.328301
     -0.00537      6.98800      9.99160         0.037463     -0.055483      0.148483
      3.02031      8.73488      9.99160         0.029318     -0.060185      0.148483
      6.05341      6.98636      9.99211        -0.094389     -0.014785      0.170339
     -0.85001      5.23594      8.66620        -0.022968      0.010690     -0.039653
      4.95223      1.89493      8.68186        -0.090579      0.156887      0.179829
      1.93873      3.36711      8.66516        -0.072475      0.002820     -0.036968
      0.85496      5.23457     11.34341        -0.065601      0.011956     -0.072172
     -1.93564      3.35638     11.33780        -0.024166     -0.001766     -0.035141
      1.07192      1.88545     11.35562        -0.251870      0.012054      0.069622
      5.18405      5.24080      8.66516         0.033795      0.064175     -0.036968
     -1.08440      1.88284      8.66752         0.053123     -0.047291     -0.086239
      8.02827      3.33969      8.64307         0.753258      0.028871     -0.678940
      6.90060      5.25064     11.35562         0.115496      0.224153      0.069622
      4.06204      3.43679     11.38857        -0.178601      0.309345      0.836474
      7.13379      1.86733     11.35552         0.086610      0.146705     -0.186961
     -3.88326     10.42584      8.64307        -0.401632     -0.637905     -0.678940
      1.93710      7.11729      8.66429        -0.003664      0.006347     -0.024533
     -1.08461      8.58829      8.66598        -0.005336      0.030870     -0.062999
     -2.16092     10.46430     11.35552        -0.170356     -0.001654     -0.186961
      7.13052      8.59073     11.33780         0.013612      0.020045     -0.035141
     -1.93461      7.11439     11.33961        -0.009677      0.039063     -0.073358
      2.17404     10.46968      8.66598        -0.024067      0.020056     -0.062999
      7.98102      7.11677      8.66752         0.014394     -0.069651     -0.086239
      4.95996      8.59033      8.66620         0.002227      0.025236     -0.039653
      3.87547     10.46885     11.33961        -0.028991      0.027912     -0.073358
      1.08583      8.59174     11.33839         0.003312     -0.005736     -0.040561
      4.10866      7.11309     11.34341         0.022446      0.062790     -0.072172
      4.10934      3.35487     12.71284         0.006097     -0.010561     -0.411138
 -----------------------------------------------------------------------------------
    total drift:                               -0.000782      0.001351     -0.001770


--------------------------------------------------------------------------------------------------------



  FREE ENERGIE OF THE ION-ELECTRON SYSTEM (eV)
  ---------------------------------------------------
  free  energy   TOTEN  =      -157.93933835 eV

  energy  without entropy=     -157.93902090  energy(sigma->0) =     -157.93917963
 d Force = 0.8831419E-01[-0.990E-02, 0.187E+00]  d Energy = 0.8631504E-01 0.200E-02
 d Force = 0.5181980E+02[ 0.512E+02, 0.524E+02]  d Ewald  = 0.5180336E+02 0.164E-01
 


--------------------------------------------------------------------------------------------------------


    POTLOK:  cpu time      0.8277: real time      4.1390


--------------------------------------------------------------------------------------------------------




--------------------------------------------------------------------------------------------------------


      MLFF:  cpu time      0.0096: real time      0.0720
    WAVPRE:  cpu time      0.0657: real time      0.3212
    FEWALD:  cpu time      0.0377: real time      0.1978

 real space projection operators:
  total allocation   :      12407.63 KBytes
  max/ min on nodes  :       3123.45       3087.00

    ORTHCH:  cpu time     14.3281: real time     71.8853
     LOOP+:  cpu time   4821.2522: real time  24194.4479


--------------------------------------- Ionic step        4  -------------------------------------------




--------------------------------------- Iteration      4(   1)  ---------------------------------------


    POTLOK:  cpu time      0.5213: real time      2.6144
    SETDIJ:  cpu time      0.2518: real time      1.2766
     EDDAV:  cpu time    193.6198: real time    971.6030
       DOS:  cpu time      0.1954: real time      0.9800
    CHARGE:  cpu time      5.1576: real time     25.8700
    MIXING:  cpu time      0.0897: real time      0.4580
    --------------------------------------------
      LOOP:  cpu time    199.8356: real time   1002.8020

 eigenvalue-minimisations  :  5184
 total energy-change (2. order) : 0.1929092E+00  (-0.4173874E+01)
 number of electron     216.9999995 magnetization      24.9999995
 augmentation part       -2.0376588 magnetization      16.7496663

 DIPCOR: dipole corrections for dipol
 direction  3 min pos     1,
 dipolmoment           0.000000      0.000000     -0.286318 electrons x Angstroem
 Tr[quadrupol]     -5226.468771

 energy correction for charged system         0.000000 eV
 dipol+quadrupol energy correction           -0.002931 eV
 added-field ion interaction          0.048323 eV  (added to PSCEN)


 Broyden mixing:
  rms(total) = 0.41144E+00    rms(broyden)= 0.41131E+00
  rms(prec ) = 0.41414E+00
  weight for this iteration     100.00

 Free energy of the ion-electron system (eV)
  ---------------------------------------------------
  alpha Z        PSCENC =       109.50775576
  Ewald energy   TEWEN  =     24274.18055228
  -Hartree energ DENC   =    -35049.22714755
  -exchange      EXHF   =         0.00000000
  -V(xc)+E(xc)   XCENC  =       348.36233629
  PAW double counting   =     15047.96660244   -14900.21529217
  entropy T*S    EENTRO =        -0.00034299
  eigenvalues    EBANDS =     -2049.07976950
  atomic energy  EATOM  =     12060.75887678
  Solvation  Ediel_sol  =         0.00000000
  ---------------------------------------------------
  free energy    TOTEN  =      -157.74642865 eV

  energy without entropy =     -157.74608566  energy(sigma->0) =     -157.74625715


--------------------------------------------------------------------------------------------------------




--------------------------------------- Iteration      4(   2)  ---------------------------------------


    POTLOK:  cpu time      0.5632: real time      2.8214
    SETDIJ:  cpu time      0.2408: real time      1.2176
     EDDAV:  cpu time    230.4228: real time   1156.2660
       DOS:  cpu time      0.1635: real time      0.8241
    CHARGE:  cpu time      4.9228: real time     24.6977
    MIXING:  cpu time      0.0979: real time      0.4982
    --------------------------------------------
      LOOP:  cpu time    236.4110: real time   1186.3250

 eigenvalue-minimisations  :  7248
 total energy-change (2. order) :-0.3454640E+00  (-0.3486311E+00)
 number of electron     216.9999995 magnetization      24.9999996
 augmentation part       -1.9431214 magnetization      16.8059322

 DIPCOR: dipole corrections for dipol
 direction  3 min pos     1,
 dipolmoment           0.000000      0.000000     -0.299068 electrons x Angstroem
 Tr[quadrupol]     -5226.472173

 energy correction for charged system         0.000000 eV
 dipol+quadrupol energy correction           -0.003198 eV
 added-field ion interaction          0.050475 eV  (added to PSCEN)


 Broyden mixing:
  rms(total) = 0.26598E+00    rms(broyden)= 0.26592E+00
  rms(prec ) = 0.26909E+00
  weight for this iteration     100.00

 eigenvalues of (default mixing * dielectric matrix)
  average eigenvalue GAMMA=   0.5640
  0.5640

 Free energy of the ion-electron system (eV)
  ---------------------------------------------------
  alpha Z        PSCENC =       109.50964076
  Ewald energy   TEWEN  =     24274.18055228
  -Hartree energ DENC   =    -35048.23473162
  -exchange      EXHF   =         0.00000000
  -V(xc)+E(xc)   XCENC  =       348.38196937
  PAW double counting   =     15057.61963067   -14909.48402301
  entropy T*S    EENTRO =        -0.00024240
  eigenvalues    EBANDS =     -2050.82356552
  atomic energy  EATOM  =     12060.75887678
  Solvation  Ediel_sol  =         0.00000000
  ---------------------------------------------------
  free energy    TOTEN  =      -158.09189270 eV

  energy without entropy =     -158.09165030  energy(sigma->0) =     -158.09177150


--------------------------------------------------------------------------------------------------------




--------------------------------------- Iteration      4(   3)  ---------------------------------------


    POTLOK:  cpu time      0.5702: real time      2.8522
    SETDIJ:  cpu time      0.2526: real time      1.2768
     EDDAV:  cpu time    238.3210: real time   1196.0000
       DOS:  cpu time      0.1476: real time      0.7400
    CHARGE:  cpu time      4.9816: real time     24.9937
    MIXING:  cpu time      0.0889: real time      0.4573
    --------------------------------------------
      LOOP:  cpu time    244.3620: real time   1226.3200

 eigenvalue-minimisations  :  7552
 total energy-change (2. order) :-0.2319466E-02  (-0.8243196E-02)
 number of electron     216.9999995 magnetization      24.9999996
 augmentation part       -1.9728669 magnetization      16.7953842

 DIPCOR: dipole corrections for dipol
 direction  3 min pos     1,
 dipolmoment           0.000000      0.000000     -0.305117 electrons x Angstroem
 Tr[quadrupol]     -5226.464769

 energy correction for charged system         0.000000 eV
 dipol+quadrupol energy correction           -0.003329 eV
 added-field ion interaction          0.051496 eV  (added to PSCEN)


 Broyden mixing:
  rms(total) = 0.15341E+00    rms(broyden)= 0.15341E+00
  rms(prec ) = 0.15574E+00
  weight for this iteration     100.00

 eigenvalues of (default mixing * dielectric matrix)
  average eigenvalue GAMMA=   0.6088
  0.6088  0.6088

 Free energy of the ion-electron system (eV)
  ---------------------------------------------------
  alpha Z        PSCENC =       109.51053106
  Ewald energy   TEWEN  =     24274.18055228
  -Hartree energ DENC   =    -35048.82467955
  -exchange      EXHF   =         0.00000000
  -V(xc)+E(xc)   XCENC  =       348.45688633
  PAW double counting   =     15041.70391281   -14893.75349345
  entropy T*S    EENTRO =        -0.00029329
  eigenvalues    EBANDS =     -2050.12650514
  atomic energy  EATOM  =     12060.75887678
  Solvation  Ediel_sol  =         0.00000000
  ---------------------------------------------------
  free energy    TOTEN  =      -158.09421216 eV

  energy without entropy =     -158.09391887  energy(sigma->0) =     -158.09406552


--------------------------------------------------------------------------------------------------------




--------------------------------------- Iteration      4(   4)  ---------------------------------------


    POTLOK:  cpu time      0.5542: real time      2.7807
    SETDIJ:  cpu time      0.2625: real time      1.3194
     EDDAV:  cpu time    236.5095: real time   1186.8960
       DOS:  cpu time      0.1356: real time      0.6800
    CHARGE:  cpu time      4.8867: real time     24.5219
    MIXING:  cpu time      0.0978: real time      0.4981
    --------------------------------------------
      LOOP:  cpu time    242.4463: real time   1216.6960

 eigenvalue-minimisations  :  7536
 total energy-change (2. order) : 0.5461510E-02  (-0.1095294E-02)
 number of electron     216.9999995 magnetization      24.9999996
 augmentation part       -1.9762337 magnetization      16.7939561

 DIPCOR: dipole corrections for dipol
 direction  3 min pos     1,
 dipolmoment           0.000000      0.000000     -0.307828 electrons x Angstroem
 Tr[quadrupol]     -5226.457440

 energy correction for charged system         0.000000 eV
 dipol+quadrupol energy correction           -0.003388 eV
 added-field ion interaction          0.051954 eV  (added to PSCEN)


 Broyden mixing:
  rms(total) = 0.11980E+00    rms(broyden)= 0.11980E+00
  rms(prec ) = 0.12113E+00
  weight for this iteration     100.00

 eigenvalues of (default mixing * dielectric matrix)
  average eigenvalue GAMMA=   0.8217
  0.9728  0.9728  0.5195

 Free energy of the ion-electron system (eV)
  ---------------------------------------------------
  alpha Z        PSCENC =       109.51092925
  Ewald energy   TEWEN  =     24274.18055228
  -Hartree energ DENC   =    -35048.89075251
  -exchange      EXHF   =         0.00000000
  -V(xc)+E(xc)   XCENC  =       348.45866151
  PAW double counting   =     15037.13724099   -14889.20809212
  entropy T*S    EENTRO =        -0.00026587
  eigenvalues    EBANDS =     -2050.03590098
  atomic energy  EATOM  =     12060.75887678
  Solvation  Ediel_sol  =         0.00000000
  ---------------------------------------------------
  free energy    TOTEN  =      -158.08875065 eV

  energy without entropy =     -158.08848479  energy(sigma->0) =     -158.08861772


--------------------------------------------------------------------------------------------------------




--------------------------------------- Iteration      4(   5)  ---------------------------------------


    POTLOK:  cpu time      0.5955: real time      2.9779
    SETDIJ:  cpu time      0.2603: real time      1.3171
     EDDAV:  cpu time    230.4289: real time   1156.3480
       DOS:  cpu time      0.1595: real time      0.8000
    CHARGE:  cpu time      4.8034: real time     24.1052
    MIXING:  cpu time      0.1274: real time      0.6398
    --------------------------------------------
      LOOP:  cpu time    236.3749: real time   1186.1880

 eigenvalue-minimisations  :  7000
 total energy-change (2. order) : 0.4069570E-02  (-0.1474580E-02)
 number of electron     216.9999995 magnetization      24.9999997
 augmentation part       -1.9687372 magnetization      16.7907424

 DIPCOR: dipole corrections for dipol
 direction  3 min pos     1,
 dipolmoment           0.000000      0.000000     -0.313699 electrons x Angstroem
 Tr[quadrupol]     -5226.448661

 energy correction for charged system         0.000000 eV
 dipol+quadrupol energy correction           -0.003518 eV
 added-field ion interaction          0.052944 eV  (added to PSCEN)


 Broyden mixing:
  rms(total) = 0.64609E-01    rms(broyden)= 0.64608E-01
  rms(prec ) = 0.64893E-01
  weight for this iteration     100.00

 eigenvalues of (default mixing * dielectric matrix)
  average eigenvalue GAMMA=   1.0807
  1.9909  1.1678  0.5820  0.5820

 Free energy of the ion-electron system (eV)
  ---------------------------------------------------
  alpha Z        PSCENC =       109.51178959
  Ewald energy   TEWEN  =     24274.18055228
  -Hartree energ DENC   =    -35049.09587707
  -exchange      EXHF   =         0.00000000
  -V(xc)+E(xc)   XCENC  =       348.48577245
  PAW double counting   =     15026.56064820   -14878.67463724
  entropy T*S    EENTRO =        -0.00025871
  eigenvalues    EBANDS =     -2049.81154736
  atomic energy  EATOM  =     12060.75887678
  Solvation  Ediel_sol  =         0.00000000
  ---------------------------------------------------
  free energy    TOTEN  =      -158.08468108 eV

  energy without entropy =     -158.08442237  energy(sigma->0) =     -158.08455172


--------------------------------------------------------------------------------------------------------




--------------------------------------- Iteration      4(   6)  ---------------------------------------


    POTLOK:  cpu time      0.6078: real time      3.0533
    SETDIJ:  cpu time      0.2727: real time      1.3777
     EDDAV:  cpu time    236.3430: real time   1186.1290
       DOS:  cpu time      0.1633: real time      0.8200
    CHARGE:  cpu time      4.7615: real time     23.8857
    MIXING:  cpu time      0.1338: real time      0.6782
    --------------------------------------------
      LOOP:  cpu time    242.2821: real time   1215.9439

 eigenvalue-minimisations  :  7416
 total energy-change (2. order) :-0.9674646E-03  (-0.5572225E-03)
 number of electron     216.9999995 magnetization      24.9999997
 augmentation part       -1.9849812 magnetization      16.7860539

 DIPCOR: dipole corrections for dipol
 direction  3 min pos     1,
 dipolmoment           0.000000      0.000000     -0.318486 electrons x Angstroem
 Tr[quadrupol]     -5226.455021

 energy correction for charged system         0.000000 eV
 dipol+quadrupol energy correction           -0.003627 eV
 added-field ion interaction          0.053752 eV  (added to PSCEN)


 Broyden mixing:
  rms(total) = 0.18502E-01    rms(broyden)= 0.18501E-01
  rms(prec ) = 0.18716E-01
  weight for this iteration     100.00

 eigenvalues of (default mixing * dielectric matrix)
  average eigenvalue GAMMA=   1.0261
  2.0836  1.1856  0.7740  0.5730  0.5145

 Free energy of the ion-electron system (eV)
  ---------------------------------------------------
  alpha Z        PSCENC =       109.51248937
  Ewald energy   TEWEN  =     24274.18055228
  -Hartree energ DENC   =    -35049.40162261
  -exchange      EXHF   =         0.00000000
  -V(xc)+E(xc)   XCENC  =       348.49847203
  PAW double counting   =     15021.60365035   -14873.77773680
  entropy T*S    EENTRO =        -0.00026331
  eigenvalues    EBANDS =     -2049.46006664
  atomic energy  EATOM  =     12060.75887678
  Solvation  Ediel_sol  =         0.00000000
  ---------------------------------------------------
  free energy    TOTEN  =      -158.08564855 eV

  energy without entropy =     -158.08538523  energy(sigma->0) =     -158.08551689


--------------------------------------------------------------------------------------------------------




--------------------------------------- Iteration      4(   7)  ---------------------------------------


    POTLOK:  cpu time      0.6219: real time      3.1088
    SETDIJ:  cpu time      0.2643: real time      1.3372
     EDDAV:  cpu time    240.7880: real time   1208.3430
       DOS:  cpu time      0.1355: real time      0.6800
    CHARGE:  cpu time      5.4336: real time     27.2622
    MIXING:  cpu time      0.1403: real time      0.7168
    --------------------------------------------
      LOOP:  cpu time    247.3836: real time   1241.4480

 eigenvalue-minimisations  :  7672
 total energy-change (2. order) :-0.3002971E-03  (-0.3893409E-04)
 number of electron     216.9999995 magnetization      24.9999997
 augmentation part       -1.9828184 magnetization      16.7860746

 DIPCOR: dipole corrections for dipol
 direction  3 min pos     1,
 dipolmoment           0.000000      0.000000     -0.320607 electrons x Angstroem
 Tr[quadrupol]     -5226.458134

 energy correction for charged system         0.000000 eV
 dipol+quadrupol energy correction           -0.003675 eV
 added-field ion interaction          0.054110 eV  (added to PSCEN)


 Broyden mixing:
  rms(total) = 0.11181E-01    rms(broyden)= 0.11181E-01
  rms(prec ) = 0.11310E-01
  weight for this iteration     100.00

 eigenvalues of (default mixing * dielectric matrix)
  average eigenvalue GAMMA=   1.0322
  2.3848  1.0332  1.0332  0.6119  0.6119  0.5181

 Free energy of the ion-electron system (eV)
  ---------------------------------------------------
  alpha Z        PSCENC =       109.51279886
  Ewald energy   TEWEN  =     24274.18055228
  -Hartree energ DENC   =    -35049.43510376
  -exchange      EXHF   =         0.00000000
  -V(xc)+E(xc)   XCENC  =       348.49915922
  PAW double counting   =     15019.85551384   -14872.02028396
  entropy T*S    EENTRO =        -0.00026491
  eigenvalues    EBANDS =     -2049.43719720
  atomic energy  EATOM  =     12060.75887678
  Solvation  Ediel_sol  =         0.00000000
  ---------------------------------------------------
  free energy    TOTEN  =      -158.08594884 eV

  energy without entropy =     -158.08568393  energy(sigma->0) =     -158.08581639


--------------------------------------------------------------------------------------------------------




--------------------------------------- Iteration      4(   8)  ---------------------------------------


    POTLOK:  cpu time      0.5660: real time      2.8285
    SETDIJ:  cpu time      0.3044: real time      1.5374
     EDDAV:  cpu time    240.7064: real time   1207.9140
       DOS:  cpu time      0.1874: real time      0.9400
    CHARGE:  cpu time      5.0348: real time     25.2576
    MIXING:  cpu time      0.1220: real time      0.6184
    --------------------------------------------
      LOOP:  cpu time    246.9211: real time   1239.0960

 eigenvalue-minimisations  :  7600
 total energy-change (2. order) :-0.2718571E-03  (-0.7894822E-05)
 number of electron     216.9999995 magnetization      24.9999997
 augmentation part       -1.9817624 magnetization      16.7861759

 DIPCOR: dipole corrections for dipol
 direction  3 min pos     1,
 dipolmoment           0.000000      0.000000     -0.321222 electrons x Angstroem
 Tr[quadrupol]     -5226.460785

 energy correction for charged system         0.000000 eV
 dipol+quadrupol energy correction           -0.003689 eV
 added-field ion interaction          0.054214 eV  (added to PSCEN)


 Broyden mixing:
  rms(total) = 0.84654E-02    rms(broyden)= 0.84654E-02
  rms(prec ) = 0.86051E-02
  weight for this iteration     100.00

 eigenvalues of (default mixing * dielectric matrix)
  average eigenvalue GAMMA=   1.1122
  2.6679  1.3111  1.3111  0.7260  0.7260  0.5431  0.4998

 Free energy of the ion-electron system (eV)
  ---------------------------------------------------
  alpha Z        PSCENC =       109.51288857
  Ewald energy   TEWEN  =     24274.18055228
  -Hartree energ DENC   =    -35049.48524329
  -exchange      EXHF   =         0.00000000
  -V(xc)+E(xc)   XCENC  =       348.50118287
  PAW double counting   =     15017.74275828   -14869.90612412
  entropy T*S    EENTRO =        -0.00026351
  eigenvalues    EBANDS =     -2049.39084856
  atomic energy  EATOM  =     12060.75887678
  Solvation  Ediel_sol  =         0.00000000
  ---------------------------------------------------
  free energy    TOTEN  =      -158.08622070 eV

  energy without entropy =     -158.08595719  energy(sigma->0) =     -158.08608894


--------------------------------------------------------------------------------------------------------




--------------------------------------- Iteration      4(   9)  ---------------------------------------


    POTLOK:  cpu time      0.5689: real time      2.8436
    SETDIJ:  cpu time      0.2516: real time      1.2765
     EDDAV:  cpu time    234.6477: real time   1177.5000
       DOS:  cpu time      0.1954: real time      0.9800
    CHARGE:  cpu time      5.3772: real time     26.9820
    MIXING:  cpu time      0.1295: real time      0.6579
    --------------------------------------------
      LOOP:  cpu time    241.1703: real time   1210.2400

 eigenvalue-minimisations  :  7376
 total energy-change (2. order) :-0.3418970E-03  (-0.5098623E-05)
 number of electron     216.9999995 magnetization      24.9999997
 augmentation part       -1.9830194 magnetization      16.7860461

 DIPCOR: dipole corrections for dipol
 direction  3 min pos     1,
 dipolmoment           0.000000      0.000000     -0.321020 electrons x Angstroem
 Tr[quadrupol]     -5226.464659

 energy correction for charged system         0.000000 eV
 dipol+quadrupol energy correction           -0.003685 eV
 added-field ion interaction          0.054180 eV  (added to PSCEN)


 Broyden mixing:
  rms(total) = 0.57628E-02    rms(broyden)= 0.57627E-02
  rms(prec ) = 0.58249E-02
  weight for this iteration     100.00

 eigenvalues of (default mixing * dielectric matrix)
  average eigenvalue GAMMA=   1.1099
  2.4579  1.5661  1.5661  0.9368  0.7459  0.5588  0.5588  0.4888

 Free energy of the ion-electron system (eV)
  ---------------------------------------------------
  alpha Z        PSCENC =       109.51285899
  Ewald energy   TEWEN  =     24274.18055228
  -Hartree energ DENC   =    -35049.52650584
  -exchange      EXHF   =         0.00000000
  -V(xc)+E(xc)   XCENC  =       348.50076960
  PAW double counting   =     15016.88210226   -14869.04407731
  entropy T*S    EENTRO =        -0.00026563
  eigenvalues    EBANDS =     -2049.35087374
  atomic energy  EATOM  =     12060.75887678
  Solvation  Ediel_sol  =         0.00000000
  ---------------------------------------------------
  free energy    TOTEN  =      -158.08656260 eV

  energy without entropy =     -158.08629696  energy(sigma->0) =     -158.08642978


--------------------------------------------------------------------------------------------------------




--------------------------------------- Iteration      4(  10)  ---------------------------------------


    POTLOK:  cpu time      0.5679: real time      2.8422
    SETDIJ:  cpu time      0.2529: real time      1.2778
     EDDAV:  cpu time    232.1050: real time   1164.7270
       DOS:  cpu time      0.1875: real time      0.9401
    CHARGE:  cpu time      5.1977: real time     26.0762
    MIXING:  cpu time      0.1641: real time      0.8367
    --------------------------------------------
      LOOP:  cpu time    238.4751: real time   1196.7000

 eigenvalue-minimisations  :  7256
 total energy-change (2. order) :-0.3117750E-03  (-0.5635671E-05)
 number of electron     216.9999995 magnetization      24.9999998
 augmentation part       -1.9820099 magnetization      16.7864460

 DIPCOR: dipole corrections for dipol
 direction  3 min pos     1,
 dipolmoment           0.000000      0.000000     -0.321010 electrons x Angstroem
 Tr[quadrupol]     -5226.467396

 energy correction for charged system         0.000000 eV
 dipol+quadrupol energy correction           -0.003684 eV
 added-field ion interaction          0.054178 eV  (added to PSCEN)


 Broyden mixing:
  rms(total) = 0.17337E-02    rms(broyden)= 0.17336E-02
  rms(prec ) = 0.17672E-02
  weight for this iteration     100.00

 eigenvalues of (default mixing * dielectric matrix)
  average eigenvalue GAMMA=   1.1274
  2.1480  2.1480  1.5356  1.1794  0.8442  0.6886  0.5612  0.5612  0.4803

 Free energy of the ion-electron system (eV)
  ---------------------------------------------------
  alpha Z        PSCENC =       109.51285763
  Ewald energy   TEWEN  =     24274.18055228
  -Hartree energ DENC   =    -35049.53325598
  -exchange      EXHF   =         0.00000000
  -V(xc)+E(xc)   XCENC  =       348.49871770
  PAW double counting   =     15016.69358848   -14868.84820684
  entropy T*S    EENTRO =        -0.00026714
  eigenvalues    EBANDS =     -2049.34973728
  atomic energy  EATOM  =     12060.75887678
  Solvation  Ediel_sol  =         0.00000000
  ---------------------------------------------------
  free energy    TOTEN  =      -158.08687437 eV

  energy without entropy =     -158.08660723  energy(sigma->0) =     -158.08674080


--------------------------------------------------------------------------------------------------------




--------------------------------------- Iteration      4(  11)  ---------------------------------------


    POTLOK:  cpu time      0.6338: real time      3.1648
    SETDIJ:  cpu time      0.2683: real time      1.3572
     EDDAV:  cpu time    218.8954: real time   1098.4811
       DOS:  cpu time      0.1515: real time      0.7600
    CHARGE:  cpu time      4.8373: real time     24.2745
    MIXING:  cpu time      0.0968: real time      0.4812
    --------------------------------------------
      LOOP:  cpu time    224.8829: real time   1128.5187

 eigenvalue-minimisations  :  6592
 total energy-change (2. order) :-0.2271978E-03  (-0.8252885E-06)
 number of electron     216.9999995 magnetization      24.9999998
 augmentation part       -1.9817935 magnetization      16.7865396

 DIPCOR: dipole corrections for dipol
 direction  3 min pos     1,
 dipolmoment           0.000000      0.000000     -0.321357 electrons x Angstroem
 Tr[quadrupol]     -5226.469554

 energy correction for charged system         0.000000 eV
 dipol+quadrupol energy correction           -0.003692 eV
 added-field ion interaction          0.054237 eV  (added to PSCEN)


 Broyden mixing:
  rms(total) = 0.81847E-03    rms(broyden)= 0.81845E-03
  rms(prec ) = 0.85515E-03
  weight for this iteration     100.00

 eigenvalues of (default mixing * dielectric matrix)
  average eigenvalue GAMMA=   1.0792
  2.5363  1.6593  1.6593  0.9017  0.9017  0.8553  0.6593  0.4830  0.5682  0.5682

 Free energy of the ion-electron system (eV)
  ---------------------------------------------------
  alpha Z        PSCENC =       109.51290816
  Ewald energy   TEWEN  =     24274.18055228
  -Hartree energ DENC   =    -35049.55318477
  -exchange      EXHF   =         0.00000000
  -V(xc)+E(xc)   XCENC  =       348.49860490
  PAW double counting   =     15016.38246799   -14868.53587987
  entropy T*S    EENTRO =        -0.00026689
  eigenvalues    EBANDS =     -2049.33118014
  atomic energy  EATOM  =     12060.75887678
  Solvation  Ediel_sol  =         0.00000000
  ---------------------------------------------------
  free energy    TOTEN  =      -158.08710157 eV

  energy without entropy =     -158.08683468  energy(sigma->0) =     -158.08696812


--------------------------------------------------------------------------------------------------------




--------------------------------------- Iteration      4(  12)  ---------------------------------------


    POTLOK:  cpu time      0.5446: real time      2.7307
    SETDIJ:  cpu time      0.2529: real time      1.2777
     EDDAV:  cpu time    162.8838: real time    817.3760
       DOS:  cpu time      0.1954: real time      0.9800
    CHARGE:  cpu time      5.0780: real time     25.4707
    MIXING:  cpu time      0.1753: real time      0.8799
    --------------------------------------------
      LOOP:  cpu time    169.1299: real time    848.7150

 eigenvalue-minimisations  :  3544
 total energy-change (2. order) :-0.7921198E-04  (-0.7548535E-07)
 number of electron     216.9999995 magnetization      24.9999998
 augmentation part       -1.9819179 magnetization      16.7865214

 DIPCOR: dipole corrections for dipol
 direction  3 min pos     1,
 dipolmoment           0.000000      0.000000     -0.321486 electrons x Angstroem
 Tr[quadrupol]     -5226.470420

 energy correction for charged system         0.000000 eV
 dipol+quadrupol energy correction           -0.003695 eV
 added-field ion interaction          0.054259 eV  (added to PSCEN)


 Broyden mixing:
  rms(total) = 0.47696E-03    rms(broyden)= 0.47696E-03
  rms(prec ) = 0.51802E-03
  weight for this iteration     100.00

 eigenvalues of (default mixing * dielectric matrix)
  average eigenvalue GAMMA=   1.0641
  2.5122  1.5643  1.5643  1.1066  1.1066  1.0357  0.6765  0.5809  0.5809  0.4887
  0.4887

 Free energy of the ion-electron system (eV)
  ---------------------------------------------------
  alpha Z        PSCENC =       109.51292697
  Ewald energy   TEWEN  =     24274.18055228
  -Hartree energ DENC   =    -35049.56172499
  -exchange      EXHF   =         0.00000000
  -V(xc)+E(xc)   XCENC  =       348.49858320
  PAW double counting   =     15016.41182428   -14868.56552764
  entropy T*S    EENTRO =        -0.00026663
  eigenvalues    EBANDS =     -2049.32242504
  atomic energy  EATOM  =     12060.75887678
  Solvation  Ediel_sol  =         0.00000000
  ---------------------------------------------------
  free energy    TOTEN  =      -158.08718078 eV

  energy without entropy =     -158.08691415  energy(sigma->0) =     -158.08704746


--------------------------------------------------------------------------------------------------------




--------------------------------------- Iteration      4(  13)  ---------------------------------------


    POTLOK:  cpu time      0.6018: real time      3.0122
    SETDIJ:  cpu time      0.2523: real time      1.2771
     EDDAV:  cpu time    177.6572: real time    891.5140
       DOS:  cpu time      0.1714: real time      0.8600
    CHARGE:  cpu time      4.8460: real time     24.3125
    MIXING:  cpu time      0.1848: real time      0.9214
    --------------------------------------------
      LOOP:  cpu time    183.7136: real time    921.8973

 eigenvalue-minimisations  :  4136
 total energy-change (2. order) :-0.1095110E-03  (-0.1419532E-06)
 number of electron     216.9999995 magnetization      24.9999998
 augmentation part       -1.9818389 magnetization      16.7865481

 DIPCOR: dipole corrections for dipol
 direction  3 min pos     1,
 dipolmoment           0.000000      0.000000     -0.321592 electrons x Angstroem
 Tr[quadrupol]     -5226.471568

 energy correction for charged system         0.000000 eV
 dipol+quadrupol energy correction           -0.003698 eV
 added-field ion interaction          0.054276 eV  (added to PSCEN)


 Broyden mixing:
  rms(total) = 0.29547E-03    rms(broyden)= 0.29546E-03
  rms(prec ) = 0.33980E-03
  weight for this iteration     100.00

 eigenvalues of (default mixing * dielectric matrix)
  average eigenvalue GAMMA=   1.0605
  2.4796  1.5270  1.5270  1.5739  1.1378  1.1378  0.6526  0.6526  0.5624  0.5624
  0.4658  0.4468

 Free energy of the ion-electron system (eV)
  ---------------------------------------------------
  alpha Z        PSCENC =       109.51294245
  Ewald energy   TEWEN  =     24274.18055228
  -Hartree energ DENC   =    -35049.57082508
  -exchange      EXHF   =         0.00000000
  -V(xc)+E(xc)   XCENC  =       348.49841028
  PAW double counting   =     15016.46320438   -14868.61661682
  entropy T*S    EENTRO =        -0.00026626
  eigenvalues    EBANDS =     -2049.31356831
  atomic energy  EATOM  =     12060.75887678
  Solvation  Ediel_sol  =         0.00000000
  ---------------------------------------------------
  free energy    TOTEN  =      -158.08729029 eV

  energy without entropy =     -158.08702403  energy(sigma->0) =     -158.08715716


--------------------------------------------------------------------------------------------------------




--------------------------------------- Iteration      4(  14)  ---------------------------------------


    POTLOK:  cpu time      0.6076: real time      3.0505
    SETDIJ:  cpu time      0.2602: real time      1.3205
     EDDAV:  cpu time    169.0826: real time    848.5180
       DOS:  cpu time      0.1994: real time      1.0000
    CHARGE:  cpu time      4.9225: real time     24.6917
    MIXING:  cpu time      0.1776: real time      0.9012
    --------------------------------------------
      LOOP:  cpu time    175.2499: real time    879.4820

 eigenvalue-minimisations  :  3856
 total energy-change (2. order) :-0.1174753E-03  (-0.1423837E-06)
 number of electron     216.9999995 magnetization      24.9999998
 augmentation part       -1.9818901 magnetization      16.7865297

 DIPCOR: dipole corrections for dipol
 direction  3 min pos     1,
 dipolmoment           0.000000      0.000000     -0.321707 electrons x Angstroem
 Tr[quadrupol]     -5226.472911

 energy correction for charged system         0.000000 eV
 dipol+quadrupol energy correction           -0.003700 eV
 added-field ion interaction          0.054296 eV  (added to PSCEN)


 Broyden mixing:
  rms(total) = 0.25096E-03    rms(broyden)= 0.25095E-03
  rms(prec ) = 0.28542E-03
  weight for this iteration     100.00

 eigenvalues of (default mixing * dielectric matrix)
  average eigenvalue GAMMA=   1.0696
  2.5108  1.8063  1.8063  1.4601  1.0915  1.0915  0.8463  0.6887  0.6197  0.6197
  0.5231  0.4908  0.3503

 Free energy of the ion-electron system (eV)
  ---------------------------------------------------
  alpha Z        PSCENC =       109.51295915
  Ewald energy   TEWEN  =     24274.18055228
  -Hartree energ DENC   =    -35049.58270156
  -exchange      EXHF   =         0.00000000
  -V(xc)+E(xc)   XCENC  =       348.49831634
  PAW double counting   =     15016.46803108   -14868.62143136
  entropy T*S    EENTRO =        -0.00026606
  eigenvalues    EBANDS =     -2049.30174442
  atomic energy  EATOM  =     12060.75887678
  Solvation  Ediel_sol  =         0.00000000
  ---------------------------------------------------
  free energy    TOTEN  =      -158.08740777 eV

  energy without entropy =     -158.08714170  energy(sigma->0) =     -158.08727474


--------------------------------------------------------------------------------------------------------




--------------------------------------- Iteration      4(  15)  ---------------------------------------


    POTLOK:  cpu time      0.6125: real time      3.0658
    SETDIJ:  cpu time      0.2723: real time      1.3772
     EDDAV:  cpu time    172.7409: real time    866.8800
       DOS:  cpu time      0.1594: real time      0.8000
    CHARGE:  cpu time      5.5707: real time     27.9516
    MIXING:  cpu time      0.1777: real time      0.8823
    --------------------------------------------
      LOOP:  cpu time    179.5335: real time    900.9570

 eigenvalue-minimisations  :  3992
 total energy-change (2. order) :-0.1195895E-03  (-0.1302491E-06)
 number of electron     216.9999995 magnetization      24.9999998
 augmentation part       -1.9818675 magnetization      16.7865449

 DIPCOR: dipole corrections for dipol
 direction  3 min pos     1,
 dipolmoment           0.000000      0.000000     -0.321837 electrons x Angstroem
 Tr[quadrupol]     -5226.474438

 energy correction for charged system         0.000000 eV
 dipol+quadrupol energy correction           -0.003703 eV
 added-field ion interaction          0.054318 eV  (added to PSCEN)


 Broyden mixing:
  rms(total) = 0.20747E-03    rms(broyden)= 0.20747E-03
  rms(prec ) = 0.23115E-03
  weight for this iteration     100.00

 eigenvalues of (default mixing * dielectric matrix)
  average eigenvalue GAMMA=   1.0713
  2.2763  2.2763  1.6703  1.6703  1.1530  1.1530  0.9179  0.7068  0.6153  0.6153
  0.6081  0.4942  0.5252  0.3159

 Free energy of the ion-electron system (eV)
  ---------------------------------------------------
  alpha Z        PSCENC =       109.51297819
  Ewald energy   TEWEN  =     24274.18055228
  -Hartree energ DENC   =    -35049.59631488
  -exchange      EXHF   =         0.00000000
  -V(xc)+E(xc)   XCENC  =       348.49826966
  PAW double counting   =     15016.45666639   -14868.60999681
  entropy T*S    EENTRO =        -0.00026614
  eigenvalues    EBANDS =     -2049.28829283
  atomic energy  EATOM  =     12060.75887678
  Solvation  Ediel_sol  =         0.00000000
  ---------------------------------------------------
  free energy    TOTEN  =      -158.08752736 eV

  energy without entropy =     -158.08726122  energy(sigma->0) =     -158.08739429


--------------------------------------------------------------------------------------------------------




--------------------------------------- Iteration      4(  16)  ---------------------------------------


    POTLOK:  cpu time      0.6118: real time      3.0706
    SETDIJ:  cpu time      0.2600: real time      1.3164
     EDDAV:  cpu time    172.9933: real time    868.1151
       DOS:  cpu time      0.1704: real time      0.8590
    CHARGE:  cpu time      5.2632: real time     26.4106
    MIXING:  cpu time      0.1418: real time      0.7184
    --------------------------------------------
      LOOP:  cpu time    179.4405: real time    900.4900

 eigenvalue-minimisations  :  3888
 total energy-change (2. order) :-0.9169130E-04  (-0.1198007E-06)
 number of electron     216.9999995 magnetization      24.9999998
 augmentation part       -1.9818341 magnetization      16.7865482

 DIPCOR: dipole corrections for dipol
 direction  3 min pos     1,
 dipolmoment           0.000000      0.000000     -0.321977 electrons x Angstroem
 Tr[quadrupol]     -5226.475773

 energy correction for charged system         0.000000 eV
 dipol+quadrupol energy correction           -0.003707 eV
 added-field ion interaction          0.054341 eV  (added to PSCEN)


 Broyden mixing:
  rms(total) = 0.14981E-03    rms(broyden)= 0.14980E-03
  rms(prec ) = 0.16771E-03
  weight for this iteration     100.00

 eigenvalues of (default mixing * dielectric matrix)
  average eigenvalue GAMMA=   1.1118
  2.6540  2.6540  1.5644  1.5644  1.3201  1.3201  1.0413  0.8086  0.6357  0.6357
  0.5720  0.5720  0.4872  0.5450  0.3033

 Free energy of the ion-electron system (eV)
  ---------------------------------------------------
  alpha Z        PSCENC =       109.51299856
  Ewald energy   TEWEN  =     24274.18055228
  -Hartree energ DENC   =    -35049.60786666
  -exchange      EXHF   =         0.00000000
  -V(xc)+E(xc)   XCENC  =       348.49825567
  PAW double counting   =     15016.43793011   -14868.59110229
  entropy T*S    EENTRO =        -0.00026622
  eigenvalues    EBANDS =     -2049.27699729
  atomic energy  EATOM  =     12060.75887678
  Solvation  Ediel_sol  =         0.00000000
  ---------------------------------------------------
  free energy    TOTEN  =      -158.08761905 eV

  energy without entropy =     -158.08735283  energy(sigma->0) =     -158.08748594


--------------------------------------------------------------------------------------------------------




--------------------------------------- Iteration      4(  17)  ---------------------------------------


    POTLOK:  cpu time      0.5651: real time      2.8227
    SETDIJ:  cpu time      0.2445: real time      1.2373
     EDDAV:  cpu time    174.2961: real time    874.6601
       DOS:  cpu time      0.1852: real time      0.9220
    CHARGE:  cpu time      5.3695: real time     26.9436
    MIXING:  cpu time      0.1607: real time      0.8013
    --------------------------------------------
      LOOP:  cpu time    180.8211: real time    907.3870

 eigenvalue-minimisations  :  3896
 total energy-change (2. order) :-0.7559815E-04  (-0.1212750E-06)
 number of electron     216.9999995 magnetization      24.9999998
 augmentation part       -1.9819021 magnetization      16.7865221

 DIPCOR: dipole corrections for dipol
 direction  3 min pos     1,
 dipolmoment           0.000000      0.000000     -0.322138 electrons x Angstroem
 Tr[quadrupol]     -5226.477118

 energy correction for charged system         0.000000 eV
 dipol+quadrupol energy correction           -0.003710 eV
 added-field ion interaction          0.054369 eV  (added to PSCEN)


 Broyden mixing:
  rms(total) = 0.13653E-03    rms(broyden)= 0.13652E-03
  rms(prec ) = 0.14608E-03
  weight for this iteration     100.00

 eigenvalues of (default mixing * dielectric matrix)
  average eigenvalue GAMMA=   1.1339
  3.2074  2.5405  1.6881  1.6881  1.3898  1.1808  1.1808  0.8445  0.7163  0.6644
  0.6644  0.5560  0.4802  0.5227  0.5227  0.2965

 Free energy of the ion-electron system (eV)
  ---------------------------------------------------
  alpha Z        PSCENC =       109.51302207
  Ewald energy   TEWEN  =     24274.18055228
  -Hartree energ DENC   =    -35049.61996817
  -exchange      EXHF   =         0.00000000
  -V(xc)+E(xc)   XCENC  =       348.49825442
  PAW double counting   =     15016.42075610   -14868.57404982
  entropy T*S    EENTRO =        -0.00026631
  eigenvalues    EBANDS =     -2049.26487201
  atomic energy  EATOM  =     12060.75887678
  Solvation  Ediel_sol  =         0.00000000
  ---------------------------------------------------
  free energy    TOTEN  =      -158.08769465 eV

  energy without entropy =     -158.08742834  energy(sigma->0) =     -158.08756149


--------------------------------------------------------------------------------------------------------




--------------------------------------- Iteration      4(  18)  ---------------------------------------


    POTLOK:  cpu time      0.5982: real time      3.0130
    SETDIJ:  cpu time      0.2570: real time      1.2980
     EDDAV:  cpu time    166.1755: real time    833.8860
       DOS:  cpu time      0.1683: real time      0.8410
    CHARGE:  cpu time      4.5992: real time     23.0888
    MIXING:  cpu time      0.1616: real time      0.8141
    --------------------------------------------
      LOOP:  cpu time    171.9599: real time    862.9410

 eigenvalue-minimisations  :  3688
 total energy-change (2. order) :-0.4891928E-04  (-0.9776339E-07)
 number of electron     216.9999995 magnetization      24.9999998
 augmentation part       -1.9818479 magnetization      16.7865504

 DIPCOR: dipole corrections for dipol
 direction  3 min pos     1,
 dipolmoment           0.000000      0.000000     -0.322285 electrons x Angstroem
 Tr[quadrupol]     -5226.478215

 energy correction for charged system         0.000000 eV
 dipol+quadrupol energy correction           -0.003714 eV
 added-field ion interaction          0.054393 eV  (added to PSCEN)


 Broyden mixing:
  rms(total) = 0.11296E-03    rms(broyden)= 0.11296E-03
  rms(prec ) = 0.11870E-03
  weight for this iteration     100.00

 eigenvalues of (default mixing * dielectric matrix)
  average eigenvalue GAMMA=   1.1841
  4.1517  2.4460  1.9863  1.6413  1.6413  1.1700  1.1700  0.8576  0.8576  0.6253
  0.6253  0.6247  0.6247  0.5275  0.4943  0.3974  0.2893

 Free energy of the ion-electron system (eV)
  ---------------------------------------------------
  alpha Z        PSCENC =       109.51304346
  Ewald energy   TEWEN  =     24274.18055228
  -Hartree energ DENC   =    -35049.62898984
  -exchange      EXHF   =         0.00000000
  -V(xc)+E(xc)   XCENC  =       348.49821923
  PAW double counting   =     15016.41482138   -14868.56800595
  entropy T*S    EENTRO =        -0.00026627
  eigenvalues    EBANDS =     -2049.25599462
  atomic energy  EATOM  =     12060.75887678
  Solvation  Ediel_sol  =         0.00000000
  ---------------------------------------------------
  free energy    TOTEN  =      -158.08774357 eV

  energy without entropy =     -158.08747729  energy(sigma->0) =     -158.08761043


--------------------------------------------------------------------------------------------------------




--------------------------------------- Iteration      4(  19)  ---------------------------------------


    POTLOK:  cpu time      0.5872: real time      2.9416
    SETDIJ:  cpu time      0.2566: real time      1.2975
     EDDAV:  cpu time    167.5034: real time    840.5490
       DOS:  cpu time      0.1517: real time      0.7602
    CHARGE:  cpu time      4.9707: real time     24.9342
    MIXING:  cpu time      0.2049: real time      1.0376
    --------------------------------------------
      LOOP:  cpu time    173.6745: real time    871.5200

 eigenvalue-minimisations  :  3664
 total energy-change (2. order) :-0.3116129E-04  (-0.7728690E-07)
 number of electron     216.9999995 magnetization      24.9999998
 augmentation part       -1.9818852 magnetization      16.7865253

 DIPCOR: dipole corrections for dipol
 direction  3 min pos     1,
 dipolmoment           0.000000      0.000000     -0.322412 electrons x Angstroem
 Tr[quadrupol]     -5226.479120

 energy correction for charged system         0.000000 eV
 dipol+quadrupol energy correction           -0.003717 eV
 added-field ion interaction          0.054415 eV  (added to PSCEN)


 Broyden mixing:
  rms(total) = 0.93890E-04    rms(broyden)= 0.93889E-04
  rms(prec ) = 0.97437E-04
  weight for this iteration     100.00

 eigenvalues of (default mixing * dielectric matrix)
  average eigenvalue GAMMA=   1.2120
  4.9472  2.4709  2.0200  1.6309  1.6309  1.2300  1.2300  0.9208  0.9208  0.6132
  0.6132  0.6506  0.6506  0.5963  0.5415  0.4868  0.3752  0.2863

 Free energy of the ion-electron system (eV)
  ---------------------------------------------------
  alpha Z        PSCENC =       109.51306192
  Ewald energy   TEWEN  =     24274.18055228
  -Hartree energ DENC   =    -35049.63628093
  -exchange      EXHF   =         0.00000000
  -V(xc)+E(xc)   XCENC  =       348.49825142
  PAW double counting   =     15016.41591525   -14868.56914966
  entropy T*S    EENTRO =        -0.00026626
  eigenvalues    EBANDS =     -2049.24873554
  atomic energy  EATOM  =     12060.75887678
  Solvation  Ediel_sol  =         0.00000000
  ---------------------------------------------------
  free energy    TOTEN  =      -158.08777473 eV

  energy without entropy =     -158.08750846  energy(sigma->0) =     -158.08764160


--------------------------------------------------------------------------------------------------------




--------------------------------------- Iteration      4(  20)  ---------------------------------------


    POTLOK:  cpu time      0.5980: real time      2.9926
    SETDIJ:  cpu time      0.2545: real time      1.2794
     EDDAV:  cpu time    162.4842: real time    815.3610
       DOS:  cpu time      0.1476: real time      0.7401
    CHARGE:  cpu time      5.0445: real time     25.3088
    MIXING:  cpu time      0.1645: real time      0.8211
    --------------------------------------------
      LOOP:  cpu time    168.6934: real time    846.5030

 eigenvalue-minimisations  :  3416
 total energy-change (2. order) :-0.1314129E-04  (-0.4579323E-07)
 number of electron     216.9999995 magnetization      24.9999998
 augmentation part       -1.9818544 magnetization      16.7865440

 DIPCOR: dipole corrections for dipol
 direction  3 min pos     1,
 dipolmoment           0.000000      0.000000     -0.322491 electrons x Angstroem
 Tr[quadrupol]     -5226.479634

 energy correction for charged system         0.000000 eV
 dipol+quadrupol energy correction           -0.003718 eV
 added-field ion interaction          0.054428 eV  (added to PSCEN)


 Broyden mixing:
  rms(total) = 0.61468E-04    rms(broyden)= 0.61466E-04
  rms(prec ) = 0.65040E-04
  weight for this iteration     100.00

 eigenvalues of (default mixing * dielectric matrix)
  average eigenvalue GAMMA=   1.2197
  5.4409  2.4285  2.0570  1.6444  1.6444  1.3054  1.3054  1.0046  1.0046  0.6762
  0.6762  0.6301  0.6301  0.5415  0.5415  0.4813  0.5415  0.3402  0.2814

 Free energy of the ion-electron system (eV)
  ---------------------------------------------------
  alpha Z        PSCENC =       109.51307344
  Ewald energy   TEWEN  =     24274.18055228
  -Hartree energ DENC   =    -35049.63994772
  -exchange      EXHF   =         0.00000000
  -V(xc)+E(xc)   XCENC  =       348.49823784
  PAW double counting   =     15016.41942221   -14868.57259686
  entropy T*S    EENTRO =        -0.00026624
  eigenvalues    EBANDS =     -2049.24513962
  atomic energy  EATOM  =     12060.75887678
  Solvation  Ediel_sol  =         0.00000000
  ---------------------------------------------------
  free energy    TOTEN  =      -158.08778787 eV

  energy without entropy =     -158.08752163  energy(sigma->0) =     -158.08765475


--------------------------------------------------------------------------------------------------------




--------------------------------------- Iteration      4(  21)  ---------------------------------------


    POTLOK:  cpu time      0.5905: real time      2.9722
    SETDIJ:  cpu time      0.2490: real time      1.2578
     EDDAV:  cpu time    159.8039: real time    801.8950
       DOS:  cpu time      0.1395: real time      0.7000
    CHARGE:  cpu time      5.1039: real time     25.6070
    MIXING:  cpu time      0.2202: real time      1.1009
    --------------------------------------------
      LOOP:  cpu time    166.1071: real time    833.5330

 eigenvalue-minimisations  :  3144
 total energy-change (2. order) :-0.5339782E-05  (-0.3031145E-07)
 number of electron     216.9999995 magnetization      24.9999998
 augmentation part       -1.9818843 magnetization      16.7865286

 DIPCOR: dipole corrections for dipol
 direction  3 min pos     1,
 dipolmoment           0.000000      0.000000     -0.322561 electrons x Angstroem
 Tr[quadrupol]     -5226.480004

 energy correction for charged system         0.000000 eV
 dipol+quadrupol energy correction           -0.003720 eV
 added-field ion interaction          0.054440 eV  (added to PSCEN)


 Broyden mixing:
  rms(total) = 0.50193E-04    rms(broyden)= 0.50192E-04
  rms(prec ) = 0.53262E-04
  weight for this iteration     100.00

 eigenvalues of (default mixing * dielectric matrix)
  average eigenvalue GAMMA=   1.2539
  6.0759  2.3692  2.1238  1.7382  1.7382  1.2198  1.2198  1.2311  1.2311  0.8220
  0.6624  0.6624  0.6799  0.5300  0.5300  0.5841  0.5663  0.4829  0.3305  0.2795

 Free energy of the ion-electron system (eV)
  ---------------------------------------------------
  alpha Z        PSCENC =       109.51308366
  Ewald energy   TEWEN  =     24274.18055228
  -Hartree energ DENC   =    -35049.64234370
  -exchange      EXHF   =         0.00000000
  -V(xc)+E(xc)   XCENC  =       348.49823885
  PAW double counting   =     15016.42128956   -14868.57449082
  entropy T*S    EENTRO =        -0.00026626
  eigenvalues    EBANDS =     -2049.24273357
  atomic energy  EATOM  =     12060.75887678
  Solvation  Ediel_sol  =         0.00000000
  ---------------------------------------------------
  free energy    TOTEN  =      -158.08779321 eV

  energy without entropy =     -158.08752695  energy(sigma->0) =     -158.08766008


--------------------------------------------------------------------------------------------------------




--------------------------------------- Iteration      4(  22)  ---------------------------------------


    POTLOK:  cpu time      0.5696: real time      2.8595
    SETDIJ:  cpu time      0.2526: real time      1.2775
     EDDAV:  cpu time    161.2220: real time    809.0460
       DOS:  cpu time      0.1355: real time      0.6800
    CHARGE:  cpu time      5.8214: real time     29.2163
    MIXING:  cpu time      0.2308: real time      1.1586
    --------------------------------------------
      LOOP:  cpu time    168.2319: real time    844.2380

 eigenvalue-minimisations  :  3352
 total energy-change (2. order) :-0.4092981E-05  (-0.2483972E-07)
 number of electron     216.9999995 magnetization      24.9999998
 augmentation part       -1.9818630 magnetization      16.7865416

 DIPCOR: dipole corrections for dipol
 direction  3 min pos     1,
 dipolmoment           0.000000      0.000000     -0.322652 electrons x Angstroem
 Tr[quadrupol]     -5226.480440

 energy correction for charged system         0.000000 eV
 dipol+quadrupol energy correction           -0.003722 eV
 added-field ion interaction          0.054455 eV  (added to PSCEN)


 Broyden mixing:
  rms(total) = 0.41315E-04    rms(broyden)= 0.41314E-04
  rms(prec ) = 0.43552E-04
  weight for this iteration     100.00

 eigenvalues of (default mixing * dielectric matrix)
  average eigenvalue GAMMA=   1.2759
  6.6345  2.4006  2.4006  1.7516  1.6874  1.6874  1.2294  1.2294  0.9749  0.9749
  0.6458  0.6458  0.6802  0.6385  0.5690  0.5690  0.4961  0.4961  0.4819  0.3221
  0.2779

 Free energy of the ion-electron system (eV)
  ---------------------------------------------------
  alpha Z        PSCENC =       109.51309687
  Ewald energy   TEWEN  =     24274.18055228
  -Hartree energ DENC   =    -35049.64491584
  -exchange      EXHF   =         0.00000000
  -V(xc)+E(xc)   XCENC  =       348.49823101
  PAW double counting   =     15016.42427157   -14868.57743836
  entropy T*S    EENTRO =        -0.00026624
  eigenvalues    EBANDS =     -2049.24020537
  atomic energy  EATOM  =     12060.75887678
  Solvation  Ediel_sol  =         0.00000000
  ---------------------------------------------------
  free energy    TOTEN  =      -158.08779730 eV

  energy without entropy =     -158.08753106  energy(sigma->0) =     -158.08766418


--------------------------------------------------------------------------------------------------------




--------------------------------------- Iteration      4(  23)  ---------------------------------------


    POTLOK:  cpu time      0.6110: real time      3.0645
    SETDIJ:  cpu time      0.2723: real time      1.3735
     EDDAV:  cpu time    157.2933: real time    789.2960
       DOS:  cpu time      0.1954: real time      0.9800
    CHARGE:  cpu time      4.7941: real time     24.0604
    MIXING:  cpu time      0.1859: real time      0.9386
    --------------------------------------------
      LOOP:  cpu time    163.3521: real time    819.7130

 eigenvalue-minimisations  :  3024
 total energy-change (2. order) :-0.1364562E-05  (-0.1508851E-07)
 number of electron     216.9999995 magnetization      24.9999998
 augmentation part       -1.9818789 magnetization      16.7865324

 DIPCOR: dipole corrections for dipol
 direction  3 min pos     1,
 dipolmoment           0.000000      0.000000     -0.322707 electrons x Angstroem
 Tr[quadrupol]     -5226.480672

 energy correction for charged system         0.000000 eV
 dipol+quadrupol energy correction           -0.003723 eV
 added-field ion interaction          0.054465 eV  (added to PSCEN)


 Broyden mixing:
  rms(total) = 0.28692E-04    rms(broyden)= 0.28691E-04
  rms(prec ) = 0.30818E-04
  weight for this iteration     100.00

 eigenvalues of (default mixing * dielectric matrix)
  average eigenvalue GAMMA=   1.2698
  6.9086  2.4777  2.4777  1.8130  1.6386  1.6386  1.2515  1.2515  0.9809  0.9809
  0.8336  0.6735  0.6331  0.6331  0.5629  0.5629  0.5887  0.5120  0.4832  0.4385
  0.3177  0.2770

 Free energy of the ion-electron system (eV)
  ---------------------------------------------------
  alpha Z        PSCENC =       109.51310501
  Ewald energy   TEWEN  =     24274.18055228
  -Hartree energ DENC   =    -35049.64621077
  -exchange      EXHF   =         0.00000000
  -V(xc)+E(xc)   XCENC  =       348.49823347
  PAW double counting   =     15016.42525755   -14868.57843793
  entropy T*S    EENTRO =        -0.00026625
  eigenvalues    EBANDS =     -2049.23890880
  atomic energy  EATOM  =     12060.75887678
  Solvation  Ediel_sol  =         0.00000000
  ---------------------------------------------------
  free energy    TOTEN  =      -158.08779867 eV

  energy without entropy =     -158.08753242  energy(sigma->0) =     -158.08766554


--------------------------------------------------------------------------------------------------------




--------------------------------------- Iteration      4(  24)  ---------------------------------------


    POTLOK:  cpu time      0.5709: real time      2.8520
    SETDIJ:  cpu time      0.2492: real time      1.2580
     EDDAV:  cpu time    154.1881: real time    773.7300
       DOS:  cpu time      0.1714: real time      0.8600
    --------------------------------------------
      LOOP:  cpu time    155.1796: real time    778.7000

 eigenvalue-minimisations  :  2984
 total energy-change (2. order) :-0.6799528E-06  (-0.8934517E-08)
 number of electron     216.9999995 magnetization      24.9999998
 augmentation part       -1.9818789 magnetization      16.7865324

 DIPCOR: dipole corrections for dipol
 direction  3 min pos     1,
 dipolmoment           0.000000      0.000000     -0.322752 electrons x Angstroem
 Tr[quadrupol]     -5226.480833

 energy correction for charged system         0.000000 eV
 dipol+quadrupol energy correction           -0.003724 eV
 added-field ion interaction          0.054472 eV  (added to PSCEN)


 Free energy of the ion-electron system (eV)
  ---------------------------------------------------
  alpha Z        PSCENC =       109.51311153
  Ewald energy   TEWEN  =     24274.18055228
  -Hartree energ DENC   =    -35049.64703122
  -exchange      EXHF   =         0.00000000
  -V(xc)+E(xc)   XCENC  =       348.49823776
  PAW double counting   =     15016.42468087   -14868.57785686
  entropy T*S    EENTRO =        -0.00026623
  eigenvalues    EBANDS =     -2049.23810426
  atomic energy  EATOM  =     12060.75887678
  Solvation  Ediel_sol  =         0.00000000
  ---------------------------------------------------
  free energy    TOTEN  =      -158.08779935 eV

  energy without entropy =     -158.08753311  energy(sigma->0) =     -158.08766623


--------------------------------------------------------------------------------------------------------




 average (electrostatic) potential at core
  the test charge radii are     1.1394  0.9406  0.5201
  (the norm of the test charge is              1.0000)
       1 -52.7023       2 -52.0021       3 -52.0021       4 -52.6955       5 -52.6955
       6 -52.7227       7 -52.7227       8 -52.7023       9 -99.1359      10 -98.8376
      11 -99.1490      12 -99.1806      13 -99.1421      14 -99.0226      15 -99.1490
      16 -99.1400      17 -99.0673      18 -99.0226      19-100.9236      20 -99.0863
      21 -99.0673      22 -99.1429      23 -99.1511      24 -99.0863      25 -99.1421
      26 -99.1413      27 -99.1511      28 -99.1400      29 -99.1359      30 -99.1413
      31 -99.1612      32 -99.1806      33 -44.1966
 
 
 
 E-fermi :  -2.6920     XC(G=0):  -2.9789     alpha+bet : -2.3927

 val. band max:       -2.7964282178   @ k =   0.4000   0.2000   0.0000
 cond. band min:      -2.5889023670   @ k =  -0.2000  -0.4000   0.0000
 fundamental gap:      0.2075258508
 Fermi energy:        -2.6920344108

 spin component 1

 k-point     1 :       0.0000    0.0000    0.0000
  band No.  band energies     occupation 
      1     -21.0980      1.00000
      2     -19.4242      1.00000
      3     -19.1304      1.00000
      4     -19.1006      1.00000
      5     -19.0142      1.00000
      6     -18.8653      1.00000
      7     -18.8230      1.00000
      8     -18.7392      1.00000
      9     -18.6372      1.00000
     10     -18.5508      1.00000
     11     -18.5431      1.00000
     12     -18.5259      1.00000
     13     -18.5252      1.00000
     14     -18.5075      1.00000
     15     -18.4941      1.00000
     16     -18.4692      1.00000
     17     -18.4674      1.00000
     18     -18.4528      1.00000
     19     -18.4328      1.00000
     20     -18.4229      1.00000
     21     -18.4055      1.00000
     22     -18.3950      1.00000
     23     -18.3657      1.00000
     24     -18.2637      1.00000
     25     -11.7755      1.00000
     26      -9.2032      1.00000
     27      -9.1793      1.00000
     28      -9.1694      1.00000
     29      -9.1244      1.00000
     30      -8.7318      1.00000
     31      -8.6322      1.00000
     32      -8.5924      1.00000
     33      -8.4779      1.00000
     34      -8.4731      1.00000
     35      -8.4511      1.00000
     36      -8.3433      1.00000
     37      -8.3249      1.00000
     38      -8.3172      1.00000
     39      -8.2870      1.00000
     40      -8.2485      1.00000
     41      -8.2427      1.00000
     42      -8.1990      1.00000
     43      -8.1947      1.00000
     44      -8.1241      1.00000
     45      -8.0851      1.00000
     46      -8.0556      1.00000
     47      -8.0437      1.00000
     48      -8.0279      1.00000
     49      -7.9871      1.00000
     50      -7.9540      1.00000
     51      -7.9516      1.00000
     52      -7.8442      1.00000
     53      -7.8331      1.00000
     54      -7.7450      1.00000
     55      -7.6492      1.00000
     56      -7.5451      1.00000
     57      -7.4489      1.00000
     58      -7.4420      1.00000
     59      -7.4142      1.00000
     60      -7.3368      1.00000
     61      -7.3139      1.00000
     62      -7.2744      1.00000
     63      -7.2439      1.00000
     64      -7.2365      1.00000
     65      -7.2306      1.00000
     66      -7.0562      1.00000
     67      -7.0411      1.00000
     68      -7.0119      1.00000
     69      -7.0037      1.00000
     70      -6.9075      1.00000
     71      -6.8994      1.00000
     72      -6.8510      1.00000
     73      -6.8407      1.00000
     74      -6.5540      1.00000
     75      -6.5498      1.00000
     76      -6.4434      1.00000
     77      -6.3333      1.00000
     78      -6.3184      1.00000
     79      -6.2382      1.00000
     80      -6.2287      1.00000
     81      -6.1158      1.00000
     82      -6.1014      1.00000
     83      -6.0330      1.00000
     84      -6.0073      1.00000
     85      -6.0033      1.00000
     86      -5.9604      1.00000
     87      -5.8872      1.00000
     88      -5.8563      1.00000
     89      -5.7711      1.00000
     90      -5.7266      1.00000
     91      -5.6688      1.00000
     92      -5.6503      1.00000
     93      -5.5667      1.00000
     94      -5.5554      1.00000
     95      -5.5433      1.00000
     96      -5.4998      1.00000
     97      -4.9961      1.00000
     98      -4.9864      1.00000
     99      -4.9819      1.00000
    100      -4.9445      1.00000
    101      -4.7566      1.00000
    102      -4.7383      1.00000
    103      -4.6762      1.00000
    104      -4.6742      1.00000
    105      -4.6392      1.00000
    106      -4.6074      1.00000
    107      -4.5736      1.00000
    108      -4.5511      1.00000
    109      -4.5239      1.00000
    110      -4.4580      1.00000
    111      -4.4405      1.00000
    112      -4.3871      1.00000
    113      -4.3594      1.00000
    114      -4.3065      1.00000
    115      -4.2569      1.00000
    116      -4.2084      1.00000
    117      -4.1505      1.00000
    118      -4.1005      1.00000
    119      -4.0141      1.00000
    120      -3.8533      1.00000
    121      -2.8059      0.99936
    122      -2.5752      0.00047
    123      -2.4396      0.00000
    124      -2.4347      0.00000
    125      -2.4275      0.00000
    126      -2.4063      0.00000
    127      -2.3934      0.00000
    128      -2.3543      0.00000
    129      -2.3517      0.00000
    130      -2.3128      0.00000
    131      -2.2990      0.00000
    132      -2.2960      0.00000
    133      -2.2478      0.00000
    134      -2.2262      0.00000
    135      -2.1459      0.00000
    136      -2.0172      0.00000
    137       0.1153      0.00000
    138       1.4894      0.00000
    139       1.9578      0.00000
    140       2.4285      0.00000
    141       2.5536      0.00000
    142       2.6333      0.00000
    143       2.7915      0.00000
    144       2.8012      0.00000

 k-point     2 :       0.2000    0.0000    0.0000
  band No.  band energies     occupation 
      1     -21.0979      1.00000
      2     -19.4064      1.00000
      3     -19.1711      1.00000
      4     -19.1352      1.00000
      5     -18.9739      1.00000
      6     -18.8513      1.00000
      7     -18.8175      1.00000
      8     -18.7087      1.00000
      9     -18.6306      1.00000
     10     -18.5640      1.00000
     11     -18.5512      1.00000
     12     -18.5437      1.00000
     13     -18.5276      1.00000
     14     -18.5235      1.00000
     15     -18.4888      1.00000
     16     -18.4637      1.00000
     17     -18.4593      1.00000
     18     -18.4536      1.00000
     19     -18.4254      1.00000
     20     -18.4238      1.00000
     21     -18.4042      1.00000
     22     -18.3952      1.00000
     23     -18.3718      1.00000
     24     -18.2656      1.00000
     25     -11.7756      1.00000
     26      -9.1698      1.00000
     27      -9.1608      1.00000
     28      -9.1525      1.00000
     29      -9.0996      1.00000
     30      -8.7273      1.00000
     31      -8.6621      1.00000
     32      -8.6137      1.00000
     33      -8.5096      1.00000
     34      -8.4860      1.00000
     35      -8.4603      1.00000
     36      -8.3608      1.00000
     37      -8.3292      1.00000
     38      -8.3058      1.00000
     39      -8.2642      1.00000
     40      -8.2554      1.00000
     41      -8.2381      1.00000
     42      -8.2141      1.00000
     43      -8.1841      1.00000
     44      -8.1369      1.00000
     45      -8.1048      1.00000
     46      -8.0894      1.00000
     47      -8.0697      1.00000
     48      -8.0124      1.00000
     49      -7.9724      1.00000
     50      -7.9501      1.00000
     51      -7.9376      1.00000
     52      -7.8512      1.00000
     53      -7.8386      1.00000
     54      -7.7630      1.00000
     55      -7.6883      1.00000
     56      -7.6591      1.00000
     57      -7.5732      1.00000
     58      -7.5071      1.00000
     59      -7.4341      1.00000
     60      -7.4119      1.00000
     61      -7.3080      1.00000
     62      -7.2299      1.00000
     63      -7.1644      1.00000
     64      -7.1202      1.00000
     65      -7.0693      1.00000
     66      -7.0491      1.00000
     67      -7.0296      1.00000
     68      -6.9867      1.00000
     69      -6.9705      1.00000
     70      -6.8273      1.00000
     71      -6.7892      1.00000
     72      -6.7483      1.00000
     73      -6.7228      1.00000
     74      -6.5576      1.00000
     75      -6.5443      1.00000
     76      -6.4617      1.00000
     77      -6.3781      1.00000
     78      -6.3294      1.00000
     79      -6.2833      1.00000
     80      -6.2302      1.00000
     81      -6.1666      1.00000
     82      -6.0989      1.00000
     83      -6.0622      1.00000
     84      -6.0309      1.00000
     85      -5.9955      1.00000
     86      -5.9678      1.00000
     87      -5.9028      1.00000
     88      -5.8253      1.00000
     89      -5.7824      1.00000
     90      -5.7498      1.00000
     91      -5.7364      1.00000
     92      -5.6761      1.00000
     93      -5.6693      1.00000
     94      -5.6230      1.00000
     95      -5.5845      1.00000
     96      -5.5359      1.00000
     97      -4.9743      1.00000
     98      -4.9516      1.00000
     99      -4.9428      1.00000
    100      -4.9071      1.00000
    101      -4.7530      1.00000
    102      -4.7155      1.00000
    103      -4.6755      1.00000
    104      -4.6598      1.00000
    105      -4.6377      1.00000
    106      -4.6171      1.00000
    107      -4.5591      1.00000
    108      -4.5297      1.00000
    109      -4.5126      1.00000
    110      -4.4460      1.00000
    111      -4.4385      1.00000
    112      -4.3919      1.00000
    113      -4.3669      1.00000
    114      -4.3060      1.00000
    115      -4.2663      1.00000
    116      -4.2109      1.00000
    117      -4.1545      1.00000
    118      -4.1072      1.00000
    119      -4.0031      1.00000
    120      -3.8616      1.00000
    121      -2.8025      0.99911
    122      -2.5785      0.00066
    123      -2.4379      0.00000
    124      -2.4314      0.00000
    125      -2.4187      0.00000
    126      -2.4046      0.00000
    127      -2.3985      0.00000
    128      -2.3875      0.00000
    129      -2.3318      0.00000
    130      -2.3211      0.00000
    131      -2.2940      0.00000
    132      -2.2859      0.00000
    133      -2.2483      0.00000
    134      -2.2280      0.00000
    135      -2.1473      0.00000
    136      -2.0213      0.00000
    137       0.1198      0.00000
    138       1.5629      0.00000
    139       2.0169      0.00000
    140       2.4058      0.00000
    141       2.4932      0.00000
    142       2.5500      0.00000
    143       2.6223      0.00000
    144       2.7266      0.00000

 k-point     3 :       0.0000    0.2000    0.0000
  band No.  band energies     occupation 
      1     -21.0980      1.00000
      2     -19.4073      1.00000
      3     -19.1718      1.00000
      4     -19.1054      1.00000
      5     -19.0319      1.00000
      6     -18.8364      1.00000
      7     -18.7869      1.00000
      8     -18.7200      1.00000
      9     -18.6299      1.00000
     10     -18.5604      1.00000
     11     -18.5529      1.00000
     12     -18.5438      1.00000
     13     -18.5298      1.00000
     14     -18.5135      1.00000
     15     -18.4979      1.00000
     16     -18.4824      1.00000
     17     -18.4583      1.00000
     18     -18.4417      1.00000
     19     -18.4289      1.00000
     20     -18.4220      1.00000
     21     -18.4049      1.00000
     22     -18.3965      1.00000
     23     -18.3692      1.00000
     24     -18.2642      1.00000
     25     -11.7755      1.00000
     26      -9.1936      1.00000
     27      -9.1692      1.00000
     28      -9.1353      1.00000
     29      -9.0835      1.00000
     30      -8.7285      1.00000
     31      -8.6533      1.00000
     32      -8.6219      1.00000
     33      -8.5173      1.00000
     34      -8.4691      1.00000
     35      -8.4499      1.00000
     36      -8.3464      1.00000
     37      -8.3320      1.00000
     38      -8.3147      1.00000
     39      -8.2929      1.00000
     40      -8.2608      1.00000
     41      -8.2361      1.00000
     42      -8.2178      1.00000
     43      -8.1706      1.00000
     44      -8.1566      1.00000
     45      -8.1243      1.00000
     46      -8.0933      1.00000
     47      -8.0433      1.00000
     48      -8.0003      1.00000
     49      -7.9847      1.00000
     50      -7.9397      1.00000
     51      -7.9290      1.00000
     52      -7.8475      1.00000
     53      -7.8349      1.00000
     54      -7.7496      1.00000
     55      -7.6820      1.00000
     56      -7.6256      1.00000
     57      -7.5990      1.00000
     58      -7.5599      1.00000
     59      -7.4533      1.00000
     60      -7.3949      1.00000
     61      -7.3076      1.00000
     62      -7.1979      1.00000
     63      -7.1845      1.00000
     64      -7.1391      1.00000
     65      -7.1022      1.00000
     66      -7.0666      1.00000
     67      -7.0238      1.00000
     68      -6.9812      1.00000
     69      -6.9207      1.00000
     70      -6.8455      1.00000
     71      -6.7580      1.00000
     72      -6.7319      1.00000
     73      -6.7011      1.00000
     74      -6.5687      1.00000
     75      -6.5498      1.00000
     76      -6.4531      1.00000
     77      -6.3685      1.00000
     78      -6.3310      1.00000
     79      -6.2909      1.00000
     80      -6.2590      1.00000
     81      -6.1397      1.00000
     82      -6.1050      1.00000
     83      -6.0559      1.00000
     84      -6.0239      1.00000
     85      -6.0054      1.00000
     86      -5.9791      1.00000
     87      -5.9268      1.00000
     88      -5.8450      1.00000
     89      -5.7703      1.00000
     90      -5.7390      1.00000
     91      -5.7064      1.00000
     92      -5.6770      1.00000
     93      -5.6726      1.00000
     94      -5.6515      1.00000
     95      -5.5822      1.00000
     96      -5.5422      1.00000
     97      -4.9758      1.00000
     98      -4.9517      1.00000
     99      -4.9263      1.00000
    100      -4.9171      1.00000
    101      -4.7472      1.00000
    102      -4.7256      1.00000
    103      -4.6756      1.00000
    104      -4.6639      1.00000
    105      -4.6256      1.00000
    106      -4.5917      1.00000
    107      -4.5769      1.00000
    108      -4.5234      1.00000
    109      -4.5175      1.00000
    110      -4.4467      1.00000
    111      -4.4378      1.00000
    112      -4.3886      1.00000
    113      -4.3601      1.00000
    114      -4.3147      1.00000
    115      -4.2621      1.00000
    116      -4.2143      1.00000
    117      -4.1572      1.00000
    118      -4.1081      1.00000
    119      -4.0099      1.00000
    120      -3.8573      1.00000
    121      -2.8036      0.99920
    122      -2.5784      0.00066
    123      -2.4407      0.00000
    124      -2.4290      0.00000
    125      -2.4218      0.00000
    126      -2.4092      0.00000
    127      -2.3868      0.00000
    128      -2.3732      0.00000
    129      -2.3443      0.00000
    130      -2.3340      0.00000
    131      -2.2870      0.00000
    132      -2.2742      0.00000
    133      -2.2480      0.00000
    134      -2.2255      0.00000
    135      -2.1671      0.00000
    136      -2.0150      0.00000
    137       0.1203      0.00000
    138       1.5632      0.00000
    139       2.0178      0.00000
    140       2.4115      0.00000
    141       2.4940      0.00000
    142       2.5255      0.00000
    143       2.6877      0.00000
    144       2.7060      0.00000

 k-point     4 :       0.4000    0.0000    0.0000
  band No.  band energies     occupation 
      1     -21.0979      1.00000
      2     -19.3567      1.00000
      3     -19.2662      1.00000
      4     -19.1437      1.00000
      5     -18.9543      1.00000
      6     -18.8275      1.00000
      7     -18.7939      1.00000
      8     -18.6478      1.00000
      9     -18.6127      1.00000
     10     -18.5880      1.00000
     11     -18.5847      1.00000
     12     -18.5801      1.00000
     13     -18.5385      1.00000
     14     -18.5161      1.00000
     15     -18.5013      1.00000
     16     -18.4587      1.00000
     17     -18.4493      1.00000
     18     -18.4403      1.00000
     19     -18.4301      1.00000
     20     -18.4178      1.00000
     21     -18.4026      1.00000
     22     -18.3955      1.00000
     23     -18.3823      1.00000
     24     -18.2684      1.00000
     25     -11.7759      1.00000
     26      -9.1604      1.00000
     27      -9.1433      1.00000
     28      -9.0685      1.00000
     29      -9.0052      1.00000
     30      -8.7300      1.00000
     31      -8.7090      1.00000
     32      -8.6848      1.00000
     33      -8.5888      1.00000
     34      -8.5084      1.00000
     35      -8.4760      1.00000
     36      -8.3893      1.00000
     37      -8.3192      1.00000
     38      -8.2949      1.00000
     39      -8.2641      1.00000
     40      -8.2560      1.00000
     41      -8.2375      1.00000
     42      -8.2223      1.00000
     43      -8.1978      1.00000
     44      -8.1628      1.00000
     45      -8.1323      1.00000
     46      -8.1071      1.00000
     47      -8.0322      1.00000
     48      -8.0007      1.00000
     49      -7.9813      1.00000
     50      -7.9348      1.00000
     51      -7.9125      1.00000
     52      -7.8715      1.00000
     53      -7.8449      1.00000
     54      -7.7998      1.00000
     55      -7.7533      1.00000
     56      -7.7474      1.00000
     57      -7.6556      1.00000
     58      -7.5943      1.00000
     59      -7.5320      1.00000
     60      -7.4359      1.00000
     61      -7.2388      1.00000
     62      -7.1351      1.00000
     63      -7.0982      1.00000
     64      -7.0827      1.00000
     65      -7.0590      1.00000
     66      -7.0252      1.00000
     67      -6.9648      1.00000
     68      -6.8842      1.00000
     69      -6.8158      1.00000
     70      -6.7321      1.00000
     71      -6.6547      1.00000
     72      -6.6105      1.00000
     73      -6.5789      1.00000
     74      -6.5147      1.00000
     75      -6.4760      1.00000
     76      -6.4599      1.00000
     77      -6.3477      1.00000
     78      -6.3237      1.00000
     79      -6.3133      1.00000
     80      -6.2535      1.00000
     81      -6.2122      1.00000
     82      -6.1683      1.00000
     83      -6.1241      1.00000
     84      -6.0727      1.00000
     85      -6.0519      1.00000
     86      -5.9982      1.00000
     87      -5.9703      1.00000
     88      -5.9517      1.00000
     89      -5.8412      1.00000
     90      -5.8162      1.00000
     91      -5.8083      1.00000
     92      -5.7672      1.00000
     93      -5.7126      1.00000
     94      -5.6465      1.00000
     95      -5.6306      1.00000
     96      -5.5885      1.00000
     97      -4.9277      1.00000
     98      -4.9082      1.00000
     99      -4.8866      1.00000
    100      -4.8522      1.00000
    101      -4.7652      1.00000
    102      -4.6847      1.00000
    103      -4.6702      1.00000
    104      -4.6481      1.00000
    105      -4.6372      1.00000
    106      -4.6276      1.00000
    107      -4.5196      1.00000
    108      -4.4981      1.00000
    109      -4.4863      1.00000
    110      -4.4406      1.00000
    111      -4.4278      1.00000
    112      -4.4002      1.00000
    113      -4.3824      1.00000
    114      -4.3075      1.00000
    115      -4.2806      1.00000
    116      -4.2161      1.00000
    117      -4.1592      1.00000
    118      -4.1204      1.00000
    119      -3.9845      1.00000
    120      -3.8776      1.00000
    121      -2.7966      0.99845
    122      -2.5827      0.00100
    123      -2.4397      0.00000
    124      -2.4300      0.00000
    125      -2.4124      0.00000
    126      -2.4021      0.00000
    127      -2.3965      0.00000
    128      -2.3879      0.00000
    129      -2.3576      0.00000
    130      -2.3301      0.00000
    131      -2.3285      0.00000
    132      -2.2522      0.00000
    133      -2.2454      0.00000
    134      -2.2080      0.00000
    135      -2.1540      0.00000
    136      -2.0197      0.00000
    137       0.1265      0.00000
    138       1.7616      0.00000
    139       2.0693      0.00000
    140       2.1833      0.00000
    141       2.4429      0.00000
    142       2.4540      0.00000
    143       2.6393      0.00000
    144       2.6535      0.00000

 k-point     5 :       0.0000    0.4000    0.0000
  band No.  band energies     occupation 
      1     -21.0979      1.00000
      2     -19.3642      1.00000
      3     -19.2486      1.00000
      4     -19.1136      1.00000
      5     -19.0452      1.00000
      6     -18.8060      1.00000
      7     -18.7374      1.00000
      8     -18.6595      1.00000
      9     -18.6108      1.00000
     10     -18.5925      1.00000
     11     -18.5757      1.00000
     12     -18.5660      1.00000
     13     -18.5353      1.00000
     14     -18.5314      1.00000
     15     -18.5173      1.00000
     16     -18.4918      1.00000
     17     -18.4442      1.00000
     18     -18.4324      1.00000
     19     -18.4211      1.00000
     20     -18.4171      1.00000
     21     -18.4057      1.00000
     22     -18.3984      1.00000
     23     -18.3775      1.00000
     24     -18.2649      1.00000
     25     -11.7757      1.00000
     26      -9.1924      1.00000
     27      -9.1619      1.00000
     28      -9.0258      1.00000
     29      -8.9829      1.00000
     30      -8.7348      1.00000
     31      -8.7229      1.00000
     32      -8.6900      1.00000
     33      -8.5829      1.00000
     34      -8.4701      1.00000
     35      -8.4469      1.00000
     36      -8.3565      1.00000
     37      -8.3449      1.00000
     38      -8.3136      1.00000
     39      -8.2928      1.00000
     40      -8.2722      1.00000
     41      -8.2570      1.00000
     42      -8.2444      1.00000
     43      -8.2180      1.00000
     44      -8.1931      1.00000
     45      -8.1360      1.00000
     46      -8.0601      1.00000
     47      -8.0170      1.00000
     48      -7.9947      1.00000
     49      -7.9567      1.00000
     50      -7.9381      1.00000
     51      -7.9077      1.00000
     52      -7.8748      1.00000
     53      -7.8049      1.00000
     54      -7.7804      1.00000
     55      -7.7564      1.00000
     56      -7.7416      1.00000
     57      -7.6748      1.00000
     58      -7.6398      1.00000
     59      -7.5619      1.00000
     60      -7.4014      1.00000
     61      -7.2883      1.00000
     62      -7.1248      1.00000
     63      -7.0977      1.00000
     64      -7.0868      1.00000
     65      -7.0497      1.00000
     66      -7.0359      1.00000
     67      -6.9880      1.00000
     68      -6.8725      1.00000
     69      -6.7998      1.00000
     70      -6.7204      1.00000
     71      -6.6603      1.00000
     72      -6.5926      1.00000
     73      -6.5322      1.00000
     74      -6.4985      1.00000
     75      -6.4543      1.00000
     76      -6.3962      1.00000
     77      -6.3720      1.00000
     78      -6.3543      1.00000
     79      -6.3127      1.00000
     80      -6.2991      1.00000
     81      -6.1892      1.00000
     82      -6.1408      1.00000
     83      -6.1114      1.00000
     84      -6.0793      1.00000
     85      -6.0511      1.00000
     86      -6.0381      1.00000
     87      -6.0067      1.00000
     88      -5.9430      1.00000
     89      -5.8888      1.00000
     90      -5.8355      1.00000
     91      -5.7900      1.00000
     92      -5.7422      1.00000
     93      -5.7152      1.00000
     94      -5.6861      1.00000
     95      -5.6319      1.00000
     96      -5.5817      1.00000
     97      -4.9232      1.00000
     98      -4.9077      1.00000
     99      -4.8840      1.00000
    100      -4.8581      1.00000
    101      -4.7226      1.00000
    102      -4.7058      1.00000
    103      -4.6823      1.00000
    104      -4.6540      1.00000
    105      -4.6104      1.00000
    106      -4.5818      1.00000
    107      -4.5682      1.00000
    108      -4.4969      1.00000
    109      -4.4828      1.00000
    110      -4.4375      1.00000
    111      -4.4190      1.00000
    112      -4.3879      1.00000
    113      -4.3618      1.00000
    114      -4.3365      1.00000
    115      -4.2748      1.00000
    116      -4.2241      1.00000
    117      -4.1681      1.00000
    118      -4.1211      1.00000
    119      -4.0017      1.00000
    120      -3.8647      1.00000
    121      -2.8002      0.99889
    122      -2.5856      0.00130
    123      -2.4397      0.00000
    124      -2.4258      0.00000
    125      -2.4168      0.00000
    126      -2.4059      0.00000
    127      -2.3852      0.00000
    128      -2.3721      0.00000
    129      -2.3622      0.00000
    130      -2.3407      0.00000
    131      -2.2991      0.00000
    132      -2.2528      0.00000
    133      -2.2335      0.00000
    134      -2.2306      0.00000
    135      -2.1860      0.00000
    136      -2.0079      0.00000
    137       0.1278      0.00000
    138       1.7613      0.00000
    139       2.0764      0.00000
    140       2.1850      0.00000
    141       2.4453      0.00000
    142       2.4510      0.00000
    143       2.6073      0.00000
    144       2.6837      0.00000

 k-point     6 :       0.2000    0.2000    0.0000
  band No.  band energies     occupation 
      1     -21.0979      1.00000
      2     -19.3739      1.00000
      3     -19.2302      1.00000
      4     -19.1511      1.00000
      5     -18.9671      1.00000
      6     -18.8612      1.00000
      7     -18.7433      1.00000
      8     -18.6778      1.00000
      9     -18.6177      1.00000
     10     -18.5871      1.00000
     11     -18.5685      1.00000
     12     -18.5582      1.00000
     13     -18.5422      1.00000
     14     -18.5263      1.00000
     15     -18.5023      1.00000
     16     -18.4704      1.00000
     17     -18.4526      1.00000
     18     -18.4363      1.00000
     19     -18.4295      1.00000
     20     -18.4163      1.00000
     21     -18.4035      1.00000
     22     -18.3963      1.00000
     23     -18.3785      1.00000
     24     -18.2665      1.00000
     25     -11.7758      1.00000
     26      -9.1704      1.00000
     27      -9.1473      1.00000
     28      -9.1032      1.00000
     29      -9.0018      1.00000
     30      -8.7273      1.00000
     31      -8.7041      1.00000
     32      -8.6609      1.00000
     33      -8.5591      1.00000
     34      -8.4899      1.00000
     35      -8.4800      1.00000
     36      -8.3702      1.00000
     37      -8.3260      1.00000
     38      -8.3019      1.00000
     39      -8.2887      1.00000
     40      -8.2666      1.00000
     41      -8.2420      1.00000
     42      -8.2187      1.00000
     43      -8.2044      1.00000
     44      -8.1631      1.00000
     45      -8.1412      1.00000
     46      -8.0917      1.00000
     47      -8.0386      1.00000
     48      -7.9948      1.00000
     49      -7.9588      1.00000
     50      -7.9337      1.00000
     51      -7.9162      1.00000
     52      -7.8626      1.00000
     53      -7.8388      1.00000
     54      -7.7821      1.00000
     55      -7.7643      1.00000
     56      -7.7102      1.00000
     57      -7.6685      1.00000
     58      -7.6491      1.00000
     59      -7.4499      1.00000
     60      -7.3763      1.00000
     61      -7.3306      1.00000
     62      -7.1762      1.00000
     63      -7.1435      1.00000
     64      -7.0863      1.00000
     65      -7.0566      1.00000
     66      -6.9748      1.00000
     67      -6.9369      1.00000
     68      -6.8720      1.00000
     69      -6.8446      1.00000
     70      -6.7791      1.00000
     71      -6.6838      1.00000
     72      -6.6379      1.00000
     73      -6.5733      1.00000
     74      -6.5260      1.00000
     75      -6.5192      1.00000
     76      -6.4582      1.00000
     77      -6.3831      1.00000
     78      -6.3341      1.00000
     79      -6.3159      1.00000
     80      -6.2787      1.00000
     81      -6.1977      1.00000
     82      -6.1477      1.00000
     83      -6.1232      1.00000
     84      -6.0563      1.00000
     85      -5.9979      1.00000
     86      -5.9746      1.00000
     87      -5.9491      1.00000
     88      -5.8922      1.00000
     89      -5.8535      1.00000
     90      -5.8048      1.00000
     91      -5.7639      1.00000
     92      -5.7383      1.00000
     93      -5.7106      1.00000
     94      -5.6722      1.00000
     95      -5.6656      1.00000
     96      -5.5908      1.00000
     97      -4.9311      1.00000
     98      -4.9100      1.00000
     99      -4.8945      1.00000
    100      -4.8688      1.00000
    101      -4.7460      1.00000
    102      -4.6929      1.00000
    103      -4.6812      1.00000
    104      -4.6560      1.00000
    105      -4.6176      1.00000
    106      -4.6052      1.00000
    107      -4.5593      1.00000
    108      -4.4968      1.00000
    109      -4.4926      1.00000
    110      -4.4416      1.00000
    111      -4.4269      1.00000
    112      -4.3935      1.00000
    113      -4.3728      1.00000
    114      -4.3149      1.00000
    115      -4.2768      1.00000
    116      -4.2177      1.00000
    117      -4.1618      1.00000
    118      -4.1177      1.00000
    119      -3.9947      1.00000
    120      -3.8693      1.00000
    121      -2.7993      0.99880
    122      -2.5838      0.00111
    123      -2.4366      0.00000
    124      -2.4278      0.00000
    125      -2.4160      0.00000
    126      -2.4090      0.00000
    127      -2.3920      0.00000
    128      -2.3833      0.00000
    129      -2.3596      0.00000
    130      -2.3368      0.00000
    131      -2.2890      0.00000
    132      -2.2724      0.00000
    133      -2.2409      0.00000
    134      -2.2189      0.00000
    135      -2.1618      0.00000
    136      -2.0153      0.00000
    137       0.1257      0.00000
    138       1.6992      0.00000
    139       2.1284      0.00000
    140       2.2542      0.00000
    141       2.2844      0.00000
    142       2.5983      0.00000
    143       2.6108      0.00000
    144       2.6533      0.00000

 k-point     7 :      -0.2000    0.4000    0.0000
  band No.  band energies     occupation 
      1     -21.0979      1.00000
      2     -19.3764      1.00000
      3     -19.2257      1.00000
      4     -19.1191      1.00000
      5     -19.0419      1.00000
      6     -18.8211      1.00000
      7     -18.7231      1.00000
      8     -18.6886      1.00000
      9     -18.6150      1.00000
     10     -18.5755      1.00000
     11     -18.5748      1.00000
     12     -18.5562      1.00000
     13     -18.5436      1.00000
     14     -18.5216      1.00000
     15     -18.5178      1.00000
     16     -18.4887      1.00000
     17     -18.4534      1.00000
     18     -18.4305      1.00000
     19     -18.4209      1.00000
     20     -18.4170      1.00000
     21     -18.4067      1.00000
     22     -18.4011      1.00000
     23     -18.3735      1.00000
     24     -18.2644      1.00000
     25     -11.7757      1.00000
     26      -9.1890      1.00000
     27      -9.1421      1.00000
     28      -9.1168      1.00000
     29      -8.9654      1.00000
     30      -8.7318      1.00000
     31      -8.6941      1.00000
     32      -8.6705      1.00000
     33      -8.5792      1.00000
     34      -8.4552      1.00000
     35      -8.4540      1.00000
     36      -8.3669      1.00000
     37      -8.3316      1.00000
     38      -8.3258      1.00000
     39      -8.2948      1.00000
     40      -8.2703      1.00000
     41      -8.2500      1.00000
     42      -8.2486      1.00000
     43      -8.2190      1.00000
     44      -8.1792      1.00000
     45      -8.1412      1.00000
     46      -8.0754      1.00000
     47      -7.9953      1.00000
     48      -7.9746      1.00000
     49      -7.9671      1.00000
     50      -7.9261      1.00000
     51      -7.9239      1.00000
     52      -7.8553      1.00000
     53      -7.8532      1.00000
     54      -7.7531      1.00000
     55      -7.7414      1.00000
     56      -7.7136      1.00000
     57      -7.6821      1.00000
     58      -7.6477      1.00000
     59      -7.4980      1.00000
     60      -7.4435      1.00000
     61      -7.2917      1.00000
     62      -7.1660      1.00000
     63      -7.1466      1.00000
     64      -7.1120      1.00000
     65      -7.0629      1.00000
     66      -6.9583      1.00000
     67      -6.8981      1.00000
     68      -6.8684      1.00000
     69      -6.8201      1.00000
     70      -6.8196      1.00000
     71      -6.6781      1.00000
     72      -6.6245      1.00000
     73      -6.5589      1.00000
     74      -6.5007      1.00000
     75      -6.4978      1.00000
     76      -6.4147      1.00000
     77      -6.4038      1.00000
     78      -6.3517      1.00000
     79      -6.3289      1.00000
     80      -6.3253      1.00000
     81      -6.1756      1.00000
     82      -6.1509      1.00000
     83      -6.0707      1.00000
     84      -6.0669      1.00000
     85      -6.0183      1.00000
     86      -5.9951      1.00000
     87      -5.9871      1.00000
     88      -5.8665      1.00000
     89      -5.8574      1.00000
     90      -5.8307      1.00000
     91      -5.7657      1.00000
     92      -5.7526      1.00000
     93      -5.7069      1.00000
     94      -5.6760      1.00000
     95      -5.6505      1.00000
     96      -5.5951      1.00000
     97      -4.9357      1.00000
     98      -4.9006      1.00000
     99      -4.8988      1.00000
    100      -4.8603      1.00000
    101      -4.7501      1.00000
    102      -4.7075      1.00000
    103      -4.6649      1.00000
    104      -4.6513      1.00000
    105      -4.6183      1.00000
    106      -4.5797      1.00000
    107      -4.5699      1.00000
    108      -4.5039      1.00000
    109      -4.4923      1.00000
    110      -4.4297      1.00000
    111      -4.4275      1.00000
    112      -4.3907      1.00000
    113      -4.3538      1.00000
    114      -4.3394      1.00000
    115      -4.2693      1.00000
    116      -4.2235      1.00000
    117      -4.1666      1.00000
    118      -4.1187      1.00000
    119      -4.0068      1.00000
    120      -3.8615      1.00000
    121      -2.8009      0.99896
    122      -2.5842      0.00115
    123      -2.4432      0.00000
    124      -2.4223      0.00000
    125      -2.4188      0.00000
    126      -2.4104      0.00000
    127      -2.3827      0.00000
    128      -2.3767      0.00000
    129      -2.3586      0.00000
    130      -2.3249      0.00000
    131      -2.3023      0.00000
    132      -2.2558      0.00000
    133      -2.2536      0.00000
    134      -2.2045      0.00000
    135      -2.1973      0.00000
    136      -2.0068      0.00000
    137       0.1264      0.00000
    138       1.7001      0.00000
    139       2.1316      0.00000
    140       2.2654      0.00000
    141       2.2732      0.00000
    142       2.6031      0.00000
    143       2.6101      0.00000
    144       2.6411      0.00000

 k-point     8 :       0.4000    0.2000    0.0000
  band No.  band energies     occupation 
      1     -21.0979      1.00000
      2     -19.3210      1.00000
      3     -19.2993      1.00000
      4     -19.1649      1.00000
      5     -18.9158      1.00000
      6     -18.8989      1.00000
      7     -18.7130      1.00000
      8     -18.6266      1.00000
      9     -18.6246      1.00000
     10     -18.5988      1.00000
     11     -18.5929      1.00000
     12     -18.5765      1.00000
     13     -18.5514      1.00000
     14     -18.5215      1.00000
     15     -18.5104      1.00000
     16     -18.4569      1.00000
     17     -18.4535      1.00000
     18     -18.4422      1.00000
     19     -18.4217      1.00000
     20     -18.4159      1.00000
     21     -18.4030      1.00000
     22     -18.3968      1.00000
     23     -18.3836      1.00000
     24     -18.2678      1.00000
     25     -11.7759      1.00000
     26      -9.1487      1.00000
     27      -9.1289      1.00000
     28      -9.1029      1.00000
     29      -8.8949      1.00000
     30      -8.7346      1.00000
     31      -8.7309      1.00000
     32      -8.7153      1.00000
     33      -8.6044      1.00000
     34      -8.5056      1.00000
     35      -8.4999      1.00000
     36      -8.3862      1.00000
     37      -8.3207      1.00000
     38      -8.2979      1.00000
     39      -8.2848      1.00000
     40      -8.2631      1.00000
     41      -8.2509      1.00000
     42      -8.2282      1.00000
     43      -8.2212      1.00000
     44      -8.1946      1.00000
     45      -8.1654      1.00000
     46      -8.0338      1.00000
     47      -8.0082      1.00000
     48      -7.9893      1.00000
     49      -7.9549      1.00000
     50      -7.9189      1.00000
     51      -7.9079      1.00000
     52      -7.8742      1.00000
     53      -7.8638      1.00000
     54      -7.8409      1.00000
     55      -7.7993      1.00000
     56      -7.7296      1.00000
     57      -7.6927      1.00000
     58      -7.5972      1.00000
     59      -7.5816      1.00000
     60      -7.3734      1.00000
     61      -7.3211      1.00000
     62      -7.1432      1.00000
     63      -7.1149      1.00000
     64      -7.0840      1.00000
     65      -7.0421      1.00000
     66      -6.9548      1.00000
     67      -6.8248      1.00000
     68      -6.8118      1.00000
     69      -6.7295      1.00000
     70      -6.7097      1.00000
     71      -6.6502      1.00000
     72      -6.6064      1.00000
     73      -6.5684      1.00000
     74      -6.5474      1.00000
     75      -6.4709      1.00000
     76      -6.4604      1.00000
     77      -6.3942      1.00000
     78      -6.3288      1.00000
     79      -6.2956      1.00000
     80      -6.2092      1.00000
     81      -6.2015      1.00000
     82      -6.1494      1.00000
     83      -6.1451      1.00000
     84      -6.1161      1.00000
     85      -6.1112      1.00000
     86      -5.9886      1.00000
     87      -5.9769      1.00000
     88      -5.9636      1.00000
     89      -5.8577      1.00000
     90      -5.8555      1.00000
     91      -5.8155      1.00000
     92      -5.7623      1.00000
     93      -5.7291      1.00000
     94      -5.7193      1.00000
     95      -5.6675      1.00000
     96      -5.6175      1.00000
     97      -4.9033      1.00000
     98      -4.8808      1.00000
     99      -4.8729      1.00000
    100      -4.8382      1.00000
    101      -4.7587      1.00000
    102      -4.6895      1.00000
    103      -4.6664      1.00000
    104      -4.6572      1.00000
    105      -4.6289      1.00000
    106      -4.5961      1.00000
    107      -4.5408      1.00000
    108      -4.4803      1.00000
    109      -4.4702      1.00000
    110      -4.4357      1.00000
    111      -4.4305      1.00000
    112      -4.3997      1.00000
    113      -4.3806      1.00000
    114      -4.3171      1.00000
    115      -4.2839      1.00000
    116      -4.2204      1.00000
    117      -4.1635      1.00000
    118      -4.1247      1.00000
    119      -3.9855      1.00000
    120      -3.8777      1.00000
    121      -2.7964      0.99842
    122      -2.5870      0.00148
    123      -2.4383      0.00000
    124      -2.4312      0.00000
    125      -2.4113      0.00000
    126      -2.4027      0.00000
    127      -2.3929      0.00000
    128      -2.3779      0.00000
    129      -2.3776      0.00000
    130      -2.3508      0.00000
    131      -2.3034      0.00000
    132      -2.2716      0.00000
    133      -2.2270      0.00000
    134      -2.2039      0.00000
    135      -2.1618      0.00000
    136      -2.0116      0.00000
    137       0.1288      0.00000
    138       1.9077      0.00000
    139       1.9819      0.00000
    140       2.2202      0.00000
    141       2.3122      0.00000
    142       2.3752      0.00000
    143       2.6008      0.00000
    144       2.6628      0.00000

 k-point     9 :      -0.2000   -0.4000    0.0000
  band No.  band energies     occupation 
      1     -21.0979      1.00000
      2     -19.3367      1.00000
      3     -19.2771      1.00000
      4     -19.1557      1.00000
      5     -18.9924      1.00000
      6     -18.8430      1.00000
      7     -18.6881      1.00000
      8     -18.6371      1.00000
      9     -18.6223      1.00000
     10     -18.6001      1.00000
     11     -18.5831      1.00000
     12     -18.5683      1.00000
     13     -18.5553      1.00000
     14     -18.5340      1.00000
     15     -18.5208      1.00000
     16     -18.4790      1.00000
     17     -18.4457      1.00000
     18     -18.4356      1.00000
     19     -18.4195      1.00000
     20     -18.4107      1.00000
     21     -18.4065      1.00000
     22     -18.3995      1.00000
     23     -18.3806      1.00000
     24     -18.2657      1.00000
     25     -11.7758      1.00000
     26      -9.1761      1.00000
     27      -9.1411      1.00000
     28      -9.0729      1.00000
     29      -8.8583      1.00000
     30      -8.7634      1.00000
     31      -8.7338      1.00000
     32      -8.7160      1.00000
     33      -8.6072      1.00000
     34      -8.4839      1.00000
     35      -8.4689      1.00000
     36      -8.3746      1.00000
     37      -8.3371      1.00000
     38      -8.3200      1.00000
     39      -8.2846      1.00000
     40      -8.2685      1.00000
     41      -8.2596      1.00000
     42      -8.2537      1.00000
     43      -8.2303      1.00000
     44      -8.2160      1.00000
     45      -8.1580      1.00000
     46      -8.0130      1.00000
     47      -7.9898      1.00000
     48      -7.9709      1.00000
     49      -7.9551      1.00000
     50      -7.9210      1.00000
     51      -7.9073      1.00000
     52      -7.8944      1.00000
     53      -7.8477      1.00000
     54      -7.8212      1.00000
     55      -7.7855      1.00000
     56      -7.7352      1.00000
     57      -7.7152      1.00000
     58      -7.6078      1.00000
     59      -7.5596      1.00000
     60      -7.4471      1.00000
     61      -7.2930      1.00000
     62      -7.1560      1.00000
     63      -7.1144      1.00000
     64      -7.0772      1.00000
     65      -7.0391      1.00000
     66      -6.9374      1.00000
     67      -6.8550      1.00000
     68      -6.7867      1.00000
     69      -6.7202      1.00000
     70      -6.7015      1.00000
     71      -6.6805      1.00000
     72      -6.6127      1.00000
     73      -6.5507      1.00000
     74      -6.5019      1.00000
     75      -6.4778      1.00000
     76      -6.4522      1.00000
     77      -6.3619      1.00000
     78      -6.3390      1.00000
     79      -6.2887      1.00000
     80      -6.2413      1.00000
     81      -6.1970      1.00000
     82      -6.1572      1.00000
     83      -6.1263      1.00000
     84      -6.0969      1.00000
     85      -6.0814      1.00000
     86      -6.0525      1.00000
     87      -5.9852      1.00000
     88      -5.9589      1.00000
     89      -5.9107      1.00000
     90      -5.8430      1.00000
     91      -5.8242      1.00000
     92      -5.7607      1.00000
     93      -5.7300      1.00000
     94      -5.7108      1.00000
     95      -5.6805      1.00000
     96      -5.6109      1.00000
     97      -4.9031      1.00000
     98      -4.8775      1.00000
     99      -4.8736      1.00000
    100      -4.8417      1.00000
    101      -4.7388      1.00000
    102      -4.6995      1.00000
    103      -4.6653      1.00000
    104      -4.6509      1.00000
    105      -4.6176      1.00000
    106      -4.5763      1.00000
    107      -4.5681      1.00000
    108      -4.4857      1.00000
    109      -4.4716      1.00000
    110      -4.4320      1.00000
    111      -4.4160      1.00000
    112      -4.3938      1.00000
    113      -4.3680      1.00000
    114      -4.3375      1.00000
    115      -4.2807      1.00000
    116      -4.2254      1.00000
    117      -4.1692      1.00000
    118      -4.1249      1.00000
    119      -3.9966      1.00000
    120      -3.8694      1.00000
    121      -2.7986      0.99871
    122      -2.5889      0.00177
    123      -2.4400      0.00000
    124      -2.4249      0.00000
    125      -2.4141      0.00000
    126      -2.4049      0.00000
    127      -2.3939      0.00000
    128      -2.3763      0.00000
    129      -2.3588      0.00000
    130      -2.3527      0.00000
    131      -2.2990      0.00000
    132      -2.2658      0.00000
    133      -2.2382      0.00000
    134      -2.2038      0.00000
    135      -2.1808      0.00000
    136      -2.0048      0.00000
    137       0.1296      0.00000
    138       1.9010      0.00000
    139       1.9958      0.00000
    140       2.2132      0.00000
    141       2.3158      0.00000
    142       2.3801      0.00000
    143       2.5780      0.00000
    144       2.6755      0.00000
 Fermi energy:        -2.6920344108

 spin component 2

 k-point     1 :       0.0000    0.0000    0.0000
  band No.  band energies     occupation 
      1     -21.0722      1.00000
      2     -19.3974      1.00000
      3     -19.1125      1.00000
      4     -19.0809      1.00000
      5     -18.9973      1.00000
      6     -18.8595      1.00000
      7     -18.8085      1.00000
      8     -18.7359      1.00000
      9     -18.6467      1.00000
     10     -18.5634      1.00000
     11     -18.5429      1.00000
     12     -18.5375      1.00000
     13     -18.5307      1.00000
     14     -18.5168      1.00000
     15     -18.5023      1.00000
     16     -18.4790      1.00000
     17     -18.4758      1.00000
     18     -18.4421      1.00000
     19     -18.4310      1.00000
     20     -18.4301      1.00000
     21     -18.4026      1.00000
     22     -18.4014      1.00000
     23     -18.3662      1.00000
     24     -18.2604      1.00000
     25     -11.6861      1.00000
     26      -8.9604      1.00000
     27      -8.9217      1.00000
     28      -8.9196      1.00000
     29      -8.8671      1.00000
     30      -8.4433      1.00000
     31      -8.4241      1.00000
     32      -8.3316      1.00000
     33      -8.3193      1.00000
     34      -8.2537      1.00000
     35      -8.2196      1.00000
     36      -8.1517      1.00000
     37      -8.0837      1.00000
     38      -8.0779      1.00000
     39      -8.0296      1.00000
     40      -7.9626      1.00000
     41      -7.9606      1.00000
     42      -7.9428      1.00000
     43      -7.8979      1.00000
     44      -7.8469      1.00000
     45      -7.8088      1.00000
     46      -7.7846      1.00000
     47      -7.7818      1.00000
     48      -7.7087      1.00000
     49      -7.7034      1.00000
     50      -7.6486      1.00000
     51      -7.6350      1.00000
     52      -7.5680      1.00000
     53      -7.4909      1.00000
     54      -7.3243      1.00000
     55      -7.3059      1.00000
     56      -7.2379      1.00000
     57      -7.1231      1.00000
     58      -7.1023      1.00000
     59      -7.0862      1.00000
     60      -7.0744      1.00000
     61      -7.0356      1.00000
     62      -6.9625      1.00000
     63      -6.9520      1.00000
     64      -6.9499      1.00000
     65      -6.9002      1.00000
     66      -6.7853      1.00000
     67      -6.7608      1.00000
     68      -6.7330      1.00000
     69      -6.7044      1.00000
     70      -6.6098      1.00000
     71      -6.5432      1.00000
     72      -6.4926      1.00000
     73      -6.4749      1.00000
     74      -6.4125      1.00000
     75      -6.3387      1.00000
     76      -6.2846      1.00000
     77      -6.2397      1.00000
     78      -6.0921      1.00000
     79      -6.0749      1.00000
     80      -6.0557      1.00000
     81      -6.0334      1.00000
     82      -6.0012      1.00000
     83      -5.9635      1.00000
     84      -5.9055      1.00000
     85      -5.8072      1.00000
     86      -5.7796      1.00000
     87      -5.7030      1.00000
     88      -5.6671      1.00000
     89      -5.6328      1.00000
     90      -5.6265      1.00000
     91      -5.5714      1.00000
     92      -5.4937      1.00000
     93      -5.4478      1.00000
     94      -5.4354      1.00000
     95      -5.4206      1.00000
     96      -5.3784      1.00000
     97      -2.0861      0.00000
     98      -2.0679      0.00000
     99      -2.0627      0.00000
    100      -2.0248      0.00000
    101      -1.9700      0.00000
    102      -1.9564      0.00000
    103      -1.8179      0.00000
    104      -1.8047      0.00000
    105      -1.7710      0.00000
    106      -1.7555      0.00000
    107      -1.7138      0.00000
    108      -1.7007      0.00000
    109      -1.6739      0.00000
    110      -1.6321      0.00000
    111      -1.6187      0.00000
    112      -1.5553      0.00000
    113      -1.5231      0.00000
    114      -1.5064      0.00000
    115      -1.3222      0.00000
    116      -1.2789      0.00000
    117      -1.2180      0.00000
    118      -1.1795      0.00000
    119      -1.1671      0.00000
    120      -1.0820      0.00000
    121      -1.0769      0.00000
    122      -1.0577      0.00000
    123      -1.0382      0.00000
    124      -1.0321      0.00000
    125      -1.0168      0.00000
    126      -1.0074      0.00000
    127      -0.9907      0.00000
    128      -0.9802      0.00000
    129      -0.9151      0.00000
    130      -0.8762      0.00000
    131      -0.8493      0.00000
    132      -0.8423      0.00000
    133      -0.6755      0.00000
    134      -0.6328      0.00000
    135      -0.5352      0.00000
    136      -0.3015      0.00000
    137       0.4189      0.00000
    138       1.6270      0.00000
    139       2.0297      0.00000
    140       2.4803      0.00000
    141       2.7258      0.00000
    142       2.7275      0.00000
    143       2.9301      0.00000
    144       2.9869      0.00000

 k-point     2 :       0.2000    0.0000    0.0000
  band No.  band energies     occupation 
      1     -21.0721      1.00000
      2     -19.3801      1.00000
      3     -19.1520      1.00000
      4     -19.1163      1.00000
      5     -18.9538      1.00000
      6     -18.8451      1.00000
      7     -18.8062      1.00000
      8     -18.7065      1.00000
      9     -18.6400      1.00000
     10     -18.5757      1.00000
     11     -18.5566      1.00000
     12     -18.5539      1.00000
     13     -18.5337      1.00000
     14     -18.5294      1.00000
     15     -18.4955      1.00000
     16     -18.4727      1.00000
     17     -18.4654      1.00000
     18     -18.4450      1.00000
     19     -18.4322      1.00000
     20     -18.4245      1.00000
     21     -18.4017      1.00000
     22     -18.4008      1.00000
     23     -18.3717      1.00000
     24     -18.2620      1.00000
     25     -11.6861      1.00000
     26      -8.9300      1.00000
     27      -8.9162      1.00000
     28      -8.8972      1.00000
     29      -8.8447      1.00000
     30      -8.4488      1.00000
     31      -8.4329      1.00000
     32      -8.3619      1.00000
     33      -8.3134      1.00000
     34      -8.2595      1.00000
     35      -8.2187      1.00000
     36      -8.1505      1.00000
     37      -8.1022      1.00000
     38      -8.0882      1.00000
     39      -8.0271      1.00000
     40      -7.9978      1.00000
     41      -7.9789      1.00000
     42      -7.9650      1.00000
     43      -7.9143      1.00000
     44      -7.8525      1.00000
     45      -7.8047      1.00000
     46      -7.7693      1.00000
     47      -7.7651      1.00000
     48      -7.7139      1.00000
     49      -7.7046      1.00000
     50      -7.6322      1.00000
     51      -7.6297      1.00000
     52      -7.5793      1.00000
     53      -7.4996      1.00000
     54      -7.3693      1.00000
     55      -7.3356      1.00000
     56      -7.3175      1.00000
     57      -7.2319      1.00000
     58      -7.1886      1.00000
     59      -7.0953      1.00000
     60      -7.0702      1.00000
     61      -6.9906      1.00000
     62      -6.9307      1.00000
     63      -6.8848      1.00000
     64      -6.8481      1.00000
     65      -6.8250      1.00000
     66      -6.7760      1.00000
     67      -6.7351      1.00000
     68      -6.7100      1.00000
     69      -6.6792      1.00000
     70      -6.5872      1.00000
     71      -6.5159      1.00000
     72      -6.4730      1.00000
     73      -6.4375      1.00000
     74      -6.3087      1.00000
     75      -6.2756      1.00000
     76      -6.2528      1.00000
     77      -6.2208      1.00000
     78      -6.1405      1.00000
     79      -6.1297      1.00000
     80      -6.0905      1.00000
     81      -6.0412      1.00000
     82      -6.0055      1.00000
     83      -5.9420      1.00000
     84      -5.9000      1.00000
     85      -5.7984      1.00000
     86      -5.7749      1.00000
     87      -5.6995      1.00000
     88      -5.6575      1.00000
     89      -5.6439      1.00000
     90      -5.6257      1.00000
     91      -5.5823      1.00000
     92      -5.5663      1.00000
     93      -5.5014      1.00000
     94      -5.4766      1.00000
     95      -5.4571      1.00000
     96      -5.4086      1.00000
     97      -2.0666      0.00000
     98      -2.0539      0.00000
     99      -2.0402      0.00000
    100      -2.0241      0.00000
    101      -1.9698      0.00000
    102      -1.9352      0.00000
    103      -1.8342      0.00000
    104      -1.8133      0.00000
    105      -1.7809      0.00000
    106      -1.7367      0.00000
    107      -1.7183      0.00000
    108      -1.7073      0.00000
    109      -1.6553      0.00000
    110      -1.6411      0.00000
    111      -1.6209      0.00000
    112      -1.5587      0.00000
    113      -1.5353      0.00000
    114      -1.5182      0.00000
    115      -1.3182      0.00000
    116      -1.3040      0.00000
    117      -1.2013      0.00000
    118      -1.1830      0.00000
    119      -1.1600      0.00000
    120      -1.0803      0.00000
    121      -1.0683      0.00000
    122      -1.0521      0.00000
    123      -1.0485      0.00000
    124      -1.0306      0.00000
    125      -1.0116      0.00000
    126      -1.0089      0.00000
    127      -0.9799      0.00000
    128      -0.9719      0.00000
    129      -0.9212      0.00000
    130      -0.8920      0.00000
    131      -0.8616      0.00000
    132      -0.8421      0.00000
    133      -0.6755      0.00000
    134      -0.6287      0.00000
    135      -0.5348      0.00000
    136      -0.3029      0.00000
    137       0.4248      0.00000
    138       1.6901      0.00000
    139       2.0903      0.00000
    140       2.4824      0.00000
    141       2.5469      0.00000
    142       2.6280      0.00000
    143       2.7854      0.00000
    144       2.8874      0.00000

 k-point     3 :       0.0000    0.2000    0.0000
  band No.  band energies     occupation 
      1     -21.0721      1.00000
      2     -19.3813      1.00000
      3     -19.1529      1.00000
      4     -19.0848      1.00000
      5     -19.0136      1.00000
      6     -18.8293      1.00000
      7     -18.7777      1.00000
      8     -18.7164      1.00000
      9     -18.6393      1.00000
     10     -18.5710      1.00000
     11     -18.5551      1.00000
     12     -18.5501      1.00000
     13     -18.5409      1.00000
     14     -18.5223      1.00000
     15     -18.5049      1.00000
     16     -18.4875      1.00000
     17     -18.4656      1.00000
     18     -18.4360      1.00000
     19     -18.4312      1.00000
     20     -18.4251      1.00000
     21     -18.4043      1.00000
     22     -18.4012      1.00000
     23     -18.3695      1.00000
     24     -18.2609      1.00000
     25     -11.6861      1.00000
     26      -8.9548      1.00000
     27      -8.9186      1.00000
     28      -8.8811      1.00000
     29      -8.8301      1.00000
     30      -8.4485      1.00000
     31      -8.4374      1.00000
     32      -8.3597      1.00000
     33      -8.3204      1.00000
     34      -8.2535      1.00000
     35      -8.2164      1.00000
     36      -8.1552      1.00000
     37      -8.0979      1.00000
     38      -8.0769      1.00000
     39      -8.0280      1.00000
     40      -8.0160      1.00000
     41      -7.9786      1.00000
     42      -7.9382      1.00000
     43      -7.9212      1.00000
     44      -7.8746      1.00000
     45      -7.8137      1.00000
     46      -7.7930      1.00000
     47      -7.7348      1.00000
     48      -7.7197      1.00000
     49      -7.6886      1.00000
     50      -7.6523      1.00000
     51      -7.6126      1.00000
     52      -7.5762      1.00000
     53      -7.4835      1.00000
     54      -7.3512      1.00000
     55      -7.3247      1.00000
     56      -7.3009      1.00000
     57      -7.2613      1.00000
     58      -7.2252      1.00000
     59      -7.1167      1.00000
     60      -7.0743      1.00000
     61      -7.0019      1.00000
     62      -6.9075      1.00000
     63      -6.8679      1.00000
     64      -6.8560      1.00000
     65      -6.8374      1.00000
     66      -6.7912      1.00000
     67      -6.7520      1.00000
     68      -6.6833      1.00000
     69      -6.6509      1.00000
     70      -6.5999      1.00000
     71      -6.4908      1.00000
     72      -6.4787      1.00000
     73      -6.4386      1.00000
     74      -6.3154      1.00000
     75      -6.2808      1.00000
     76      -6.2401      1.00000
     77      -6.2077      1.00000
     78      -6.1488      1.00000
     79      -6.1297      1.00000
     80      -6.0936      1.00000
     81      -6.0389      1.00000
     82      -6.0003      1.00000
     83      -5.9584      1.00000
     84      -5.8976      1.00000
     85      -5.7952      1.00000
     86      -5.7684      1.00000
     87      -5.7074      1.00000
     88      -5.6813      1.00000
     89      -5.6380      1.00000
     90      -5.6208      1.00000
     91      -5.5732      1.00000
     92      -5.5564      1.00000
     93      -5.5163      1.00000
     94      -5.4689      1.00000
     95      -5.4628      1.00000
     96      -5.4082      1.00000
     97      -2.0710      0.00000
     98      -2.0569      0.00000
     99      -2.0421      0.00000
    100      -2.0144      0.00000
    101      -1.9688      0.00000
    102      -1.9466      0.00000
    103      -1.8360      0.00000
    104      -1.8092      0.00000
    105      -1.7638      0.00000
    106      -1.7374      0.00000
    107      -1.7204      0.00000
    108      -1.6976      0.00000
    109      -1.6709      0.00000
    110      -1.6496      0.00000
    111      -1.6199      0.00000
    112      -1.5609      0.00000
    113      -1.5249      0.00000
    114      -1.5127      0.00000
    115      -1.3231      0.00000
    116      -1.2949      0.00000
    117      -1.2117      0.00000
    118      -1.1857      0.00000
    119      -1.1587      0.00000
    120      -1.0799      0.00000
    121      -1.0764      0.00000
    122      -1.0574      0.00000
    123      -1.0419      0.00000
    124      -1.0314      0.00000
    125      -1.0080      0.00000
    126      -1.0024      0.00000
    127      -0.9886      0.00000
    128      -0.9709      0.00000
    129      -0.9147      0.00000
    130      -0.8839      0.00000
    131      -0.8575      0.00000
    132      -0.8474      0.00000
    133      -0.6805      0.00000
    134      -0.6320      0.00000
    135      -0.5364      0.00000
    136      -0.3006      0.00000
    137       0.4253      0.00000
    138       1.6901      0.00000
    139       2.0911      0.00000
    140       2.4865      0.00000
    141       2.5472      0.00000
    142       2.6289      0.00000
    143       2.7716      0.00000
    144       2.8829      0.00000

 k-point     4 :       0.4000    0.0000    0.0000
  band No.  band energies     occupation 
      1     -21.0721      1.00000
      2     -19.3312      1.00000
      3     -19.2451      1.00000
      4     -19.1252      1.00000
      5     -18.9316      1.00000
      6     -18.8207      1.00000
      7     -18.7840      1.00000
      8     -18.6510      1.00000
      9     -18.6211      1.00000
     10     -18.5978      1.00000
     11     -18.5957      1.00000
     12     -18.5894      1.00000
     13     -18.5414      1.00000
     14     -18.5214      1.00000
     15     -18.5083      1.00000
     16     -18.4577      1.00000
     17     -18.4481      1.00000
     18     -18.4466      1.00000
     19     -18.4366      1.00000
     20     -18.4238      1.00000
     21     -18.4007      1.00000
     22     -18.3988      1.00000
     23     -18.3806      1.00000
     24     -18.2647      1.00000
     25     -11.6863      1.00000
     26      -8.9158      1.00000
     27      -8.8985      1.00000
     28      -8.8456      1.00000
     29      -8.7567      1.00000
     30      -8.4692      1.00000
     31      -8.4513      1.00000
     32      -8.4267      1.00000
     33      -8.3210      1.00000
     34      -8.2652      1.00000
     35      -8.2357      1.00000
     36      -8.1337      1.00000
     37      -8.1268      1.00000
     38      -8.1157      1.00000
     39      -8.0708      1.00000
     40      -8.0441      1.00000
     41      -8.0251      1.00000
     42      -7.9209      1.00000
     43      -7.8883      1.00000
     44      -7.8832      1.00000
     45      -7.8301      1.00000
     46      -7.8220      1.00000
     47      -7.7410      1.00000
     48      -7.7253      1.00000
     49      -7.6595      1.00000
     50      -7.6200      1.00000
     51      -7.5997      1.00000
     52      -7.5591      1.00000
     53      -7.5110      1.00000
     54      -7.4219      1.00000
     55      -7.4053      1.00000
     56      -7.3470      1.00000
     57      -7.2890      1.00000
     58      -7.2587      1.00000
     59      -7.1989      1.00000
     60      -7.1211      1.00000
     61      -6.9304      1.00000
     62      -6.8520      1.00000
     63      -6.8249      1.00000
     64      -6.8220      1.00000
     65      -6.7929      1.00000
     66      -6.7503      1.00000
     67      -6.7332      1.00000
     68      -6.6370      1.00000
     69      -6.5628      1.00000
     70      -6.4860      1.00000
     71      -6.4554      1.00000
     72      -6.3973      1.00000
     73      -6.3427      1.00000
     74      -6.3118      1.00000
     75      -6.2845      1.00000
     76      -6.2069      1.00000
     77      -6.1901      1.00000
     78      -6.1288      1.00000
     79      -6.0781      1.00000
     80      -6.0422      1.00000
     81      -6.0364      1.00000
     82      -5.9734      1.00000
     83      -5.9508      1.00000
     84      -5.9140      1.00000
     85      -5.8858      1.00000
     86      -5.7878      1.00000
     87      -5.7656      1.00000
     88      -5.6971      1.00000
     89      -5.6534      1.00000
     90      -5.6346      1.00000
     91      -5.6172      1.00000
     92      -5.6014      1.00000
     93      -5.5818      1.00000
     94      -5.5480      1.00000
     95      -5.5085      1.00000
     96      -5.4618      1.00000
     97      -2.0352      0.00000
     98      -2.0253      0.00000
     99      -2.0182      0.00000
    100      -2.0076      0.00000
    101      -1.9502      0.00000
    102      -1.9152      0.00000
    103      -1.8531      0.00000
    104      -1.8081      0.00000
    105      -1.7934      0.00000
    106      -1.7740      0.00000
    107      -1.7472      0.00000
    108      -1.6681      0.00000
    109      -1.6561      0.00000
    110      -1.6227      0.00000
    111      -1.6110      0.00000
    112      -1.5789      0.00000
    113      -1.5557      0.00000
    114      -1.5423      0.00000
    115      -1.3353      0.00000
    116      -1.2980      0.00000
    117      -1.2246      0.00000
    118      -1.1613      0.00000
    119      -1.1461      0.00000
    120      -1.0863      0.00000
    121      -1.0632      0.00000
    122      -1.0560      0.00000
    123      -1.0265      0.00000
    124      -1.0250      0.00000
    125      -1.0147      0.00000
    126      -1.0056      0.00000
    127      -0.9724      0.00000
    128      -0.9456      0.00000
    129      -0.9416      0.00000
    130      -0.9230      0.00000
    131      -0.8729      0.00000
    132      -0.8450      0.00000
    133      -0.6758      0.00000
    134      -0.6216      0.00000
    135      -0.5357      0.00000
    136      -0.3017      0.00000
    137       0.4339      0.00000
    138       1.8635      0.00000
    139       2.1575      0.00000
    140       2.2617      0.00000
    141       2.5272      0.00000
    142       2.5315      0.00000
    143       2.7107      0.00000
    144       2.7401      0.00000

 k-point     5 :       0.0000    0.4000    0.0000
  band No.  band energies     occupation 
      1     -21.0721      1.00000
      2     -19.3405      1.00000
      3     -19.2261      1.00000
      4     -19.0925      1.00000
      5     -19.0266      1.00000
      6     -18.7966      1.00000
      7     -18.7337      1.00000
      8     -18.6601      1.00000
      9     -18.6187      1.00000
     10     -18.6000      1.00000
     11     -18.5822      1.00000
     12     -18.5691      1.00000
     13     -18.5456      1.00000
     14     -18.5392      1.00000
     15     -18.5221      1.00000
     16     -18.4975      1.00000
     17     -18.4492      1.00000
     18     -18.4343      1.00000
     19     -18.4234      1.00000
     20     -18.4171      1.00000
     21     -18.4080      1.00000
     22     -18.4003      1.00000
     23     -18.3774      1.00000
     24     -18.2616      1.00000
     25     -11.6862      1.00000
     26      -8.9578      1.00000
     27      -8.9132      1.00000
     28      -8.7836      1.00000
     29      -8.7382      1.00000
     30      -8.4983      1.00000
     31      -8.4655      1.00000
     32      -8.4193      1.00000
     33      -8.3340      1.00000
     34      -8.2503      1.00000
     35      -8.2014      1.00000
     36      -8.1399      1.00000
     37      -8.1174      1.00000
     38      -8.1042      1.00000
     39      -8.0730      1.00000
     40      -8.0571      1.00000
     41      -8.0212      1.00000
     42      -7.9563      1.00000
     43      -7.9091      1.00000
     44      -7.8845      1.00000
     45      -7.8373      1.00000
     46      -7.8016      1.00000
     47      -7.7486      1.00000
     48      -7.7127      1.00000
     49      -7.6633      1.00000
     50      -7.6160      1.00000
     51      -7.5882      1.00000
     52      -7.5408      1.00000
     53      -7.4837      1.00000
     54      -7.4172      1.00000
     55      -7.3688      1.00000
     56      -7.3526      1.00000
     57      -7.3317      1.00000
     58      -7.3035      1.00000
     59      -7.2237      1.00000
     60      -7.0872      1.00000
     61      -6.9877      1.00000
     62      -6.8491      1.00000
     63      -6.8226      1.00000
     64      -6.8097      1.00000
     65      -6.7944      1.00000
     66      -6.7562      1.00000
     67      -6.7257      1.00000
     68      -6.6113      1.00000
     69      -6.5621      1.00000
     70      -6.4983      1.00000
     71      -6.4630      1.00000
     72      -6.4003      1.00000
     73      -6.2991      1.00000
     74      -6.2790      1.00000
     75      -6.2471      1.00000
     76      -6.2344      1.00000
     77      -6.2068      1.00000
     78      -6.1782      1.00000
     79      -6.0750      1.00000
     80      -6.0362      1.00000
     81      -6.0058      1.00000
     82      -5.9705      1.00000
     83      -5.9534      1.00000
     84      -5.8975      1.00000
     85      -5.8836      1.00000
     86      -5.8079      1.00000
     87      -5.7444      1.00000
     88      -5.7172      1.00000
     89      -5.6800      1.00000
     90      -5.6407      1.00000
     91      -5.6233      1.00000
     92      -5.5897      1.00000
     93      -5.5822      1.00000
     94      -5.5506      1.00000
     95      -5.5162      1.00000
     96      -5.4522      1.00000
     97      -2.0483      0.00000
     98      -2.0390      0.00000
     99      -2.0164      0.00000
    100      -1.9790      0.00000
    101      -1.9633      0.00000
    102      -1.9358      0.00000
    103      -1.8332      0.00000
    104      -1.8021      0.00000
    105      -1.7871      0.00000
    106      -1.7610      0.00000
    107      -1.7289      0.00000
    108      -1.6915      0.00000
    109      -1.6781      0.00000
    110      -1.6553      0.00000
    111      -1.5963      0.00000
    112      -1.5710      0.00000
    113      -1.5339      0.00000
    114      -1.5213      0.00000
    115      -1.3242      0.00000
    116      -1.3140      0.00000
    117      -1.2137      0.00000
    118      -1.1911      0.00000
    119      -1.1491      0.00000
    120      -1.0947      0.00000
    121      -1.0787      0.00000
    122      -1.0547      0.00000
    123      -1.0337      0.00000
    124      -1.0238      0.00000
    125      -1.0051      0.00000
    126      -0.9919      0.00000
    127      -0.9776      0.00000
    128      -0.9579      0.00000
    129      -0.9126      0.00000
    130      -0.9021      0.00000
    131      -0.8658      0.00000
    132      -0.8510      0.00000
    133      -0.6879      0.00000
    134      -0.6307      0.00000
    135      -0.5382      0.00000
    136      -0.2986      0.00000
    137       0.4354      0.00000
    138       1.8612      0.00000
    139       2.1656      0.00000
    140       2.2642      0.00000
    141       2.5264      0.00000
    142       2.5359      0.00000
    143       2.6875      0.00000
    144       2.7361      0.00000

 k-point     6 :       0.2000    0.2000    0.0000
  band No.  band energies     occupation 
      1     -21.0721      1.00000
      2     -19.3487      1.00000
      3     -19.2102      1.00000
      4     -19.1294      1.00000
      5     -18.9496      1.00000
      6     -18.8479      1.00000
      7     -18.7406      1.00000
      8     -18.6765      1.00000
      9     -18.6266      1.00000
     10     -18.5977      1.00000
     11     -18.5747      1.00000
     12     -18.5662      1.00000
     13     -18.5497      1.00000
     14     -18.5319      1.00000
     15     -18.5072      1.00000
     16     -18.4780      1.00000
     17     -18.4480      1.00000
     18     -18.4397      1.00000
     19     -18.4364      1.00000
     20     -18.4196      1.00000
     21     -18.4019      1.00000
     22     -18.3999      1.00000
     23     -18.3777      1.00000
     24     -18.2629      1.00000
     25     -11.6863      1.00000
     26      -8.9325      1.00000
     27      -8.9041      1.00000
     28      -8.8557      1.00000
     29      -8.7574      1.00000
     30      -8.4660      1.00000
     31      -8.4528      1.00000
     32      -8.4063      1.00000
     33      -8.3270      1.00000
     34      -8.2582      1.00000
     35      -8.2185      1.00000
     36      -8.1418      1.00000
     37      -8.1129      1.00000
     38      -8.1080      1.00000
     39      -8.0683      1.00000
     40      -8.0255      1.00000
     41      -8.0187      1.00000
     42      -7.9443      1.00000
     43      -7.9250      1.00000
     44      -7.8906      1.00000
     45      -7.8475      1.00000
     46      -7.7811      1.00000
     47      -7.7313      1.00000
     48      -7.6934      1.00000
     49      -7.6596      1.00000
     50      -7.6231      1.00000
     51      -7.6157      1.00000
     52      -7.5446      1.00000
     53      -7.5186      1.00000
     54      -7.4274      1.00000
     55      -7.3929      1.00000
     56      -7.3332      1.00000
     57      -7.3188      1.00000
     58      -7.2775      1.00000
     59      -7.1399      1.00000
     60      -7.0768      1.00000
     61      -7.0085      1.00000
     62      -6.8979      1.00000
     63      -6.8504      1.00000
     64      -6.8289      1.00000
     65      -6.7520      1.00000
     66      -6.6993      1.00000
     67      -6.6625      1.00000
     68      -6.6283      1.00000
     69      -6.5902      1.00000
     70      -6.5495      1.00000
     71      -6.4805      1.00000
     72      -6.4544      1.00000
     73      -6.4040      1.00000
     74      -6.2912      1.00000
     75      -6.2420      1.00000
     76      -6.2094      1.00000
     77      -6.1689      1.00000
     78      -6.1398      1.00000
     79      -6.1313      1.00000
     80      -6.0931      1.00000
     81      -6.0484      1.00000
     82      -5.9916      1.00000
     83      -5.9494      1.00000
     84      -5.8859      1.00000
     85      -5.8057      1.00000
     86      -5.7711      1.00000
     87      -5.7449      1.00000
     88      -5.7047      1.00000
     89      -5.6603      1.00000
     90      -5.6387      1.00000
     91      -5.6068      1.00000
     92      -5.5839      1.00000
     93      -5.5671      1.00000
     94      -5.5355      1.00000
     95      -5.5199      1.00000
     96      -5.4511      1.00000
     97      -2.0490      0.00000
     98      -2.0357      0.00000
     99      -2.0221      0.00000
    100      -1.9923      0.00000
    101      -1.9654      0.00000
    102      -1.9238      0.00000
    103      -1.8445      0.00000
    104      -1.8288      0.00000
    105      -1.7799      0.00000
    106      -1.7457      0.00000
    107      -1.7262      0.00000
    108      -1.6915      0.00000
    109      -1.6678      0.00000
    110      -1.6348      0.00000
    111      -1.6212      0.00000
    112      -1.5646      0.00000
    113      -1.5419      0.00000
    114      -1.5283      0.00000
    115      -1.3248      0.00000
    116      -1.3108      0.00000
    117      -1.2125      0.00000
    118      -1.1792      0.00000
    119      -1.1491      0.00000
    120      -1.0876      0.00000
    121      -1.0716      0.00000
    122      -1.0539      0.00000
    123      -1.0427      0.00000
    124      -1.0251      0.00000
    125      -1.0107      0.00000
    126      -0.9953      0.00000
    127      -0.9728      0.00000
    128      -0.9604      0.00000
    129      -0.9215      0.00000
    130      -0.9103      0.00000
    131      -0.8649      0.00000
    132      -0.8475      0.00000
    133      -0.6803      0.00000
    134      -0.6266      0.00000
    135      -0.5364      0.00000
    136      -0.3011      0.00000
    137       0.4327      0.00000
    138       1.8087      0.00000
    139       2.2061      0.00000
    140       2.3233      0.00000
    141       2.3706      0.00000
    142       2.6715      0.00000
    143       2.7160      0.00000
    144       2.7403      0.00000

 k-point     7 :      -0.2000    0.4000    0.0000
  band No.  band energies     occupation 
      1     -21.0721      1.00000
      2     -19.3521      1.00000
      3     -19.2041      1.00000
      4     -19.0980      1.00000
      5     -19.0228      1.00000
      6     -18.8142      1.00000
      7     -18.7162      1.00000
      8     -18.6886      1.00000
      9     -18.6236      1.00000
     10     -18.5803      1.00000
     11     -18.5794      1.00000
     12     -18.5652      1.00000
     13     -18.5541      1.00000
     14     -18.5280      1.00000
     15     -18.5234      1.00000
     16     -18.4933      1.00000
     17     -18.4617      1.00000
     18     -18.4270      1.00000
     19     -18.4255      1.00000
     20     -18.4155      1.00000
     21     -18.4093      1.00000
     22     -18.4043      1.00000
     23     -18.3738      1.00000
     24     -18.2612      1.00000
     25     -11.6862      1.00000
     26      -8.9552      1.00000
     27      -8.8949      1.00000
     28      -8.8661      1.00000
     29      -8.7169      1.00000
     30      -8.4753      1.00000
     31      -8.4680      1.00000
     32      -8.4018      1.00000
     33      -8.3354      1.00000
     34      -8.2464      1.00000
     35      -8.2079      1.00000
     36      -8.1530      1.00000
     37      -8.1114      1.00000
     38      -8.0882      1.00000
     39      -8.0513      1.00000
     40      -8.0409      1.00000
     41      -8.0193      1.00000
     42      -7.9764      1.00000
     43      -7.9425      1.00000
     44      -7.8618      1.00000
     45      -7.8367      1.00000
     46      -7.8332      1.00000
     47      -7.6969      1.00000
     48      -7.6904      1.00000
     49      -7.6522      1.00000
     50      -7.6204      1.00000
     51      -7.6092      1.00000
     52      -7.5646      1.00000
     53      -7.4867      1.00000
     54      -7.3916      1.00000
     55      -7.3676      1.00000
     56      -7.3641      1.00000
     57      -7.3268      1.00000
     58      -7.2757      1.00000
     59      -7.2125      1.00000
     60      -7.1184      1.00000
     61      -6.9803      1.00000
     62      -6.8706      1.00000
     63      -6.8630      1.00000
     64      -6.8334      1.00000
     65      -6.7912      1.00000
     66      -6.6726      1.00000
     67      -6.6272      1.00000
     68      -6.6181      1.00000
     69      -6.5863      1.00000
     70      -6.5609      1.00000
     71      -6.4780      1.00000
     72      -6.4437      1.00000
     73      -6.4088      1.00000
     74      -6.2690      1.00000
     75      -6.2372      1.00000
     76      -6.2096      1.00000
     77      -6.1969      1.00000
     78      -6.1476      1.00000
     79      -6.1058      1.00000
     80      -6.1008      1.00000
     81      -6.0395      1.00000
     82      -6.0170      1.00000
     83      -5.9202      1.00000
     84      -5.9200      1.00000
     85      -5.7706      1.00000
     86      -5.7584      1.00000
     87      -5.7323      1.00000
     88      -5.7258      1.00000
     89      -5.6941      1.00000
     90      -5.6316      1.00000
     91      -5.6272      1.00000
     92      -5.5773      1.00000
     93      -5.5747      1.00000
     94      -5.5289      1.00000
     95      -5.5134      1.00000
     96      -5.4515      1.00000
     97      -2.0528      0.00000
     98      -2.0469      0.00000
     99      -2.0045      0.00000
    100      -1.9967      0.00000
    101      -1.9584      0.00000
    102      -1.9535      0.00000
    103      -1.8380      0.00000
    104      -1.8013      0.00000
    105      -1.7586      0.00000
    106      -1.7582      0.00000
    107      -1.7283      0.00000
    108      -1.7007      0.00000
    109      -1.6846      0.00000
    110      -1.6529      0.00000
    111      -1.5918      0.00000
    112      -1.5765      0.00000
    113      -1.5283      0.00000
    114      -1.5198      0.00000
    115      -1.3237      0.00000
    116      -1.3115      0.00000
    117      -1.2068      0.00000
    118      -1.1999      0.00000
    119      -1.1478      0.00000
    120      -1.0915      0.00000
    121      -1.0850      0.00000
    122      -1.0428      0.00000
    123      -1.0342      0.00000
    124      -1.0270      0.00000
    125      -1.0082      0.00000
    126      -0.9994      0.00000
    127      -0.9879      0.00000
    128      -0.9524      0.00000
    129      -0.9128      0.00000
    130      -0.8867      0.00000
    131      -0.8725      0.00000
    132      -0.8496      0.00000
    133      -0.6881      0.00000
    134      -0.6318      0.00000
    135      -0.5388      0.00000
    136      -0.2974      0.00000
    137       0.4335      0.00000
    138       1.8088      0.00000
    139       2.2083      0.00000
    140       2.3352      0.00000
    141       2.3598      0.00000
    142       2.6714      0.00000
    143       2.7166      0.00000
    144       2.7393      0.00000

 k-point     8 :       0.4000    0.2000    0.0000
  band No.  band energies     occupation 
      1     -21.0721      1.00000
      2     -19.2953      1.00000
      3     -19.2792      1.00000
      4     -19.1430      1.00000
      5     -18.8968      1.00000
      6     -18.8862      1.00000
      7     -18.7095      1.00000
      8     -18.6359      1.00000
      9     -18.6264      1.00000
     10     -18.6049      1.00000
     11     -18.6030      1.00000
     12     -18.5878      1.00000
     13     -18.5568      1.00000
     14     -18.5240      1.00000
     15     -18.5174      1.00000
     16     -18.4643      1.00000
     17     -18.4510      1.00000
     18     -18.4420      1.00000
     19     -18.4281      1.00000
     20     -18.4237      1.00000
     21     -18.4018      1.00000
     22     -18.3979      1.00000
     23     -18.3822      1.00000
     24     -18.2642      1.00000
     25     -11.6864      1.00000
     26      -8.9109      1.00000
     27      -8.8888      1.00000
     28      -8.8657      1.00000
     29      -8.6645      1.00000
     30      -8.4757      1.00000
     31      -8.4683      1.00000
     32      -8.4591      1.00000
     33      -8.3384      1.00000
     34      -8.2598      1.00000
     35      -8.2293      1.00000
     36      -8.1264      1.00000
     37      -8.1245      1.00000
     38      -8.1105      1.00000
     39      -8.0736      1.00000
     40      -8.0715      1.00000
     41      -8.0499      1.00000
     42      -7.9669      1.00000
     43      -7.9272      1.00000
     44      -7.9040      1.00000
     45      -7.8502      1.00000
     46      -7.7435      1.00000
     47      -7.7372      1.00000
     48      -7.6612      1.00000
     49      -7.6548      1.00000
     50      -7.6158      1.00000
     51      -7.5947      1.00000
     52      -7.5481      1.00000
     53      -7.5294      1.00000
     54      -7.4582      1.00000
     55      -7.3909      1.00000
     56      -7.3883      1.00000
     57      -7.3183      1.00000
     58      -7.2676      1.00000
     59      -7.2576      1.00000
     60      -7.0557      1.00000
     61      -7.0407      1.00000
     62      -6.8744      1.00000
     63      -6.8339      1.00000
     64      -6.8206      1.00000
     65      -6.7569      1.00000
     66      -6.6731      1.00000
     67      -6.5818      1.00000
     68      -6.5658      1.00000
     69      -6.5363      1.00000
     70      -6.4641      1.00000
     71      -6.4347      1.00000
     72      -6.3919      1.00000
     73      -6.3575      1.00000
     74      -6.3356      1.00000
     75      -6.2799      1.00000
     76      -6.2430      1.00000
     77      -6.1789      1.00000
     78      -6.1643      1.00000
     79      -6.1375      1.00000
     80      -6.0943      1.00000
     81      -6.0120      1.00000
     82      -5.9148      1.00000
     83      -5.8970      1.00000
     84      -5.8823      1.00000
     85      -5.8697      1.00000
     86      -5.8034      1.00000
     87      -5.7483      1.00000
     88      -5.7185      1.00000
     89      -5.6611      1.00000
     90      -5.6592      1.00000
     91      -5.6195      1.00000
     92      -5.6136      1.00000
     93      -5.5948      1.00000
     94      -5.5928      1.00000
     95      -5.5426      1.00000
     96      -5.4856      1.00000
     97      -2.0355      0.00000
     98      -2.0295      0.00000
     99      -1.9937      0.00000
    100      -1.9846      0.00000
    101      -1.9461      0.00000
    102      -1.9271      0.00000
    103      -1.8487      0.00000
    104      -1.8391      0.00000
    105      -1.7693      0.00000
    106      -1.7688      0.00000
    107      -1.7516      0.00000
    108      -1.6854      0.00000
    109      -1.6548      0.00000
    110      -1.6338      0.00000
    111      -1.5987      0.00000
    112      -1.5819      0.00000
    113      -1.5515      0.00000
    114      -1.5401      0.00000
    115      -1.3376      0.00000
    116      -1.3001      0.00000
    117      -1.2290      0.00000
    118      -1.1678      0.00000
    119      -1.1403      0.00000
    120      -1.0946      0.00000
    121      -1.0707      0.00000
    122      -1.0507      0.00000
    123      -1.0481      0.00000
    124      -1.0196      0.00000
    125      -1.0090      0.00000
    126      -0.9841      0.00000
    127      -0.9704      0.00000
    128      -0.9498      0.00000
    129      -0.9421      0.00000
    130      -0.9084      0.00000
    131      -0.8744      0.00000
    132      -0.8467      0.00000
    133      -0.6804      0.00000
    134      -0.6230      0.00000
    135      -0.5373      0.00000
    136      -0.2994      0.00000
    137       0.4369      0.00000
    138       1.9902      0.00000
    139       2.0760      0.00000
    140       2.3079      0.00000
    141       2.4048      0.00000
    142       2.4466      0.00000
    143       2.6820      0.00000
    144       2.8898      0.00000

 k-point     9 :      -0.2000   -0.4000    0.0000
  band No.  band energies     occupation 
      1     -21.0721      1.00000
      2     -19.3146      1.00000
      3     -19.2535      1.00000
      4     -19.1329      1.00000
      5     -18.9755      1.00000
      6     -18.8305      1.00000
      7     -18.6881      1.00000
      8     -18.6435      1.00000
      9     -18.6219      1.00000
     10     -18.6068      1.00000
     11     -18.5891      1.00000
     12     -18.5762      1.00000
     13     -18.5644      1.00000
     14     -18.5409      1.00000
     15     -18.5246      1.00000
     16     -18.4856      1.00000
     17     -18.4515      1.00000
     18     -18.4313      1.00000
     19     -18.4251      1.00000
     20     -18.4176      1.00000
     21     -18.4054      1.00000
     22     -18.3997      1.00000
     23     -18.3805      1.00000
     24     -18.2623      1.00000
     25     -11.6863      1.00000
     26      -8.9444      1.00000
     27      -8.8949      1.00000
     28      -8.8312      1.00000
     29      -8.6232      1.00000
     30      -8.5264      1.00000
     31      -8.4795      1.00000
     32      -8.4435      1.00000
     33      -8.3449      1.00000
     34      -8.2487      1.00000
     35      -8.2048      1.00000
     36      -8.1338      1.00000
     37      -8.1174      1.00000
     38      -8.0991      1.00000
     39      -8.0837      1.00000
     40      -8.0755      1.00000
     41      -8.0332      1.00000
     42      -7.9958      1.00000
     43      -7.9413      1.00000
     44      -7.9173      1.00000
     45      -7.8515      1.00000
     46      -7.7365      1.00000
     47      -7.7046      1.00000
     48      -7.6817      1.00000
     49      -7.6689      1.00000
     50      -7.6058      1.00000
     51      -7.5696      1.00000
     52      -7.5578      1.00000
     53      -7.4842      1.00000
     54      -7.4601      1.00000
     55      -7.4241      1.00000
     56      -7.3808      1.00000
     57      -7.3200      1.00000
     58      -7.2891      1.00000
     59      -7.2336      1.00000
     60      -7.1505      1.00000
     61      -6.9815      1.00000
     62      -6.8759      1.00000
     63      -6.8491      1.00000
     64      -6.8194      1.00000
     65      -6.7556      1.00000
     66      -6.6540      1.00000
     67      -6.5931      1.00000
     68      -6.5654      1.00000
     69      -6.5178      1.00000
     70      -6.4878      1.00000
     71      -6.4175      1.00000
     72      -6.4007      1.00000
     73      -6.3253      1.00000
     74      -6.3024      1.00000
     75      -6.2879      1.00000
     76      -6.2611      1.00000
     77      -6.2125      1.00000
     78      -6.1740      1.00000
     79      -6.1445      1.00000
     80      -6.0784      1.00000
     81      -5.9744      1.00000
     82      -5.9366      1.00000
     83      -5.8949      1.00000
     84      -5.8646      1.00000
     85      -5.8359      1.00000
     86      -5.8210      1.00000
     87      -5.7492      1.00000
     88      -5.7325      1.00000
     89      -5.7057      1.00000
     90      -5.6522      1.00000
     91      -5.6281      1.00000
     92      -5.6100      1.00000
     93      -5.5955      1.00000
     94      -5.5730      1.00000
     95      -5.5548      1.00000
     96      -5.4783      1.00000
     97      -2.0434      0.00000
     98      -2.0320      0.00000
     99      -1.9931      0.00000
    100      -1.9695      0.00000
    101      -1.9554      0.00000
    102      -1.9458      0.00000
    103      -1.8321      0.00000
    104      -1.8251      0.00000
    105      -1.7801      0.00000
    106      -1.7570      0.00000
    107      -1.7383      0.00000
    108      -1.7041      0.00000
    109      -1.6700      0.00000
    110      -1.6485      0.00000
    111      -1.5941      0.00000
    112      -1.5690      0.00000
    113      -1.5411      0.00000
    114      -1.5281      0.00000
    115      -1.3275      0.00000
    116      -1.3161      0.00000
    117      -1.2162      0.00000
    118      -1.1905      0.00000
    119      -1.1413      0.00000
    120      -1.0981      0.00000
    121      -1.0864      0.00000
    122      -1.0508      0.00000
    123      -1.0371      0.00000
    124      -1.0185      0.00000
    125      -1.0048      0.00000
    126      -0.9920      0.00000
    127      -0.9746      0.00000
    128      -0.9490      0.00000
    129      -0.9194      0.00000
    130      -0.9003      0.00000
    131      -0.8709      0.00000
    132      -0.8497      0.00000
    133      -0.6879      0.00000
    134      -0.6286      0.00000
    135      -0.5388      0.00000
    136      -0.2975      0.00000
    137       0.4378      0.00000
    138       1.9806      0.00000
    139       2.0931      0.00000
    140       2.3006      0.00000
    141       2.4086      0.00000
    142       2.4472      0.00000
    143       2.6779      0.00000
    144       2.8720      0.00000


--------------------------------------------------------------------------------------------------------


 soft charge-density along one line, spin component            1
         0         1         2         3         4         5         6         7         8         9
 total charge-density along one line
 
 soft charge-density along one line, spin component            2
         0         1         2         3         4         5         6         7         8         9
 total charge-density along one line
 
 pseudopotential strength for first ion, spin component:            1
 -9.637   0.198   0.002  -0.001   0.001  -9.965   0.192   0.002
  0.198  -9.496  -0.002  -0.002   0.002   0.192  -9.828  -0.002
  0.002  -0.002  -9.783   0.001  -0.002   0.002  -0.002 -10.106
 -0.001  -0.002   0.001  -9.496  -0.198  -0.001  -0.002   0.001
  0.001   0.002  -0.002  -0.198  -9.633   0.001   0.002  -0.002
 -9.965   0.192   0.002  -0.001   0.001 -10.255   0.185   0.002
  0.192  -9.828  -0.002  -0.002   0.002   0.185 -10.123  -0.002
  0.002  -0.002 -10.106   0.001  -0.002   0.002  -0.002 -10.391
 -0.001  -0.002   0.001  -9.828  -0.191  -0.001  -0.002   0.001
  0.001   0.002  -0.002  -0.191  -9.961   0.001   0.002  -0.002
  0.001   0.001   0.001  -0.000  -0.000   0.001   0.001   0.000
  0.001   0.001   0.001  -0.000  -0.001   0.001   0.001   0.001
 -0.000  -0.001  -0.000   0.000  -0.002  -0.000  -0.001  -0.000
  0.000  -0.000  -0.000  -0.000   0.000   0.000  -0.000  -0.000
 -0.002   0.000   0.000  -0.000  -0.000  -0.002   0.000   0.000
 -0.001  -0.000  -0.000   0.000  -0.002  -0.000  -0.000  -0.000
  0.000  -0.000  -0.000  -0.000   0.000   0.000  -0.000  -0.000
 -0.003   0.000   0.000  -0.000  -0.000  -0.002   0.000   0.000
 pseudopotential strength for first ion, spin component:            2
 -7.951  -0.259   0.004  -0.002  -0.002  -8.334  -0.250   0.004
 -0.259  -8.150   0.000  -0.002   0.001  -0.250  -8.526   0.000
  0.004   0.000  -7.775  -0.001  -0.001   0.004   0.000  -8.164
 -0.002  -0.002  -0.001  -8.144   0.262  -0.002  -0.002  -0.001
 -0.002   0.001  -0.001   0.262  -7.956  -0.002   0.001  -0.001
 -8.334  -0.250   0.004  -0.002  -0.002  -8.679  -0.241   0.004
 -0.250  -8.526   0.000  -0.002   0.001  -0.241  -8.865   0.000
  0.004   0.000  -8.164  -0.001  -0.001   0.004   0.000  -8.515
 -0.002  -0.002  -0.001  -8.521   0.253  -0.002  -0.002  -0.001
 -0.002   0.001  -0.001   0.253  -8.339  -0.002   0.001  -0.001
  0.001  -0.000   0.001  -0.000  -0.001   0.001  -0.000   0.001
  0.003  -0.000   0.001  -0.001  -0.001   0.003  -0.000   0.001
 -0.000  -0.001   0.000  -0.000  -0.000  -0.000  -0.001   0.000
 -0.000  -0.000  -0.001  -0.001   0.000  -0.000  -0.000  -0.001
 -0.001  -0.000   0.000  -0.001  -0.000  -0.001  -0.000   0.000
 -0.001  -0.001   0.000  -0.000   0.001  -0.001  -0.001   0.000
 -0.000  -0.001  -0.001  -0.001   0.000  -0.000  -0.001  -0.001
 -0.000  -0.000   0.000  -0.001  -0.001  -0.001  -0.000   0.000
 total augmentation occupancy for first ion, spin component:            1
  3.884  -1.307   0.033  -0.007  -0.031  -2.873   0.125  -0.020   0.006   0.020  -0.020   0.001   0.008  -0.001   0.091   0.000
 -1.307   2.806  -0.015   0.009   0.010   0.122  -2.662   0.018  -0.012  -0.012   0.007  -0.001   0.004   0.005  -0.033  -0.000
  0.033  -0.015   4.666  -0.000  -0.017  -0.019   0.019  -2.819  -0.005   0.016   0.048  -0.010   0.005  -0.006  -0.003  -0.000
 -0.007   0.009  -0.000   2.834   1.310   0.005  -0.012  -0.006  -2.673  -0.119   0.002  -0.001   0.035   0.003  -0.005  -0.000
 -0.031   0.010  -0.017   1.310   3.847   0.020  -0.013   0.017  -0.120  -2.859   0.002  -0.000   0.095  -0.005  -0.000  -0.004
 -2.873   0.122  -0.019   0.005   0.020   2.820   0.803   0.010  -0.004  -0.013   0.018  -0.001  -0.010  -0.001  -0.102   0.000
  0.125  -2.662   0.019  -0.012  -0.013   0.803   3.283  -0.023   0.014   0.016  -0.011   0.001  -0.007  -0.007   0.026   0.000
 -0.020   0.018  -2.819  -0.006   0.017   0.010  -0.023   2.103   0.010  -0.016  -0.055   0.011  -0.006   0.007   0.003   0.000
  0.006  -0.012  -0.005  -2.673  -0.120  -0.004   0.014   0.010   3.283  -0.813  -0.003   0.001  -0.031  -0.005   0.006   0.000
  0.020  -0.012   0.016  -0.119  -2.859  -0.013   0.016  -0.016  -0.813   2.826  -0.001   0.000  -0.103   0.007  -0.000   0.004
 -0.020   0.007   0.048   0.002   0.002   0.018  -0.011  -0.055  -0.003  -0.001   1.840  -0.221  -0.003  -0.000  -0.005   0.000
  0.001  -0.001  -0.010  -0.001  -0.000  -0.001   0.001   0.011   0.001   0.000  -0.221   0.035   0.000  -0.000   0.001  -0.000
  0.008   0.004   0.005   0.035   0.095  -0.010  -0.007  -0.006  -0.031  -0.103  -0.003   0.000   0.283  -0.001   0.001  -0.008
 -0.001   0.005  -0.006   0.003  -0.005  -0.001  -0.007   0.007  -0.005   0.007  -0.000  -0.000  -0.001   0.277  -0.000   0.000
  0.091  -0.033  -0.003  -0.005  -0.000  -0.102   0.026   0.003   0.006  -0.000  -0.005   0.001   0.001  -0.000   0.283  -0.000
  0.000  -0.000  -0.000  -0.000  -0.004   0.000   0.000   0.000   0.000   0.004   0.000  -0.000  -0.008   0.000  -0.000   0.000
 -0.000  -0.000  -0.000  -0.000   0.000   0.000   0.000  -0.000   0.000  -0.000  -0.000   0.000   0.000  -0.008   0.000  -0.000
 -0.004  -0.000  -0.000   0.000  -0.000   0.004  -0.000   0.000  -0.000   0.000   0.000  -0.000  -0.000   0.000  -0.008   0.000
 total augmentation occupancy for first ion, spin component:            2
  2.653  -2.154   0.040  -0.009  -0.034  -1.190   1.267  -0.029   0.007   0.024  -0.007  -0.001   0.001  -0.002   0.011   0.000
 -2.154   1.046  -0.006   0.002   0.006   1.264  -0.250   0.006  -0.002  -0.006  -0.002   0.001  -0.002  -0.001  -0.027  -0.000
  0.040  -0.006   4.102  -0.007  -0.011  -0.028   0.007  -2.035   0.005   0.008  -0.010   0.001   0.002  -0.002  -0.001  -0.000
 -0.009   0.002  -0.007   1.082   2.166   0.006  -0.002   0.003  -0.272  -1.272  -0.002  -0.000   0.025  -0.002  -0.002  -0.000
 -0.034   0.006  -0.011   2.166   2.604   0.024  -0.007   0.009  -1.273  -1.159   0.002  -0.000   0.015  -0.000  -0.001   0.000
 -1.190   1.264  -0.028   0.006   0.024   0.472  -0.792   0.019  -0.005  -0.016   0.005   0.001  -0.001   0.001  -0.002  -0.000
  1.267  -0.250   0.007  -0.002  -0.007  -0.792  -0.109  -0.005   0.001   0.004   0.002  -0.001   0.001   0.001   0.014   0.000
 -0.029   0.006  -2.035   0.003   0.009   0.019  -0.005   1.005  -0.003  -0.006   0.012  -0.001  -0.001   0.001   0.001   0.000
  0.007  -0.002   0.005  -0.272  -1.273  -0.005   0.001  -0.003  -0.096   0.794   0.001   0.000  -0.012   0.001   0.001   0.000
  0.024  -0.006   0.008  -1.272  -1.159  -0.016   0.004  -0.006   0.794   0.452  -0.001   0.000  -0.005  -0.000   0.001  -0.000
 -0.007  -0.002  -0.010  -0.002   0.002   0.005   0.002   0.012   0.001  -0.001  -0.044   0.050   0.001  -0.000  -0.000  -0.000
 -0.001   0.001   0.001  -0.000  -0.000   0.001  -0.001  -0.001   0.000   0.000   0.050  -0.009  -0.000  -0.000  -0.000   0.000
  0.001  -0.002   0.002   0.025   0.015  -0.001   0.001  -0.001  -0.012  -0.005   0.001  -0.000   0.016  -0.000   0.000   0.002
 -0.002  -0.001  -0.002  -0.002  -0.000   0.001   0.001   0.001   0.001  -0.000  -0.000  -0.000  -0.000   0.014  -0.000  -0.000
  0.011  -0.027  -0.001  -0.002  -0.001  -0.002   0.014   0.001   0.001   0.001  -0.000  -0.000   0.000  -0.000   0.016   0.000
  0.000  -0.000  -0.000  -0.000   0.000  -0.000   0.000   0.000   0.000  -0.000  -0.000   0.000   0.002  -0.000   0.000  -0.000
 -0.000   0.000  -0.000   0.000   0.000   0.000  -0.000   0.000  -0.000  -0.000  -0.000  -0.000  -0.000   0.001  -0.000   0.000
  0.001  -0.000  -0.000  -0.000  -0.000  -0.001  -0.000   0.000   0.000   0.000  -0.000   0.000   0.000  -0.000   0.002  -0.000


------------------------ aborting loop because EDIFF is reached ----------------------------------------


    CHARGE:  cpu time      4.8532: real time     24.3527
    FORLOC:  cpu time      0.0421: real time      0.2183
    FORNL :  cpu time     13.5984: real time     68.2576
    STRESS:  cpu time     39.9499: real time    200.5127
    FORCOR:  cpu time      0.4608: real time      2.3192
    FORHAR:  cpu time      0.1026: real time      0.5070
    MIXING:  cpu time      0.2424: real time      1.2190
    OFIELD:  cpu time      0.0000: real time      0.0000

  FORCE on cell =-STRESS in cart. coord.  units (eV):
  Direction    XX          YY          ZZ          XY          YZ          ZX
  --------------------------------------------------------------------------------------
  Alpha Z   109.46236   109.46236   109.46236
  Ewald   30957.64373 30991.80108-37675.28860   -29.58114   -21.72035    12.54025
  Hartree 33491.97549 33508.01871-31950.34364   -13.89383    -7.57013     4.37062
  E(xc)    -841.37627  -841.29865  -842.15245    -0.06724    -0.18788     0.10847
  Local  -68569.80301-68617.40184 65518.16920    41.22248    23.85410   -13.77216
  n-local  1905.23496  1906.46799  1904.31018    -1.21114    -1.06487     0.65958
  augment  -234.58749  -235.37847  -234.53490     0.68441     0.96886    -0.55969
  Kinetic  3186.02632  3181.45427  3171.41291     3.60089     6.80880    -3.93981
  Fock        0.00000     0.00000     0.00000     0.00000     0.00000     0.00000
  -------------------------------------------------------------------------------------
  Total       4.35833     3.34324     1.03507     0.87909     1.07314    -0.61933
  in kB       2.75698     2.11486     0.65476     0.55609     0.67884    -0.39177
  external pressure =        1.84 kB  Pullay stress =        0.00 kB


 VOLUME and BASIS-vectors are now :
 -----------------------------------------------------------------------------
  energy-cutoff  :      400.00
  volume of cell :     2532.77
      direct lattice vectors                 reciprocal lattice vectors
    12.092548997  0.000000000  0.000000000     0.082695551  0.047744299 -0.000000000
    -6.046274499 10.472454628  0.000000000     0.000000000  0.095488597  0.000000000
     0.000000000  0.000000000 20.000000000     0.000000000 -0.000000000  0.050000000

  length of vectors
    12.092548997 12.092548997 20.000000000     0.095488597  0.095488597  0.050000000


 FORCES acting on ions
    electron-ion (+dipol)            ewald-force                    non-local-force                 convergence-correction
 -----------------------------------------------------------------------------------------------
   -.353E+01 -.248E+00 0.254E+01   0.348E+01 0.161E+00 -.252E+01   0.528E-01 0.993E-01 0.174E-01   0.910E-06 -.105E-04 -.171E-03
   -.133E+02 -.921E+01 0.210E+02   0.127E+02 0.787E+01 -.223E+02   0.817E+00 0.142E+01 0.137E+01   -.129E-04 -.158E-05 -.172E-03
   0.146E+02 0.695E+01 0.210E+02   -.132E+02 -.704E+01 -.223E+02   -.164E+01 0.243E-02 0.137E+01   0.780E-05 0.103E-04 -.172E-03
   0.460E+01 0.283E+01 -.282E+01   -.452E+01 -.282E+01 0.273E+01   0.294E-01 -.913E-01 0.108E+00   -.992E-06 0.159E-04 -.175E-03
   -.475E+01 -.256E+01 -.282E+01   0.470E+01 0.250E+01 0.273E+01   0.643E-01 -.711E-01 0.108E+00   -.132E-04 0.879E-05 -.175E-03
   -.133E+01 -.648E+00 0.162E+01   0.127E+01 0.703E+00 -.170E+01   0.103E+00 -.963E-01 0.821E-01   -.811E-05 -.108E-04 -.169E-03
   0.123E+01 0.830E+00 0.162E+01   -.125E+01 -.751E+00 -.170E+01   0.318E-01 -.138E+00 0.821E-01   0.134E-04 0.165E-05 -.169E-03
   0.198E+01 0.293E+01 0.254E+01   -.188E+01 -.293E+01 -.252E+01   -.112E+00 0.395E-02 0.174E-01   0.865E-05 -.604E-05 -.171E-03
   0.686E+02 -.201E+01 0.482E+03   -.706E+02 0.201E+01 -.485E+03   0.200E+01 0.252E-01 0.298E+01   -.164E-04 -.976E-05 -.151E-03
   -.313E+02 0.542E+02 0.456E+03   0.321E+02 -.557E+02 -.458E+03   -.919E+00 0.159E+01 0.255E+01   0.223E-05 -.385E-05 -.166E-03
   -.451E+02 -.607E+02 0.478E+03   0.462E+02 0.624E+02 -.481E+03   -.114E+01 -.183E+01 0.285E+01   0.525E-05 -.303E-04 -.140E-03
   -.674E+02 -.282E+01 -.477E+03   0.692E+02 0.284E+01 0.480E+03   -.190E+01 0.198E-01 -.288E+01   0.362E-05 -.160E-04 -.159E-03
   0.385E+02 -.618E+02 -.482E+03   -.395E+02 0.635E+02 0.485E+03   0.939E+00 -.168E+01 -.292E+01   -.255E-05 0.771E-05 -.166E-03
   0.272E+02 0.635E+02 -.483E+03   -.281E+02 -.651E+02 0.485E+03   0.787E+00 0.159E+01 -.290E+01   0.245E-04 -.640E-05 -.179E-03
   0.751E+02 0.875E+01 0.478E+03   -.772E+02 -.881E+01 -.481E+03   0.215E+01 0.726E-01 0.285E+01   0.236E-04 -.197E-04 -.140E-03
   -.391E+02 0.642E+02 0.482E+03   0.401E+02 -.659E+02 -.485E+03   -.900E+00 0.163E+01 0.299E+01   0.144E-04 -.409E-05 -.160E-03
   -.259E+02 -.619E+02 0.499E+03   0.271E+02 0.635E+02 -.502E+03   -.820E+00 -.162E+01 0.268E+01   -.620E-04 0.183E-04 -.116E-03
   -.686E+02 0.821E+01 -.483E+03   0.705E+02 -.822E+01 0.485E+03   -.177E+01 0.112E+00 -.290E+01   -.671E-05 -.244E-04 -.179E-03
   0.250E+02 -.432E+02 -.418E+03   -.257E+02 0.445E+02 0.412E+03   0.520E+00 -.901E+00 0.516E+01   0.256E-04 -.443E-04 -.249E-03
   0.470E+02 0.579E+02 -.477E+03   -.481E+02 -.596E+02 0.479E+03   0.110E+01 0.180E+01 -.281E+01   -.997E-05 0.287E-04 -.181E-03
   0.666E+02 -.851E+01 0.499E+03   -.685E+02 0.832E+01 -.502E+03   0.182E+01 -.101E+00 0.268E+01   0.151E-04 0.628E-04 -.116E-03
   -.356E+02 0.617E+02 0.482E+03   0.366E+02 -.634E+02 -.485E+03   -.997E+00 0.173E+01 0.297E+01   0.310E-05 -.538E-05 -.146E-03
   -.379E+02 -.663E+02 0.482E+03   0.388E+02 0.680E+02 -.485E+03   -.981E+00 -.175E+01 0.299E+01   -.167E-04 0.521E-05 -.159E-03
   -.737E+02 -.118E+02 -.477E+03   0.756E+02 0.119E+02 0.479E+03   -.211E+01 -.501E-01 -.281E+01   -.199E-04 0.230E-04 -.181E-03
   0.343E+02 -.642E+02 -.482E+03   -.353E+02 0.659E+02 0.485E+03   0.986E+00 -.165E+01 -.292E+01   -.540E-05 0.607E-05 -.166E-03
   0.351E+02 0.603E+02 -.481E+03   -.361E+02 -.620E+02 0.484E+03   0.101E+01 0.170E+01 -.290E+01   -.123E-04 -.183E-04 -.169E-03
   0.763E+02 -.371E+00 0.482E+03   -.783E+02 0.395E+00 -.485E+03   0.201E+01 -.249E-01 0.299E+01   0.384E-05 0.171E-04 -.159E-03
   -.360E+02 0.660E+02 0.482E+03   0.370E+02 -.677E+02 -.485E+03   -.963E+00 0.160E+01 0.299E+01   -.368E-05 -.145E-04 -.160E-03
   -.326E+02 -.604E+02 0.482E+03   0.336E+02 0.621E+02 -.485E+03   -.102E+01 -.172E+01 0.298E+01   0.166E-04 0.930E-05 -.151E-03
   -.697E+02 -.229E+00 -.481E+03   0.717E+02 0.247E+00 0.484E+03   -.198E+01 -.281E-01 -.290E+01   0.220E-04 0.151E-05 -.169E-03
   0.368E+02 -.638E+02 -.479E+03   -.378E+02 0.655E+02 0.482E+03   0.982E+00 -.170E+01 -.292E+01   0.511E-05 -.886E-05 -.169E-03
   0.361E+02 0.570E+02 -.477E+03   -.371E+02 -.585E+02 0.480E+03   0.934E+00 0.166E+01 -.288E+01   0.121E-04 -.112E-04 -.159E-03
   -.192E+01 0.333E+01 -.138E+03   0.234E+01 -.405E+01 0.145E+03   -.311E+00 0.539E+00 -.544E+01   0.205E-05 -.354E-05 -.568E-06
 -----------------------------------------------------------------------------------------------
   0.123E+01 -.213E+01 -.561E+01   0.617E-13 -.156E-12 -.369E-12   -.123E+01 0.213E+01 0.562E+01   0.192E-04 -.332E-04 -.526E-02
 
 
 POSITION                                       TOTAL-FORCE (eV/Angst)
 -----------------------------------------------------------------------------------
     -0.00672      3.49007      9.99940         0.005475      0.012007      0.038185
      2.91148      1.62994      9.90684         0.157053      0.082647      0.147273
      6.20210      3.52978      9.90684        -0.150101     -0.094688      0.147273
      9.07312      1.74455      9.99724         0.110155     -0.078157      0.018754
     -3.02425      8.72341      9.99724         0.012609     -0.134475      0.018754
     -0.00498      6.98690      9.99745         0.044265     -0.041813     -0.000452
      3.02107      8.73399      9.99745         0.014078     -0.059241     -0.000452
      6.05029      6.98708      9.99940        -0.013136      0.001262      0.038185
     -0.85112      5.23646      8.66453         0.003707      0.027552      0.005175
      4.94433      1.90863      8.69824        -0.069224      0.119899      0.161262
      1.93510      3.37138      8.66329        -0.052545     -0.071877      0.034357
      0.85256      5.23472     11.34177        -0.047072      0.035317     -0.020979
     -1.93662      3.35679     11.33644        -0.041129      0.003164      0.001607
      1.05244      1.88752     11.36634        -0.136256     -0.030661     -0.013978
      5.18216      5.24607      8.66329         0.088519      0.009567      0.034357
     -1.08069      1.88057      8.66358         0.064016     -0.038819      0.013682
      8.08731      3.33630      8.59636         0.322437     -0.015923     -0.281336
      6.90855      5.26855     11.36634         0.094681      0.102670     -0.013978
      4.03578      3.48227     11.45506        -0.227397      0.393863     -0.741085
      7.13928      1.87119     11.35124         0.048499      0.170617     -0.187826
     -3.90984     10.37302      8.59636        -0.147429     -0.287200     -0.281336
      1.93695      7.11756      8.66287        -0.010309      0.017855      0.018549
     -1.08439      8.58916      8.66287        -0.001170     -0.003247      0.005011
     -2.16700     10.46148     11.35124        -0.172009      0.043307     -0.187826
      7.13065      8.59178     11.33644         0.017824      0.037201      0.001607
     -1.93440      7.11560     11.33663         0.004327     -0.011753      0.014202
      2.17317     10.46992      8.66287         0.003397     -0.000611      0.005011
      7.98113      7.11242      8.66358         0.001610     -0.074848      0.013682
      4.96006      8.59155      8.66453        -0.025714      0.010566      0.005175
      3.87432     10.46927     11.33663         0.008015     -0.009624      0.014202
      1.08590      8.59162     11.33692        -0.003563      0.006170     -0.001508
      4.10973      7.11525     11.34177        -0.007050      0.058424     -0.020979
      4.10969      3.35426     12.71466         0.103435     -0.179154      1.015435
 -----------------------------------------------------------------------------------
    total drift:                               -0.000493      0.000849     -0.001360


--------------------------------------------------------------------------------------------------------



  FREE ENERGIE OF THE ION-ELECTRON SYSTEM (eV)
  ---------------------------------------------------
  free  energy   TOTEN  =      -158.08779935 eV

  energy  without entropy=     -158.08753311  energy(sigma->0) =     -158.08766623
 d Force = 0.1468246E+00[ 0.469E-01, 0.247E+00]  d Energy = 0.1484610E+00-0.164E-02
 d Force = 0.8309118E+02[ 0.826E+02, 0.836E+02]  d Ewald  = 0.8308450E+02 0.668E-02
 


--------------------------------------------------------------------------------------------------------


    POTLOK:  cpu time      0.8476: real time      4.2620


--------------------------------------------------------------------------------------------------------


 Conjugate gradient step on ions:
 trial-energy change:   -0.148461  1 .order   -0.146825   -0.246731   -0.046918
  (g-gl).g = 0.219E+00      g.g   = 0.209E+00  gl.gl    = 0.386E+00
 g(Force)  = 0.209E+00   g(Stress)= 0.000E+00 ortho     =-0.946E-02
 gamma     =   0.56658
 trial     =   1.20936
 opt step  =   1.47725  (harmonic =   1.49333) maximal distance =0.08122294
 next E    =  -158.093014   (d E  =  -0.15368)


--------------------------------------------------------------------------------------------------------


      MLFF:  cpu time      0.0089: real time      0.1023
    WAVPRE:  cpu time      0.0696: real time      0.3269
    FEWALD:  cpu time      0.0456: real time      0.2378

 real space projection operators:
  total allocation   :      12405.92 KBytes
  max/ min on nodes  :       3122.30       3086.09

    ORTHCH:  cpu time     14.8893: real time     74.7154
     LOOP+:  cpu time   4911.1715: real time  24645.5391


--------------------------------------- Ionic step        5  -------------------------------------------




--------------------------------------- Iteration      5(   1)  ---------------------------------------


    POTLOK:  cpu time      0.5418: real time      2.7020
    SETDIJ:  cpu time      0.2452: real time      1.2370
     EDDAV:  cpu time    194.6480: real time    976.7440
       DOS:  cpu time      0.1466: real time      0.7270
    CHARGE:  cpu time      5.3461: real time     26.8303
    MIXING:  cpu time      0.0744: real time      0.3786
    --------------------------------------------
      LOOP:  cpu time    201.0022: real time   1008.6190

 eigenvalue-minimisations  :  5184
 total energy-change (2. order) : 0.1018815E-01  (-0.2065249E+00)
 number of electron     216.9999991 magnetization      24.9999998
 augmentation part       -1.9925210 magnetization      16.7894947

 DIPCOR: dipole corrections for dipol
 direction  3 min pos     1,
 dipolmoment           0.000000      0.000000     -0.322819 electrons x Angstroem
 Tr[quadrupol]     -5225.009433

 energy correction for charged system         0.000000 eV
 dipol+quadrupol energy correction           -0.003726 eV
 added-field ion interaction          0.054265 eV  (added to PSCEN)


 Broyden mixing:
  rms(total) = 0.90296E-01    rms(broyden)= 0.90269E-01
  rms(prec ) = 0.90890E-01
  weight for this iteration     100.00

 Free energy of the ion-electron system (eV)
  ---------------------------------------------------
  alpha Z        PSCENC =       109.51290227
  Ewald energy   TEWEN  =     24255.91291344
  -Hartree energ DENC   =    -35031.53500525
  -exchange      EXHF   =         0.00000000
  -V(xc)+E(xc)   XCENC  =       348.45946121
  PAW double counting   =     15016.42425577   -14868.57746357
  entropy T*S    EENTRO =        -0.00032050
  eigenvalues    EBANDS =     -2049.03323068
  atomic energy  EATOM  =     12060.75887678
  Solvation  Ediel_sol  =         0.00000000
  ---------------------------------------------------
  free energy    TOTEN  =      -158.07761052 eV

  energy without entropy =     -158.07729002  energy(sigma->0) =     -158.07745027


--------------------------------------------------------------------------------------------------------




--------------------------------------- Iteration      5(   2)  ---------------------------------------


    POTLOK:  cpu time      0.5799: real time      2.9023
    SETDIJ:  cpu time      0.2489: real time      1.2617
     EDDAV:  cpu time    232.5871: real time   1167.1480
       DOS:  cpu time      0.1715: real time      0.8600
    CHARGE:  cpu time      4.8692: real time     24.4218
    MIXING:  cpu time      0.0858: real time      0.4381
    --------------------------------------------
      LOOP:  cpu time    238.5424: real time   1197.0320

 eigenvalue-minimisations  :  7184
 total energy-change (2. order) :-0.1517770E-01  (-0.1554887E-01)
 number of electron     216.9999991 magnetization      24.9999998
 augmentation part       -1.9741657 magnetization      16.7964799

 DIPCOR: dipole corrections for dipol
 direction  3 min pos     1,
 dipolmoment           0.000000      0.000000     -0.325573 electrons x Angstroem
 Tr[quadrupol]     -5225.009061

 energy correction for charged system         0.000000 eV
 dipol+quadrupol energy correction           -0.003790 eV
 added-field ion interaction          0.054728 eV  (added to PSCEN)


 Broyden mixing:
  rms(total) = 0.49731E-01    rms(broyden)= 0.49717E-01
  rms(prec ) = 0.50460E-01
  weight for this iteration     100.00

 eigenvalues of (default mixing * dielectric matrix)
  average eigenvalue GAMMA=   0.6389
  0.6389

 Free energy of the ion-electron system (eV)
  ---------------------------------------------------
  alpha Z        PSCENC =       109.51330150
  Ewald energy   TEWEN  =     24255.91291344
  -Hartree energ DENC   =    -35031.44129520
  -exchange      EXHF   =         0.00000000
  -V(xc)+E(xc)   XCENC  =       348.47574278
  PAW double counting   =     15014.45408017   -14866.55016044
  entropy T*S    EENTRO =        -0.00030007
  eigenvalues    EBANDS =     -2049.21594718
  atomic energy  EATOM  =     12060.75887678
  Solvation  Ediel_sol  =         0.00000000
  ---------------------------------------------------
  free energy    TOTEN  =      -158.09278822 eV

  energy without entropy =     -158.09248815  energy(sigma->0) =     -158.09263818


--------------------------------------------------------------------------------------------------------




--------------------------------------- Iteration      5(   3)  ----------------------------------