Cr2Cl6 Monolayer 1x1 Primitive Cell     
   1.0000000000000000     
     5.9908931511656416    0.0000000000000000    0.0000000000000000
    -2.9954465755828208    5.1882656602676525    0.0000000000000000
     0.0000000000000000    0.0000000000000000   17.6700000000000017
  Cr              Cl            
     2     6
Direct
     0.3333333333333357    0.6666666666666643    0.5000000000000000
     0.6666666666666643    0.3333333333333357    0.5000000000000000
     0.3555832195952643    0.0000000000000000    0.4241826678965228
     0.0000000000000000    0.3555832195952643    0.4241826678965228
     0.6444167804047356    0.6444167804047356    0.4241826678965228
     0.6444167804047356    0.0000000000000000    0.5758173321034772
     0.0000000000000000    0.6444167804047356    0.5758173321034772
     0.3555832195952643    0.3555832195952643    0.5758173321034772

  0.00000000E+00  0.00000000E+00  0.00000000E+00
  0.00000000E+00  0.00000000E+00  0.00000000E+00
  0.00000000E+00  0.00000000E+00  0.00000000E+00
  0.00000000E+00  0.00000000E+00  0.00000000E+00
  0.00000000E+00  0.00000000E+00  0.00000000E+00
  0.00000000E+00  0.00000000E+00  0.00000000E+00
  0.00000000E+00  0.00000000E+00  0.00000000E+00
  0.00000000E+00  0.00000000E+00  0.00000000E+00
