Cr2Cl6 Monolayer 1x1 Primitive Cell     
   1.0000000000000000     
     5.9914368793752439    0.0000000000000000    0.0000000000000000
    -2.9957184396876220    5.1887365427099219    0.0000000000000000
     0.0000000000000000    0.0000000000000000   17.6700000000000017
  Cr              Cl            
     2     6
Direct
     0.3333333333333357    0.6666666666666643    0.5000000000000000
     0.6666666666666643    0.3333333333333357    0.5000000000000000
     0.3556141458894318    0.0000000000000000    0.4241901447176139
     0.0000000000000000    0.3556141458894318    0.4241901447176139
     0.6443858541105681    0.6443858541105681    0.4241901447176139
     0.6443858541105681    0.0000000000000000    0.5758098552823860
     0.0000000000000000    0.6443858541105681    0.5758098552823860
     0.3556141458894318    0.3556141458894318    0.5758098552823860

  0.00000000E+00  0.00000000E+00  0.00000000E+00
  0.00000000E+00  0.00000000E+00  0.00000000E+00
  0.00000000E+00  0.00000000E+00  0.00000000E+00
  0.00000000E+00  0.00000000E+00  0.00000000E+00
  0.00000000E+00  0.00000000E+00  0.00000000E+00
  0.00000000E+00  0.00000000E+00  0.00000000E+00
  0.00000000E+00  0.00000000E+00  0.00000000E+00
  0.00000000E+00  0.00000000E+00  0.00000000E+00
