       N       E                     dE             d eps       ncg     rms          rms(c)
DAV:   1     0.516583193138E+03    0.51658E+03   -0.15615E+04  2304   0.922E+02
DAV:   2     0.837975094493E+02   -0.43279E+03   -0.41202E+03  2944   0.245E+02
DAV:   3    -0.355976407677E+02   -0.11940E+03   -0.11652E+03  3296   0.131E+02
DAV:   4    -0.431245372551E+02   -0.75269E+01   -0.73542E+01  3196   0.459E+01
DAV:   5    -0.433652054634E+02   -0.24067E+00   -0.23990E+00  3256   0.789E+00    0.198E+01
DAV:   6    -0.407295060225E+02    0.26357E+01   -0.38105E+01  3412   0.619E+01    0.215E+01
DAV:   7    -0.389666626046E+02    0.17628E+01   -0.59880E+00  3424   0.556E+01    0.957E+00
DAV:   8    -0.390633124461E+02   -0.96650E-01   -0.12217E+00  2884   0.518E+00    0.437E+00
DAV:   9    -0.390250402147E+02    0.38272E-01   -0.24070E-01  3448   0.776E+00    0.150E+00
DAV:  10    -0.390214166229E+02    0.36236E-02   -0.55755E-02  3384   0.300E+00    0.585E-01
DAV:  11    -0.390268622634E+02   -0.54456E-02   -0.52717E-03  3440   0.944E-01    0.232E-01
DAV:  12    -0.390359104502E+02   -0.90482E-02   -0.12213E-03  3432   0.339E-01    0.136E-01
DAV:  13    -0.390405738979E+02   -0.46634E-02   -0.19546E-04  3232   0.103E-01    0.510E-02
DAV:  14    -0.390426004133E+02   -0.20265E-02   -0.63988E-05  3384   0.908E-02    0.397E-02
DAV:  15    -0.390441192482E+02   -0.15188E-02   -0.35193E-05  3248   0.356E-02    0.185E-02
DAV:  16    -0.390456305395E+02   -0.15113E-02   -0.48591E-05  3400   0.592E-02    0.159E-02
DAV:  17    -0.390458023362E+02   -0.17180E-03   -0.39609E-06  2228   0.964E-03    0.128E-02
DAV:  18    -0.390460223775E+02   -0.22004E-03   -0.11554E-05  2552   0.145E-02    0.585E-03
DAV:  19    -0.390460752007E+02   -0.52823E-04   -0.77880E-06  2572   0.130E-02    0.351E-03
DAV:  20    -0.390460843668E+02   -0.91661E-05   -0.11250E-06  1796   0.487E-03    0.169E-03
DAV:  21    -0.390460887081E+02   -0.43413E-05   -0.16184E-06  2012   0.505E-03    0.187E-03
DAV:  22    -0.390461018644E+02   -0.13156E-04   -0.30700E-07  1752   0.336E-03    0.980E-04
DAV:  23    -0.390461253664E+02   -0.23502E-04   -0.61199E-07  1748   0.315E-03    0.103E-03
DAV:  24    -0.390461391093E+02   -0.13743E-04   -0.51700E-07  1732   0.303E-03    0.972E-04
DAV:  25    -0.390461411721E+02   -0.20628E-05   -0.12267E-07  1480   0.221E-03    0.268E-04
DAV:  26    -0.390461439073E+02   -0.27352E-05   -0.12180E-07  1512   0.149E-03    0.449E-04
DAV:  27    -0.390461460508E+02   -0.21435E-05   -0.80291E-08  1464   0.143E-03    0.303E-04
DAV:  28    -0.390461469604E+02   -0.90956E-06   -0.41707E-08  1432   0.104E-03
   1 F= -.39965339E+02 E0= -.39965339E+02  d E =-.399653E+02  mag=     6.0000
       N       E                     dE             d eps       ncg     rms          rms(c)
DAV:   1    -0.391877216030E+02   -0.14158E+00   -0.68059E+00  2472   0.143E+01    0.316E+00
DAV:   2    -0.390877465667E+02    0.99975E-01   -0.49755E-01  3368   0.537E+00    0.148E+00
DAV:   3    -0.390626606580E+02    0.25086E-01   -0.97555E-02  3380   0.399E+00    0.101E+00
DAV:   4    -0.390571287102E+02    0.55319E-02   -0.12987E-02  3280   0.171E+00    0.626E-01
DAV:   5    -0.390556487225E+02    0.14800E-02   -0.65752E-03  3192   0.454E-01    0.363E-01
DAV:   6    -0.390555635358E+02    0.85187E-04   -0.99534E-04  3408   0.556E-01    0.142E-01
DAV:   7    -0.390555790252E+02   -0.15489E-04   -0.54109E-04  3448   0.294E-01    0.408E-02
DAV:   8    -0.390556403138E+02   -0.61289E-04   -0.73296E-05  3292   0.764E-02    0.227E-02
DAV:   9    -0.390557169075E+02   -0.76594E-04   -0.67213E-06  2536   0.135E-02    0.879E-03
DAV:  10    -0.390557644242E+02   -0.47517E-04   -0.14266E-06  1640   0.956E-03    0.372E-03
DAV:  11    -0.390557727041E+02   -0.82799E-05   -0.59261E-07  1532   0.849E-03    0.156E-03
DAV:  12    -0.390558041496E+02   -0.31446E-04   -0.17615E-06  1852   0.495E-03    0.197E-03
DAV:  13    -0.390558239298E+02   -0.19780E-04   -0.89965E-07  1704   0.413E-03    0.127E-03
DAV:  14    -0.390558276789E+02   -0.37492E-05   -0.32786E-07  1576   0.398E-03    0.103E-03
DAV:  15    -0.390558301557E+02   -0.24768E-05   -0.22308E-07  1492   0.263E-03    0.682E-04
DAV:  16    -0.390558319465E+02   -0.17908E-05   -0.15877E-07  1508   0.237E-03    0.351E-04
DAV:  17    -0.390558327765E+02   -0.83005E-06   -0.76388E-08  1460   0.189E-03
   2 F= -.39991570E+02 E0= -.39991570E+02  d E =-.262316E-01  mag=     6.0000
       N       E                     dE             d eps       ncg     rms          rms(c)
DAV:   1    -0.390632172634E+02   -0.73853E-02   -0.18150E-01  2524   0.235E+00    0.504E-01
DAV:   2    -0.390605288926E+02    0.26884E-02   -0.13023E-02  3316   0.871E-01    0.244E-01
DAV:   3    -0.390598415915E+02    0.68730E-03   -0.26379E-03  3412   0.682E-01    0.170E-01
DAV:   4    -0.390596719149E+02    0.16968E-03   -0.34175E-04  3428   0.275E-01    0.993E-02
DAV:   5    -0.390596255587E+02    0.46356E-04   -0.17753E-04  2932   0.689E-02    0.587E-02
DAV:   6    -0.390596251640E+02    0.39474E-06   -0.26201E-05  3440   0.910E-02    0.239E-02
DAV:   7    -0.390596277116E+02   -0.25477E-05   -0.14180E-05  3484   0.514E-02    0.738E-03
DAV:   8    -0.390596305668E+02   -0.28552E-05   -0.11977E-06  1564   0.130E-02    0.328E-03
DAV:   9    -0.390596349485E+02   -0.43818E-05   -0.69194E-07  1384   0.702E-03    0.277E-03
DAV:  10    -0.390596409841E+02   -0.60355E-05   -0.41265E-07  1420   0.626E-03    0.138E-03
DAV:  11    -0.390596434129E+02   -0.24288E-05   -0.18988E-07  1532   0.448E-03    0.747E-04
DAV:  12    -0.390596463246E+02   -0.29117E-05   -0.15954E-07  1544   0.205E-03    0.465E-04
DAV:  13    -0.390596484368E+02   -0.21123E-05   -0.93563E-08  1436   0.202E-03    0.439E-04
DAV:  14    -0.390596496591E+02   -0.12222E-05   -0.92707E-08  1536   0.166E-03    0.470E-04
DAV:  15    -0.390596499471E+02   -0.28806E-06   -0.44847E-08  1448   0.147E-03
   3 F= -.39992658E+02 E0= -.39992658E+02  d E =-.273189E-01  mag=     6.0000
       N       E                     dE             d eps       ncg     rms          rms(c)
DAV:   1    -0.390599580806E+02   -0.30842E-03   -0.19046E-03  2492   0.241E-01    0.518E-02
DAV:   2    -0.390599303689E+02    0.27712E-04   -0.13681E-04  3260   0.894E-02    0.251E-02
DAV:   3    -0.390599223690E+02    0.79999E-05   -0.27754E-05  3360   0.697E-02    0.174E-02
DAV:   4    -0.390599199152E+02    0.24539E-05   -0.19125E-06  1980   0.283E-02    0.109E-02
DAV:   5    -0.390599186901E+02    0.12251E-05   -0.57679E-06  2160   0.115E-02    0.660E-03
DAV:   6    -0.390599182207E+02    0.46937E-06   -0.26595E-07  1396   0.116E-02
   4 F= -.39992647E+02 E0= -.39992647E+02  d E =-.273080E-01  mag=     6.0000
       N       E                     dE             d eps       ncg     rms          rms(c)
DAV:   1    -0.390599328859E+02   -0.14196E-04   -0.60536E-03  2568   0.317E-01    0.377E-02
DAV:   2    -0.390599677860E+02   -0.34900E-04   -0.46555E-04  3360   0.138E-01    0.248E-02
DAV:   3    -0.390599662290E+02    0.15569E-05   -0.49852E-06  2592   0.275E-02    0.141E-02
DAV:   4    -0.390599657333E+02    0.49574E-06   -0.12186E-06  1440   0.977E-03
   5 F= -.39992712E+02 E0= -.39992712E+02  d E =-.651009E-04  mag=     6.0000
       N       E                     dE             d eps       ncg     rms          rms(c)
DAV:   1    -0.390597655166E+02    0.20071E-03   -0.53896E-02  2560   0.939E-01    0.109E-01
DAV:   2    -0.390600590328E+02   -0.29352E-03   -0.38979E-03  3304   0.397E-01    0.740E-02
DAV:   3    -0.390600417910E+02    0.17242E-04   -0.44086E-05  3404   0.759E-02    0.437E-02
DAV:   4    -0.390600369020E+02    0.48890E-05   -0.97861E-06  3032   0.206E-02    0.334E-02
DAV:   5    -0.390600318706E+02    0.50314E-05   -0.22005E-05  2936   0.233E-02    0.148E-02
DAV:   6    -0.390600320275E+02   -0.15693E-06   -0.24485E-06  1880   0.118E-02
   6 F= -.39992828E+02 E0= -.39992828E+02  d E =-.181200E-03  mag=     6.0000
