       N       E                     dE             d eps       ncg     rms          rms(c)
DAV:   1     0.559351950745E+03    0.55935E+03   -0.17307E+04  2304   0.110E+03
DAV:   2     0.934638445117E+02   -0.46589E+03   -0.44436E+03  3088   0.254E+02
DAV:   3    -0.349852441404E+02   -0.12845E+03   -0.12492E+03  3296   0.140E+02
DAV:   4    -0.431088203080E+02   -0.81236E+01   -0.80280E+01  3152   0.486E+01
DAV:   5    -0.433622902131E+02   -0.25347E+00   -0.25300E+00  3236   0.846E+00    0.198E+01
DAV:   6    -0.407955136393E+02    0.25668E+01   -0.38126E+01  3408   0.630E+01    0.215E+01
DAV:   7    -0.389730451639E+02    0.18225E+01   -0.59842E+00  3432   0.565E+01    0.960E+00
DAV:   8    -0.390640440526E+02   -0.90999E-01   -0.12227E+00  2860   0.520E+00    0.436E+00
DAV:   9    -0.390219345248E+02    0.42110E-01   -0.24123E-01  3424   0.787E+00    0.150E+00
DAV:  10    -0.390197018515E+02    0.22327E-02   -0.54901E-02  3400   0.298E+00    0.597E-01
DAV:  11    -0.390261448714E+02   -0.64430E-02   -0.54265E-03  3456   0.991E-01    0.234E-01
DAV:  12    -0.390353665243E+02   -0.92217E-02   -0.12694E-03  3444   0.341E-01    0.137E-01
DAV:  13    -0.390398471546E+02   -0.44806E-02   -0.19642E-04  3216   0.102E-01    0.516E-02
DAV:  14    -0.390419740566E+02   -0.21269E-02   -0.63895E-05  3388   0.887E-02    0.408E-02
DAV:  15    -0.390437473627E+02   -0.17733E-02   -0.36086E-05  3236   0.375E-02    0.186E-02
DAV:  16    -0.390455270639E+02   -0.17797E-02   -0.49903E-05  3376   0.607E-02    0.160E-02
DAV:  17    -0.390457045345E+02   -0.17747E-03   -0.42516E-06  2264   0.991E-03    0.130E-02
DAV:  18    -0.390459207227E+02   -0.21619E-03   -0.13183E-05  2568   0.157E-02    0.598E-03
DAV:  19    -0.390459726955E+02   -0.51973E-04   -0.80096E-06  2576   0.138E-02    0.353E-03
DAV:  20    -0.390459811939E+02   -0.84984E-05   -0.12904E-06  1800   0.565E-03    0.170E-03
DAV:  21    -0.390459815101E+02   -0.31620E-06   -0.16124E-06  1940   0.567E-03
   1 F= -.39965173E+02 E0= -.39965173E+02  d E =-.399652E+02  mag=     6.0000
       N       E                     dE             d eps       ncg     rms          rms(c)
DAV:   1    -0.391887034581E+02   -0.14272E+00   -0.68731E+00  2488   0.145E+01    0.318E+00
DAV:   2    -0.390882334635E+02    0.10047E+00   -0.49856E-01  3300   0.543E+00    0.149E+00
DAV:   3    -0.390627207952E+02    0.25513E-01   -0.97506E-02  3424   0.406E+00    0.101E+00
DAV:   4    -0.390569917793E+02    0.57290E-02   -0.12958E-02  3364   0.174E+00    0.631E-01
DAV:   5    -0.390554505615E+02    0.15412E-02   -0.66065E-03  3220   0.456E-01    0.368E-01
DAV:   6    -0.390553713594E+02    0.79202E-04   -0.10103E-03  3404   0.568E-01    0.144E-01
DAV:   7    -0.390553937663E+02   -0.22407E-04   -0.55193E-04  3452   0.304E-01    0.417E-02
DAV:   8    -0.390554583998E+02   -0.64634E-04   -0.75051E-05  3296   0.798E-02    0.231E-02
DAV:   9    -0.390555326939E+02   -0.74294E-04   -0.70051E-06  2484   0.143E-02    0.891E-03
DAV:  10    -0.390555810788E+02   -0.48385E-04   -0.14822E-06  1668   0.103E-02    0.368E-03
DAV:  11    -0.390555906316E+02   -0.95528E-05   -0.60616E-07  1536   0.891E-03    0.158E-03
DAV:  12    -0.390556227757E+02   -0.32144E-04   -0.17711E-06  1840   0.539E-03    0.207E-03
DAV:  13    -0.390556424796E+02   -0.19704E-04   -0.96292E-07  1684   0.474E-03    0.130E-03
DAV:  14    -0.390556457726E+02   -0.32930E-05   -0.34672E-07  1556   0.433E-03    0.111E-03
DAV:  15    -0.390556486070E+02   -0.28344E-05   -0.24489E-07  1576   0.287E-03    0.758E-04
DAV:  16    -0.390556504461E+02   -0.18391E-05   -0.15160E-07  1464   0.272E-03    0.485E-04
DAV:  17    -0.390556513909E+02   -0.94473E-06   -0.85278E-08  1468   0.197E-03
   2 F= -.39991439E+02 E0= -.39991439E+02  d E =-.262655E-01  mag=     6.0000
       N       E                     dE             d eps       ncg     rms          rms(c)
DAV:   1    -0.390633892415E+02   -0.77388E-02   -0.19234E-01  2536   0.244E+00    0.519E-01
DAV:   2    -0.390605738721E+02    0.28154E-02   -0.13758E-02  3356   0.905E-01    0.252E-01
DAV:   3    -0.390598376952E+02    0.73618E-03   -0.27640E-03  3412   0.709E-01    0.175E-01
DAV:   4    -0.390596477008E+02    0.18999E-03   -0.36013E-04  3436   0.286E-01    0.103E-01
DAV:   5    -0.390595961819E+02    0.51519E-04   -0.18749E-04  2984   0.716E-02    0.608E-02
DAV:   6    -0.390595945889E+02    0.15930E-05   -0.27680E-05  3424   0.946E-02    0.247E-02
DAV:   7    -0.390595969866E+02   -0.23977E-05   -0.15233E-05  3512   0.541E-02    0.762E-03
DAV:   8    -0.390595999805E+02   -0.29939E-05   -0.12702E-06  1548   0.138E-02    0.340E-03
DAV:   9    -0.390596047062E+02   -0.47256E-05   -0.75047E-07  1392   0.746E-03    0.288E-03
DAV:  10    -0.390596110644E+02   -0.63582E-05   -0.45218E-07  1424   0.672E-03    0.144E-03
DAV:  11    -0.390596136932E+02   -0.26289E-05   -0.21097E-07  1556   0.487E-03    0.794E-04
DAV:  12    -0.390596166316E+02   -0.29384E-05   -0.17101E-07  1548   0.226E-03    0.497E-04
DAV:  13    -0.390596188023E+02   -0.21707E-05   -0.10138E-07  1444   0.223E-03    0.456E-04
DAV:  14    -0.390596201501E+02   -0.13479E-05   -0.10396E-07  1536   0.182E-03    0.501E-04
DAV:  15    -0.390596204367E+02   -0.28657E-06   -0.48516E-08  1456   0.163E-03
   3 F= -.39992602E+02 E0= -.39992602E+02  d E =-.274285E-01  mag=     6.0000
       N       E                     dE             d eps       ncg     rms          rms(c)
DAV:   1    -0.390599284740E+02   -0.30832E-03   -0.19031E-03  2488   0.242E-01    0.517E-02
DAV:   2    -0.390599015668E+02    0.26907E-04   -0.13627E-04  3260   0.902E-02    0.251E-02
DAV:   3    -0.390598932887E+02    0.82780E-05   -0.27452E-05  3368   0.704E-02    0.174E-02
DAV:   4    -0.390598904604E+02    0.28283E-05   -0.18851E-06  1984   0.285E-02    0.109E-02
DAV:   5    -0.390598891996E+02    0.12608E-05   -0.57807E-06  2136   0.116E-02    0.663E-03
DAV:   6    -0.390598887133E+02    0.48626E-06   -0.26347E-07  1396   0.118E-02
   4 F= -.39992591E+02 E0= -.39992591E+02  d E =-.274182E-01  mag=     6.0000
       N       E                     dE             d eps       ncg     rms          rms(c)
DAV:   1    -0.390599455910E+02   -0.56391E-04   -0.60822E-03  2568   0.326E-01    0.400E-02
DAV:   2    -0.390599820976E+02   -0.36507E-04   -0.50503E-04  3408   0.142E-01    0.237E-02
DAV:   3    -0.390599790604E+02    0.30371E-05   -0.60279E-06  2760   0.303E-02    0.152E-02
DAV:   4    -0.390599783630E+02    0.69745E-06   -0.12943E-06  1452   0.113E-02
   5 F= -.39992657E+02 E0= -.39992657E+02  d E =-.660915E-04  mag=     6.0000
       N       E                     dE             d eps       ncg     rms          rms(c)
DAV:   1    -0.390599023212E+02    0.76739E-04   -0.54068E-02  2564   0.964E-01    0.116E-01
DAV:   2    -0.390602040635E+02   -0.30174E-03   -0.42451E-03  3324   0.411E-01    0.713E-02
DAV:   3    -0.390601780426E+02    0.26021E-04   -0.53302E-05  3412   0.846E-02    0.467E-02
DAV:   4    -0.390601719410E+02    0.61016E-05   -0.11847E-05  3148   0.256E-02    0.343E-02
DAV:   5    -0.390601647881E+02    0.71529E-05   -0.25105E-05  2944   0.246E-02    0.156E-02
DAV:   6    -0.390601644871E+02    0.30095E-06   -0.25150E-06  1792   0.141E-02
   6 F= -.39992770E+02 E0= -.39992770E+02  d E =-.178567E-03  mag=     6.0000
