Cr8Cl24Ni1
1.0
     12.1682323       0.0016454       0.0000000
     -6.1314980      10.5521182       0.0000000
      0.0000000       0.0000000      17.6887665
  Cr    Cl    Ni  
  8     24    1   
Direct
      0.1550429       0.3418842       0.3375513
      0.1561861       0.8420174       0.3374819
      0.6584491       0.3399447       0.3382297
      0.6569350       0.8462142       0.3354617
      0.8261147       0.1750610       0.3373003
      0.8234258       0.6760945       0.3355359
      0.3232368       0.1745695       0.3397493
      0.3232773       0.6794986       0.3363118
      0.1685208       0.5089694       0.2636534
      0.1702443       0.0089678       0.2624016
      0.6602587       0.5045637       0.2587677
      0.6729570       0.0120813       0.2599828
      0.3278898       0.3439664       0.2647097
      0.3089290       0.8301224       0.2608316
      0.8124195       0.3263755       0.2613976
      0.8095229       0.8291449       0.2620120
      0.9926707       0.1892769       0.2605912
      0.9916984       0.6914642       0.2597891
      0.4895256       0.1853871       0.2661293
      0.4892031       0.6912364       0.2587603
      0.9908167       0.3275928       0.4145539
      0.9898253       0.8280317       0.4132359
      0.4924342       0.3290174       0.4210738
      0.4908948       0.8332598       0.4106498
      0.3244471       0.5126725       0.4095919
      0.3068926       0.0054002       0.4151036
      0.8126861       0.5103504       0.4096601
      0.8111048       0.0061696       0.4121715
      0.1693279       0.1892900       0.4120809
      0.1709925       0.6886175       0.4128911
      0.6753408       0.1871884       0.4145085
      0.6523693       0.6730864       0.4090180
      0.5031389       0.4888489       0.3420527
