Cr8Cl24                                 
   1.00000000000000     
    12.1682323165561677    0.0016454480897831    0.0000000000000000
    -6.1314979671184711   10.5521182477466997    0.0000000000000000
     0.0000000000000000    0.0000000000000000   17.6887664794999999
   Cr   Cl   Ni
     8    24     1
Direct
     0.1550428801043751    0.3418841591735529    0.3375512550195481
     0.1561861344440274    0.8420173743402231    0.3374819286147215
     0.6584491247356894    0.3399446724015718    0.3382296515640348
     0.6569349930945307    0.8462142034316429    0.3354617296683386
     0.8261146995903630    0.1750610032018969    0.3373003073217262
     0.8234258064086859    0.6760945185437350    0.3355359356807028
     0.3232367856466709    0.1745695087907038    0.3397493170950767
     0.3232773287085564    0.6794986148277928    0.3363118448909930
     0.1685207982208681    0.5089693641968296    0.2636534102860182
     0.1702442598279674    0.0089678298949636    0.2624015731097700
     0.6602587250960994    0.5045636672863694    0.2587677020467680
     0.6729570276737320    0.0120813467088254    0.2599827525652003
     0.3278898261060377    0.3439663902088625    0.2647097179375990
     0.3089290013233850    0.8301223955441586    0.2608316041611403
     0.8124195375794088    0.3263755458617013    0.2613975720401527
     0.8095228932682943    0.8291448567328032    0.2620120285457332
     0.9926706710238022    0.1892769297216006    0.2605911771123388
     0.9916984336984740    0.6914642035205887    0.2597891482464831
     0.4895256113247228    0.1853870930384005    0.2661293122755239
     0.4892031322506085    0.6912363763942437    0.2587603231185867
     0.9908166865754708    0.3275928002808186    0.4145539254101394
     0.9898252575864319    0.8280316870291102    0.4132358781326744
     0.4924341605691822    0.3290174214636323    0.4210737520853840
     0.4908948348848341    0.8332597684240213    0.4106497870889712
     0.3244471460362419    0.5126725488523221    0.4095919441486160
     0.3068925693089710    0.0054001592109003    0.4151035837140498
     0.8126860872264245    0.5103504403986108    0.4096600935369139
     0.8111047755935772    0.0061696456168576    0.4121715002769761
     0.1693279057268526    0.1892900041604051    0.4120808932026208
     0.1709924754137973    0.6886175300604336    0.4128911029528268
     0.6753407773354141    0.1871883985095053    0.4145085407298836
     0.6523692696436427    0.6730863866826056    0.4090180293868286
     0.5031388809728625    0.4888488684903223    0.3420527210336601
 
  0.00000000E+00  0.00000000E+00  0.00000000E+00
  0.00000000E+00  0.00000000E+00  0.00000000E+00
  0.00000000E+00  0.00000000E+00  0.00000000E+00
  0.00000000E+00  0.00000000E+00  0.00000000E+00
  0.00000000E+00  0.00000000E+00  0.00000000E+00
  0.00000000E+00  0.00000000E+00  0.00000000E+00
  0.00000000E+00  0.00000000E+00  0.00000000E+00
  0.00000000E+00  0.00000000E+00  0.00000000E+00
  0.00000000E+00  0.00000000E+00  0.00000000E+00
  0.00000000E+00  0.00000000E+00  0.00000000E+00
  0.00000000E+00  0.00000000E+00  0.00000000E+00
  0.00000000E+00  0.00000000E+00  0.00000000E+00
  0.00000000E+00  0.00000000E+00  0.00000000E+00
  0.00000000E+00  0.00000000E+00  0.00000000E+00
  0.00000000E+00  0.00000000E+00  0.00000000E+00
  0.00000000E+00  0.00000000E+00  0.00000000E+00
  0.00000000E+00  0.00000000E+00  0.00000000E+00
  0.00000000E+00  0.00000000E+00  0.00000000E+00
  0.00000000E+00  0.00000000E+00  0.00000000E+00
  0.00000000E+00  0.00000000E+00  0.00000000E+00
  0.00000000E+00  0.00000000E+00  0.00000000E+00
  0.00000000E+00  0.00000000E+00  0.00000000E+00
  0.00000000E+00  0.00000000E+00  0.00000000E+00
  0.00000000E+00  0.00000000E+00  0.00000000E+00
  0.00000000E+00  0.00000000E+00  0.00000000E+00
  0.00000000E+00  0.00000000E+00  0.00000000E+00
  0.00000000E+00  0.00000000E+00  0.00000000E+00
  0.00000000E+00  0.00000000E+00  0.00000000E+00
  0.00000000E+00  0.00000000E+00  0.00000000E+00
  0.00000000E+00  0.00000000E+00  0.00000000E+00
  0.00000000E+00  0.00000000E+00  0.00000000E+00
  0.00000000E+00  0.00000000E+00  0.00000000E+00
  0.00000000E+00  0.00000000E+00  0.00000000E+00
