CrCl3 2x2 + Fe S2 hollow (D3, U=0) (a_2x
   1.0000000000000000     
    12.0925489970493256    0.0000000000000000    0.0000000000000000
    -6.0462744985246628   10.4724546279527502    0.0000000000000000
     0.0000000000000000    0.0000000000000000   20.0000000000000000
   Cr   Cl   Fe
     8    24     1
Direct
  0.1605985138969174  0.3265477615750463  0.4996183761975472
  0.3265477615750463  0.1605985138969174  0.4996183761975472
  0.6734522384249537  0.3340507523218568  0.4996183761975472
  0.8333333333333286  0.1666666666666714  0.4972033490628801
  0.1666666666666714  0.8333333333333286  0.4972033490628801
  0.3340507523218568  0.6734522384249537  0.4996183761975472
  0.6659492476781432  0.8394014861030829  0.4996183761975472
  0.8394014861030829  0.6659492476781432  0.4996183761975472
  0.1807619601052434  0.5000000000000000  0.4358414574463543
  0.5000000000000000  0.1807619601052434  0.4358414574463543
  0.3243830416489783  0.3243830416489783  0.4370486302438552
  0.3138879353487956  0.5000000000000000  0.5749468327657854
 -0.0027784302889871  0.3191015060461493  0.5655250938507751
  0.1712719503823816  0.1712719503823816  0.5667093749420259
  0.6756169583510216  0.5000000000000000  0.4370486302438552
 -0.0030645611193067  0.1751724160645967  0.4304815127352971
  0.8248275839354033  0.3217630228160965  0.4304815127352971
  0.8287280496176183  0.5000000000000000  0.5667093749420259
  0.5000000000000000  0.3138879353487956  0.5749468327657854
  0.6808984939538507  0.1781200636648636  0.5655250938507751
  0.1751724160645967 -0.0030645611193067  0.4304815127352971
  0.5000000000000000  0.6756169583510216  0.4370486302438552
  0.3217630228160965  0.8248275839354033  0.4304815127352971
  0.3191015060461493 -0.0027784302889871  0.5655250938507751
  0.0027784302889871  0.8218799363351361  0.5655250938507751
  0.1781200636648636  0.6808984939538507  0.5655250938507751
  0.6782369771839034  0.0030645611193067  0.4304815127352971
  0.0030645611193067  0.6782369771839034  0.4304815127352971
  0.8192380398947565  0.8192380398947565  0.4358414574463543
  0.8218799363351361  0.0027784302889871  0.5655250938507751
  0.5000000000000000  0.8287280496176183  0.5667093749420259
  0.6861120646512044  0.6861120646512044  0.5749468327657854
  0.5000000000000000  0.5000000000000000  0.5832045189784610

  0.00000000E+00  0.00000000E+00  0.00000000E+00
  0.00000000E+00  0.00000000E+00  0.00000000E+00
  0.00000000E+00  0.00000000E+00  0.00000000E+00
  0.00000000E+00  0.00000000E+00  0.00000000E+00
  0.00000000E+00  0.00000000E+00  0.00000000E+00
  0.00000000E+00  0.00000000E+00  0.00000000E+00
  0.00000000E+00  0.00000000E+00  0.00000000E+00
  0.00000000E+00  0.00000000E+00  0.00000000E+00
  0.00000000E+00  0.00000000E+00  0.00000000E+00
  0.00000000E+00  0.00000000E+00  0.00000000E+00
  0.00000000E+00  0.00000000E+00  0.00000000E+00
  0.00000000E+00  0.00000000E+00  0.00000000E+00
  0.00000000E+00  0.00000000E+00  0.00000000E+00
  0.00000000E+00  0.00000000E+00  0.00000000E+00
  0.00000000E+00  0.00000000E+00  0.00000000E+00
  0.00000000E+00  0.00000000E+00  0.00000000E+00
  0.00000000E+00  0.00000000E+00  0.00000000E+00
  0.00000000E+00  0.00000000E+00  0.00000000E+00
  0.00000000E+00  0.00000000E+00  0.00000000E+00
  0.00000000E+00  0.00000000E+00  0.00000000E+00
  0.00000000E+00  0.00000000E+00  0.00000000E+00
  0.00000000E+00  0.00000000E+00  0.00000000E+00
  0.00000000E+00  0.00000000E+00  0.00000000E+00
  0.00000000E+00  0.00000000E+00  0.00000000E+00
  0.00000000E+00  0.00000000E+00  0.00000000E+00
  0.00000000E+00  0.00000000E+00  0.00000000E+00
  0.00000000E+00  0.00000000E+00  0.00000000E+00
  0.00000000E+00  0.00000000E+00  0.00000000E+00
  0.00000000E+00  0.00000000E+00  0.00000000E+00
  0.00000000E+00  0.00000000E+00  0.00000000E+00
  0.00000000E+00  0.00000000E+00  0.00000000E+00
  0.00000000E+00  0.00000000E+00  0.00000000E+00
  0.00000000E+00  0.00000000E+00  0.00000000E+00
