 running on   64 total cores
 distrk:  each k-point on   64 cores,    1 groups
 distr:  one band on    8 cores,    8 groups
 vasp.6.2.0 18Jan21 (build Jul 28 2023 11:58:00) complex                         
 POSCAR found type information on POSCAR CrClFe
 POSCAR found :  3 types and      33 ions
 scaLAPACK will be used
 LDA part: xc-table for Pade appr. of Perdew
 POSCAR, INCAR and KPOINTS ok, starting setup
 FFT: planning ...
 WAVECAR not read
 entering main loop
       N       E                     dE             d eps       ncg     rms          rms(c)
DAV:   1     0.212166543258E+04    0.21217E+04   -0.64091E+04  3096   0.905E+02
DAV:   2     0.408309197609E+03   -0.17134E+04   -0.15869E+04  3592   0.246E+02
DAV:   3    -0.132528597631E+03   -0.54084E+03   -0.52367E+03  4392   0.138E+02
DAV:   4    -0.175855854519E+03   -0.43327E+02   -0.42648E+02  4680   0.550E+01
DAV:   5    -0.176621894641E+03   -0.76604E+00   -0.75800E+00  4688   0.964E+00    0.410E+01
DAV:   6    -0.171307062441E+03    0.53148E+01   -0.15718E+02  4888   0.615E+01    0.584E+01
DAV:   7    -0.166656034173E+03    0.46510E+01   -0.46221E+01  4136   0.716E+01    0.535E+01
DAV:   8    -0.164672927745E+03    0.19831E+01   -0.12923E+01  5152   0.253E+01    0.346E+01
DAV:   9    -0.155199101410E+03    0.94738E+01   -0.12428E+01  4392   0.341E+01    0.121E+01
DAV:  10    -0.158412793112E+03   -0.32137E+01   -0.12552E+01  4496   0.770E+00    0.289E+01
DAV:  11    -0.157592558102E+03    0.82024E+00   -0.34418E+00  4640   0.104E+01    0.109E+01
DAV:  12    -0.159077467498E+03   -0.14849E+01   -0.13970E+00  4240   0.467E+00    0.113E+01
DAV:  13    -0.159696587242E+03   -0.61912E+00   -0.27909E-01  3888   0.162E+00    0.110E+01
DAV:  14    -0.160906197819E+03   -0.12096E+01   -0.65754E-01  4440   0.278E+00    0.781E+00
DAV:  15    -0.160916908519E+03   -0.10711E-01   -0.17486E-01  4592   0.207E+00    0.615E+00
DAV:  16    -0.160894766247E+03    0.22142E-01   -0.86241E-02  4712   0.862E-01    0.503E+00
DAV:  17    -0.160919642114E+03   -0.24876E-01   -0.10889E-01  4656   0.983E-01    0.348E+00
DAV:  18    -0.160978141821E+03   -0.58500E-01   -0.23639E-02  4056   0.432E-01    0.732E+00
DAV:  19    -0.160963836043E+03    0.14306E-01   -0.39052E-02  3688   0.676E-01    0.849E+00
DAV:  20    -0.160959955626E+03    0.38804E-02   -0.96378E-03  4368   0.320E-01    0.909E+00
DAV:  21    -0.160807014731E+03    0.15294E+00   -0.44054E-02  4056   0.564E-01    0.525E+00
DAV:  22    -0.160825772900E+03   -0.18758E-01   -0.40716E-01  4696   0.801E-01    0.564E+00
DAV:  23    -0.160905023317E+03   -0.79250E-01   -0.51108E-02  3600   0.613E-01    0.408E+00
DAV:  24    -0.160923347830E+03   -0.18325E-01   -0.41697E-03  3600   0.168E-01    0.411E+00
DAV:  25    -0.160894116480E+03    0.29231E-01   -0.30716E-03  4112   0.168E-01    0.293E+00
DAV:  26    -0.160896320217E+03   -0.22037E-02   -0.16699E-02  4264   0.419E-01    0.246E+00
DAV:  27    -0.160889183009E+03    0.71372E-02   -0.17200E-01  4184   0.593E-01    0.356E+00
DAV:  28    -0.160902296422E+03   -0.13113E-01   -0.30933E-02  3848   0.304E-01    0.468E+00
DAV:  29    -0.160910346615E+03   -0.80502E-02   -0.27073E-03  3400   0.219E-01    0.499E+00
DAV:  30    -0.160898856139E+03    0.11490E-01   -0.61355E-04  4184   0.121E-01    0.485E+00
DAV:  31    -0.160903741972E+03   -0.48858E-02   -0.15941E-03  3736   0.108E-01    0.443E+00
DAV:  32    -0.160927275100E+03   -0.23533E-01   -0.10327E-01  3784   0.733E-01    0.215E+00
DAV:  33    -0.160920772081E+03    0.65030E-02   -0.14199E-02  3648   0.364E-01    0.182E+00
DAV:  34    -0.160917829081E+03    0.29430E-02   -0.18818E-03  4000   0.155E-01    0.181E+00
DAV:  35    -0.160919209052E+03   -0.13800E-02   -0.17610E-03  3584   0.957E-02    0.195E+00
DAV:  36    -0.160914072860E+03    0.51362E-02   -0.87507E-04  4192   0.540E-02    0.196E+00
DAV:  37    -0.160910642168E+03    0.34307E-02   -0.11430E-03  4184   0.117E-01    0.193E+00
DAV:  38    -0.160868530348E+03    0.42112E-01   -0.38686E-02  4432   0.595E-01    0.201E+00
DAV:  39    -0.160789823772E+03    0.78707E-01   -0.86728E-02  4472   0.805E-01    0.249E+00
DAV:  40    -0.160808076554E+03   -0.18253E-01   -0.11337E-02  3880   0.405E-01    0.250E+00
DAV:  41    -0.160825468544E+03   -0.17392E-01   -0.49580E-03  4304   0.205E-01    0.230E+00
DAV:  42    -0.160830003327E+03   -0.45348E-02   -0.18638E-02  3784   0.154E-01    0.214E+00
DAV:  43    -0.160833627094E+03   -0.36238E-02   -0.10797E-02  3872   0.119E-01    0.213E+00
DAV:  44    -0.160829641368E+03    0.39857E-02   -0.88930E-03  4224   0.223E-01    0.231E+00
DAV:  45    -0.160806796950E+03    0.22844E-01   -0.87812E-03  4432   0.144E-01    0.245E+00
DAV:  46    -0.160811026102E+03   -0.42292E-02   -0.65960E-04  3320   0.743E-02    0.248E+00
DAV:  47    -0.160809762587E+03    0.12635E-02   -0.27702E-04  3808   0.237E-02    0.251E+00
DAV:  48    -0.160816397085E+03   -0.66345E-02   -0.37410E-04  3848   0.508E-02    0.244E+00
DAV:  49    -0.160851943716E+03   -0.35547E-01   -0.10985E-02  4264   0.279E-01    0.221E+00
DAV:  50    -0.160940828121E+03   -0.88884E-01   -0.99014E-02  4208   0.742E-01    0.199E+00
DAV:  51    -0.160969737073E+03   -0.28909E-01   -0.16829E-02  4288   0.230E-01    0.196E+00
DAV:  52    -0.161007276736E+03   -0.37540E-01   -0.16677E-02  4584   0.275E-01    0.244E+00
DAV:  53    -0.161018478735E+03   -0.11202E-01   -0.25143E-03  3888   0.117E-01    0.270E+00
DAV:  54    -0.161016076721E+03    0.24020E-02   -0.44704E-04  3968   0.779E-02    0.256E+00
DAV:  55    -0.161003776248E+03    0.12300E-01   -0.74331E-03  4432   0.186E-01    0.245E+00
DAV:  56    -0.160976633423E+03    0.27143E-01   -0.33927E-02  4248   0.562E-01    0.248E+00
DAV:  57    -0.161007484707E+03   -0.30851E-01   -0.46124E-02  4064   0.383E-01    0.263E+00
DAV:  58    -0.161033490586E+03   -0.26006E-01   -0.11723E-02  4336   0.174E-01    0.640E+00
DAV:  59    -0.161007887285E+03    0.25603E-01   -0.80442E-03  3112   0.301E-01    0.579E+00
DAV:  60    -0.161009565127E+03   -0.16778E-02   -0.16375E-03  3936   0.737E-02    0.666E+00
DAV:  61    -0.160994680815E+03    0.14884E-01   -0.22399E-03  3800   0.113E-01    0.686E+00
DAV:  62    -0.160973084787E+03    0.21596E-01   -0.28865E-03  3880   0.120E-01    0.404E+00
DAV:  63    -0.161006059554E+03   -0.32975E-01   -0.16256E-02  3736   0.424E-01    0.225E+00
DAV:  64    -0.161006948082E+03   -0.88853E-03   -0.62919E-03  3592   0.257E-01    0.222E+00
DAV:  65    -0.161031711923E+03   -0.24764E-01   -0.11178E-02  4320   0.334E-01    0.202E+00
DAV:  66    -0.161034895118E+03   -0.31832E-02   -0.16096E-03  4112   0.934E-02    0.196E+00
DAV:  67    -0.161044052758E+03   -0.91576E-02   -0.56915E-03  4288   0.232E-01    0.195E+00
DAV:  68    -0.161054296571E+03   -0.10244E-01   -0.48812E-03  4496   0.172E-01    0.235E+00
DAV:  69    -0.161053310918E+03    0.98565E-03   -0.54970E-04  3512   0.735E-02    0.232E+00
DAV:  70    -0.161057738899E+03   -0.44280E-02   -0.52025E-04  3904   0.503E-02    0.251E+00
DAV:  71    -0.161049234240E+03    0.85047E-02   -0.16607E-03  4144   0.111E-01    0.213E+00
DAV:  72    -0.161053592320E+03   -0.43581E-02   -0.44275E-04  3712   0.542E-02    0.223E+00
DAV:  73    -0.161055391971E+03   -0.17997E-02   -0.86171E-05  3800   0.204E-02    0.231E+00
DAV:  74    -0.161059340914E+03   -0.39489E-02   -0.43519E-04  4384   0.494E-02    0.254E+00
DAV:  75    -0.161064185091E+03   -0.48442E-02   -0.50948E-04  4400   0.507E-02    0.291E+00
DAV:  76    -0.161062146931E+03    0.20382E-02   -0.18070E-03  3880   0.109E-01    0.319E+00
DAV:  77    -0.161061697721E+03    0.44921E-03   -0.29964E-04  4168   0.419E-02    0.334E+00
DAV:  78    -0.161063446842E+03   -0.17491E-02   -0.12348E-04  3888   0.313E-02    0.362E+00
DAV:  79    -0.161059582249E+03    0.38646E-02   -0.18488E-04  4240   0.456E-02    0.334E+00
DAV:  80    -0.161058170309E+03    0.14119E-02   -0.59045E-05  3984   0.190E-02    0.318E+00
DAV:  81    -0.161050463054E+03    0.77073E-02   -0.80628E-04  4032   0.599E-02    0.286E+00
DAV:  82    -0.161055882107E+03   -0.54191E-02   -0.22860E-04  3768   0.462E-02    0.310E+00
DAV:  83    -0.161052395600E+03    0.34865E-02   -0.10498E-04  3800   0.272E-02    0.292E+00
DAV:  84    -0.161056066784E+03   -0.36712E-02   -0.37773E-04  4168   0.618E-02    0.334E+00
DAV:  85    -0.161055092670E+03    0.97411E-03   -0.81876E-04  4024   0.813E-02    0.382E+00
DAV:  86    -0.160999656865E+03    0.55436E-01   -0.29287E-02  4208   0.391E-01    0.183E+00
DAV:  87    -0.161002630061E+03   -0.29732E-02   -0.26825E-03  3352   0.163E-01    0.181E+00
DAV:  88    -0.160996053550E+03    0.65765E-02   -0.13507E-03  4000   0.810E-02    0.188E+00
DAV:  89    -0.160994438256E+03    0.16153E-02   -0.19541E-04  3720   0.337E-02    0.190E+00
DAV:  90    -0.160994885993E+03   -0.44774E-03   -0.21194E-05  3112   0.166E-02    0.190E+00
DAV:  91    -0.160994586385E+03    0.29961E-03   -0.20913E-04  4056   0.428E-02    0.197E+00
DAV:  92    -0.160995772294E+03   -0.11859E-02   -0.12860E-04  3952   0.410E-02    0.193E+00
DAV:  93    -0.160999877366E+03   -0.41051E-02   -0.88466E-04  4256   0.990E-02    0.184E+00
DAV:  94    -0.161010409922E+03   -0.10533E-01   -0.27844E-03  4176   0.164E-01    0.176E+00
DAV:  95    -0.161016677504E+03   -0.62676E-02   -0.11112E-02  4112   0.327E-01    0.175E+00
DAV:  96    -0.161008980140E+03    0.76974E-02   -0.96466E-03  4408   0.281E-01    0.191E+00
DAV:  97    -0.161005324745E+03    0.36554E-02   -0.16082E-03  4008   0.970E-02    0.197E+00
DAV:  98    -0.161004174247E+03    0.11505E-02   -0.11893E-04  3336   0.297E-02    0.198E+00
DAV:  99    -0.161003826407E+03    0.34784E-03   -0.20349E-05  3024   0.994E-03    0.199E+00
DAV: 100    -0.161003059682E+03    0.76672E-03   -0.16233E-05  2808   0.108E-02
 -----------------------------------------------------------------------------
|                                                                             |
|           W    W    AA    RRRRR   N    N  II  N    N   GGGG   !!!           |
|           W    W   A  A   R    R  NN   N  II  NN   N  G    G  !!!           |
|           W    W  A    A  R    R  N N  N  II  N N  N  G       !!!           |
|           W WW W  AAAAAA  RRRRR   N  N N  II  N  N N  G  GGG   !            |
|           WW  WW  A    A  R   R   N   NN  II  N   NN  G    G                |
|           W    W  A    A  R    R  N    N  II  N    N   GGGG   !!!           |
|                                                                             |
|     The electronic self-consistency was not achieved in the given           |
|     number of steps (NELM). The forces and other quantities evaluated       |
|     might not be reliable so examine the results carefully. If you find     |
|     spurious results, we suggest increasing NELM, if you were close to      |
|     convergence or switching to a different ALGO or adjusting the           |
|     density mixing parameters otherwise.                                    |
|                                                                             |
 -----------------------------------------------------------------------------

   1 F= -.16721992E+03 E0= -.16721989E+03  d E =-.167220E+03  mag=    25.6057
 curvature:   0.00 expect dE= 0.000E+00 dE for cont linesearch  0.000E+00
 trial: gam= 0.00000 g(F)=  0.248E+00 g(S)=  0.000E+00 ort = 0.000E+00 (trialstep = 0.100E+01)
 search vector abs. value=  0.248E+00
 bond charge predicted
       N       E                     dE             d eps       ncg     rms          rms(c)
DAV:   1    -0.160936891965E+03    0.66934E-01   -0.24320E+01  3072   0.934E+00    0.374E+00
DAV:   2    -0.161836143616E+03   -0.89925E+00   -0.53578E+00  4608   0.591E+00    0.100E+01
DAV:   3    -0.161156711022E+03    0.67943E+00   -0.12703E+00  4568   0.785E+00    0.287E+00
DAV:   4    -0.161183184511E+03   -0.26473E-01   -0.13732E-01  4472   0.133E+00    0.279E+00
DAV:   5    -0.161158958606E+03    0.24226E-01   -0.31116E-02  4928   0.649E-01    0.199E+00
DAV:   6    -0.161157718257E+03    0.12403E-02   -0.74344E-03  4240   0.285E-01    0.207E+00
DAV:   7    -0.161270191029E+03   -0.11247E+00   -0.50033E-02  4200   0.491E-01    0.961E+00
DAV:   8    -0.161206329737E+03    0.63861E-01   -0.62105E-02  3728   0.729E-01    0.115E+01
DAV:   9    -0.161181288824E+03    0.25041E-01   -0.49411E-03  3872   0.211E-01    0.114E+01
DAV:  10    -0.161089619266E+03    0.91670E-01   -0.24708E-02  4128   0.230E-01    0.710E+00
DAV:  11    -0.161120188290E+03   -0.30569E-01   -0.32962E-02  4008   0.428E-01    0.158E+00
DAV:  12    -0.161175304511E+03   -0.55116E-01   -0.30057E-02  3656   0.462E-01    0.120E+00
DAV:  13    -0.161196640962E+03   -0.21336E-01   -0.16987E-02  4216   0.350E-01    0.199E+00
DAV:  14    -0.161192845635E+03    0.37953E-02   -0.21494E-02  4256   0.164E-01    0.177E+00
DAV:  15    -0.161197765642E+03   -0.49200E-02   -0.49716E-03  3712   0.934E-02    0.194E+00
DAV:  16    -0.161197324354E+03    0.44129E-03   -0.21756E-04  3264   0.507E-02    0.191E+00
DAV:  17    -0.161194129521E+03    0.31948E-02   -0.59512E-04  4368   0.797E-02    0.168E+00
DAV:  18    -0.161191751645E+03    0.23779E-02   -0.47825E-04  4240   0.652E-02    0.152E+00
DAV:  19    -0.161188909639E+03    0.28420E-02   -0.87817E-04  4472   0.723E-02    0.133E+00
DAV:  20    -0.161188561836E+03    0.34780E-03   -0.13638E-04  3640   0.378E-02    0.130E+00
DAV:  21    -0.161188378905E+03    0.18293E-03   -0.43868E-05  3808   0.182E-02    0.129E+00
DAV:  22    -0.161187384871E+03    0.99403E-03   -0.36083E-04  4240   0.509E-02    0.124E+00
DAV:  23    -0.161186583261E+03    0.80161E-03   -0.52615E-05  4000   0.175E-02    0.124E+00
DAV:  24    -0.161186929967E+03   -0.34671E-03   -0.20471E-05  3368   0.161E-02    0.124E+00
DAV:  25    -0.161187837950E+03   -0.90798E-03   -0.18244E-04  4176   0.370E-02    0.125E+00
DAV:  26    -0.161188258794E+03   -0.42084E-03   -0.52571E-05  3640   0.173E-02    0.126E+00
DAV:  27    -0.161185970806E+03    0.22880E-02   -0.67301E-04  4352   0.768E-02    0.123E+00
DAV:  28    -0.161183589763E+03    0.23810E-02   -0.83578E-04  4544   0.753E-02    0.123E+00
DAV:  29    -0.161177691140E+03    0.58986E-02   -0.31071E-03  4552   0.129E-01    0.128E+00
DAV:  30    -0.161176205858E+03    0.14853E-02   -0.41747E-04  3448   0.561E-02    0.129E+00
DAV:  31    -0.161171547647E+03    0.46582E-02   -0.17279E-03  4560   0.889E-02    0.134E+00
DAV:  32    -0.161170739277E+03    0.80837E-03   -0.18139E-04  3752   0.296E-02    0.135E+00
DAV:  33    -0.161169419573E+03    0.13197E-02   -0.11056E-04  3568   0.161E-02    0.136E+00
DAV:  34    -0.161172121623E+03   -0.27021E-02   -0.25496E-04  3824   0.379E-02    0.135E+00
DAV:  35    -0.161185349242E+03   -0.13228E-01   -0.14970E-02  4320   0.231E-01    0.124E+00
DAV:  36    -0.161200062646E+03   -0.14713E-01   -0.20153E-02  4592   0.295E-01    0.152E+00
DAV:  37    -0.161199947799E+03    0.11485E-03   -0.25261E-03  3816   0.175E-01    0.132E+00
DAV:  38    -0.161201849147E+03   -0.19013E-02   -0.56067E-04  4088   0.593E-02    0.133E+00
DAV:  39    -0.161201216128E+03    0.63302E-03   -0.12093E-04  4040   0.297E-02    0.131E+00
DAV:  40    -0.161201139854E+03    0.76274E-04   -0.15138E-05  2968   0.106E-02    0.130E+00
DAV:  41    -0.161200981837E+03    0.15802E-03   -0.27195E-06  2144   0.489E-03    0.130E+00
DAV:  42    -0.161199128671E+03    0.18532E-02   -0.38108E-04  4208   0.487E-02    0.127E+00
DAV:  43    -0.161188666796E+03    0.10462E-01   -0.10574E-02  4416   0.296E-01    0.131E+00
DAV:  44    -0.161185097208E+03    0.35696E-02   -0.21016E-03  4408   0.970E-02    0.135E+00
DAV:  45    -0.161185183650E+03   -0.86443E-04   -0.16008E-04  3120   0.390E-02    0.135E+00
DAV:  46    -0.161182511105E+03    0.26725E-02   -0.47675E-04  4376   0.554E-02    0.139E+00
DAV:  47    -0.161187405284E+03   -0.48942E-02   -0.15493E-03  4056   0.978E-02    0.135E+00
DAV:  48    -0.161187108889E+03    0.29640E-03   -0.12528E-04  3416   0.397E-02    0.137E+00
DAV:  49    -0.161187185123E+03   -0.76234E-04   -0.55968E-06  2560   0.665E-03    0.137E+00
DAV:  50    -0.161187202090E+03   -0.16967E-04   -0.77509E-07  2024   0.264E-03    0.137E+00
DAV:  51    -0.161187119444E+03    0.82646E-04   -0.60420E-07  1976   0.350E-03    0.137E+00
DAV:  52    -0.161169946502E+03    0.17173E-01   -0.19616E-02  4264   0.508E-01    0.189E+00
DAV:  53    -0.161172986024E+03   -0.30395E-02   -0.15499E-03  3232   0.104E-01    0.190E+00
DAV:  54    -0.161176438895E+03   -0.34529E-02   -0.64222E-04  4400   0.691E-02    0.183E+00
DAV:  55    -0.161177436752E+03   -0.99786E-03   -0.22191E-04  4432   0.295E-02    0.180E+00
DAV:  56    -0.161166727765E+03    0.10709E-01   -0.46606E-03  4520   0.174E-01    0.195E+00
DAV:  57    -0.161154650326E+03    0.12077E-01   -0.59546E-03  4688   0.173E-01    0.216E+00
DAV:  58    -0.161155708260E+03   -0.10579E-02   -0.35699E-04  3232   0.554E-02    0.216E+00
DAV:  59    -0.161155809299E+03   -0.10104E-03   -0.96905E-06  3296   0.898E-03    0.216E+00
DAV:  60    -0.161156100365E+03   -0.29107E-03   -0.54456E-06  2360   0.614E-03    0.216E+00
DAV:  61    -0.161156030888E+03    0.69477E-04   -0.11133E-06  2040   0.426E-03    0.216E+00
DAV:  62    -0.161157111560E+03   -0.10807E-02   -0.31411E-05  3256   0.155E-02    0.213E+00
DAV:  63    -0.161162636764E+03   -0.55252E-02   -0.10586E-03  4512   0.823E-02    0.203E+00
DAV:  64    -0.161171234148E+03   -0.85974E-02   -0.28752E-03  4568   0.134E-01    0.189E+00
DAV:  65    -0.161167698311E+03    0.35358E-02   -0.97365E-04  4080   0.899E-02    0.196E+00
DAV:  66    -0.161167783003E+03   -0.84692E-04   -0.17532E-05  3104   0.112E-02    0.196E+00
DAV:  67    -0.161171258480E+03   -0.34755E-02   -0.58321E-04  4336   0.596E-02    0.190E+00
DAV:  68    -0.161176290162E+03   -0.50317E-02   -0.12923E-03  4576   0.848E-02    0.182E+00
DAV:  69    -0.161178075426E+03   -0.17853E-02   -0.24097E-04  4136   0.348E-02    0.179E+00
DAV:  70    -0.161179371389E+03   -0.12960E-02   -0.81513E-05  3640   0.191E-02    0.177E+00
DAV:  71    -0.161183057371E+03   -0.36860E-02   -0.71926E-04  4360   0.605E-02    0.171E+00
DAV:  72    -0.161161744583E+03    0.21313E-01   -0.17346E-02  4496   0.342E-01    0.200E+00
DAV:  73    -0.161158624696E+03    0.31199E-02   -0.19117E-03  4208   0.886E-02    0.207E+00
DAV:  74    -0.161155491314E+03    0.31334E-02   -0.45119E-04  4480   0.423E-02    0.213E+00
DAV:  75    -0.161173606646E+03   -0.18115E-01   -0.13186E-02  4408   0.285E-01    0.181E+00
DAV:  76    -0.161179498974E+03   -0.58923E-02   -0.23987E-03  4392   0.102E-01    0.171E+00
DAV:  77    -0.161179490078E+03    0.88961E-05   -0.37107E-04  3608   0.522E-02    0.171E+00
DAV:  78    -0.161183565695E+03   -0.40756E-02   -0.96721E-04  4496   0.765E-02    0.162E+00
DAV:  79    -0.161185111548E+03   -0.15459E-02   -0.29501E-04  4496   0.349E-02    0.159E+00
DAV:  80    -0.161189708716E+03   -0.45972E-02   -0.15370E-03  4456   0.862E-02    0.154E+00
DAV:  81    -0.161198300936E+03   -0.85922E-02   -0.59178E-03  4576   0.150E-01    0.187E+00
DAV:  82    -0.161221368247E+03   -0.23067E-01   -0.22073E-02  4360   0.425E-01    0.435E+00
DAV:  83    -0.161197445175E+03    0.23923E-01   -0.44702E-03  3216   0.230E-01    0.339E+00
DAV:  84    -0.161182000724E+03    0.15444E-01   -0.65014E-03  4208   0.153E-01    0.141E+00
DAV:  85    -0.161193684598E+03   -0.11684E-01   -0.63087E-03  3568   0.181E-01    0.124E+00
DAV:  86    -0.161196256322E+03   -0.25717E-02   -0.93900E-04  4072   0.872E-02    0.122E+00
DAV:  87    -0.161198780012E+03   -0.25237E-02   -0.37071E-03  4448   0.196E-01    0.135E+00
DAV:  88    -0.161198387097E+03    0.39291E-03   -0.14967E-03  4424   0.113E-01    0.153E+00
DAV:  89    -0.161208746399E+03   -0.10359E-01   -0.47602E-03  4536   0.165E-01    0.268E+00
DAV:  90    -0.161230389022E+03   -0.21643E-01   -0.56470E-03  4448   0.151E-01    0.514E+00
DAV:  91    -0.161244944921E+03   -0.14556E-01   -0.36247E-03  3864   0.144E-01    0.733E+00
DAV:  92    -0.161211832687E+03    0.33112E-01   -0.21800E-03  3416   0.152E-01    0.518E+00
DAV:  93    -0.161241821879E+03   -0.29989E-01   -0.69926E-03  4008   0.255E-01    0.854E+00
DAV:  94    -0.161210136533E+03    0.31685E-01   -0.26088E-03  3576   0.199E-01    0.612E+00
DAV:  95    -0.161213193606E+03   -0.30571E-02   -0.10652E-03  3400   0.779E-02    0.601E+00
DAV:  96    -0.161267028599E+03   -0.53835E-01   -0.73037E-03  4248   0.191E-01    0.101E+01
DAV:  97    -0.161278617703E+03   -0.11589E-01   -0.43738E-03  3480   0.143E-01    0.127E+01
DAV:  98    -0.161238567524E+03    0.40050E-01   -0.88212E-02  3744   0.232E-01    0.121E+01
DAV:  99    -0.161229232139E+03    0.93354E-02   -0.77735E-03  3736   0.250E-01    0.118E+01
DAV: 100    -0.161216181676E+03    0.13050E-01   -0.28532E-03  3216   0.188E-01
 -----------------------------------------------------------------------------
|                                                                             |
|           W    W    AA    RRRRR   N    N  II  N    N   GGGG   !!!           |
|           W    W   A  A   R    R  NN   N  II  NN   N  G    G  !!!           |
|           W    W  A    A  R    R  N N  N  II  N N  N  G       !!!           |
|           W WW W  AAAAAA  RRRRR   N  N N  II  N  N N  G  GGG   !            |
|           WW  WW  A    A  R   R   N   NN  II  N   NN  G    G                |
|           W    W  A    A  R    R  N    N  II  N    N   GGGG   !!!           |
|                                                                             |
|     The electronic self-consistency was not achieved in the given           |
|     number of steps (NELM). The forces and other quantities evaluated       |
|     might not be reliable so examine the results carefully. If you find     |
|     spurious results, we suggest increasing NELM, if you were close to      |
|     convergence or switching to a different ALGO or adjusting the           |
|     density mixing parameters otherwise.                                    |
|                                                                             |
 -----------------------------------------------------------------------------

   2 F= -.16742979E+03 E0= -.16739987E+03  d E =-.209877E+00  mag=    25.8626
 trial-energy change:   -0.209877  1 .order   -0.153085   -0.247839   -0.058330
 step:   1.1032(harm=  1.3078)  dis= 0.03834  next Energy=  -167.432864 (dE=-0.213E+00)
 bond charge predicted
       N       E                     dE             d eps       ncg     rms          rms(c)
DAV:   1    -0.161164626282E+03    0.64606E-01   -0.26220E-01  3176   0.978E-01    0.822E+00
DAV:   2    -0.165871079274E+03   -0.47065E+01   -0.13440E+01  4864   0.177E+01    0.342E+01
DAV:   3    -0.161160450304E+03    0.47106E+01   -0.95211E+00  4344   0.318E+01    0.695E+00
DAV:   4    -0.161330281419E+03   -0.16983E+00   -0.11620E+00  3912   0.196E+00    0.686E+00
DAV:   5    -0.161094205900E+03    0.23608E+00   -0.47738E-01  4392   0.297E+00    0.385E+00
DAV:   6    -0.161145230640E+03   -0.51025E-01   -0.26478E-01  4360   0.118E+00    0.275E+00
DAV:   7    -0.161153474969E+03   -0.82443E-02   -0.48829E-02  4504   0.107E+00    0.180E+00
DAV:   8    -0.161228708189E+03   -0.75233E-01   -0.34280E-02  4304   0.796E-01    0.132E+00
DAV:   9    -0.161287812553E+03   -0.59104E-01   -0.99119E-03  4352   0.570E-01    0.969E-01
DAV:  10    -0.161345709221E+03   -0.57897E-01   -0.50969E-03  3928   0.252E-01    0.758E-01
DAV:  11    -0.161440923821E+03   -0.95215E-01   -0.98572E-03  3560   0.247E-01    0.513E-01
DAV:  12    -0.161520650612E+03   -0.79727E-01   -0.82080E-03  4192   0.297E-01    0.305E-01
DAV:  13    -0.161607638632E+03   -0.86988E-01   -0.64762E-03  4072   0.243E-01    0.201E-01
DAV:  14    -0.161651247582E+03   -0.43609E-01   -0.17692E-03  3736   0.990E-02    0.117E-01
DAV:  15    -0.161686913941E+03   -0.35666E-01   -0.15294E-03  3560   0.850E-02    0.677E-02
DAV:  16    -0.161698940731E+03   -0.12027E-01   -0.43735E-04  3992   0.540E-02    0.424E-02
DAV:  17    -0.161702559265E+03   -0.36185E-02   -0.94517E-05  3712   0.250E-02    0.363E-02
DAV:  18    -0.161705757133E+03   -0.31979E-02   -0.15215E-04  3624   0.238E-02    0.248E-02
DAV:  19    -0.161706601113E+03   -0.84398E-03   -0.36544E-05  3872   0.156E-02    0.187E-02
DAV:  20    -0.161706817917E+03   -0.21680E-03   -0.44250E-06  3184   0.784E-03    0.140E-02
DAV:  21    -0.161706995203E+03   -0.17729E-03   -0.59872E-06  3232   0.599E-03    0.712E-03
DAV:  22    -0.161707155583E+03   -0.16038E-03   -0.54469E-06  2896   0.509E-03    0.265E-03
DAV:  23    -0.161707194800E+03   -0.39216E-04   -0.92509E-07  2352   0.312E-03    0.176E-03
DAV:  24    -0.161707231934E+03   -0.37135E-04   -0.10026E-06  2400   0.239E-03    0.165E-03
DAV:  25    -0.161707258816E+03   -0.26882E-04   -0.12281E-06  2504   0.261E-03    0.140E-03
DAV:  26    -0.161707276807E+03   -0.17990E-04   -0.79149E-07  2368   0.207E-03    0.180E-03
DAV:  27    -0.161707279006E+03   -0.21994E-05   -0.26185E-07  1920   0.178E-03    0.127E-03
DAV:  28    -0.161707285858E+03   -0.68516E-05   -0.28485E-07  2096   0.125E-03    0.127E-03
DAV:  29    -0.161707290926E+03   -0.50688E-05   -0.30941E-07  2248   0.142E-03    0.786E-04
DAV:  30    -0.161707292111E+03   -0.11848E-05   -0.16060E-07  2000   0.111E-03    0.598E-04
DAV:  31    -0.161707292376E+03   -0.26485E-06   -0.73944E-08  1936   0.815E-04
   3 F= -.16792055E+03 E0= -.16791056E+03  d E =-.700635E+00  mag=    28.0000
 curvature:  -0.36 expect dE=-0.281E-01 dE for cont linesearch -0.121E-02
 ZBRENT: increasing intervall
 opt :   1.3095  next Energy=  -167.920362 (dE=-0.700E+00)
 bond charge predicted
       N       E                     dE             d eps       ncg     rms          rms(c)
DAV:   1    -0.161700777815E+03    0.65143E-02   -0.10365E+00  3104   0.192E+00    0.674E-01
DAV:   2    -0.161707573434E+03   -0.67956E-02   -0.62775E-02  4216   0.865E-01    0.400E-01
DAV:   3    -0.161708928010E+03   -0.13546E-02   -0.31339E-03  4392   0.317E-01    0.262E-01
DAV:   4    -0.161708467686E+03    0.46032E-03   -0.66511E-04  4720   0.194E-01    0.190E-01
DAV:   5    -0.161708169257E+03    0.29843E-03   -0.61650E-04  4440   0.157E-01    0.161E-01
DAV:   6    -0.161707630642E+03    0.53862E-03   -0.55085E-04  4344   0.114E-01    0.428E-02
DAV:   7    -0.161708056880E+03   -0.42624E-03   -0.96821E-05  4488   0.481E-02    0.276E-02
DAV:   8    -0.161708402087E+03   -0.34521E-03   -0.13792E-05  4272   0.199E-02    0.182E-02
DAV:   9    -0.161708757669E+03   -0.35558E-03   -0.41114E-06  3160   0.107E-02    0.109E-02
DAV:  10    -0.161709201707E+03   -0.44404E-03   -0.76438E-06  3520   0.696E-03    0.559E-03
DAV:  11    -0.161709437114E+03   -0.23541E-03   -0.14883E-06  2592   0.405E-03    0.310E-03
DAV:  12    -0.161709646619E+03   -0.20950E-03   -0.19376E-06  2640   0.292E-03    0.242E-03
DAV:  13    -0.161709850413E+03   -0.20379E-03   -0.15089E-06  2552   0.251E-03    0.190E-03
DAV:  14    -0.161710125581E+03   -0.27517E-03   -0.39425E-06  3008   0.296E-03    0.148E-03
DAV:  15    -0.161710279294E+03   -0.15371E-03   -0.20071E-06  2792   0.228E-03    0.126E-03
DAV:  16    -0.161710350143E+03   -0.70850E-04   -0.97294E-07  2408   0.186E-03    0.884E-04
DAV:  17    -0.161710374916E+03   -0.24773E-04   -0.41046E-07  2288   0.161E-03    0.553E-04
DAV:  18    -0.161710389687E+03   -0.14771E-04   -0.48374E-07  2272   0.145E-03    0.458E-04
DAV:  19    -0.161710391922E+03   -0.22348E-05   -0.18523E-07  2064   0.142E-03    0.248E-04
DAV:  20    -0.161710392849E+03   -0.92708E-06   -0.10484E-07  1912   0.742E-04
   4 F= -.16792294E+03 E0= -.16791242E+03  d E =-.703020E+00  mag=    28.0000
 curvature:   0.06 expect dE= 0.485E-02 dE for cont linesearch  0.694E-05
 trial: gam= 0.36705 g(F)=  0.855E-01 g(S)=  0.000E+00 ort =-0.551E-02 (trialstep = 0.106E+01)
 search vector abs. value=  0.115E+00
 bond charge predicted
       N       E                     dE             d eps       ncg     rms          rms(c)
DAV:   1    -0.161679405375E+03    0.30987E-01   -0.11678E+01  3080   0.685E+00    0.212E+00
DAV:   2    -0.161776733538E+03   -0.97328E-01   -0.83915E-01  4304   0.334E+00    0.149E+00
DAV:   3    -0.161787188727E+03   -0.10455E-01   -0.36907E-02  4424   0.134E+00    0.761E-01
DAV:   4    -0.161784887538E+03    0.23012E-02   -0.11388E-02  4608   0.761E-01    0.567E-01
DAV:   5    -0.161784349800E+03    0.53774E-03   -0.38272E-03  4920   0.381E-01    0.409E-01
DAV:   6    -0.161784188291E+03    0.16151E-03   -0.50718E-03  4296   0.270E-01    0.207E-01
DAV:   7    -0.161784599648E+03   -0.41136E-03   -0.11245E-03  4480   0.194E-01    0.626E-02
DAV:   8    -0.161784940618E+03   -0.34097E-03   -0.98224E-05  4320   0.551E-02    0.371E-02
DAV:   9    -0.161785229456E+03   -0.28884E-03   -0.22106E-05  4360   0.248E-02    0.223E-02
DAV:  10    -0.161785571417E+03   -0.34196E-03   -0.12829E-05  4056   0.134E-02    0.144E-02
DAV:  11    -0.161785857600E+03   -0.28618E-03   -0.82852E-06  4072   0.950E-03    0.487E-03
DAV:  12    -0.161786039125E+03   -0.18153E-03   -0.16259E-06  2520   0.427E-03    0.310E-03
DAV:  13    -0.161786170042E+03   -0.13092E-03   -0.11505E-06  2464   0.280E-03    0.244E-03
DAV:  14    -0.161786304655E+03   -0.13461E-03   -0.12003E-06  2424   0.243E-03    0.192E-03
DAV:  15    -0.161786429258E+03   -0.12460E-03   -0.13500E-06  2568   0.221E-03    0.140E-03
DAV:  16    -0.161786585394E+03   -0.15614E-03   -0.26337E-06  2856   0.251E-03    0.962E-04
DAV:  17    -0.161786676931E+03   -0.91537E-04   -0.14752E-06  2640   0.200E-03    0.665E-04
DAV:  18    -0.161786696242E+03   -0.19311E-04   -0.26593E-07  2224   0.162E-03    0.644E-04
DAV:  19    -0.161786711804E+03   -0.15561E-04   -0.36145E-07  2216   0.126E-03    0.524E-04
DAV:  20    -0.161786721874E+03   -0.10070E-04   -0.30511E-07  2136   0.136E-03    0.496E-04
DAV:  21    -0.161786724499E+03   -0.26252E-05   -0.16915E-07  2136   0.119E-03    0.280E-04
DAV:  22    -0.161786726098E+03   -0.15991E-05   -0.12986E-07  2024   0.921E-04    0.407E-04
DAV:  23    -0.161786726594E+03   -0.49588E-06   -0.68492E-08  1960   0.780E-04
   5 F= -.16799414E+03 E0= -.16798247E+03  d E =-.712073E-01  mag=    28.0000
 trial-energy change:   -0.071207  1 .order   -0.071329   -0.088605   -0.054053
 step:   2.7232(harm=  2.7232)  dis= 0.05748  next Energy=  -168.036546 (dE=-0.114E+00)
 bond charge predicted
       N       E                     dE             d eps       ncg     rms          rms(c)
DAV:   1    -0.161568742669E+03    0.21798E+00   -0.28551E+01  3104   0.108E+01    0.333E+00
DAV:   2    -0.161822879247E+03   -0.25414E+00   -0.21647E+00  4384   0.539E+00    0.246E+00
DAV:   3    -0.161930034452E+03   -0.10716E+00   -0.12000E-01  4336   0.214E+00    0.127E+01
DAV:   4    -0.161759420946E+03    0.17061E+00   -0.46136E-02  3744   0.128E+00    0.215E+00
DAV:   5    -0.161817996008E+03   -0.58575E-01   -0.20341E-02  3656   0.552E-01    0.777E-01
DAV:   6    -0.161835401706E+03   -0.17406E-01   -0.97422E-03  3928   0.402E-01    0.826E-01
DAV:   7    -0.161834632370E+03    0.76934E-03   -0.60540E-03  4552   0.284E-01    0.336E-01
DAV:   8    -0.161836260976E+03   -0.16286E-02   -0.80145E-04  4096   0.131E-01    0.264E-01
DAV:   9    -0.161836871633E+03   -0.61066E-03   -0.12203E-04  3720   0.381E-02    0.292E-01
DAV:  10    -0.161837324734E+03   -0.45310E-03   -0.77096E-05  4480   0.529E-02    0.816E-02
DAV:  11    -0.161837935441E+03   -0.61071E-03   -0.36129E-05  3752   0.243E-02    0.102E-01
DAV:  12    -0.161838370133E+03   -0.43469E-03   -0.98378E-06  3872   0.143E-02    0.762E-02
DAV:  13    -0.161838886698E+03   -0.51656E-03   -0.97713E-06  3624   0.107E-02    0.722E-02
DAV:  14    -0.161839267486E+03   -0.38079E-03   -0.63592E-06  3376   0.889E-03    0.482E-02
DAV:  15    -0.161839578247E+03   -0.31076E-03   -0.50604E-06  3096   0.680E-03    0.296E-02
DAV:  16    -0.161839964369E+03   -0.38612E-03   -0.89222E-06  3088   0.554E-03    0.202E-02
DAV:  17    -0.161840129889E+03   -0.16552E-03   -0.36978E-06  2888   0.390E-03    0.114E-02
DAV:  18    -0.161840195979E+03   -0.66090E-04   -0.13114E-06  2552   0.290E-03    0.107E-02
DAV:  19    -0.161840216862E+03   -0.20883E-04   -0.54415E-07  2200   0.265E-03    0.590E-03
DAV:  20    -0.161840224431E+03   -0.75692E-05   -0.43441E-07  2024   0.201E-03    0.210E-03
DAV:  21    -0.161840226568E+03   -0.21370E-05   -0.22384E-07  1992   0.163E-03    0.135E-03
DAV:  22    -0.161840228598E+03   -0.20297E-05   -0.93161E-08  1904   0.104E-03    0.114E-03
DAV:  23    -0.161840230710E+03   -0.21125E-05   -0.52957E-08  1904   0.737E-04    0.104E-03
DAV:  24    -0.161840232534E+03   -0.18240E-05   -0.38012E-08  1864   0.548E-04    0.902E-04
DAV:  25    -0.161840234135E+03   -0.16011E-05   -0.32242E-08  1888   0.503E-04    0.413E-04
DAV:  26    -0.161840235020E+03   -0.88470E-06   -0.23798E-08  1896   0.413E-04
   6 F= -.16803958E+03 E0= -.16802295E+03  d E =-.116643E+00  mag=    28.1330
 curvature:  -1.87 expect dE=-0.884E-01 dE for cont linesearch -0.757E-03
 trial: gam= 0.20914 g(F)=  0.472E-01 g(S)=  0.000E+00 ort = 0.681E-02 (trialstep = 0.139E+01)
 search vector abs. value=  0.551E-01
 bond charge predicted
       N       E                     dE             d eps       ncg     rms          rms(c)
DAV:   1    -0.161803695554E+03    0.36539E-01   -0.10025E+01  3040   0.627E+00    0.260E+00
DAV:   2    -0.161979552175E+03   -0.17586E+00   -0.10368E+00  4328   0.573E+00    0.362E+00
DAV:   3    -0.161896686017E+03    0.82866E-01   -0.33775E-01  4664   0.506E+00    0.681E+00
DAV:   4    -0.161851928175E+03    0.44758E-01   -0.60249E-02  4384   0.193E+00    0.212E+00
DAV:   5    -0.161874985455E+03   -0.23057E-01   -0.17666E-02  3792   0.678E-01    0.168E+00
DAV:   6    -0.161870579593E+03    0.44059E-02   -0.45344E-03  4368   0.406E-01    0.133E+00
DAV:   7    -0.161871890222E+03   -0.13106E-02   -0.34841E-03  4424   0.339E-01    0.826E-01
DAV:   8    -0.161874348233E+03   -0.24580E-02   -0.39800E-03  4432   0.418E-01    0.532E-01
DAV:   9    -0.161875847775E+03   -0.14995E-02   -0.20280E-03  3856   0.175E-01    0.674E-01
DAV:  10    -0.161875644791E+03    0.20298E-03   -0.31552E-04  3976   0.874E-02    0.487E-01
DAV:  11    -0.161876624478E+03   -0.97969E-03   -0.70810E-05  4528   0.439E-02    0.415E-01
DAV:  12    -0.161877536932E+03   -0.91245E-03   -0.18565E-04  4312   0.930E-02    0.722E-02
DAV:  13    -0.161878205949E+03   -0.66902E-03   -0.86603E-05  3416   0.301E-02    0.570E-02
DAV:  14    -0.161878381483E+03   -0.17553E-03   -0.59099E-06  3024   0.103E-02    0.421E-02
DAV:  15    -0.161878590450E+03   -0.20897E-03   -0.51595E-06  3048   0.966E-03    0.131E-02
DAV:  16    -0.161878741722E+03   -0.15127E-03   -0.34883E-06  2944   0.612E-03    0.326E-03
DAV:  17    -0.161878851593E+03   -0.10987E-03   -0.12683E-06  2520   0.365E-03    0.591E-03
DAV:  18    -0.161878957205E+03   -0.10561E-03   -0.10188E-06  2384   0.289E-03    0.107E-02
DAV:  19    -0.161879049728E+03   -0.92523E-04   -0.13725E-06  2536   0.465E-03    0.157E-03
DAV:  20    -0.161879134543E+03   -0.84815E-04   -0.16008E-06  2584   0.249E-03    0.362E-03
DAV:  21    -0.161879193493E+03   -0.58950E-04   -0.92100E-07  2440   0.211E-03    0.739E-04
DAV:  22    -0.161879218514E+03   -0.25021E-04   -0.41229E-07  2168   0.160E-03    0.618E-04
DAV:  23    -0.161879238423E+03   -0.19909E-04   -0.57986E-07  2264   0.154E-03    0.103E-03
DAV:  24    -0.161879241642E+03   -0.32184E-05   -0.22360E-07  1952   0.153E-03    0.105E-03
DAV:  25    -0.161879243176E+03   -0.15343E-05   -0.14589E-07  1944   0.832E-04    0.939E-04
DAV:  26    -0.161879244163E+03   -0.98715E-06   -0.86823E-08  1912   0.915E-04
   7 F= -.16807923E+03 E0= -.16806360E+03  d E =-.396478E-01  mag=    28.1398
 trial-energy change:   -0.039648  1 .order   -0.039895   -0.067764   -0.012027
 step:   1.7051(harm=  1.6950)  dis= 0.02945  next Energy=  -168.080565 (dE=-0.410E-01)
 bond charge predicted
       N       E                     dE             d eps       ncg     rms          rms(c)
DAV:   1    -0.161876752258E+03    0.24909E-02   -0.49886E-01  3080   0.140E+00    0.553E-01
DAV:   2    -0.161886157461E+03   -0.94052E-02   -0.45205E-02  4312   0.110E+00    0.118E+00
DAV:   3    -0.161884227867E+03    0.19296E-02   -0.21511E-02  4576   0.111E+00    0.255E+00
DAV:   4    -0.161872851076E+03    0.11377E-01   -0.53846E-03  4072   0.526E-01    0.302E-01
DAV:   5    -0.161879843077E+03   -0.69920E-02   -0.12295E-03  3424   0.126E-01    0.432E-01
DAV:   6    -0.161879653569E+03    0.18951E-03   -0.33631E-04  4120   0.120E-01    0.186E-01
DAV:   7    -0.161879955178E+03   -0.30161E-03   -0.24117E-04  4304   0.809E-02    0.125E-01
DAV:   8    -0.161880115787E+03   -0.16061E-03   -0.78841E-05  3504   0.321E-02    0.425E-02
DAV:   9    -0.161880198203E+03   -0.82416E-04   -0.22752E-05  4392   0.250E-02    0.118E-01
DAV:  10    -0.161880183338E+03    0.14865E-04   -0.79135E-06  3064   0.176E-02    0.704E-02
DAV:  11    -0.161880241394E+03   -0.58056E-04   -0.24007E-06  2608   0.852E-03    0.433E-02
DAV:  12    -0.161880300776E+03   -0.59382E-04   -0.18731E-06  2664   0.662E-03    0.267E-02
DAV:  13    -0.161880336749E+03   -0.35974E-04   -0.13987E-06  2552   0.538E-03    0.124E-02
DAV:  14    -0.161880354414E+03   -0.17665E-04   -0.60664E-07  2120   0.329E-03    0.827E-03
DAV:  15    -0.161880364895E+03   -0.10481E-04   -0.25944E-07  2008   0.220E-03    0.385E-03
DAV:  16    -0.161880385781E+03   -0.20887E-04   -0.38244E-07  2120   0.170E-03    0.226E-03
DAV:  17    -0.161880398690E+03   -0.12909E-04   -0.18435E-07  2016   0.137E-03    0.146E-03
DAV:  18    -0.161880409063E+03   -0.10372E-04   -0.17109E-07  1984   0.101E-03    0.431E-04
DAV:  19    -0.161880416601E+03   -0.75387E-05   -0.11619E-07  1904   0.972E-04    0.557E-04
DAV:  20    -0.161880428903E+03   -0.12301E-04   -0.21623E-07  2104   0.828E-04    0.303E-04
DAV:  21    -0.161880438458E+03   -0.95550E-05   -0.21505E-07  2168   0.103E-03    0.522E-04
DAV:  22    -0.161880439953E+03   -0.14951E-05   -0.98443E-08  1928   0.934E-04    0.218E-04
DAV:  23    -0.161880440896E+03   -0.94298E-06   -0.61257E-08  1896   0.556E-04
   8 F= -.16808055E+03 E0= -.16806514E+03  d E =-.409750E-01  mag=    28.1408
 curvature:  -0.96 expect dE=-0.106E-01 dE for cont linesearch -0.635E-08
 trial: gam= 0.26808 g(F)=  0.111E-01 g(S)=  0.000E+00 ort =-0.191E-04 (trialstep = 0.146E+01)
 search vector abs. value=  0.150E-01
 bond charge predicted
       N       E                     dE             d eps       ncg     rms          rms(c)
DAV:   1    -0.161863203113E+03    0.17237E-01   -0.32633E+00  3040   0.356E+00    0.132E+00
DAV:   2    -0.161916325335E+03   -0.53122E-01   -0.25847E-01  4352   0.283E+00    0.222E+00
DAV:   3    -0.161899411886E+03    0.16913E-01   -0.10583E-01  4504   0.272E+00    0.499E+00
DAV:   4    -0.161869936048E+03    0.29476E-01   -0.20627E-02  4032   0.103E+00    0.106E+00
DAV:   5    -0.161889417278E+03   -0.19481E-01   -0.60319E-03  3536   0.319E-01    0.953E-01
DAV:   6    -0.161887367100E+03    0.20502E-02   -0.14329E-03  4256   0.242E-01    0.512E-01
DAV:   7    -0.161888202276E+03   -0.83518E-03   -0.10030E-03  4352   0.158E-01    0.121E-01
DAV:   8    -0.161889201170E+03   -0.99889E-03   -0.31381E-04  4016   0.806E-02    0.590E-02
DAV:   9    -0.161889495820E+03   -0.29465E-03   -0.74878E-05  3856   0.458E-02    0.167E-01
DAV:  10    -0.161889561416E+03   -0.65596E-04   -0.48226E-05  4008   0.387E-02    0.649E-02
DAV:  11    -0.161889788496E+03   -0.22708E-03   -0.71057E-06  2992   0.124E-02    0.723E-02
DAV:  12    -0.161890002189E+03   -0.21369E-03   -0.31673E-06  2840   0.707E-03    0.676E-02
DAV:  13    -0.161890194178E+03   -0.19199E-03   -0.57668E-06  3080   0.142E-02    0.114E-02
DAV:  14    -0.161890318559E+03   -0.12438E-03   -0.35859E-06  2928   0.643E-03    0.125E-02
DAV:  15    -0.161890392274E+03   -0.73715E-04   -0.41578E-07  2160   0.256E-03    0.736E-03
DAV:  16    -0.161890503571E+03   -0.11130E-03   -0.11770E-06  2360   0.285E-03    0.134E-03
DAV:  17    -0.161890581211E+03   -0.77640E-04   -0.93079E-07  2344   0.226E-03    0.263E-03
DAV:  18    -0.161890621293E+03   -0.40082E-04   -0.42712E-07  2136   0.196E-03    0.131E-03
DAV:  19    -0.161890656991E+03   -0.35699E-04   -0.48664E-07  2176   0.159E-03    0.109E-03
DAV:  20    -0.161890700622E+03   -0.43631E-04   -0.10156E-06  2392   0.189E-03    0.801E-04
DAV:  21    -0.161890720569E+03   -0.19947E-04   -0.56819E-07  2256   0.173E-03    0.570E-04
DAV:  22    -0.161890723147E+03   -0.25775E-05   -0.22771E-07  2064   0.142E-03    0.222E-04
DAV:  23    -0.161890724870E+03   -0.17227E-05   -0.14864E-07  1984   0.907E-04    0.291E-04
DAV:  24    -0.161890725690E+03   -0.82036E-06   -0.89822E-08  1984   0.885E-04
   9 F= -.16809399E+03 E0= -.16807829E+03  d E =-.134323E-01  mag=    28.1642
 trial-energy change:   -0.013432  1 .order   -0.013430   -0.016104   -0.010756
 step:   4.3853(harm=  4.3853)  dis= 0.02806  next Energy=  -168.104800 (dE=-0.242E-01)
 bond charge predicted
       N       E                     dE             d eps       ncg     rms          rms(c)
DAV:   1    -0.161778511964E+03    0.11221E+00   -0.13206E+01  3040   0.718E+00    0.303E+00
DAV:   2    -0.162073394439E+03   -0.29488E+00   -0.13933E+00  4328   0.748E+00    0.505E+00
DAV:   3    -0.161871232157E+03    0.20216E+00   -0.44246E-01  4648   0.582E+00    0.155E+00
DAV:   4    -0.161899457287E+03   -0.28225E-01   -0.92761E-02  4472   0.119E+00    0.509E+00
DAV:   5    -0.161872140261E+03    0.27317E-01   -0.30996E-02  4056   0.117E+00    0.153E+00
DAV:   6    -0.161892552366E+03   -0.20412E-01   -0.75077E-03  3544   0.332E-01    0.141E+00
DAV:   7    -0.161886997478E+03    0.55549E-02   -0.55062E-03  4256   0.479E-01    0.346E-01
DAV:   8    -0.161890752705E+03   -0.37552E-02   -0.26758E-03  3984   0.190E-01    0.346E-01
DAV:   9    -0.161891970349E+03   -0.12176E-02   -0.54806E-04  3952   0.133E-01    0.102E-01
DAV:  10    -0.161892555491E+03   -0.58514E-03   -0.74871E-05  4048   0.444E-02    0.894E-02
DAV:  11    -0.161892983473E+03   -0.42798E-03   -0.19444E-05  4000   0.211E-02    0.370E-02
DAV:  12    -0.161893369458E+03   -0.38599E-03   -0.85422E-06  3416   0.187E-02    0.397E-02
DAV:  13    -0.161893785025E+03   -0.41557E-03   -0.11546E-05  3800   0.205E-02    0.323E-02
DAV:  14    -0.161894167899E+03   -0.38287E-03   -0.64826E-06  3176   0.784E-03    0.851E-03
DAV:  15    -0.161894356481E+03   -0.18858E-03   -0.13372E-06  2520   0.502E-03    0.193E-02
DAV:  16    -0.161894578195E+03   -0.22171E-03   -0.22777E-06  2736   0.444E-03    0.111E-02
DAV:  17    -0.161894728786E+03   -0.15059E-03   -0.11304E-06  2360   0.248E-03    0.709E-03
DAV:  18    -0.161894964203E+03   -0.23542E-03   -0.36620E-06  2936   0.415E-03    0.613E-03
DAV:  19    -0.161895095354E+03   -0.13115E-03   -0.20989E-06  2752   0.270E-03    0.115E-02
DAV:  20    -0.161895139975E+03   -0.44621E-04   -0.50391E-07  2344   0.231E-03    0.700E-03
DAV:  21    -0.161895172816E+03   -0.32841E-04   -0.61812E-07  2264   0.179E-03    0.536E-03
DAV:  22    -0.161895187202E+03   -0.14386E-04   -0.38516E-07  2168   0.184E-03    0.229E-03
DAV:  23    -0.161895195837E+03   -0.86348E-05   -0.41948E-07  2160   0.146E-03    0.100E-03
DAV:  24    -0.161895197162E+03   -0.13251E-05   -0.16949E-07  1984   0.142E-03    0.234E-04
DAV:  25    -0.161895198071E+03   -0.90896E-06   -0.11249E-07  1960   0.755E-04
  10 F= -.16810469E+03 E0= -.16808834E+03  d E =-.241413E-01  mag=    28.2126
 curvature:  -2.98 expect dE=-0.399E-01 dE for cont linesearch -0.203E-05
 trial: gam= 1.20197 g(F)=  0.134E-01 g(S)=  0.000E+00 ort =-0.101E-03 (trialstep = 0.879E+00)
 search vector abs. value=  0.349E-01
 bond charge predicted
       N       E                     dE             d eps       ncg     rms          rms(c)
DAV:   1    -0.161877325961E+03    0.17871E-01   -0.30820E+00  3056   0.336E+00    0.136E+00
DAV:   2    -0.161944207820E+03   -0.66882E-01   -0.26486E-01  4432   0.295E+00    0.270E+00
DAV:   3    -0.161898204175E+03    0.46004E-01   -0.11766E-01  4504   0.290E+00    0.304E+00
DAV:   4    -0.161896045123E+03    0.21591E-02   -0.16849E-02  4136   0.997E-01    0.154E+00
DAV:   5    -0.161899683977E+03   -0.36389E-02   -0.47093E-03  3840   0.384E-01    0.114E+00
DAV:   6    -0.161897782443E+03    0.19015E-02   -0.18575E-03  4640   0.263E-01    0.432E-01
DAV:   7    -0.161900320599E+03   -0.25382E-02   -0.10071E-03  3912   0.138E-01    0.101E-01
DAV:   8    -0.161901939131E+03   -0.16185E-02   -0.30646E-04  3912   0.776E-02    0.114E-01
DAV:   9    -0.161902427361E+03   -0.48823E-03   -0.78597E-05  3984   0.440E-02    0.222E-01
DAV:  10    -0.161902308796E+03    0.11857E-03   -0.61921E-05  3984   0.505E-02    0.365E-02
DAV:  11    -0.161902489998E+03   -0.18120E-03   -0.16013E-05  3296   0.198E-02    0.949E-02
DAV:  12    -0.161902475959E+03    0.14039E-04   -0.68914E-06  3112   0.197E-02    0.176E-02
DAV:  13    -0.161902538650E+03   -0.62692E-04   -0.53577E-06  3144   0.863E-03    0.408E-03
DAV:  14    -0.161902571730E+03   -0.33080E-04   -0.78307E-07  2208   0.383E-03    0.237E-03
DAV:  15    -0.161902609527E+03   -0.37797E-04   -0.37760E-07  2208   0.255E-03    0.212E-03
DAV:  16    -0.161902633509E+03   -0.23982E-04   -0.26705E-07  2056   0.188E-03    0.188E-03
DAV:  17    -0.161902660401E+03   -0.26892E-04   -0.30363E-07  2184   0.145E-03    0.119E-03
DAV:  18    -0.161902687576E+03   -0.27175E-04   -0.29610E-07  2160   0.147E-03    0.117E-03
DAV:  19    -0.161902712440E+03   -0.24863E-04   -0.36814E-07  2224   0.134E-03    0.222E-03
DAV:  20    -0.161902731214E+03   -0.18774E-04   -0.42053E-07  2288   0.151E-03    0.232E-03
DAV:  21    -0.161902735401E+03   -0.41872E-05   -0.20881E-07  2072   0.125E-03    0.200E-03
DAV:  22    -0.161902736333E+03   -0.93202E-06   -0.11736E-07  1976   0.956E-04
  11 F= -.16811430E+03 E0= -.16809771E+03  d E =-.960790E-02  mag=    28.2320
 trial-energy change:   -0.009608  1 .order   -0.009621   -0.011692   -0.007549
 step:   2.4809(harm=  2.4809)  dis= 0.02353  next Energy=  -168.121191 (dE=-0.165E-01)
 bond charge predicted
       N       E                     dE             d eps       ncg     rms          rms(c)
DAV:   1    -0.161817154166E+03    0.85581E-01   -0.10236E+01  3040   0.613E+00    0.282E+00
DAV:   2    -0.162108252374E+03   -0.29110E+00   -0.11902E+00  4496   0.708E+00    0.525E+00
DAV:   3    -0.161886185868E+03    0.22207E+00   -0.42223E-01  4664   0.573E+00    0.209E+00
DAV:   4    -0.161912251212E+03   -0.26065E-01   -0.11045E-01  4416   0.153E+00    0.649E+00
DAV:   5    -0.161872667778E+03    0.39583E-01   -0.40107E-02  4088   0.137E+00    0.168E+00
DAV:   6    -0.161904560820E+03   -0.31893E-01   -0.10992E-02  3504   0.375E-01    0.162E+00
DAV:   7    -0.161897308159E+03    0.72527E-02   -0.55401E-03  4128   0.489E-01    0.421E-01
DAV:   8    -0.161902864387E+03   -0.55562E-02   -0.29461E-03  4064   0.213E-01    0.460E-01
DAV:   9    -0.161904679182E+03   -0.18148E-02   -0.74680E-04  3872   0.148E-01    0.581E-02
DAV:  10    -0.161905397825E+03   -0.71864E-03   -0.87785E-05  4088   0.405E-02    0.376E-02
DAV:  11    -0.161905633133E+03   -0.23531E-03   -0.19141E-05  3848   0.231E-02    0.522E-02
DAV:  12    -0.161905715798E+03   -0.82665E-04   -0.61124E-06  3272   0.154E-02    0.106E-01
DAV:  13    -0.161905748515E+03   -0.32718E-04   -0.73378E-06  3216   0.190E-02    0.338E-02
DAV:  14    -0.161905870832E+03   -0.12232E-03   -0.50381E-06  2928   0.820E-03    0.226E-02
DAV:  15    -0.161905932234E+03   -0.61402E-04   -0.15301E-06  2560   0.574E-03    0.267E-03
DAV:  16    -0.161905983833E+03   -0.51599E-04   -0.11635E-06  2304   0.412E-03    0.543E-03
DAV:  17    -0.161906037424E+03   -0.53591E-04   -0.80266E-07  2328   0.274E-03    0.433E-03
DAV:  18    -0.161906098034E+03   -0.60611E-04   -0.13016E-06  2456   0.252E-03    0.339E-03
DAV:  19    -0.161906131012E+03   -0.32977E-04   -0.66680E-07  2384   0.207E-03    0.348E-03
DAV:  20    -0.161906145503E+03   -0.14492E-04   -0.32702E-07  2136   0.167E-03    0.658E-03
DAV:  21    -0.161906155440E+03   -0.99369E-05   -0.28576E-07  2160   0.173E-03    0.321E-03
DAV:  22    -0.161906167310E+03   -0.11870E-04   -0.47052E-07  2216   0.131E-03    0.492E-04
DAV:  23    -0.161906170460E+03   -0.31504E-05   -0.17322E-07  2096   0.123E-03    0.324E-04
DAV:  24    -0.161906171188E+03   -0.72703E-06   -0.90533E-08  1976   0.781E-04
  12 F= -.16812141E+03 E0= -.16810433E+03  d E =-.167200E-01  mag=    28.2716
 curvature:  -3.25 expect dE=-0.189E-01 dE for cont linesearch -0.993E-05
 trial: gam= 0.39119 g(F)=  0.580E-02 g(S)=  0.000E+00 ort = 0.326E-03 (trialstep = 0.120E+01)
 search vector abs. value=  0.114E-01
 bond charge predicted
       N       E                     dE             d eps       ncg     rms          rms(c)
DAV:   1    -0.161895892000E+03    0.10278E-01   -0.19581E+00  3040   0.265E+00    0.118E+00
DAV:   2    -0.161951419678E+03   -0.55528E-01   -0.18113E-01  4512   0.247E+00    0.276E+00
DAV:   3    -0.161905509712E+03    0.45910E-01   -0.92214E-02  4536   0.259E+00    0.282E+00
DAV:   4    -0.161903951308E+03    0.15584E-02   -0.12827E-02  4120   0.869E-01    0.148E+00
DAV:   5    -0.161907795721E+03   -0.38444E-02   -0.37372E-03  3688   0.334E-01    0.105E+00
DAV:   6    -0.161906028910E+03    0.17668E-02   -0.15160E-03  4728   0.237E-01    0.203E-01
DAV:   7    -0.161908424906E+03   -0.23960E-02   -0.79964E-04  3816   0.106E-01    0.892E-02
DAV:   8    -0.161908982658E+03   -0.55775E-03   -0.14883E-04  4112   0.643E-02    0.212E-01
DAV:   9    -0.161909226854E+03   -0.24420E-03   -0.65055E-05  3896   0.410E-02    0.219E-01
DAV:  10    -0.161909338260E+03   -0.11141E-03   -0.39462E-05  4168   0.400E-02    0.321E-02
DAV:  11    -0.161909732186E+03   -0.39393E-03   -0.19553E-05  3336   0.209E-02    0.916E-02
DAV:  12    -0.161909963403E+03   -0.23122E-03   -0.57506E-06  3120   0.162E-02    0.217E-02
DAV:  13    -0.161910170822E+03   -0.20742E-03   -0.50155E-06  3104   0.754E-03    0.855E-03
DAV:  14    -0.161910301156E+03   -0.13033E-03   -0.13023E-06  2528   0.413E-03    0.329E-03
DAV:  15    -0.161910441799E+03   -0.14064E-03   -0.13585E-06  2440   0.337E-03    0.822E-03
DAV:  16    -0.161910491560E+03   -0.49760E-04   -0.41188E-07  2080   0.297E-03    0.292E-03
DAV:  17    -0.161910561035E+03   -0.69475E-04   -0.66340E-07  2224   0.201E-03    0.356E-03
DAV:  18    -0.161910673727E+03   -0.11269E-03   -0.20952E-06  2688   0.342E-03    0.397E-03
DAV:  19    -0.161910705403E+03   -0.31675E-04   -0.45942E-07  2152   0.209E-03    0.207E-03
DAV:  20    -0.161910745548E+03   -0.40145E-04   -0.10129E-06  2288   0.168E-03    0.162E-03
DAV:  21    -0.161910755273E+03   -0.97252E-05   -0.31739E-07  2136   0.193E-03    0.823E-04
DAV:  22    -0.161910758098E+03   -0.28248E-05   -0.19572E-07  2000   0.111E-03    0.117E-03
DAV:  23    -0.161910759500E+03   -0.14022E-05   -0.11385E-07  1968   0.966E-04    0.599E-04
DAV:  24    -0.161910760203E+03   -0.70272E-06   -0.68720E-08  1928   0.673E-04
  13 F= -.16812645E+03 E0= -.16810901E+03  d E =-.503019E-02  mag=    28.2947
 trial-energy change:   -0.005030  1 .order   -0.005051   -0.007112   -0.002991
 step:   2.1197(harm=  2.0700)  dis= 0.01004  next Energy=  -168.127583 (dE=-0.617E-02)
 bond charge predicted
       N       E                     dE             d eps       ncg     rms          rms(c)
DAV:   1    -0.161902784018E+03    0.79755E-02   -0.11523E+00  3040   0.203E+00    0.901E-01
DAV:   2    -0.161939757953E+03   -0.36974E-01   -0.10347E-01  4520   0.186E+00    0.249E+00
DAV:   3    -0.161906858628E+03    0.32899E-01   -0.57326E-02  4520   0.202E+00    0.249E+00
DAV:   4    -0.161904873455E+03    0.19852E-02   -0.83445E-03  4032   0.679E-01    0.999E-01
DAV:   5    -0.161909706959E+03   -0.48335E-02   -0.21504E-03  3584   0.224E-01    0.830E-01
DAV:   6    -0.161908434400E+03    0.12726E-02   -0.93444E-04  4648   0.197E-01    0.121E-01
DAV:   7    -0.161910144189E+03   -0.17098E-02   -0.50085E-04  3536   0.831E-02    0.657E-02
DAV:   8    -0.161910355729E+03   -0.21154E-03   -0.84240E-05  4544   0.503E-02    0.197E-01
DAV:   9    -0.161910467191E+03   -0.11146E-03   -0.35855E-05  3904   0.312E-02    0.151E-01
DAV:  10    -0.161910608797E+03   -0.14161E-03   -0.21657E-05  3688   0.290E-02    0.122E-02
DAV:  11    -0.161910842641E+03   -0.23384E-03   -0.14202E-05  3312   0.179E-02    0.523E-02
DAV:  12    -0.161910939544E+03   -0.96904E-04   -0.12639E-06  2448   0.706E-03    0.280E-02
DAV:  13    -0.161911115430E+03   -0.17589E-03   -0.27708E-06  2960   0.589E-03    0.788E-03
DAV:  14    -0.161911212933E+03   -0.97503E-04   -0.12781E-06  2400   0.363E-03    0.201E-03
DAV:  15    -0.161911307860E+03   -0.94927E-04   -0.96838E-07  2320   0.267E-03    0.499E-03
DAV:  16    -0.161911349302E+03   -0.41442E-04   -0.39414E-07  2072   0.247E-03    0.206E-03
DAV:  17    -0.161911397654E+03   -0.48352E-04   -0.52778E-07  2184   0.161E-03    0.111E-03
DAV:  18    -0.161911457763E+03   -0.60109E-04   -0.91319E-07  2384   0.200E-03    0.232E-03
DAV:  19    -0.161911494622E+03   -0.36860E-04   -0.66712E-07  2272   0.201E-03    0.186E-03
DAV:  20    -0.161911509429E+03   -0.14807E-04   -0.42549E-07  2112   0.175E-03    0.901E-04
DAV:  21    -0.161911515920E+03   -0.64909E-05   -0.30086E-07  2064   0.140E-03    0.693E-04
DAV:  22    -0.161911518846E+03   -0.29259E-05   -0.18616E-07  1984   0.120E-03    0.225E-04
DAV:  23    -0.161911519648E+03   -0.80175E-06   -0.11489E-07  1936   0.894E-04
  14 F= -.16812752E+03 E0= -.16810982E+03  d E =-.610757E-02  mag=    28.3133
 curvature:  -1.98 expect dE=-0.528E-02 dE for cont linesearch -0.241E-05
 trial: gam= 0.52137 g(F)=  0.266E-02 g(S)=  0.000E+00 ort =-0.118E-03 (trialstep = 0.138E+01)
 search vector abs. value=  0.564E-02
 bond charge predicted
       N       E                     dE             d eps       ncg     rms          rms(c)
DAV:   1    -0.161904042498E+03    0.74763E-02   -0.12534E+00  3040   0.212E+00    0.958E-01
DAV:   2    -0.161956203651E+03   -0.52161E-01   -0.13206E-01  4560   0.234E+00    0.285E+00
DAV:   3    -0.161904193939E+03    0.52010E-01   -0.69191E-02  4512   0.228E+00    0.102E+00
DAV:   4    -0.161912499353E+03   -0.83054E-02   -0.64053E-03  4032   0.482E-01    0.101E+00
DAV:   5    -0.161911103580E+03    0.13958E-02   -0.14532E-03  3912   0.215E-01    0.504E-01
DAV:   6    -0.161911805490E+03   -0.70191E-03   -0.44126E-04  4592   0.110E-01    0.174E-01
DAV:   7    -0.161913051434E+03   -0.12459E-02   -0.29653E-04  3920   0.771E-02    0.122E-01
DAV:   8    -0.161913477187E+03   -0.42575E-03   -0.11065E-04  3920   0.532E-02    0.640E-02
DAV:   9    -0.161913540905E+03   -0.63718E-04   -0.14618E-05  3872   0.209E-02    0.106E-01
DAV:  10    -0.161913500170E+03    0.40736E-04   -0.17572E-05  3464   0.284E-02    0.422E-02
DAV:  11    -0.161913592688E+03   -0.92518E-04   -0.10395E-05  3064   0.206E-02    0.402E-02
DAV:  12    -0.161913594994E+03   -0.23061E-05   -0.12749E-06  2384   0.645E-03    0.251E-02
DAV:  13    -0.161913623067E+03   -0.28073E-04   -0.45560E-07  1992   0.322E-03    0.143E-02
DAV:  14    -0.161913655246E+03   -0.32180E-04   -0.60769E-07  2256   0.371E-03    0.226E-03
DAV:  15    -0.161913675181E+03   -0.19935E-04   -0.41377E-07  1928   0.317E-03    0.389E-03
DAV:  16    -0.161913690488E+03   -0.15307E-04   -0.15326E-07  1976   0.176E-03    0.982E-04
DAV:  17    -0.161913724349E+03   -0.33861E-04   -0.22234E-07  2080   0.133E-03    0.351E-03
DAV:  18    -0.161913749315E+03   -0.24966E-04   -0.15546E-07  2128   0.131E-03    0.175E-03
DAV:  19    -0.161913758678E+03   -0.93627E-05   -0.10665E-07  2008   0.884E-04    0.456E-04
DAV:  20    -0.161913762972E+03   -0.42944E-05   -0.58434E-08  1952   0.807E-04    0.815E-04
DAV:  21    -0.161913765509E+03   -0.25368E-05   -0.42198E-08  1976   0.518E-04    0.726E-04
DAV:  22    -0.161913766563E+03   -0.10539E-05   -0.32606E-08  1904   0.451E-04    0.102E-03
DAV:  23    -0.161913766688E+03   -0.12544E-06   -0.18611E-08  1944   0.489E-04
  15 F= -.16813041E+03 E0= -.16811237E+03  d E =-.288516E-02  mag=    28.3332
 trial-energy change:   -0.002885  1 .order   -0.002897   -0.003599   -0.002195
 step:   3.9191(harm=  3.5466)  dis= 0.01463  next Energy=  -168.132344 (dE=-0.482E-02)
 bond charge predicted
       N       E                     dE             d eps       ncg     rms          rms(c)
DAV:   1    -0.161881531036E+03    0.32236E-01   -0.42106E+00  3040   0.389E+00    0.196E+00
DAV:   2    -0.162062738708E+03   -0.18121E+00   -0.56207E-01  4528   0.519E+00    0.464E+00
DAV:   3    -0.161896234623E+03    0.16650E+00   -0.23683E-01  4584   0.442E+00    0.192E+00
DAV:   4    -0.161917093274E+03   -0.20859E-01   -0.63698E-02  4384   0.111E+00    0.529E+00
DAV:   5    -0.161888549650E+03    0.28544E-01   -0.21710E-02  3872   0.992E-01    0.867E-01
DAV:   6    -0.161913651183E+03   -0.25102E-01   -0.64834E-03  3496   0.281E-01    0.146E+00
DAV:   7    -0.161908982715E+03    0.46685E-02   -0.34973E-03  3904   0.409E-01    0.320E-01
DAV:   8    -0.161913671688E+03   -0.46890E-02   -0.14443E-03  3688   0.131E-01    0.589E-01
DAV:   9    -0.161913008982E+03    0.66271E-03   -0.31212E-04  3864   0.108E-01    0.114E-01
DAV:  10    -0.161913685959E+03   -0.67698E-03   -0.85372E-05  3800   0.405E-02    0.395E-02
DAV:  11    -0.161913974001E+03   -0.28804E-03   -0.34108E-05  3632   0.309E-02    0.738E-02
DAV:  12    -0.161913993314E+03   -0.19313E-04   -0.41039E-06  2800   0.995E-03    0.412E-02
DAV:  13    -0.161914045394E+03   -0.52080E-04   -0.82949E-07  2304   0.437E-03    0.333E-02
DAV:  14    -0.161914113334E+03   -0.67940E-04   -0.77143E-07  2296   0.358E-03    0.400E-02
DAV:  15    -0.161914145765E+03   -0.32431E-04   -0.57519E-07  2168   0.598E-03    0.964E-03
DAV:  16    -0.161914191146E+03   -0.45382E-04   -0.12545E-06  2368   0.355E-03    0.167E-03
DAV:  17    -0.161914227579E+03   -0.36432E-04   -0.33374E-07  2064   0.227E-03    0.247E-03
DAV:  18    -0.161914268383E+03   -0.40804E-04   -0.27850E-07  2160   0.150E-03    0.186E-03
DAV:  19    -0.161914309718E+03   -0.41336E-04   -0.35708E-07  2256   0.150E-03    0.999E-04
DAV:  20    -0.161914323808E+03   -0.14090E-04   -0.16572E-07  2048   0.140E-03    0.370E-03
DAV:  21    -0.161914329545E+03   -0.57372E-05   -0.11799E-07  2000   0.115E-03    0.662E-04
DAV:  22    -0.161914332617E+03   -0.30724E-05   -0.91164E-08  1984   0.792E-04    0.410E-04
DAV:  23    -0.161914333997E+03   -0.13792E-05   -0.65977E-08  1976   0.676E-04    0.727E-04
DAV:  24    -0.161914334356E+03   -0.35914E-06   -0.40495E-08  1960   0.595E-04
  16 F= -.16813209E+03 E0= -.16811342E+03  d E =-.457108E-02  mag=    28.3715
 curvature:  -3.73 expect dE=-0.599E-02 dE for cont linesearch -0.376E-04
 trial: gam= 0.64889 g(F)=  0.161E-02 g(S)=  0.000E+00 ort =-0.239E-03 (trialstep = 0.189E+01)
 search vector abs. value=  0.367E-02
 bond charge predicted
       N       E                     dE             d eps       ncg     rms          rms(c)
DAV:   1    -0.161904672711E+03    0.96613E-02   -0.14243E+00  3056   0.231E+00    0.942E-01
DAV:   2    -0.161958113879E+03   -0.53441E-01   -0.14231E-01  4352   0.249E+00    0.301E+00
DAV:   3    -0.161905416442E+03    0.52697E-01   -0.64545E-02  4528   0.221E+00    0.153E+00
DAV:   4    -0.161912287912E+03   -0.68715E-02   -0.66711E-03  3920   0.545E-01    0.112E+00
DAV:   5    -0.161911734752E+03    0.55316E-03   -0.18479E-03  3664   0.240E-01    0.578E-01
DAV:   6    -0.161912227507E+03   -0.49275E-03   -0.46716E-04  4568   0.113E-01    0.192E-01
DAV:   7    -0.161913628772E+03   -0.14013E-02   -0.37347E-04  3856   0.853E-02    0.133E-01
DAV:   8    -0.161914017920E+03   -0.38915E-03   -0.13906E-04  4160   0.529E-02    0.227E-01
DAV:   9    -0.161913900082E+03    0.11784E-03   -0.44215E-05  3944   0.396E-02    0.986E-02
DAV:  10    -0.161914021280E+03   -0.12120E-03   -0.16186E-05  3280   0.201E-02    0.179E-02
DAV:  11    -0.161914103580E+03   -0.82299E-04   -0.84988E-06  3184   0.146E-02    0.601E-02
DAV:  12    -0.161914100632E+03    0.29474E-05   -0.13642E-06  2304   0.849E-03    0.174E-02
DAV:  13    -0.161914149281E+03   -0.48648E-04   -0.16981E-06  2448   0.451E-03    0.160E-02
DAV:  14    -0.161914163929E+03   -0.14648E-04   -0.46628E-07  2128   0.388E-03    0.300E-03
DAV:  15    -0.161914181385E+03   -0.17456E-04   -0.52100E-07  2104   0.268E-03    0.496E-03
DAV:  16    -0.161914188714E+03   -0.73292E-05   -0.19769E-07  1992   0.229E-03    0.156E-03
DAV:  17    -0.161914201679E+03   -0.12965E-04   -0.10573E-07  1920   0.100E-03    0.979E-04
DAV:  18    -0.161914216330E+03   -0.14651E-04   -0.84263E-08  2000   0.104E-03    0.298E-03
DAV:  19    -0.161914225814E+03   -0.94841E-05   -0.91790E-08  2008   0.103E-03    0.138E-03
DAV:  20    -0.161914233401E+03   -0.75876E-05   -0.85522E-08  1984   0.734E-04    0.187E-03
DAV:  21    -0.161914239405E+03   -0.60036E-05   -0.74564E-08  2008   0.690E-04    0.186E-03
DAV:  22    -0.161914242725E+03   -0.33199E-05   -0.64852E-08  2056   0.765E-04    0.619E-04
DAV:  23    -0.161914243965E+03   -0.12406E-05   -0.47278E-08  1944   0.654E-04    0.399E-04
DAV:  24    -0.161914244103E+03   -0.13802E-06   -0.21872E-08  1920   0.413E-04
  17 F= -.16813405E+03 E0= -.16811497E+03  d E =-.195426E-02  mag=    28.3858
 trial-energy change:   -0.001954  1 .order   -0.001947   -0.002747   -0.001147
 step:   3.1845(harm=  3.2453)  dis= 0.01172  next Energy=  -168.134443 (dE=-0.235E-02)
 bond charge predicted
       N       E                     dE             d eps       ncg     rms          rms(c)
DAV:   1    -0.161908774020E+03    0.54699E-02   -0.66712E-01  3056   0.158E+00    0.638E-01
DAV:   2    -0.161938508527E+03   -0.29735E-01   -0.64704E-02  4344   0.166E+00    0.265E+00
DAV:   3    -0.161905450149E+03    0.33058E-01   -0.32368E-02  4488   0.151E+00    0.122E+00
DAV:   4    -0.161911772074E+03   -0.63219E-02   -0.37040E-03  3688   0.368E-01    0.457E-01
DAV:   5    -0.161912577195E+03   -0.80512E-03   -0.53116E-04  3592   0.105E-01    0.411E-01
DAV:   6    -0.161912398020E+03    0.17918E-03   -0.28530E-04  4696   0.113E-01    0.189E-01
DAV:   7    -0.161913030478E+03   -0.63246E-03   -0.19117E-04  3624   0.584E-02    0.548E-02
DAV:   8    -0.161913190258E+03   -0.15978E-03   -0.92963E-05  4416   0.532E-02    0.298E-01
DAV:   9    -0.161912875036E+03    0.31522E-03   -0.75432E-05  3760   0.559E-02    0.161E-02
DAV:  10    -0.161913154748E+03   -0.27971E-03   -0.26182E-05  3088   0.197E-02    0.698E-03
DAV:  11    -0.161913186387E+03   -0.31640E-04   -0.16436E-06  2512   0.661E-03    0.256E-02
DAV:  12    -0.161913190893E+03   -0.45054E-05   -0.44454E-07  2032   0.359E-03    0.205E-02
DAV:  13    -0.161913200685E+03   -0.97917E-05   -0.27357E-07  2016   0.298E-03    0.827E-03
DAV:  14    -0.161913217485E+03   -0.16800E-04   -0.47622E-07  2096   0.262E-03    0.164E-03
DAV:  15    -0.161913225356E+03   -0.78716E-05   -0.25629E-07  1976   0.246E-03    0.239E-03
DAV:  16    -0.161913231955E+03   -0.65990E-05   -0.12056E-07  1936   0.144E-03    0.131E-03
DAV:  17    -0.161913240043E+03   -0.80877E-05   -0.89976E-08  1976   0.118E-03    0.117E-03
DAV:  18    -0.161913249150E+03   -0.91067E-05   -0.65587E-08  1976   0.780E-04    0.101E-03
DAV:  19    -0.161913255927E+03   -0.67774E-05   -0.56997E-08  1976   0.678E-04    0.214E-03
DAV:  20    -0.161913260490E+03   -0.45628E-05   -0.53048E-08  1984   0.659E-04    0.179E-03
DAV:  21    -0.161913262481E+03   -0.19907E-05   -0.34283E-08  1960   0.540E-04    0.130E-03
DAV:  22    -0.161913264203E+03   -0.17219E-05   -0.28678E-08  1976   0.438E-04    0.355E-04
DAV:  23    -0.161913265184E+03   -0.98111E-06   -0.23137E-08  1952   0.408E-04
  18 F= -.16813446E+03 E0= -.16811510E+03  d E =-.236337E-02  mag=    28.3957
 curvature:  -4.09 expect dE=-0.214E-02 dE for cont linesearch -0.314E-06
 trial: gam= 0.18992 g(F)=  0.522E-03 g(S)=  0.000E+00 ort = 0.168E-04 (trialstep = 0.215E+01)
 search vector abs. value=  0.661E-03
 bond charge predicted
       N       E                     dE             d eps       ncg     rms          rms(c)
DAV:   1    -0.161911948480E+03    0.13157E-02   -0.27863E-01  3096   0.107E+00    0.368E-01
DAV:   2    -0.161920700771E+03   -0.87523E-02   -0.23191E-02  4352   0.711E-01    0.347E+00
DAV:   3    -0.161900981392E+03    0.19719E-01   -0.87695E-03  4000   0.683E-01    0.889E-01
DAV:   4    -0.161914101428E+03   -0.13120E-01   -0.36630E-03  3408   0.274E-01    0.232E-01
DAV:   5    -0.161913988372E+03    0.11306E-03   -0.12985E-04  4184   0.417E-02    0.137E-01
DAV:   6    -0.161914044218E+03   -0.55846E-04   -0.40865E-05  4064   0.227E-02    0.503E-02
DAV:   7    -0.161914146915E+03   -0.10270E-03   -0.40016E-05  3728   0.206E-02    0.891E-02
DAV:   8    -0.161914133198E+03    0.13717E-04   -0.10564E-05  3544   0.192E-02    0.178E-02
DAV:   9    -0.161914163841E+03   -0.30643E-04   -0.23926E-06  2560   0.802E-03    0.169E-02
DAV:  10    -0.161914174871E+03   -0.11030E-04   -0.68323E-07  2144   0.466E-03    0.779E-03
DAV:  11    -0.161914183824E+03   -0.89525E-05   -0.67980E-07  2032   0.336E-03    0.921E-03
DAV:  12    -0.161914188493E+03   -0.46694E-05   -0.41696E-07  2000   0.349E-03    0.322E-03
DAV:  13    -0.161914191435E+03   -0.29415E-05   -0.10475E-07  1952   0.153E-03    0.117E-03
DAV:  14    -0.161914196329E+03   -0.48939E-05   -0.75813E-08  1960   0.889E-04    0.141E-03
DAV:  15    -0.161914200846E+03   -0.45172E-05   -0.65583E-08  2000   0.775E-04    0.790E-04
DAV:  16    -0.161914203750E+03   -0.29045E-05   -0.55422E-08  1960   0.601E-04    0.493E-04
DAV:  17    -0.161914205401E+03   -0.16510E-05   -0.36364E-08  1912   0.509E-04    0.396E-04
DAV:  18    -0.161914206262E+03   -0.86066E-06   -0.21543E-08  1912   0.387E-04
  19 F= -.16813529E+03 E0= -.16811600E+03  d E =-.832747E-03  mag=    28.3906
 trial-energy change:   -0.000833  1 .order   -0.000837   -0.001129   -0.000544
 step:   4.1516(harm=  4.1516)  dis= 0.00577  next Energy=  -168.135547 (dE=-0.109E-02)
 reached required accuracy - stopping structural energy minimisation
Note: The following floating-point exceptions are signalling: IEEE_OVERFLOW_FLAG IEEE_UNDERFLOW_FLAG IEEE_DENORMAL
Note: The following floating-point exceptions are signalling: IEEE_OVERFLOW_FLAG IEEE_UNDERFLOW_FLAG IEEE_DENORMAL
Note: The following floating-point exceptions are signalling: IEEE_OVERFLOW_FLAG IEEE_UNDERFLOW_FLAG IEEE_DENORMAL
Note: The following floating-point exceptions are signalling: IEEE_OVERFLOW_FLAG IEEE_UNDERFLOW_FLAG IEEE_DENORMAL
Note: The following floating-point exceptions are signalling: IEEE_OVERFLOW_FLAG IEEE_UNDERFLOW_FLAG IEEE_DENORMAL
Note: The following floating-point exceptions are signalling: IEEE_OVERFLOW_FLAG IEEE_UNDERFLOW_FLAG IEEE_DENORMAL
Note: The following floating-point exceptions are signalling: IEEE_OVERFLOW_FLAG IEEE_UNDERFLOW_FLAG IEEE_DENORMAL
Note: The following floating-point exceptions are signalling: IEEE_OVERFLOW_FLAG IEEE_UNDERFLOW_FLAG IEEE_DENORMAL
Note: The following floating-point exceptions are signalling: IEEE_OVERFLOW_FLAG IEEE_UNDERFLOW_FLAG IEEE_DENORMAL
Note: The following floating-point exceptions are signalling: IEEE_OVERFLOW_FLAG IEEE_UNDERFLOW_FLAG IEEE_DENORMAL
Note: The following floating-point exceptions are signalling: IEEE_OVERFLOW_FLAG IEEE_UNDERFLOW_FLAG IEEE_DENORMAL
Note: The following floating-point exceptions are signalling: IEEE_OVERFLOW_FLAG IEEE_UNDERFLOW_FLAG IEEE_DENORMAL
Note: The following floating-point exceptions are signalling: IEEE_OVERFLOW_FLAG IEEE_UNDERFLOW_FLAG IEEE_DENORMAL
Note: The following floating-point exceptions are signalling: IEEE_OVERFLOW_FLAG IEEE_UNDERFLOW_FLAG IEEE_DENORMAL
Note: The following floating-point exceptions are signalling: IEEE_OVERFLOW_FLAG IEEE_UNDERFLOW_FLAG IEEE_DENORMAL
Note: The following floating-point exceptions are signalling: IEEE_OVERFLOW_FLAG IEEE_UNDERFLOW_FLAG IEEE_DENORMAL
Note: The following floating-point exceptions are signalling: IEEE_OVERFLOW_FLAG IEEE_UNDERFLOW_FLAG IEEE_DENORMAL
Note: The following floating-point exceptions are signalling: IEEE_OVERFLOW_FLAG IEEE_UNDERFLOW_FLAG IEEE_DENORMAL
Note: The following floating-point exceptions are signalling: IEEE_OVERFLOW_FLAG IEEE_UNDERFLOW_FLAG IEEE_DENORMAL
Note: The following floating-point exceptions are signalling: IEEE_OVERFLOW_FLAG IEEE_UNDERFLOW_FLAG IEEE_DENORMAL
Note: The following floating-point exceptions are signalling: IEEE_OVERFLOW_FLAG IEEE_UNDERFLOW_FLAG IEEE_DENORMAL
Note: The following floating-point exceptions are signalling: IEEE_OVERFLOW_FLAG IEEE_UNDERFLOW_FLAG IEEE_DENORMAL
Note: The following floating-point exceptions are signalling: IEEE_OVERFLOW_FLAG IEEE_UNDERFLOW_FLAG IEEE_DENORMAL
Note: The following floating-point exceptions are signalling: IEEE_OVERFLOW_FLAG IEEE_UNDERFLOW_FLAG IEEE_DENORMAL
Note: The following floating-point exceptions are signalling: IEEE_OVERFLOW_FLAG IEEE_UNDERFLOW_FLAG IEEE_DENORMAL
Note: The following floating-point exceptions are signalling: IEEE_OVERFLOW_FLAG IEEE_UNDERFLOW_FLAG IEEE_DENORMAL
Note: The following floating-point exceptions are signalling: IEEE_OVERFLOW_FLAG IEEE_UNDERFLOW_FLAG IEEE_DENORMAL
Note: The following floating-point exceptions are signalling: IEEE_OVERFLOW_FLAG IEEE_UNDERFLOW_FLAG IEEE_DENORMAL
Note: The following floating-point exceptions are signalling: IEEE_OVERFLOW_FLAG IEEE_UNDERFLOW_FLAG IEEE_DENORMAL
Note: The following floating-point exceptions are signalling: IEEE_OVERFLOW_FLAG IEEE_UNDERFLOW_FLAG IEEE_DENORMAL
Note: The following floating-point exceptions are signalling: IEEE_OVERFLOW_FLAG IEEE_UNDERFLOW_FLAG IEEE_DENORMAL
Note: The following floating-point exceptions are signalling: IEEE_OVERFLOW_FLAG IEEE_UNDERFLOW_FLAG IEEE_DENORMAL
Note: The following floating-point exceptions are signalling: IEEE_OVERFLOW_FLAG IEEE_UNDERFLOW_FLAG IEEE_DENORMAL
Note: The following floating-point exceptions are signalling: IEEE_OVERFLOW_FLAG IEEE_UNDERFLOW_FLAG IEEE_DENORMAL
Note: The following floating-point exceptions are signalling: IEEE_OVERFLOW_FLAG IEEE_UNDERFLOW_FLAG IEEE_DENORMAL
Note: The following floating-point exceptions are signalling: IEEE_OVERFLOW_FLAG IEEE_UNDERFLOW_FLAG IEEE_DENORMAL
Note: The following floating-point exceptions are signalling: IEEE_OVERFLOW_FLAG IEEE_UNDERFLOW_FLAG IEEE_DENORMAL
Note: The following floating-point exceptions are signalling: IEEE_OVERFLOW_FLAG IEEE_UNDERFLOW_FLAG IEEE_DENORMAL
Note: The following floating-point exceptions are signalling: IEEE_OVERFLOW_FLAG IEEE_UNDERFLOW_FLAG IEEE_DENORMAL
Note: The following floating-point exceptions are signalling: IEEE_OVERFLOW_FLAG IEEE_UNDERFLOW_FLAG IEEE_DENORMAL
Note: The following floating-point exceptions are signalling: IEEE_OVERFLOW_FLAG IEEE_UNDERFLOW_FLAG IEEE_DENORMAL
Note: The following floating-point exceptions are signalling: IEEE_OVERFLOW_FLAG IEEE_UNDERFLOW_FLAG IEEE_DENORMAL
Note: The following floating-point exceptions are signalling: IEEE_OVERFLOW_FLAG IEEE_UNDERFLOW_FLAG IEEE_DENORMAL
Note: The following floating-point exceptions are signalling: IEEE_OVERFLOW_FLAG IEEE_UNDERFLOW_FLAG IEEE_DENORMAL
Note: The following floating-point exceptions are signalling: IEEE_OVERFLOW_FLAG IEEE_UNDERFLOW_FLAG IEEE_DENORMAL
Note: The following floating-point exceptions are signalling: IEEE_OVERFLOW_FLAG IEEE_UNDERFLOW_FLAG IEEE_DENORMAL
Note: The following floating-point exceptions are signalling: IEEE_OVERFLOW_FLAG IEEE_UNDERFLOW_FLAG IEEE_DENORMAL
Note: The following floating-point exceptions are signalling: IEEE_OVERFLOW_FLAG IEEE_UNDERFLOW_FLAG IEEE_DENORMAL
Note: The following floating-point exceptions are signalling: IEEE_OVERFLOW_FLAG IEEE_UNDERFLOW_FLAG IEEE_DENORMAL
Note: The following floating-point exceptions are signalling: IEEE_OVERFLOW_FLAG IEEE_UNDERFLOW_FLAG IEEE_DENORMAL
Note: The following floating-point exceptions are signalling: IEEE_OVERFLOW_FLAG IEEE_UNDERFLOW_FLAG IEEE_DENORMAL
Note: The following floating-point exceptions are signalling: IEEE_OVERFLOW_FLAG IEEE_UNDERFLOW_FLAG IEEE_DENORMAL
Note: The following floating-point exceptions are signalling: IEEE_OVERFLOW_FLAG IEEE_UNDERFLOW_FLAG IEEE_DENORMAL
Note: The following floating-point exceptions are signalling: IEEE_OVERFLOW_FLAG IEEE_UNDERFLOW_FLAG IEEE_DENORMAL
Note: The following floating-point exceptions are signalling: IEEE_OVERFLOW_FLAG IEEE_UNDERFLOW_FLAG IEEE_DENORMAL
Note: The following floating-point exceptions are signalling: IEEE_OVERFLOW_FLAG IEEE_UNDERFLOW_FLAG IEEE_DENORMAL
Note: The following floating-point exceptions are signalling: IEEE_OVERFLOW_FLAG IEEE_UNDERFLOW_FLAG IEEE_DENORMAL
Note: The following floating-point exceptions are signalling: IEEE_OVERFLOW_FLAG IEEE_UNDERFLOW_FLAG IEEE_DENORMAL
Note: The following floating-point exceptions are signalling: IEEE_OVERFLOW_FLAG IEEE_UNDERFLOW_FLAG IEEE_DENORMAL
Note: The following floating-point exceptions are signalling: IEEE_OVERFLOW_FLAG IEEE_UNDERFLOW_FLAG IEEE_DENORMAL
Note: The following floating-point exceptions are signalling: IEEE_OVERFLOW_FLAG IEEE_UNDERFLOW_FLAG IEEE_DENORMAL
Note: The following floating-point exceptions are signalling: IEEE_OVERFLOW_FLAG IEEE_UNDERFLOW_FLAG IEEE_DENORMAL
Note: The following floating-point exceptions are signalling: IEEE_OVERFLOW_FLAG IEEE_UNDERFLOW_FLAG IEEE_DENORMAL
Note: The following floating-point exceptions are signalling: IEEE_OVERFLOW_FLAG IEEE_UNDERFLOW_FLAG IEEE_DENORMAL
