CrCl3 2x2 + H S1 top-Cl (no_vdw, U=0) (a
    1.000000000000000     
    12.0925489970493256    0.0000000000000000    0.0000000000000000
    -6.0462744985246628   10.4724546279527502    0.0000000000000000
     0.0000000000000000    0.0000000000000000   20.0000000000000000
   Cr   Cl   H 
     8    24     1
Direct
     0.1660751799092793    0.3332614902878978    0.4999700947312217
     0.3185872138943910    0.1556409640594470    0.4953421888846872
     0.6814127861056091    0.3370537501650417    0.4953421888846872
     0.8335988653408751    0.1665847233223693    0.4998619275510004
     0.1664011346591249    0.8329858579814799    0.4998619275510004
     0.3331725146115516    0.6671688147133020    0.4998724269550289
     0.6668274853884484    0.8339963001017362    0.4998724269550289
     0.8339248200907207    0.6671863103786326    0.4999700947312217
     0.1796276455770328    0.5000224541352895    0.4332265599698694
     0.5000000000000000    0.1822519722338422    0.4349120682627221
     0.3209884730862847    0.3219282768651310    0.4331646970911081
     0.3204308400534340    0.4998556961646829    0.5670882906844134
     0.0001178991986163    0.3205352351438290    0.5668222097492066
     0.1771505910099163    0.1802365632854075    0.5683168280951675
     0.6790115269137154    0.5009398037788465    0.4331646970911081
     0.0004180997083069    0.1795733549942153    0.4331790389269926
     0.8280741313455733    0.3185789491293175    0.4298180893795635
     0.8228494089900836    0.5030859722754913    0.5683168280951675
     0.5000000000000000    0.3325172501928833    0.5727532281956551
     0.6797255754797265    0.1786772653923450    0.5675620784718179
     0.1719258686544268    0.9905048177837442    0.4298180893795635
     0.5000000000000000    0.6796457992546068    0.4331432672066843
     0.3204097305782169    0.8201672319847146    0.4331434794804370
     0.3202744245202736    0.9989516899126186    0.5675620784718179
     0.9998821008013837    0.8204173359452126    0.5668222097492066
     0.1797629747546757    0.6794584481476216    0.5668313718097833
     0.6795902694217832    0.9997575014064978    0.4331434794804370
     0.9995819002916931    0.6791552552859084    0.4331790389269926
     0.8203723544229672    0.8203948085582566    0.4332265599698694
     0.8202370252453243    0.9996954733929458    0.5668313718097833
     0.5000000000000000    0.8204020000671438    0.5668459272997587
     0.6795691599465661    0.6794248561112490    0.5670882906844134
     0.5000000000000000    0.3202936791164849    0.6357331387345124
 
  0.00000000E+00  0.00000000E+00  0.00000000E+00
  0.00000000E+00  0.00000000E+00  0.00000000E+00
  0.00000000E+00  0.00000000E+00  0.00000000E+00
  0.00000000E+00  0.00000000E+00  0.00000000E+00
  0.00000000E+00  0.00000000E+00  0.00000000E+00
  0.00000000E+00  0.00000000E+00  0.00000000E+00
  0.00000000E+00  0.00000000E+00  0.00000000E+00
  0.00000000E+00  0.00000000E+00  0.00000000E+00
  0.00000000E+00  0.00000000E+00  0.00000000E+00
  0.00000000E+00  0.00000000E+00  0.00000000E+00
  0.00000000E+00  0.00000000E+00  0.00000000E+00
  0.00000000E+00  0.00000000E+00  0.00000000E+00
  0.00000000E+00  0.00000000E+00  0.00000000E+00
  0.00000000E+00  0.00000000E+00  0.00000000E+00
  0.00000000E+00  0.00000000E+00  0.00000000E+00
  0.00000000E+00  0.00000000E+00  0.00000000E+00
  0.00000000E+00  0.00000000E+00  0.00000000E+00
  0.00000000E+00  0.00000000E+00  0.00000000E+00
  0.00000000E+00  0.00000000E+00  0.00000000E+00
  0.00000000E+00  0.00000000E+00  0.00000000E+00
  0.00000000E+00  0.00000000E+00  0.00000000E+00
  0.00000000E+00  0.00000000E+00  0.00000000E+00
  0.00000000E+00  0.00000000E+00  0.00000000E+00
  0.00000000E+00  0.00000000E+00  0.00000000E+00
  0.00000000E+00  0.00000000E+00  0.00000000E+00
  0.00000000E+00  0.00000000E+00  0.00000000E+00
  0.00000000E+00  0.00000000E+00  0.00000000E+00
  0.00000000E+00  0.00000000E+00  0.00000000E+00
  0.00000000E+00  0.00000000E+00  0.00000000E+00
  0.00000000E+00  0.00000000E+00  0.00000000E+00
  0.00000000E+00  0.00000000E+00  0.00000000E+00
  0.00000000E+00  0.00000000E+00  0.00000000E+00
  0.00000000E+00  0.00000000E+00  0.00000000E+00
