CrCl3 2x2 + Co S1 top-Cl (no_vdw, U=0) (
   1.0000000000000000     
    12.0925489970493256    0.0000000000000000    0.0000000000000000
    -6.0462744985246628   10.4724546279527502    0.0000000000000000
     0.0000000000000000    0.0000000000000000   20.0000000000000000
   Cr   Cl   Co
     8    24     1
Direct
  0.1640506033683462  0.3240262960326191  0.5016577360920272
  0.3279763055635499  0.1568835339498560  0.5029423566217167
  0.6720236944364500  0.3289072283862922  0.5029423566217167
  0.8344866118479157  0.1617198083608588  0.5002273836591353
  0.1655133881520841  0.8272331965129288  0.5002273836591353
  0.3342536641662709  0.6660145855439209  0.5011725917982480
  0.6657463358337291  0.8317609213776360  0.5011725917982480
  0.8359493966316544  0.6599756926642869  0.5016577360920272
  0.1820349303780196  0.4949807501898059  0.4366689829854973
  0.5000000000000000  0.1748060263226118  0.4392930367319319
  0.3236285384213587  0.3165738725752076  0.4376651168409854
  0.3237889303562724  0.4973711704634727  0.5753844038889371
 -0.0002891808147459  0.3147895839933307  0.5683199854530395
  0.1750165672651669  0.1709605982633269  0.5703687127454812
  0.6763714615786415  0.4929453341538492  0.4376651168409854
 -0.0023683560528231  0.1712910999572479  0.4328392802844386
  0.8237140709113403  0.3156230700697443  0.4335364370231993
  0.8249834327348332  0.4959440309981601  0.5703687127454812
  0.5000000000000000  0.3129719285302227  0.5788022613492435
  0.6827694808079077  0.1742723415521879  0.5694073259677960
  0.1762859290886595 -0.0080910008415958  0.4335364370231993
  0.5000000000000000  0.6740585293369497  0.4357364176593602
  0.3199729793465981  0.8177279849406983  0.4330357373485899
  0.3172305191920920 -0.0084971392557203  0.5694073259677960
  0.0002891808147459  0.8150787648080768  0.5683199854530395
  0.1788463957796132  0.6742859819838674  0.5680084587916147
  0.6800270206534019 -0.0022449944059002  0.4330357373485899
  0.0023683560528231  0.6736594560100706  0.4328392802844386
  0.8179650696219808  0.8129458198117864  0.4366689829854973
  0.8211536042203863 -0.0045604137957461  0.5680084587916147
  0.5000000000000000  0.8208816940975713  0.5682890223209205
  0.6762110696437272  0.6735822401071997  0.5753844038889371
  0.5000000000000000  0.4924719088733688  0.5946964361970593

  0.00000000E+00  0.00000000E+00  0.00000000E+00
  0.00000000E+00  0.00000000E+00  0.00000000E+00
  0.00000000E+00  0.00000000E+00  0.00000000E+00
  0.00000000E+00  0.00000000E+00  0.00000000E+00
  0.00000000E+00  0.00000000E+00  0.00000000E+00
  0.00000000E+00  0.00000000E+00  0.00000000E+00
  0.00000000E+00  0.00000000E+00  0.00000000E+00
  0.00000000E+00  0.00000000E+00  0.00000000E+00
  0.00000000E+00  0.00000000E+00  0.00000000E+00
  0.00000000E+00  0.00000000E+00  0.00000000E+00
  0.00000000E+00  0.00000000E+00  0.00000000E+00
  0.00000000E+00  0.00000000E+00  0.00000000E+00
  0.00000000E+00  0.00000000E+00  0.00000000E+00
  0.00000000E+00  0.00000000E+00  0.00000000E+00
  0.00000000E+00  0.00000000E+00  0.00000000E+00
  0.00000000E+00  0.00000000E+00  0.00000000E+00
  0.00000000E+00  0.00000000E+00  0.00000000E+00
  0.00000000E+00  0.00000000E+00  0.00000000E+00
  0.00000000E+00  0.00000000E+00  0.00000000E+00
  0.00000000E+00  0.00000000E+00  0.00000000E+00
  0.00000000E+00  0.00000000E+00  0.00000000E+00
  0.00000000E+00  0.00000000E+00  0.00000000E+00
  0.00000000E+00  0.00000000E+00  0.00000000E+00
  0.00000000E+00  0.00000000E+00  0.00000000E+00
  0.00000000E+00  0.00000000E+00  0.00000000E+00
  0.00000000E+00  0.00000000E+00  0.00000000E+00
  0.00000000E+00  0.00000000E+00  0.00000000E+00
  0.00000000E+00  0.00000000E+00  0.00000000E+00
  0.00000000E+00  0.00000000E+00  0.00000000E+00
  0.00000000E+00  0.00000000E+00  0.00000000E+00
  0.00000000E+00  0.00000000E+00  0.00000000E+00
  0.00000000E+00  0.00000000E+00  0.00000000E+00
  0.00000000E+00  0.00000000E+00  0.00000000E+00
