       N       E                     dE             d eps       ncg     rms          rms(c)
DAV:   1     0.213699313232E+04    0.21370E+04   -0.66197E+04  8032   0.930E+02
DAV:   2     0.402300269892E+03   -0.17347E+04   -0.16253E+04  9496   0.244E+02
DAV:   3    -0.114660429024E+03   -0.51696E+03   -0.50175E+03 11624   0.139E+02
DAV:   4    -0.151124663722E+03   -0.36464E+02   -0.35825E+02 11816   0.506E+01
DAV:   5    -0.151878194946E+03   -0.75353E+00   -0.75170E+00 12144   0.882E+00    0.413E+01
DAV:   6    -0.187604621547E+03   -0.35726E+02   -0.27815E+02 13064   0.692E+01    0.931E+01
DAV:   7    -0.145452182677E+03    0.42152E+02   -0.47701E+01 11984   0.438E+01    0.328E+01
DAV:   8    -0.141459445800E+03    0.39927E+01   -0.20497E+01 10000   0.594E+01    0.301E+01
DAV:   9    -0.143076830232E+03   -0.16174E+01   -0.86696E+00 11976   0.146E+01    0.175E+01
DAV:  10    -0.144874993778E+03   -0.17982E+01   -0.19941E+00 12408   0.133E+01    0.111E+01
DAV:  11    -0.144341203774E+03    0.53379E+00   -0.11645E+00 11136   0.735E+00    0.685E+00
DAV:  12    -0.144407682884E+03   -0.66479E-01   -0.67243E-01 12576   0.510E+00    0.436E+00
DAV:  13    -0.144377666240E+03    0.30017E-01   -0.17390E-01 12600   0.488E+00    0.309E+00
DAV:  14    -0.144409933063E+03   -0.32267E-01   -0.13558E-01 13144   0.412E+00    0.223E+00
DAV:  15    -0.144490171692E+03   -0.80239E-01   -0.10939E-01 12720   0.472E+00    0.118E+00
DAV:  16    -0.144555267666E+03   -0.65096E-01   -0.12152E-01 13928   0.275E+00    0.643E-01
DAV:  17    -0.144577944280E+03   -0.22677E-01   -0.47880E-02  9240   0.802E-01    0.586E-01
DAV:  18    -0.144577313995E+03    0.63028E-03   -0.26162E-03 12552   0.379E-01    0.504E-01
DAV:  19    -0.144594303157E+03   -0.16989E-01   -0.22351E-03 10728   0.311E-01    0.309E-01
DAV:  20    -0.144627743423E+03   -0.33440E-01   -0.31027E-03 12336   0.673E-01    0.133E-01
DAV:  21    -0.144632571923E+03   -0.48285E-02   -0.16380E-03 12456   0.150E-01    0.979E-02
DAV:  22    -0.144638063012E+03   -0.54911E-02   -0.39564E-04 13408   0.787E-02    0.574E-02
DAV:  23    -0.144642317253E+03   -0.42542E-02   -0.30967E-04 11528   0.689E-02    0.489E-02
DAV:  24    -0.144643314129E+03   -0.99688E-03   -0.51971E-05 12232   0.449E-02    0.346E-02
DAV:  25    -0.144644195186E+03   -0.88106E-03   -0.31319E-05 11696   0.292E-02    0.199E-02
DAV:  26    -0.144645131038E+03   -0.93585E-03   -0.52126E-05 10888   0.299E-02    0.133E-02
DAV:  27    -0.144645416899E+03   -0.28586E-03   -0.22497E-05  9168   0.147E-02    0.994E-03
DAV:  28    -0.144645488017E+03   -0.71118E-04   -0.26777E-06  7664   0.740E-03    0.525E-03
DAV:  29    -0.144645582714E+03   -0.94697E-04   -0.35227E-06  7264   0.454E-03    0.416E-03
DAV:  30    -0.144645673178E+03   -0.90464E-04   -0.31033E-06  6904   0.605E-03    0.261E-03
DAV:  31    -0.144645721586E+03   -0.48408E-04   -0.80254E-07  6320   0.837E-03    0.227E-03
DAV:  32    -0.144645758250E+03   -0.36664E-04   -0.16101E-06  6448   0.345E-03    0.303E-03
DAV:  33    -0.144645793347E+03   -0.35096E-04   -0.90320E-07  5952   0.284E-03    0.269E-03
DAV:  34    -0.144645814080E+03   -0.20733E-04   -0.65660E-07  5848   0.358E-03    0.206E-03
DAV:  35    -0.144645819154E+03   -0.50741E-05   -0.32272E-07  5672   0.361E-03    0.143E-03
DAV:  36    -0.144645820425E+03   -0.12712E-05   -0.25023E-07  5432   0.185E-03    0.884E-04
DAV:  37    -0.144645822600E+03   -0.21745E-05   -0.13519E-07  5160   0.130E-03    0.647E-04
DAV:  38    -0.144645825753E+03   -0.31532E-05   -0.93315E-08  5176   0.127E-03    0.771E-04
DAV:  39    -0.144645826909E+03   -0.11559E-05   -0.62373E-08  5448   0.900E-04    0.583E-04
DAV:  40    -0.144645827165E+03   -0.25657E-06   -0.29761E-08  5464   0.601E-04
   1 F= -.15077897E+03 E0= -.15077897E+03  d E =-.150779E+03  mag=    28.0000
       N       E                     dE             d eps       ncg     rms          rms(c)
DAV:   1    -0.144646459772E+03   -0.63286E-03   -0.94244E-02  8256   0.623E-01    0.216E-01
DAV:   2    -0.144647157967E+03   -0.69820E-03   -0.66751E-03 11368   0.289E-01    0.110E-01
DAV:   3    -0.144647308264E+03   -0.15030E-03   -0.18179E-04 11328   0.710E-02    0.632E-02
DAV:   4    -0.144647299819E+03    0.84455E-05   -0.19045E-05 12032   0.186E-02    0.462E-02
DAV:   5    -0.144647296696E+03    0.31232E-05   -0.19762E-05 10512   0.127E-02    0.310E-02
DAV:   6    -0.144647304112E+03   -0.74167E-05   -0.17284E-05 10912   0.124E-02    0.988E-03
DAV:   7    -0.144647307735E+03   -0.36224E-05   -0.16142E-06  5728   0.788E-03    0.554E-03
DAV:   8    -0.144647310212E+03   -0.24777E-05   -0.84250E-07  5592   0.451E-03    0.423E-03
DAV:   9    -0.144647311839E+03   -0.16265E-05   -0.42481E-07  5288   0.295E-03    0.296E-03
DAV:  10    -0.144647312826E+03   -0.98668E-06   -0.20518E-07  5240   0.264E-03
   2 F= -.15077982E+03 E0= -.15077982E+03  d E =-.852442E-03  mag=    28.0000
       N       E                     dE             d eps       ncg     rms          rms(c)
DAV:   1    -0.144645281910E+03    0.20299E-02   -0.46775E-01  8048   0.139E+00    0.481E-01
DAV:   2    -0.144648954606E+03   -0.36727E-02   -0.33211E-02 11360   0.648E-01    0.248E-01
DAV:   3    -0.144649537887E+03   -0.58328E-03   -0.89902E-04 11304   0.158E-01    0.140E-01
DAV:   4    -0.144649495213E+03    0.42674E-04   -0.96398E-05 12064   0.414E-02    0.102E-01
DAV:   5    -0.144649477554E+03    0.17659E-04   -0.97910E-05 10824   0.289E-02    0.686E-02
DAV:   6    -0.144649507003E+03   -0.29449E-04   -0.83689E-05 10848   0.273E-02    0.219E-02
DAV:   7    -0.144649521110E+03   -0.14107E-04   -0.10766E-05  9912   0.171E-02    0.116E-02
DAV:   8    -0.144649529547E+03   -0.84375E-05   -0.24093E-06  6720   0.818E-03    0.887E-03
DAV:   9    -0.144649535404E+03   -0.58571E-05   -0.91413E-07  5424   0.487E-03    0.632E-03
DAV:  10    -0.144649541860E+03   -0.64552E-05   -0.10510E-06  5696   0.513E-03    0.392E-03
DAV:  11    -0.144649544786E+03   -0.29260E-05   -0.87479E-07  5352   0.494E-03    0.244E-03
DAV:  12    -0.144649546528E+03   -0.17423E-05   -0.54905E-07  5496   0.325E-03    0.188E-03
DAV:  13    -0.144649547476E+03   -0.94770E-06   -0.23652E-07  5320   0.221E-03
   3 F= -.15078064E+03 E0= -.15078064E+03  d E =-.167383E-02  mag=    28.0000
       N       E                     dE             d eps       ncg     rms          rms(c)
DAV:   1    -0.144649617330E+03   -0.70803E-04   -0.11068E-01  8064   0.679E-01    0.216E-01
DAV:   2    -0.144650377000E+03   -0.75967E-03   -0.78793E-03 11360   0.296E-01    0.104E-01
DAV:   3    -0.144650574402E+03   -0.19740E-03   -0.17646E-04 11144   0.561E-02    0.600E-02
DAV:   4    -0.144650567138E+03    0.72638E-05   -0.16763E-05 11888   0.137E-02    0.457E-02
DAV:   5    -0.144650569723E+03   -0.25849E-05   -0.27264E-05 10816   0.149E-02    0.308E-02
DAV:   6    -0.144650579239E+03   -0.95160E-05   -0.18636E-05 10952   0.126E-02    0.104E-02
DAV:   7    -0.144650583838E+03   -0.45986E-05   -0.15846E-06  5608   0.645E-03    0.655E-03
DAV:   8    -0.144650587402E+03   -0.35644E-05   -0.86018E-07  5328   0.498E-03    0.450E-03
DAV:   9    -0.144650589217E+03   -0.18146E-05   -0.74149E-07  5360   0.361E-03    0.282E-03
DAV:  10    -0.144650590493E+03   -0.12766E-05   -0.29510E-07  5120   0.311E-03    0.226E-03
DAV:  11    -0.144650591217E+03   -0.72367E-06   -0.18293E-07  5160   0.219E-03
   4 F= -.15078136E+03 E0= -.15078136E+03  d E =-.716677E-03  mag=    28.0000
       N       E                     dE             d eps       ncg     rms          rms(c)
DAV:   1    -0.144649053077E+03    0.15374E-02   -0.34085E-01  7936   0.119E+00    0.380E-01
DAV:   2    -0.144651531338E+03   -0.24783E-02   -0.24299E-02 11152   0.520E-01    0.183E-01
DAV:   3    -0.144652015734E+03   -0.48440E-03   -0.54385E-04 11112   0.986E-02    0.105E-01
DAV:   4    -0.144651992678E+03    0.23056E-04   -0.52234E-05 11920   0.244E-02    0.799E-02
DAV:   5    -0.144651993996E+03   -0.13179E-05   -0.82572E-05 10856   0.262E-02    0.539E-02
DAV:   6    -0.144652016720E+03   -0.22724E-04   -0.56827E-05 10984   0.224E-02    0.181E-02
DAV:   7    -0.144652027592E+03   -0.10872E-04   -0.61302E-06  8920   0.112E-02    0.104E-02
DAV:   8    -0.144652035278E+03   -0.76860E-05   -0.16661E-06  5968   0.742E-03    0.709E-03
DAV:   9    -0.144652039928E+03   -0.46509E-05   -0.10269E-06  5464   0.528E-03    0.503E-03
DAV:  10    -0.144652043908E+03   -0.39795E-05   -0.10713E-06  5648   0.496E-03    0.339E-03
DAV:  11    -0.144652045530E+03   -0.16226E-05   -0.72542E-07  5312   0.405E-03    0.239E-03
DAV:  12    -0.144652046449E+03   -0.91864E-06   -0.31642E-07  5176   0.290E-03
   5 F= -.15078224E+03 E0= -.15078224E+03  d E =-.159567E-02  mag=    28.0000
       N       E                     dE             d eps       ncg     rms          rms(c)
DAV:   1    -0.144641572247E+03    0.10473E-01   -0.13628E+00  7920   0.238E+00    0.759E-01
DAV:   2    -0.144651902541E+03   -0.10330E-01   -0.97282E-02 11152   0.104E+00    0.368E-01
DAV:   3    -0.144653502888E+03   -0.16003E-02   -0.21701E-03 11136   0.195E-01    0.210E-01
DAV:   4    -0.144653410053E+03    0.92835E-04   -0.20887E-04 11936   0.479E-02    0.159E-01
DAV:   5    -0.144653386897E+03    0.23157E-04   -0.33172E-04 10728   0.516E-02    0.106E-01
DAV:   6    -0.144653460942E+03   -0.74045E-04   -0.22524E-04 10976   0.434E-02    0.352E-02
DAV:   7    -0.144653492399E+03   -0.31458E-04   -0.24747E-05 10568   0.218E-02    0.200E-02
DAV:   8    -0.144653513918E+03   -0.21519E-04   -0.60132E-06  8480   0.130E-02    0.136E-02
DAV:   9    -0.144653527712E+03   -0.13794E-04   -0.28200E-06  6640   0.915E-03    0.976E-03
DAV:  10    -0.144653539937E+03   -0.12225E-04   -0.38944E-06  7384   0.869E-03    0.585E-03
DAV:  11    -0.144653545013E+03   -0.50756E-05   -0.15529E-06  6040   0.728E-03    0.399E-03
DAV:  12    -0.144653547696E+03   -0.26829E-05   -0.81575E-07  5264   0.505E-03    0.223E-03
DAV:  13    -0.144653549181E+03   -0.14855E-05   -0.79721E-07  5496   0.289E-03    0.168E-03
DAV:  14    -0.144653549804E+03   -0.62265E-06   -0.17883E-07  5256   0.195E-03
   6 F= -.15078258E+03 E0= -.15078258E+03  d E =-.193770E-02  mag=    28.0000
       N       E                     dE             d eps       ncg     rms          rms(c)
DAV:   1    -0.144652096631E+03    0.14526E-02   -0.13470E-01  7936   0.749E-01    0.240E-01
DAV:   2    -0.144653032369E+03   -0.93574E-03   -0.96025E-03 11160   0.327E-01    0.115E-01
DAV:   3    -0.144653261998E+03   -0.22963E-03   -0.21488E-04 11280   0.624E-02    0.663E-02
DAV:   4    -0.144653253098E+03    0.89002E-05   -0.20492E-05 11912   0.154E-02    0.502E-02
DAV:   5    -0.144653256753E+03   -0.36559E-05   -0.32289E-05 10888   0.166E-02    0.340E-02
DAV:   6    -0.144653268319E+03   -0.11565E-04   -0.22477E-05 11008   0.142E-02    0.114E-02
DAV:   7    -0.144653273080E+03   -0.47608E-05   -0.19511E-06  5712   0.702E-03    0.708E-03
DAV:   8    -0.144653276644E+03   -0.35645E-05   -0.94967E-07  5480   0.508E-03    0.461E-03
DAV:   9    -0.144653278433E+03   -0.17889E-05   -0.78679E-07  5328   0.374E-03    0.299E-03
DAV:  10    -0.144653279661E+03   -0.12282E-05   -0.33035E-07  5152   0.338E-03    0.239E-03
DAV:  11    -0.144653280448E+03   -0.78683E-06   -0.19765E-07  5192   0.223E-03
   7 F= -.15078268E+03 E0= -.15078268E+03  d E =-.203460E-02  mag=    28.0000
       N       E                     dE             d eps       ncg     rms          rms(c)
DAV:   1    -0.144652757219E+03    0.52244E-03   -0.13721E-01  8096   0.749E-01    0.236E-01
DAV:   2    -0.144653669144E+03   -0.91192E-03   -0.10016E-02 11128   0.336E-01    0.115E-01
DAV:   3    -0.144653883197E+03   -0.21405E-03   -0.21057E-04 10840   0.654E-02    0.674E-02
DAV:   4    -0.144653873588E+03    0.96091E-05   -0.21093E-05 12120   0.195E-02    0.516E-02
DAV:   5    -0.144653873072E+03    0.51547E-06   -0.30280E-05 10648   0.164E-02    0.352E-02
DAV:   6    -0.144653880716E+03   -0.76436E-05   -0.22883E-05 10824   0.139E-02    0.118E-02
DAV:   7    -0.144653887054E+03   -0.63381E-05   -0.22941E-06  6208   0.603E-03    0.613E-03
DAV:   8    -0.144653893183E+03   -0.61291E-05   -0.67245E-07  5128   0.453E-03    0.418E-03
DAV:   9    -0.144653896292E+03   -0.31085E-05   -0.65703E-07  5288   0.372E-03    0.318E-03
DAV:  10    -0.144653899241E+03   -0.29496E-05   -0.25595E-07  5240   0.264E-03    0.229E-03
DAV:  11    -0.144653902091E+03   -0.28495E-05   -0.26623E-07  5448   0.223E-03    0.141E-03
DAV:  12    -0.144653903386E+03   -0.12946E-05   -0.21486E-07  5296   0.200E-03    0.867E-04
DAV:  13    -0.144653903845E+03   -0.45990E-06   -0.10823E-07  5296   0.129E-03
   8 F= -.15078331E+03 E0= -.15078331E+03  d E =-.632581E-03  mag=    28.0000
       N       E                     dE             d eps       ncg     rms          rms(c)
DAV:   1    -0.144644867009E+03    0.90364E-02   -0.12358E+00  7904   0.225E+00    0.710E-01
DAV:   2    -0.144653845738E+03   -0.89787E-02   -0.90018E-02 11136   0.101E+00    0.344E-01
DAV:   3    -0.144655121238E+03   -0.12755E-02   -0.18858E-03 10912   0.196E-01    0.202E-01
DAV:   4    -0.144655040149E+03    0.81089E-04   -0.19128E-04 12400   0.592E-02    0.155E-01
DAV:   5    -0.144655005735E+03    0.34414E-04   -0.26582E-04 10648   0.488E-02    0.107E-01
DAV:   6    -0.144655051273E+03   -0.45538E-04   -0.20645E-04 10848   0.419E-02    0.362E-02
DAV:   7    -0.144655087098E+03   -0.35825E-04   -0.25208E-05 10208   0.184E-02    0.170E-02
DAV:   8    -0.144655115709E+03   -0.28611E-04   -0.45870E-06  7584   0.105E-02    0.118E-02
DAV:   9    -0.144655138501E+03   -0.22792E-04   -0.25393E-06  6800   0.921E-03    0.934E-03
DAV:  10    -0.144655157951E+03   -0.19451E-04   -0.26878E-06  6632   0.708E-03    0.542E-03
DAV:  11    -0.144655172043E+03   -0.14092E-04   -0.17250E-06  6368   0.609E-03    0.337E-03
DAV:  12    -0.144655176471E+03   -0.44278E-05   -0.10052E-06  5720   0.493E-03    0.190E-03
DAV:  13    -0.144655178442E+03   -0.19707E-05   -0.41553E-07  5264   0.325E-03    0.168E-03
DAV:  14    -0.144655179546E+03   -0.11043E-05   -0.26452E-07  5224   0.184E-03    0.996E-04
DAV:  15    -0.144655179925E+03   -0.37901E-06   -0.11314E-07  5280   0.144E-03
   9 F= -.15078461E+03 E0= -.15078461E+03  d E =-.192922E-02  mag=    28.0000
       N       E                     dE             d eps       ncg     rms          rms(c)
DAV:   1    -0.144613744589E+03    0.41435E-01   -0.49426E+00  7904   0.450E+00    0.143E+00
DAV:   2    -0.144650621231E+03   -0.36877E-01   -0.36051E-01 11144   0.201E+00    0.695E-01
DAV:   3    -0.144654993217E+03   -0.43720E-02   -0.75180E-03 10840   0.389E-01    0.406E-01
DAV:   4    -0.144654656314E+03    0.33690E-03   -0.78510E-04 12416   0.121E-01    0.312E-01
DAV:   5    -0.144654488388E+03    0.16793E-03   -0.10081E-03 10752   0.978E-02    0.214E-01
DAV:   6    -0.144654628242E+03   -0.13985E-03   -0.81594E-04 10976   0.839E-02    0.726E-02
DAV:   7    -0.144654732158E+03   -0.10392E-03   -0.97167E-05 10424   0.373E-02    0.323E-02
DAV:   8    -0.144654812145E+03   -0.79987E-04   -0.19578E-05 10088   0.215E-02    0.230E-02
DAV:   9    -0.144654871614E+03   -0.59469E-04   -0.96765E-06  9056   0.182E-02    0.175E-02
DAV:  10    -0.144654929634E+03   -0.58020E-04   -0.73888E-06  9232   0.123E-02    0.102E-02
DAV:  11    -0.144654973457E+03   -0.43823E-04   -0.42625E-06  7792   0.974E-03    0.546E-03
DAV:  12    -0.144654989100E+03   -0.15643E-04   -0.20577E-06  7000   0.624E-03    0.365E-03
DAV:  13    -0.144654994407E+03   -0.53064E-05   -0.99665E-07  5760   0.462E-03    0.299E-03
DAV:  14    -0.144654997348E+03   -0.29417E-05   -0.38512E-07  5264   0.257E-03    0.169E-03
DAV:  15    -0.144654998986E+03   -0.16375E-05   -0.24117E-07  5408   0.189E-03    0.120E-03
DAV:  16    -0.144654999824E+03   -0.83853E-06   -0.12560E-07  5312   0.161E-03
  10 F= -.15078444E+03 E0= -.15078444E+03  d E =-.175879E-02  mag=    28.0000
       N       E                     dE             d eps       ncg     rms          rms(c)
DAV:   1    -0.144643481022E+03    0.11518E-01   -0.14437E+00  7904   0.243E+00    0.762E-01
DAV:   2    -0.144654054865E+03   -0.10574E-01   -0.10592E-01 11216   0.110E+00    0.379E-01
DAV:   3    -0.144655510508E+03   -0.14556E-02   -0.22080E-03 11040   0.216E-01    0.218E-01
DAV:   4    -0.144655409322E+03    0.10119E-03   -0.23006E-04 12464   0.647E-02    0.166E-01
DAV:   5    -0.144655360577E+03    0.48745E-04   -0.33225E-04 10624   0.531E-02    0.111E-01
DAV:   6    -0.144655415520E+03   -0.54943E-04   -0.23190E-04 10736   0.429E-02    0.358E-02
DAV:   7    -0.144655455488E+03   -0.39967E-04   -0.26777E-05 10200   0.187E-02    0.174E-02
DAV:   8    -0.144655484381E+03   -0.28893E-04   -0.48242E-06  7832   0.106E-02    0.122E-02
DAV:   9    -0.144655507912E+03   -0.23531E-04   -0.23258E-06  6648   0.810E-03    0.959E-03
DAV:  10    -0.144655530310E+03   -0.22397E-04   -0.29286E-06  6864   0.691E-03    0.567E-03
DAV:  11    -0.144655546580E+03   -0.16271E-04   -0.17154E-06  6384   0.691E-03    0.362E-03
DAV:  12    -0.144655551733E+03   -0.51532E-05   -0.11190E-06  5760   0.545E-03    0.216E-03
DAV:  13    -0.144655554525E+03   -0.27921E-05   -0.48308E-07  5608   0.331E-03    0.189E-03
DAV:  14    -0.144655555778E+03   -0.12523E-05   -0.30384E-07  5272   0.214E-03    0.113E-03
DAV:  15    -0.144655556246E+03   -0.46828E-06   -0.13155E-07  5320   0.151E-03
  11 F= -.15078499E+03 E0= -.15078499E+03  d E =-.231518E-02  mag=    28.0000
       N       E                     dE             d eps       ncg     rms          rms(c)
DAV:   1    -0.144650780673E+03    0.47751E-02   -0.62689E-01  7920   0.160E+00    0.511E-01
DAV:   2    -0.144655398803E+03   -0.46181E-02   -0.44599E-02 11128   0.709E-01    0.248E-01
DAV:   3    -0.144656203172E+03   -0.80437E-03   -0.10241E-03 11304   0.147E-01    0.144E-01
DAV:   4    -0.144656156711E+03    0.46460E-04   -0.91892E-05 11952   0.362E-02    0.109E-01
DAV:   5    -0.144656121814E+03    0.34897E-04   -0.13268E-04 10416   0.325E-02    0.749E-02
DAV:   6    -0.144656146413E+03   -0.24599E-04   -0.11121E-04 11184   0.308E-02    0.244E-02
DAV:   7    -0.144656172104E+03   -0.25691E-04   -0.11919E-05  9656   0.153E-02    0.124E-02
DAV:   8    -0.144656197332E+03   -0.25228E-04   -0.23321E-06  6424   0.888E-03    0.815E-03
DAV:   9    -0.144656215202E+03   -0.17870E-04   -0.15458E-06  5944   0.564E-03    0.556E-03
DAV:  10    -0.144656235352E+03   -0.20150E-04   -0.11521E-06  5544   0.558E-03    0.398E-03
DAV:  11    -0.144656246434E+03   -0.11082E-04   -0.11043E-06  5632   0.478E-03    0.281E-03
DAV:  12    -0.144656255583E+03   -0.91494E-05   -0.67906E-07  5680   0.364E-03    0.188E-03
DAV:  13    -0.144656258288E+03   -0.27050E-05   -0.48440E-07  5408   0.257E-03    0.122E-03
DAV:  14    -0.144656258948E+03   -0.65982E-06   -0.16134E-07  5416   0.168E-03
  12 F= -.15078606E+03 E0= -.15078606E+03  d E =-.106177E-02  mag=    28.0000
       N       E                     dE             d eps       ncg     rms          rms(c)
DAV:   1    -0.144651196829E+03    0.50615E-02   -0.58672E-01  7904   0.155E+00    0.494E-01
DAV:   2    -0.144655507457E+03   -0.43106E-02   -0.41743E-02 11136   0.686E-01    0.240E-01
DAV:   3    -0.144656268306E+03   -0.76085E-03   -0.95871E-04 11240   0.142E-01    0.139E-01
DAV:   4    -0.144656224413E+03    0.43893E-04   -0.85836E-05 11912   0.349E-02    0.105E-01
DAV:   5    -0.144656191709E+03    0.32704E-04   -0.12464E-04 10400   0.314E-02    0.724E-02
DAV:   6    -0.144656215634E+03   -0.23924E-04   -0.10357E-04 11152   0.295E-02    0.236E-02
DAV:   7    -0.144656240435E+03   -0.24801E-04   -0.11090E-05  9496   0.147E-02    0.120E-02
DAV:   8    -0.144656264605E+03   -0.24171E-04   -0.21750E-06  6296   0.864E-03    0.787E-03
DAV:   9    -0.144656281771E+03   -0.17165E-04   -0.14570E-06  5864   0.547E-03    0.533E-03
DAV:  10    -0.144656300985E+03   -0.19214E-04   -0.10837E-06  5560   0.537E-03    0.381E-03
DAV:  11    -0.144656311848E+03   -0.10864E-04   -0.10319E-06  5608   0.465E-03    0.273E-03
DAV:  12    -0.144656320666E+03   -0.88179E-05   -0.65524E-07  5664   0.355E-03    0.182E-03
DAV:  13    -0.144656323290E+03   -0.26241E-05   -0.46070E-07  5400   0.252E-03    0.122E-03
DAV:  14    -0.144656323904E+03   -0.61333E-06   -0.15463E-07  5432   0.167E-03
  13 F= -.15078646E+03 E0= -.15078646E+03  d E =-.146879E-02  mag=    28.0000
       N       E                     dE             d eps       ncg     rms          rms(c)
DAV:   1    -0.144655265107E+03    0.10582E-02   -0.18870E-01  7952   0.876E-01    0.273E-01
DAV:   2    -0.144656575897E+03   -0.13108E-02   -0.12959E-02 11240   0.373E-01    0.130E-01
DAV:   3    -0.144656829526E+03   -0.25363E-03   -0.27535E-04 10840   0.708E-02    0.743E-02
DAV:   4    -0.144656814229E+03    0.15297E-04   -0.28748E-05 11704   0.205E-02    0.565E-02
DAV:   5    -0.144656800256E+03    0.13973E-04   -0.45000E-05 10848   0.225E-02    0.375E-02
DAV:   6    -0.144656801496E+03   -0.12403E-05   -0.28360E-05 11664   0.169E-02    0.112E-02
DAV:   7    -0.144656809847E+03   -0.83515E-05   -0.20320E-06  5880   0.576E-03    0.573E-03
DAV:   8    -0.144656819497E+03   -0.96493E-05   -0.88799E-07  5368   0.618E-03    0.440E-03
DAV:   9    -0.144656824363E+03   -0.48660E-05   -0.61656E-07  5280   0.411E-03    0.198E-03
DAV:  10    -0.144656829045E+03   -0.46820E-05   -0.40496E-07  5080   0.232E-03    0.193E-03
DAV:  11    -0.144656831656E+03   -0.26114E-05   -0.17885E-07  5264   0.202E-03    0.119E-03
DAV:  12    -0.144656835304E+03   -0.36474E-05   -0.12418E-07  5216   0.147E-03    0.875E-04
DAV:  13    -0.144656839859E+03   -0.45555E-05   -0.15781E-07  5536   0.140E-03    0.692E-04
DAV:  14    -0.144656840837E+03   -0.97820E-06   -0.82086E-08  5400   0.110E-03
  14 F= -.15078705E+03 E0= -.15078705E+03  d E =-.589572E-03  mag=    28.0000
       N       E                     dE             d eps       ncg     rms          rms(c)
DAV:   1    -0.144651987226E+03    0.48526E-02   -0.61632E-01  7912   0.158E+00    0.494E-01
DAV:   2    -0.144656454396E+03   -0.44672E-02   -0.42362E-02 11128   0.675E-01    0.235E-01
DAV:   3    -0.144657115714E+03   -0.66132E-03   -0.89833E-04 10712   0.128E-01    0.134E-01
DAV:   4    -0.144657065555E+03    0.50159E-04   -0.94240E-05 11720   0.370E-02    0.102E-01
DAV:   5    -0.144657019442E+03    0.46113E-04   -0.14645E-04 10768   0.408E-02    0.677E-02
DAV:   6    -0.144657027929E+03   -0.84878E-05   -0.92736E-05 11688   0.306E-02    0.202E-02
DAV:   7    -0.144657051440E+03   -0.23511E-04   -0.82495E-06  9240   0.103E-02    0.893E-03
DAV:   8    -0.144657076013E+03   -0.24572E-04   -0.14089E-06  5504   0.848E-03    0.601E-03
DAV:   9    -0.144657090256E+03   -0.14243E-04   -0.99798E-07  5544   0.632E-03    0.348E-03
DAV:  10    -0.144657105122E+03   -0.14866E-04   -0.10221E-06  5432   0.304E-03    0.257E-03
DAV:  11    -0.144657115680E+03   -0.10558E-04   -0.49222E-07  5344   0.324E-03    0.179E-03
DAV:  12    -0.144657124445E+03   -0.87642E-05   -0.40323E-07  5304   0.262E-03    0.155E-03
DAV:  13    -0.144657132363E+03   -0.79184E-05   -0.33382E-07  5528   0.227E-03    0.955E-04
DAV:  14    -0.144657135398E+03   -0.30351E-05   -0.18986E-07  5400   0.155E-03    0.677E-04
DAV:  15    -0.144657137848E+03   -0.24499E-05   -0.11446E-07  5160   0.115E-03    0.532E-04
DAV:  16    -0.144657140111E+03   -0.22636E-05   -0.11041E-07  5392   0.959E-04    0.415E-04
DAV:  17    -0.144657141721E+03   -0.16092E-05   -0.99316E-08  5360   0.961E-04    0.386E-04
DAV:  18    -0.144657142302E+03   -0.58106E-06   -0.67346E-08  5272   0.886E-04
  15 F= -.15078748E+03 E0= -.15078748E+03  d E =-.101816E-02  mag=    28.0000
       N       E                     dE             d eps       ncg     rms          rms(c)
DAV:   1    -0.144655517893E+03    0.16238E-02   -0.24305E-01  7912   0.999E-01    0.311E-01
DAV:   2    -0.144657123664E+03   -0.16058E-02   -0.15659E-02 11224   0.409E-01    0.150E-01
DAV:   3    -0.144657507577E+03   -0.38391E-03   -0.40634E-04 10416   0.920E-02    0.837E-02
DAV:   4    -0.144657481508E+03    0.26069E-04   -0.41379E-05 12208   0.309E-02    0.630E-02
DAV:   5    -0.144657449814E+03    0.31694E-04   -0.49776E-05 10728   0.222E-02    0.427E-02
DAV:   6    -0.144657443607E+03    0.62063E-05   -0.38708E-05 11168   0.172E-02    0.130E-02
DAV:   7    -0.144657465314E+03   -0.21707E-04   -0.36755E-06  7304   0.772E-03    0.670E-03
DAV:   8    -0.144657492683E+03   -0.27369E-04   -0.12823E-06  5720   0.481E-03    0.533E-03
DAV:   9    -0.144657506824E+03   -0.14141E-04   -0.76059E-07  5296   0.455E-03    0.269E-03
DAV:  10    -0.144657523371E+03   -0.16547E-04   -0.82578E-07  5576   0.291E-03    0.246E-03
DAV:  11    -0.144657533734E+03   -0.10362E-04   -0.45861E-07  5232   0.289E-03    0.137E-03
DAV:  12    -0.144657544291E+03   -0.10557E-04   -0.34926E-07  5416   0.218E-03    0.132E-03
DAV:  13    -0.144657552414E+03   -0.81239E-05   -0.32638E-07  5608   0.179E-03    0.720E-04
DAV:  14    -0.144657555280E+03   -0.28654E-05   -0.16692E-07  5432   0.143E-03    0.689E-04
DAV:  15    -0.144657557491E+03   -0.22114E-05   -0.10802E-07  5120   0.108E-03    0.395E-04
DAV:  16    -0.144657559517E+03   -0.20257E-05   -0.92506E-08  5312   0.887E-04    0.438E-04
DAV:  17    -0.144657561183E+03   -0.16661E-05   -0.92104E-08  5432   0.808E-04    0.256E-04
DAV:  18    -0.144657561688E+03   -0.50476E-06   -0.56268E-08  5280   0.750E-04
  16 F= -.15078790E+03 E0= -.15078790E+03  d E =-.417317E-03  mag=    28.0000
