CrCl3 2x2 + Ni | In-Plane Embedded Interstitial (pore coplanar, z=+0.09A) | Clean | U_all=3.29eV
   1.0000000000000000     
    12.1682323165561677    0.0016454480897831    0.0000000000000000
    -6.1314979671184711   10.5521182477466997    0.0000000000000000
     0.0000000000000000    0.0000000000000000   17.6887664794999999
   Cr   Cl   Ni
     8    24     1
Direct
  0.1541315369605180  0.3403207434612535  0.3371651560893133
  0.1591621235943812  0.8418916234389358  0.3339592854699377
  0.6593374884850446  0.3420483656726465  0.3392167279482554
  0.6561475224008327  0.8431234384686361  0.3380686985759461
  0.8244748258337316  0.1739054115192457  0.3373216738020069
  0.8306884492981338  0.6754623331718461  0.3352040344068222
  0.3216868866777856  0.1714044615804053  0.3399665558503653
  0.3229134192679240  0.6788784748950931  0.3353249646313296
  0.1678942347038586  0.5075121692965275  0.2613107252666151
  0.1719583597337613  0.0121923653505490  0.2601979577153586
  0.6511064597140432  0.5074270278930029  0.2611693075615660
  0.6695359009179745  0.0077976426824132  0.2609171771114344
  0.3248684165052991  0.3409913850728954  0.2644718427904852
  0.3213138211108690  0.8354125475262647  0.2594131095324412
  0.8185249727617849  0.3253522041026317  0.2586786178417699
  0.8101134492934372  0.8329135286195615  0.2631572526216392
  0.9936857140893931  0.1851519033291118  0.2608013790201835
  0.0110820753552228  0.6947280009938767  0.2506823478579072
  0.4874910785323807  0.1838725115330347  0.2652177964758479
  0.4892733689652072  0.6819377568335895  0.2600212561409805
  0.9924233551236623  0.3306178396983029  0.4138585399752808
 -0.0001100637217166  0.8335852517633932  0.4129509511792342
  0.4786292287530252  0.3336599555111255  0.4204802213500927
  0.4871217659624500  0.8349888529099085  0.4111024121144309
  0.3211688712305022  0.5099173994629896  0.4112437036594876
  0.3137677886715849  0.0093190530044827  0.4143385407451895
  0.8138109047415940  0.5079390842135775  0.4144137708343743
  0.8117901729415239  0.0047528314903826  0.4142826228531505
  0.1624475245098349  0.1831204508472510  0.4120908519293272
  0.1685580387956407  0.6855322325853986  0.4111504390552810
  0.6731882147790750  0.1821399131839992  0.4159871427588450
  0.6404635869731742  0.6750932344108332  0.4168113789871787
  0.4981290040380809  0.5033757184768511  0.3422636008479364

  0.00000000E+00  0.00000000E+00  0.00000000E+00
  0.00000000E+00  0.00000000E+00  0.00000000E+00
  0.00000000E+00  0.00000000E+00  0.00000000E+00
  0.00000000E+00  0.00000000E+00  0.00000000E+00
  0.00000000E+00  0.00000000E+00  0.00000000E+00
  0.00000000E+00  0.00000000E+00  0.00000000E+00
  0.00000000E+00  0.00000000E+00  0.00000000E+00
  0.00000000E+00  0.00000000E+00  0.00000000E+00
  0.00000000E+00  0.00000000E+00  0.00000000E+00
  0.00000000E+00  0.00000000E+00  0.00000000E+00
  0.00000000E+00  0.00000000E+00  0.00000000E+00
  0.00000000E+00  0.00000000E+00  0.00000000E+00
  0.00000000E+00  0.00000000E+00  0.00000000E+00
  0.00000000E+00  0.00000000E+00  0.00000000E+00
  0.00000000E+00  0.00000000E+00  0.00000000E+00
  0.00000000E+00  0.00000000E+00  0.00000000E+00
  0.00000000E+00  0.00000000E+00  0.00000000E+00
  0.00000000E+00  0.00000000E+00  0.00000000E+00
  0.00000000E+00  0.00000000E+00  0.00000000E+00
  0.00000000E+00  0.00000000E+00  0.00000000E+00
  0.00000000E+00  0.00000000E+00  0.00000000E+00
  0.00000000E+00  0.00000000E+00  0.00000000E+00
  0.00000000E+00  0.00000000E+00  0.00000000E+00
  0.00000000E+00  0.00000000E+00  0.00000000E+00
  0.00000000E+00  0.00000000E+00  0.00000000E+00
  0.00000000E+00  0.00000000E+00  0.00000000E+00
  0.00000000E+00  0.00000000E+00  0.00000000E+00
  0.00000000E+00  0.00000000E+00  0.00000000E+00
  0.00000000E+00  0.00000000E+00  0.00000000E+00
  0.00000000E+00  0.00000000E+00  0.00000000E+00
  0.00000000E+00  0.00000000E+00  0.00000000E+00
  0.00000000E+00  0.00000000E+00  0.00000000E+00
  0.00000000E+00  0.00000000E+00  0.00000000E+00
