CrCl3 1x1 + H S2 hollow (D3, U=0) (a=6.0
    1.000000000000000     
     6.0462744985246628    0.0000000000000000    0.0000000000000000
    -3.0231372492623314    5.2362273139763751    0.0000000000000000
     0.0000000000000000    0.0000000000000000   20.0000000000000000
   Cr   Cl   H 
     2     6     1
Direct
     0.3333333333333357    0.6666666666666643    0.5002734289824862
     0.6666666666666643    0.3333333333333357    0.5002734289824862
     0.3508625524053651    1.0000000000000000    0.4355914481696459
     1.0000000000000000    0.3508625524053651    0.4355914481696459
     0.6491374475946348    0.6491374475946348    0.4355914481696459
     0.6502611861372453    1.0000000000000000    0.5669481420815710
     0.0000000000000000    0.6502611861372453    0.5669481420815710
     0.3497388138627547    0.3497388138627547    0.5669481420815710
     0.0000000000000000    1.0000000000000000    0.5718343712813755
 
  0.00000000E+00  0.00000000E+00  0.00000000E+00
  0.00000000E+00  0.00000000E+00  0.00000000E+00
  0.00000000E+00  0.00000000E+00  0.00000000E+00
  0.00000000E+00  0.00000000E+00  0.00000000E+00
  0.00000000E+00  0.00000000E+00  0.00000000E+00
  0.00000000E+00  0.00000000E+00  0.00000000E+00
  0.00000000E+00  0.00000000E+00  0.00000000E+00
  0.00000000E+00  0.00000000E+00  0.00000000E+00
  0.00000000E+00  0.00000000E+00  0.00000000E+00
