Cr8Cl24                                 
   1.0000000000000000     
    12.1682319641000003    0.0000000000000000    0.0000000000000000
    -6.1300719177999996   10.5529468652999991    0.0000000000000000
     0.0000000000000000    0.0000000000000000   17.6887664794999999
   Cr   Cl   Ni   H 
     8    24     1     1
Direct
  0.1446961910652629  0.3275029849135485  0.3317194104703850
  0.1610947337888041  0.8345585800452622  0.3363825033230171
  0.6506918169126312  0.3349194274435552  0.3388230857155830
  0.6619115141606959  0.8504355608379360  0.3432420247049440
  0.8178302721679417  0.1747048446904371  0.3316047904348152
  0.8344090809503322  0.6699463560435219  0.3353428197242813
  0.3141203283804721  0.1631990915673716  0.3366910162830301
  0.3284904964139740  0.6751862828557080  0.3418123634592858
  0.1809579354817809  0.5146261844119048  0.2625266014846362
  0.1666426804833195  0.9986562257750263  0.2601458825714841
  0.6460064255740765  0.5022582586729329  0.2671862546899043
  0.6550874025825765  0.9979824652714342  0.2618762337379711
  0.3111337593577428  0.3206612660559239  0.2562680139517324
  0.3249345361819754  0.8305147029718235  0.2640906603738079
  0.8004427829606031  0.3291730372125771  0.2579716275180255
  0.8118889802617232  0.8318722709191476  0.2691789320741487
  0.9609730768244721  0.1740320091170204  0.2456527011910501
  0.0133275924867018  0.6850520477558675  0.2534267873393461
  0.4851810763414883  0.1799576995828759  0.2624762595341221
  0.4986762134880420  0.6762861667737280  0.2697108321023190
  0.9806602072048728  0.3280355053323030  0.4079837370555537
 -0.0001836442625497  0.8230408909632001  0.4155411666215429
  0.4808735549092839  0.3310795902147516  0.4144714258321936
  0.4927218371625125  0.8386156845188351  0.4164967597748378
  0.3390381188849352  0.5189963463368757  0.4196634277914628
  0.3139153668243945  0.0063638941369902  0.4141778315106611
  0.8030589917305776  0.4958955604452870  0.4160739599518293
  0.8168931092409357  0.0181879141184584  0.4133057436530083
  0.1594139705930381  0.1721027932945529  0.4108371792456627
  0.1725973757147004  0.6815134947782899  0.4158164235894478
  0.6607125032036847  0.1811698477028845  0.4124107011087401
  0.6727422220959771  0.7095093721724406  0.4398642674592120
  0.4747762253851058  0.4927827998514157  0.3387668162543276
  0.5742017044482699  0.5963965062158565  0.3987018344674707

  0.00000000E+00  0.00000000E+00  0.00000000E+00
  0.00000000E+00  0.00000000E+00  0.00000000E+00
  0.00000000E+00  0.00000000E+00  0.00000000E+00
  0.00000000E+00  0.00000000E+00  0.00000000E+00
  0.00000000E+00  0.00000000E+00  0.00000000E+00
  0.00000000E+00  0.00000000E+00  0.00000000E+00
  0.00000000E+00  0.00000000E+00  0.00000000E+00
  0.00000000E+00  0.00000000E+00  0.00000000E+00
  0.00000000E+00  0.00000000E+00  0.00000000E+00
  0.00000000E+00  0.00000000E+00  0.00000000E+00
  0.00000000E+00  0.00000000E+00  0.00000000E+00
  0.00000000E+00  0.00000000E+00  0.00000000E+00
  0.00000000E+00  0.00000000E+00  0.00000000E+00
  0.00000000E+00  0.00000000E+00  0.00000000E+00
  0.00000000E+00  0.00000000E+00  0.00000000E+00
  0.00000000E+00  0.00000000E+00  0.00000000E+00
  0.00000000E+00  0.00000000E+00  0.00000000E+00
  0.00000000E+00  0.00000000E+00  0.00000000E+00
  0.00000000E+00  0.00000000E+00  0.00000000E+00
  0.00000000E+00  0.00000000E+00  0.00000000E+00
  0.00000000E+00  0.00000000E+00  0.00000000E+00
  0.00000000E+00  0.00000000E+00  0.00000000E+00
  0.00000000E+00  0.00000000E+00  0.00000000E+00
  0.00000000E+00  0.00000000E+00  0.00000000E+00
  0.00000000E+00  0.00000000E+00  0.00000000E+00
  0.00000000E+00  0.00000000E+00  0.00000000E+00
  0.00000000E+00  0.00000000E+00  0.00000000E+00
  0.00000000E+00  0.00000000E+00  0.00000000E+00
  0.00000000E+00  0.00000000E+00  0.00000000E+00
  0.00000000E+00  0.00000000E+00  0.00000000E+00
  0.00000000E+00  0.00000000E+00  0.00000000E+00
  0.00000000E+00  0.00000000E+00  0.00000000E+00
  0.00000000E+00  0.00000000E+00  0.00000000E+00
  0.00000000E+00  0.00000000E+00  0.00000000E+00
