       N       E                     dE             d eps       ncg     rms          rms(c)
DAV:   1     0.214551172719E+04    0.21455E+04   -0.66608E+04  8040   0.935E+02
DAV:   2     0.401093347220E+03   -0.17444E+04   -0.16350E+04  9504   0.246E+02
DAV:   3    -0.115170668975E+03   -0.51626E+03   -0.50047E+03 11560   0.139E+02
DAV:   4    -0.152966493701E+03   -0.37796E+02   -0.37231E+02 12056   0.521E+01
DAV:   5    -0.153724439973E+03   -0.75795E+00   -0.75507E+00 12104   0.904E+00    0.407E+01
DAV:   6    -0.156410192215E+03   -0.26858E+01   -0.15773E+02 12824   0.603E+01    0.896E+01
DAV:   7    -0.149987267780E+03    0.64229E+01   -0.44277E+01 12032   0.351E+01    0.338E+01
DAV:   8    -0.145825687546E+03    0.41616E+01   -0.20739E+01  9824   0.632E+01    0.268E+01
DAV:   9    -0.145811914740E+03    0.13773E-01   -0.20074E+01 12296   0.283E+01    0.197E+01
DAV:  10    -0.146291670171E+03   -0.47976E+00   -0.48011E+00 12560   0.852E+00    0.202E+01
DAV:  11    -0.145832753953E+03    0.45892E+00   -0.14349E+00 11904   0.123E+01    0.128E+01
DAV:  12    -0.146497187217E+03   -0.66443E+00   -0.82015E-01 12632   0.631E+00    0.865E+00
DAV:  13    -0.147021885124E+03   -0.52470E+00   -0.27689E-01 12792   0.382E+00    0.642E+00
DAV:  14    -0.147102845215E+03   -0.80960E-01   -0.31197E-01 13488   0.400E+00    0.414E+00
DAV:  15    -0.147084194125E+03    0.18651E-01   -0.14702E-01 12584   0.236E+00    0.302E+00
DAV:  16    -0.147065868780E+03    0.18325E-01   -0.37939E-02 13448   0.194E+00    0.223E+00
DAV:  17    -0.147061936811E+03    0.39320E-02   -0.36747E-02 13552   0.189E+00    0.156E+00
DAV:  18    -0.147073719965E+03   -0.11783E-01   -0.41836E-02 13136   0.235E+00    0.839E-01
DAV:  19    -0.147102857637E+03   -0.29138E-01   -0.45914E-02 13936   0.166E+00    0.471E-01
DAV:  20    -0.147121063015E+03   -0.18205E-01   -0.18067E-02 12512   0.567E-01    0.383E-01
DAV:  21    -0.147123139057E+03   -0.20760E-02   -0.17113E-03 10128   0.151E-01    0.372E-01
DAV:  22    -0.147126469495E+03   -0.33304E-02   -0.21685E-04 13384   0.950E-02    0.324E-01
DAV:  23    -0.147140541402E+03   -0.14072E-01   -0.22129E-03 12040   0.497E-01    0.189E-01
DAV:  24    -0.147145433178E+03   -0.48918E-02   -0.94404E-04 13088   0.224E-01    0.161E-01
DAV:  25    -0.147145986360E+03   -0.55318E-03   -0.53084E-04 11096   0.878E-02    0.128E-01
DAV:  26    -0.147148115499E+03   -0.21291E-02   -0.12271E-04 12760   0.106E-01    0.920E-02
DAV:  27    -0.147150133604E+03   -0.20181E-02   -0.19964E-04 13568   0.133E-01    0.536E-02
DAV:  28    -0.147150511419E+03   -0.37782E-03   -0.15101E-04 12248   0.466E-02    0.494E-02
DAV:  29    -0.147150776965E+03   -0.26555E-03   -0.14319E-05 11112   0.239E-02    0.369E-02
DAV:  30    -0.147151130203E+03   -0.35324E-03   -0.30641E-05 13080   0.530E-02    0.167E-02
DAV:  31    -0.147151331704E+03   -0.20150E-03   -0.26024E-05 11856   0.451E-02    0.773E-03
DAV:  32    -0.147151385637E+03   -0.53932E-04   -0.13809E-05 11192   0.142E-02    0.518E-03
DAV:  33    -0.147151423240E+03   -0.37604E-04   -0.24327E-06  6792   0.607E-03    0.538E-03
DAV:  34    -0.147151479669E+03   -0.56429E-04   -0.15699E-06  6496   0.417E-03    0.474E-03
DAV:  35    -0.147151502416E+03   -0.22747E-04   -0.59142E-07  5784   0.450E-03    0.398E-03
DAV:  36    -0.147151515561E+03   -0.13145E-04   -0.61381E-07  5712   0.298E-03    0.344E-03
DAV:  37    -0.147151528916E+03   -0.13356E-04   -0.41890E-07  5304   0.432E-03    0.258E-03
DAV:  38    -0.147151549134E+03   -0.20218E-04   -0.35657E-07  5768   0.475E-03    0.168E-03
DAV:  39    -0.147151570395E+03   -0.21261E-04   -0.83815E-07  6016   0.382E-03    0.221E-03
DAV:  40    -0.147151576064E+03   -0.56687E-05   -0.48652E-07  5472   0.262E-03    0.206E-03
DAV:  41    -0.147151579646E+03   -0.35820E-05   -0.20411E-07  5448   0.175E-03    0.147E-03
DAV:  42    -0.147151581351E+03   -0.17046E-05   -0.11894E-07  5216   0.146E-03    0.859E-04
DAV:  43    -0.147151582952E+03   -0.16015E-05   -0.99571E-08  5288   0.104E-03    0.859E-04
DAV:  44    -0.147151584194E+03   -0.12422E-05   -0.59556E-08  5368   0.112E-03    0.533E-04
DAV:  45    -0.147151584794E+03   -0.59960E-06   -0.28226E-08  5064   0.762E-04
   1 F= -.15335222E+03 E0= -.15335222E+03  d E =-.153352E+03  mag=    27.0000
       N       E                     dE             d eps       ncg     rms          rms(c)
DAV:   1    -0.147153148234E+03   -0.15640E-02   -0.61718E-01  8048   0.163E+00    0.485E-01
DAV:   2    -0.147156959514E+03   -0.38113E-02   -0.34190E-02 11232   0.615E-01    0.241E-01
DAV:   3    -0.147157849679E+03   -0.89016E-03   -0.93866E-04 11088   0.151E-01    0.131E-01
DAV:   4    -0.147157789558E+03    0.60121E-04   -0.11558E-04 11744   0.560E-02    0.999E-02
DAV:   5    -0.147157730299E+03    0.59259E-04   -0.16633E-04 11904   0.771E-02    0.665E-02
DAV:   6    -0.147157725891E+03    0.44088E-05   -0.11674E-04 12000   0.672E-02    0.205E-02
DAV:   7    -0.147157767194E+03   -0.41303E-04   -0.15333E-05 11136   0.230E-02    0.124E-02
DAV:   8    -0.147157814712E+03   -0.47518E-04   -0.37650E-06  7096   0.125E-02    0.799E-03
DAV:   9    -0.147157857944E+03   -0.43232E-04   -0.26510E-06  6776   0.651E-03    0.453E-03
DAV:  10    -0.147157891099E+03   -0.33155E-04   -0.14484E-06  5880   0.445E-03    0.361E-03
DAV:  11    -0.147157908408E+03   -0.17309E-04   -0.90949E-07  5624   0.403E-03    0.270E-03
DAV:  12    -0.147157928662E+03   -0.20254E-04   -0.71476E-07  6128   0.365E-03    0.184E-03
DAV:  13    -0.147157940629E+03   -0.11966E-04   -0.61201E-07  5552   0.272E-03    0.141E-03
DAV:  14    -0.147157948031E+03   -0.74029E-05   -0.38973E-07  5584   0.237E-03    0.941E-04
DAV:  15    -0.147157952176E+03   -0.41440E-05   -0.32652E-07  5456   0.177E-03    0.686E-04
DAV:  16    -0.147157953714E+03   -0.15381E-05   -0.17260E-07  5304   0.134E-03    0.442E-04
DAV:  17    -0.147157954847E+03   -0.11338E-05   -0.12520E-07  5272   0.108E-03    0.332E-04
DAV:  18    -0.147157955299E+03   -0.45141E-06   -0.74581E-08  5104   0.902E-04
   2 F= -.15335822E+03 E0= -.15335822E+03  d E =-.599888E-02  mag=    27.0000
       N       E                     dE             d eps       ncg     rms          rms(c)
DAV:   1    -0.147125835531E+03    0.32119E-01   -0.55538E+00  7904   0.491E+00    0.146E+00
DAV:   2    -0.147162542549E+03   -0.36707E-01   -0.31189E-01 11128   0.189E+00    0.762E-01
DAV:   3    -0.147168996653E+03   -0.64541E-02   -0.88179E-03 11216   0.524E-01    0.397E-01
DAV:   4    -0.147168509526E+03    0.48713E-03   -0.12378E-03 11920   0.206E-01    0.301E-01
DAV:   5    -0.147168171291E+03    0.33823E-03   -0.15648E-03 11960   0.245E-01    0.197E-01
DAV:   6    -0.147168226281E+03   -0.54990E-04   -0.11348E-03 12360   0.222E-01    0.610E-02
DAV:   7    -0.147168452191E+03   -0.22591E-03   -0.15368E-04 11424   0.742E-02    0.358E-02
DAV:   8    -0.147168673342E+03   -0.22115E-03   -0.35470E-05 11160   0.281E-02    0.239E-02
DAV:   9    -0.147168867100E+03   -0.19376E-03   -0.11529E-05 10040   0.124E-02    0.140E-02
DAV:  10    -0.147169062154E+03   -0.19505E-03   -0.72199E-06  9848   0.900E-03    0.837E-03
DAV:  11    -0.147169178507E+03   -0.11635E-03   -0.27029E-06  7568   0.603E-03    0.627E-03
DAV:  12    -0.147169274204E+03   -0.95697E-04   -0.20841E-06  7248   0.599E-03    0.447E-03
DAV:  13    -0.147169349097E+03   -0.74893E-04   -0.31934E-06  7744   0.560E-03    0.309E-03
DAV:  14    -0.147169378730E+03   -0.29633E-04   -0.10489E-06  6504   0.463E-03    0.162E-03
DAV:  15    -0.147169387205E+03   -0.84748E-05   -0.64380E-07  5808   0.311E-03    0.161E-03
DAV:  16    -0.147169390788E+03   -0.35832E-05   -0.37320E-07  5376   0.210E-03    0.815E-04
DAV:  17    -0.147169393029E+03   -0.22412E-05   -0.23486E-07  5296   0.160E-03    0.812E-04
DAV:  18    -0.147169394519E+03   -0.14892E-05   -0.12859E-07  5120   0.129E-03    0.417E-04
DAV:  19    -0.147169395878E+03   -0.13594E-05   -0.99470E-08  5504   0.104E-03    0.312E-04
DAV:  20    -0.147169396593E+03   -0.71516E-06   -0.64538E-08  5096   0.870E-04
   3 F= -.15336851E+03 E0= -.15336851E+03  d E =-.162918E-01  mag=    27.0000
       N       E                     dE             d eps       ncg     rms          rms(c)
DAV:   1    -0.147164082260E+03    0.53136E-02   -0.85629E-01  7904   0.192E+00    0.572E-01
DAV:   2    -0.147169450414E+03   -0.53682E-02   -0.47442E-02 11128   0.725E-01    0.285E-01
DAV:   3    -0.147170625186E+03   -0.11748E-02   -0.13091E-03 11056   0.180E-01    0.154E-01
DAV:   4    -0.147170543467E+03    0.81719E-04   -0.16303E-04 11792   0.670E-02    0.117E-01
DAV:   5    -0.147170464221E+03    0.79246E-04   -0.22725E-04 11824   0.903E-02    0.784E-02
DAV:   6    -0.147170461799E+03    0.24222E-05   -0.16319E-04 12056   0.792E-02    0.243E-02
DAV:   7    -0.147170515909E+03   -0.54110E-04   -0.21828E-05 11392   0.273E-02    0.148E-02
DAV:   8    -0.147170576406E+03   -0.60497E-04   -0.53442E-06  7944   0.144E-02    0.959E-03
DAV:   9    -0.147170632259E+03   -0.55854E-04   -0.34996E-06  7240   0.776E-03    0.562E-03
DAV:  10    -0.147170675915E+03   -0.43656E-04   -0.19984E-06  6496   0.475E-03    0.386E-03
DAV:  11    -0.147170701547E+03   -0.25632E-04   -0.88634E-07  5872   0.391E-03    0.302E-03
DAV:  12    -0.147170727965E+03   -0.26418E-04   -0.78146E-07  5920   0.389E-03    0.222E-03
DAV:  13    -0.147170742428E+03   -0.14463E-04   -0.81345E-07  5880   0.293E-03    0.176E-03
DAV:  14    -0.147170751702E+03   -0.92732E-05   -0.49063E-07  5648   0.259E-03    0.119E-03
DAV:  15    -0.147170755960E+03   -0.42580E-05   -0.42635E-07  5480   0.220E-03    0.790E-04
DAV:  16    -0.147170757102E+03   -0.11425E-05   -0.20829E-07  5176   0.156E-03    0.472E-04
DAV:  17    -0.147170757904E+03   -0.80154E-06   -0.12245E-07  5160   0.107E-03
   4 F= -.15336941E+03 E0= -.15336941E+03  d E =-.171884E-01  mag=    27.0000
       N       E                     dE             d eps       ncg     rms          rms(c)
DAV:   1    -0.147172387976E+03   -0.16309E-02   -0.39908E-01  7912   0.131E+00    0.380E-01
DAV:   2    -0.147174644336E+03   -0.22564E-02   -0.23610E-02 11160   0.529E-01    0.185E-01
DAV:   3    -0.147175030661E+03   -0.38632E-03   -0.89350E-04 10208   0.212E-01    0.108E-01
DAV:   4    -0.147174952683E+03    0.77977E-04   -0.14434E-04 10600   0.984E-02    0.819E-02
DAV:   5    -0.147174859089E+03    0.93594E-04   -0.11626E-04 12344   0.564E-02    0.584E-02
DAV:   6    -0.147174822675E+03    0.36415E-04   -0.70867E-05 12008   0.440E-02    0.199E-02
DAV:   7    -0.147174872794E+03   -0.50119E-04   -0.93029E-06  9832   0.139E-02    0.101E-02
DAV:   8    -0.147174935187E+03   -0.62393E-04   -0.15991E-06  5984   0.857E-03    0.761E-03
DAV:   9    -0.147174998826E+03   -0.63639E-04   -0.21207E-06  6416   0.451E-03    0.456E-03
DAV:  10    -0.147175051875E+03   -0.53049E-04   -0.14261E-06  6008   0.468E-03    0.314E-03
DAV:  11    -0.147175088453E+03   -0.36578E-04   -0.14728E-06  6024   0.469E-03    0.247E-03
DAV:  12    -0.147175115953E+03   -0.27500E-04   -0.10127E-06  5832   0.380E-03    0.199E-03
DAV:  13    -0.147175131332E+03   -0.15379E-04   -0.68756E-07  5640   0.292E-03    0.123E-03
DAV:  14    -0.147175141642E+03   -0.10310E-04   -0.46416E-07  5376   0.211E-03    0.106E-03
DAV:  15    -0.147175149423E+03   -0.77815E-05   -0.37514E-07  5760   0.180E-03    0.729E-04
DAV:  16    -0.147175154431E+03   -0.50077E-05   -0.30373E-07  5520   0.172E-03    0.675E-04
DAV:  17    -0.147175156418E+03   -0.19873E-05   -0.23820E-07  5328   0.145E-03    0.402E-04
DAV:  18    -0.147175156883E+03   -0.46473E-06   -0.13422E-07  5216   0.116E-03
   5 F= -.15337337E+03 E0= -.15337337E+03  d E =-.395878E-02  mag=    27.0000
       N       E                     dE             d eps       ncg     rms          rms(c)
DAV:   1    -0.147159019400E+03    0.16137E-01   -0.35918E+00  7904   0.393E+00    0.114E+00
DAV:   2    -0.147180777487E+03   -0.21758E-01   -0.21421E-01 11232   0.161E+00    0.567E-01
DAV:   3    -0.147183383581E+03   -0.26061E-02   -0.83506E-03 10144   0.679E-01    0.325E-01
DAV:   4    -0.147182877952E+03    0.50563E-03   -0.14010E-03 10504   0.313E-01    0.246E-01
DAV:   5    -0.147182423768E+03    0.45418E-03   -0.10489E-03 12512   0.168E-01    0.177E-01
DAV:   6    -0.147182336679E+03    0.87089E-04   -0.64058E-04 12232   0.129E-01    0.613E-02
DAV:   7    -0.147182620166E+03   -0.28349E-03   -0.84515E-05 10792   0.419E-02    0.296E-02
DAV:   8    -0.147182921438E+03   -0.30127E-03   -0.18644E-05 11416   0.258E-02    0.222E-02
DAV:   9    -0.147183214467E+03   -0.29303E-03   -0.92842E-06  9584   0.123E-02    0.126E-02
DAV:  10    -0.147183532572E+03   -0.31811E-03   -0.11877E-05  9936   0.853E-03    0.686E-03
DAV:  11    -0.147183734953E+03   -0.20238E-03   -0.43562E-06  8656   0.608E-03    0.535E-03
DAV:  12    -0.147183824285E+03   -0.89332E-04   -0.10315E-06  6552   0.423E-03    0.394E-03
DAV:  13    -0.147183933868E+03   -0.10958E-03   -0.28743E-06  7424   0.399E-03    0.282E-03
DAV:  14    -0.147184010788E+03   -0.76920E-04   -0.25175E-06  7288   0.379E-03    0.134E-03
DAV:  15    -0.147184027690E+03   -0.16903E-04   -0.74215E-07  6184   0.294E-03    0.132E-03
DAV:  16    -0.147184030164E+03   -0.24740E-05   -0.36257E-07  5592   0.219E-03    0.689E-04
DAV:  17    -0.147184030758E+03   -0.59389E-06   -0.16484E-07  5160   0.136E-03
   6 F= -.15338090E+03 E0= -.15338090E+03  d E =-.114873E-01  mag=    27.0000
       N       E                     dE             d eps       ncg     rms          rms(c)
DAV:   1    -0.147081353349E+03    0.10268E+00   -0.14370E+01  7904   0.788E+00    0.230E+00
DAV:   2    -0.147171658796E+03   -0.90305E-01   -0.87218E-01 11320   0.333E+00    0.120E+00
DAV:   3    -0.147180854671E+03   -0.91959E-02   -0.35473E-02 10176   0.147E+00    0.657E-01
DAV:   4    -0.147179087078E+03    0.17676E-02   -0.61300E-03 10544   0.667E-01    0.497E-01
DAV:   5    -0.147177753618E+03    0.13335E-02   -0.41092E-03 12544   0.325E-01    0.361E-01
DAV:   6    -0.147177540619E+03    0.21300E-03   -0.26188E-03 12448   0.246E-01    0.128E-01
DAV:   7    -0.147178442618E+03   -0.90200E-03   -0.35521E-04 10752   0.951E-02    0.586E-02
DAV:   8    -0.147179315432E+03   -0.87281E-03   -0.78612E-05 11616   0.623E-02    0.451E-02
DAV:   9    -0.147180188524E+03   -0.87309E-03   -0.43537E-05 10760   0.337E-02    0.255E-02
DAV:  10    -0.147181006145E+03   -0.81762E-03   -0.38992E-05  9984   0.171E-02    0.147E-02
DAV:  11    -0.147181621647E+03   -0.61550E-03   -0.19874E-05 10688   0.137E-02    0.111E-02
DAV:  12    -0.147181858012E+03   -0.23636E-03   -0.40349E-06  8296   0.757E-03    0.805E-03
DAV:  13    -0.147182165904E+03   -0.30789E-03   -0.78303E-06  8712   0.725E-03    0.529E-03
DAV:  14    -0.147182356509E+03   -0.19061E-03   -0.69006E-06  8672   0.616E-03    0.279E-03
DAV:  15    -0.147182399875E+03   -0.43366E-04   -0.17264E-06  7032   0.377E-03    0.177E-03
DAV:  16    -0.147182405921E+03   -0.60454E-05   -0.55814E-07  6072   0.277E-03    0.156E-03
DAV:  17    -0.147182407295E+03   -0.13742E-05   -0.28330E-07  5392   0.188E-03    0.916E-04
DAV:  18    -0.147182408386E+03   -0.10914E-05   -0.16088E-07  5184   0.151E-03    0.808E-04
DAV:  19    -0.147182409525E+03   -0.11383E-05   -0.91980E-08  5000   0.108E-03    0.349E-04
DAV:  20    -0.147182410148E+03   -0.62305E-06   -0.65195E-08  5320   0.815E-04
   7 F= -.15337648E+03 E0= -.15337648E+03  d E =-.706560E-02  mag=    27.0000
       N       E                     dE             d eps       ncg     rms          rms(c)
DAV:   1    -0.147141681168E+03    0.40728E-01   -0.64452E+00  7904   0.527E+00    0.153E+00
DAV:   2    -0.147180830915E+03   -0.39150E-01   -0.37931E-01 11224   0.208E+00    0.757E-01
DAV:   3    -0.147185384719E+03   -0.45538E-02   -0.12862E-02 10776   0.711E-01    0.435E-01
DAV:   4    -0.147184573536E+03    0.81118E-03   -0.18440E-03 11528   0.333E-01    0.329E-01
DAV:   5    -0.147183791058E+03    0.78248E-03   -0.16703E-03 12576   0.213E-01    0.224E-01
DAV:   6    -0.147183784936E+03    0.61222E-05   -0.10995E-03 11944   0.182E-01    0.765E-02
DAV:   7    -0.147184200291E+03   -0.41535E-03   -0.16688E-04 11640   0.688E-02    0.414E-02
DAV:   8    -0.147184703130E+03   -0.50284E-03   -0.34798E-05 11792   0.355E-02    0.286E-02
DAV:   9    -0.147185132093E+03   -0.42896E-03   -0.17059E-05 10688   0.149E-02    0.168E-02
DAV:  10    -0.147185605887E+03   -0.47379E-03   -0.17718E-05 10568   0.113E-02    0.923E-03
DAV:  11    -0.147185902897E+03   -0.29701E-03   -0.68191E-06  9536   0.103E-02    0.716E-03
DAV:  12    -0.147186071483E+03   -0.16859E-03   -0.28055E-06  7736   0.770E-03    0.523E-03
DAV:  13    -0.147186257277E+03   -0.18579E-03   -0.55788E-06  8504   0.570E-03    0.333E-03
DAV:  14    -0.147186334065E+03   -0.76788E-04   -0.27094E-06  7416   0.406E-03    0.171E-03
DAV:  15    -0.147186348689E+03   -0.14624E-04   -0.67463E-07  6368   0.296E-03    0.138E-03
DAV:  16    -0.147186351200E+03   -0.25107E-05   -0.32346E-07  5544   0.213E-03    0.949E-04
DAV:  17    -0.147186352051E+03   -0.85141E-06   -0.17010E-07  5056   0.147E-03
   8 F= -.15338231E+03 E0= -.15338231E+03  d E =-.128995E-01  mag=    27.0000
       N       E                     dE             d eps       ncg     rms          rms(c)
DAV:   1    -0.147186143824E+03    0.20738E-03   -0.59978E-01  8024   0.160E+00    0.468E-01
DAV:   2    -0.147189839599E+03   -0.36958E-02   -0.36978E-02 11128   0.649E-01    0.227E-01
DAV:   3    -0.147190379574E+03   -0.53997E-03   -0.91123E-04 11136   0.161E-01    0.132E-01
DAV:   4    -0.147190338470E+03    0.41104E-04   -0.11947E-04 12256   0.672E-02    0.990E-02
DAV:   5    -0.147190318287E+03    0.20183E-04   -0.16313E-04 11552   0.608E-02    0.652E-02
DAV:   6    -0.147190329054E+03   -0.10767E-04   -0.96700E-05 12632   0.615E-02    0.211E-02
DAV:   7    -0.147190339681E+03   -0.10627E-04   -0.11516E-05 10776   0.229E-02    0.103E-02
DAV:   8    -0.147190351543E+03   -0.11862E-04   -0.21899E-06  6120   0.116E-02    0.639E-03
DAV:   9    -0.147190362735E+03   -0.11192E-04   -0.16760E-06  5880   0.476E-03    0.432E-03
DAV:  10    -0.147190368030E+03   -0.52949E-05   -0.69345E-07  5096   0.401E-03    0.298E-03
DAV:  11    -0.147190374132E+03   -0.61019E-05   -0.61430E-07  5376   0.312E-03    0.226E-03
DAV:  12    -0.147190380542E+03   -0.64094E-05   -0.44405E-07  5688   0.312E-03    0.172E-03
DAV:  13    -0.147190384044E+03   -0.35022E-05   -0.32026E-07  5376   0.223E-03    0.960E-04
DAV:  14    -0.147190385617E+03   -0.15730E-05   -0.14294E-07  5208   0.151E-03    0.904E-04
DAV:  15    -0.147190386918E+03   -0.13016E-05   -0.10240E-07  5168   0.107E-03    0.566E-04
DAV:  16    -0.147190387713E+03   -0.79503E-06   -0.76277E-08  5336   0.930E-04
   9 F= -.15338596E+03 E0= -.15338596E+03  d E =-.364798E-02  mag=    27.0000
       N       E                     dE             d eps       ncg     rms          rms(c)
DAV:   1    -0.147158208469E+03    0.32178E-01   -0.53980E+00  7904   0.482E+00    0.141E+00
DAV:   2    -0.147193187110E+03   -0.34979E-01   -0.33524E-01 11128   0.197E+00    0.695E-01
DAV:   3    -0.147196814979E+03   -0.36279E-02   -0.84876E-03 10936   0.529E-01    0.399E-01
DAV:   4    -0.147196436214E+03    0.37877E-03   -0.12464E-03 11912   0.234E-01    0.300E-01
DAV:   5    -0.147196206177E+03    0.23004E-03   -0.15723E-03 11744   0.195E-01    0.199E-01
DAV:   6    -0.147196277785E+03   -0.71608E-04   -0.91697E-04 12728   0.192E-01    0.648E-02
DAV:   7    -0.147196339214E+03   -0.61430E-04   -0.11184E-04 11832   0.675E-02    0.308E-02
DAV:   8    -0.147196401229E+03   -0.62014E-04   -0.23249E-05 11400   0.341E-02    0.186E-02
DAV:   9    -0.147196456664E+03   -0.55436E-04   -0.83556E-06  9576   0.124E-02    0.118E-02
DAV:  10    -0.147196492836E+03   -0.36172E-04   -0.26792E-06  6840   0.703E-03    0.755E-03
DAV:  11    -0.147196529348E+03   -0.36512E-04   -0.27258E-06  6936   0.670E-03    0.532E-03
DAV:  12    -0.147196560083E+03   -0.30735E-04   -0.18155E-06  6392   0.540E-03    0.367E-03
DAV:  13    -0.147196579373E+03   -0.19290E-04   -0.97407E-07  6128   0.428E-03    0.292E-03
DAV:  14    -0.147196591123E+03   -0.11750E-04   -0.90154E-07  5920   0.372E-03    0.190E-03
DAV:  15    -0.147196596174E+03   -0.50515E-05   -0.72333E-07  5800   0.304E-03    0.129E-03
DAV:  16    -0.147196597117E+03   -0.94261E-06   -0.29615E-07  5200   0.216E-03
  10 F= -.15339096E+03 E0= -.15339096E+03  d E =-.865502E-02  mag=    27.0000
       N       E                     dE             d eps       ncg     rms          rms(c)
DAV:   1    -0.147193943771E+03    0.26524E-02   -0.74785E-01  7912   0.180E+00    0.521E-01
DAV:   2    -0.147198280224E+03   -0.43365E-02   -0.44187E-02 11224   0.716E-01    0.258E-01
DAV:   3    -0.147199238631E+03   -0.95841E-03   -0.12230E-03 11008   0.197E-01    0.149E-01
DAV:   4    -0.147199176731E+03    0.61900E-04   -0.15943E-04 11960   0.808E-02    0.113E-01
DAV:   5    -0.147199131527E+03    0.45204E-04   -0.20394E-04 11712   0.726E-02    0.761E-02
DAV:   6    -0.147199146728E+03   -0.15201E-04   -0.13398E-04 12232   0.700E-02    0.245E-02
DAV:   7    -0.147199184536E+03   -0.37807E-04   -0.17716E-05 11472   0.264E-02    0.138E-02
DAV:   8    -0.147199224237E+03   -0.39701E-04   -0.35199E-06  7488   0.127E-02    0.918E-03
DAV:   9    -0.147199265510E+03   -0.41273E-04   -0.27927E-06  7064   0.630E-03    0.572E-03
DAV:  10    -0.147199291815E+03   -0.26305E-04   -0.12917E-06  5888   0.482E-03    0.425E-03
DAV:  11    -0.147199312900E+03   -0.21085E-04   -0.11909E-06  6000   0.453E-03    0.304E-03
DAV:  12    -0.147199333575E+03   -0.20676E-04   -0.98434E-07  5944   0.442E-03    0.243E-03
DAV:  13    -0.147199341096E+03   -0.75210E-05   -0.71321E-07  5640   0.331E-03    0.148E-03
DAV:  14    -0.147199345915E+03   -0.48188E-05   -0.35680E-07  5448   0.224E-03    0.129E-03
DAV:  15    -0.147199348632E+03   -0.27169E-05   -0.28243E-07  5448   0.169E-03    0.699E-04
DAV:  16    -0.147199350010E+03   -0.13780E-05   -0.16511E-07  5216   0.143E-03    0.668E-04
DAV:  17    -0.147199350663E+03   -0.65295E-06   -0.11582E-07  5168   0.108E-03
  11 F= -.15339400E+03 E0= -.15339400E+03  d E =-.303582E-02  mag=    27.0000
       N       E                     dE             d eps       ncg     rms          rms(c)
DAV:   1    -0.147181189393E+03    0.18161E-01   -0.27509E+00  7904   0.345E+00    0.100E+00
DAV:   2    -0.147197844441E+03   -0.16655E-01   -0.16326E-01 11168   0.139E+00    0.503E-01
DAV:   3    -0.147200876500E+03   -0.30321E-02   -0.46032E-03 10992   0.400E-01    0.290E-01
DAV:   4    -0.147200661148E+03    0.21535E-03   -0.61641E-04 11840   0.165E-01    0.219E-01
DAV:   5    -0.147200523890E+03    0.13726E-03   -0.75163E-04 11816   0.135E-01    0.147E-01
DAV:   6    -0.147200584544E+03   -0.60654E-04   -0.49697E-04 12304   0.133E-01    0.478E-02
DAV:   7    -0.147200683404E+03   -0.98860E-04   -0.67281E-05 11800   0.538E-02    0.260E-02
DAV:   8    -0.147200783187E+03   -0.99783E-04   -0.14801E-05 10928   0.253E-02    0.170E-02
DAV:   9    -0.147200885526E+03   -0.10234E-03   -0.63474E-06  8664   0.105E-02    0.105E-02
DAV:  10    -0.147200968724E+03   -0.83198E-04   -0.39937E-06  8376   0.715E-03    0.684E-03
DAV:  11    -0.147201025844E+03   -0.57119E-04   -0.17962E-06  6440   0.581E-03    0.470E-03
DAV:  12    -0.147201075552E+03   -0.49709E-04   -0.16367E-06  6696   0.610E-03    0.333E-03
DAV:  13    -0.147201097793E+03   -0.22241E-04   -0.12140E-06  5968   0.481E-03    0.276E-03
DAV:  14    -0.147201115117E+03   -0.17324E-04   -0.11428E-06  6248   0.390E-03    0.163E-03
DAV:  15    -0.147201119425E+03   -0.43078E-05   -0.65836E-07  5568   0.278E-03    0.122E-03
DAV:  16    -0.147201121453E+03   -0.20287E-05   -0.30139E-07  5200   0.190E-03    0.637E-04
DAV:  17    -0.147201122316E+03   -0.86316E-06   -0.16147E-07  5184   0.143E-03
  12 F= -.15339629E+03 E0= -.15339629E+03  d E =-.532858E-02  mag=    27.0000
       N       E                     dE             d eps       ncg     rms          rms(c)
DAV:   1    -0.147195559404E+03    0.55620E-02   -0.11544E+00  7904   0.222E+00    0.628E-01
DAV:   2    -0.147201903125E+03   -0.63437E-02   -0.65694E-02 11120   0.890E-01    0.314E-01
DAV:   3    -0.147203132110E+03   -0.12290E-02   -0.21892E-03 10312   0.325E-01    0.186E-01
DAV:   4    -0.147203062975E+03    0.69136E-04   -0.35276E-04 10992   0.150E-01    0.141E-01
DAV:   5    -0.147203046495E+03    0.16479E-04   -0.31149E-04 11800   0.820E-02    0.101E-01
DAV:   6    -0.147203089672E+03   -0.43176E-04   -0.20181E-04 11680   0.727E-02    0.308E-02
DAV:   7    -0.147203113784E+03   -0.24113E-04   -0.28071E-05 11176   0.263E-02    0.149E-02
DAV:   8    -0.147203132319E+03   -0.18535E-04   -0.41204E-06  7640   0.167E-02    0.108E-02
DAV:   9    -0.147203148473E+03   -0.16154E-04   -0.21121E-06  6112   0.682E-03    0.738E-03
DAV:  10    -0.147203163876E+03   -0.15403E-04   -0.19881E-06  6232   0.538E-03    0.504E-03
DAV:  11    -0.147203175795E+03   -0.11919E-04   -0.17828E-06  5816   0.577E-03    0.326E-03
DAV:  12    -0.147203180489E+03   -0.46937E-05   -0.78559E-07  5400   0.446E-03    0.247E-03
DAV:  13    -0.147203184102E+03   -0.36129E-05   -0.36151E-07  5504   0.268E-03    0.151E-03
DAV:  14    -0.147203187840E+03   -0.37387E-05   -0.31458E-07  5608   0.209E-03    0.128E-03
DAV:  15    -0.147203189497E+03   -0.16563E-05   -0.25009E-07  5408   0.170E-03    0.702E-04
DAV:  16    -0.147203190066E+03   -0.56912E-06   -0.11558E-07  5120   0.145E-03
  13 F= -.15339880E+03 E0= -.15339880E+03  d E =-.251119E-02  mag=    27.0000
       N       E                     dE             d eps       ncg     rms          rms(c)
DAV:   1    -0.147193648003E+03    0.95415E-02   -0.15198E+00  7904   0.254E+00    0.721E-01
DAV:   2    -0.147202084582E+03   -0.84366E-02   -0.86565E-02 11064   0.102E+00    0.360E-01
DAV:   3    -0.147203633957E+03   -0.15494E-02   -0.29402E-03 10264   0.380E-01    0.213E-01
DAV:   4    -0.147203541027E+03    0.92929E-04   -0.47330E-04 10920   0.176E-01    0.163E-01
DAV:   5    -0.147203515535E+03    0.25492E-04   -0.41289E-04 11776   0.943E-02    0.116E-01
DAV:   6    -0.147203569102E+03   -0.53567E-04   -0.26638E-04 11704   0.843E-02    0.355E-02
DAV:   7    -0.147203599409E+03   -0.30306E-04   -0.37195E-05 11208   0.307E-02    0.170E-02
DAV:   8    -0.147203622828E+03   -0.23420E-04   -0.54662E-06  8200   0.190E-02    0.123E-02
DAV:   9    -0.147203643050E+03   -0.20222E-04   -0.27076E-06  6672   0.758E-03    0.847E-03
DAV:  10    -0.147203662361E+03   -0.19311E-04   -0.27354E-06  6720   0.580E-03    0.527E-03
DAV:  11    -0.147203677674E+03   -0.15313E-04   -0.15548E-06  5960   0.571E-03    0.334E-03
DAV:  12    -0.147203683795E+03   -0.61216E-05   -0.75224E-07  5440   0.436E-03    0.279E-03
DAV:  13    -0.147203688265E+03   -0.44699E-05   -0.39108E-07  5624   0.263E-03    0.170E-03
DAV:  14    -0.147203692792E+03   -0.45268E-05   -0.30771E-07  5560   0.218E-03    0.142E-03
DAV:  15    -0.147203695258E+03   -0.24665E-05   -0.25816E-07  5392   0.180E-03    0.816E-04
DAV:  16    -0.147203696193E+03   -0.93498E-06   -0.15407E-07  5136   0.161E-03
  14 F= -.15339981E+03 E0= -.15339981E+03  d E =-.351389E-02  mag=    27.0000
       N       E                     dE             d eps       ncg     rms          rms(c)
DAV:   1    -0.147199333058E+03    0.43622E-02   -0.88933E-01  7904   0.195E+00    0.561E-01
DAV:   2    -0.147204490150E+03   -0.51571E-02   -0.54040E-02 11288   0.769E-01    0.274E-01
DAV:   3    -0.147205622758E+03   -0.11326E-02   -0.11810E-03 11272   0.148E-01    0.162E-01
DAV:   4    -0.147205569888E+03    0.52870E-04   -0.12551E-04 11528   0.407E-02    0.123E-01
DAV:   5    -0.147205572314E+03   -0.24266E-05   -0.23525E-04 11520   0.709E-02    0.783E-02
DAV:   6    -0.147205609871E+03   -0.37557E-04   -0.12822E-04 12184   0.675E-02    0.226E-02
DAV:   7    -0.147205637674E+03   -0.27803E-04   -0.15579E-05 10800   0.314E-02    0.114E-02
DAV:   8    -0.147205663047E+03   -0.25373E-04   -0.36645E-06  7144   0.152E-02    0.657E-03
DAV:   9    -0.147205680102E+03   -0.17055E-04   -0.15279E-06  5760   0.608E-03    0.442E-03
DAV:  10    -0.147205691952E+03   -0.11850E-04   -0.10954E-06  5408   0.387E-03    0.303E-03
DAV:  11    -0.147205701575E+03   -0.96228E-05   -0.69833E-07  5416   0.358E-03    0.207E-03
DAV:  12    -0.147205711586E+03   -0.10011E-04   -0.50663E-07  5704   0.301E-03    0.145E-03
DAV:  13    -0.147205716460E+03   -0.48742E-05   -0.35333E-07  5304   0.265E-03    0.111E-03
DAV:  14    -0.147205718505E+03   -0.20449E-05   -0.17405E-07  5120   0.167E-03    0.704E-04
DAV:  15    -0.147205720239E+03   -0.17340E-05   -0.12043E-07  5184   0.109E-03    0.555E-04
DAV:  16    -0.147205721703E+03   -0.14636E-05   -0.89028E-08  5360   0.965E-04    0.417E-04
DAV:  17    -0.147205722544E+03   -0.84141E-06   -0.78400E-08  5416   0.872E-04
  15 F= -.15340181E+03 E0= -.15340181E+03  d E =-.200572E-02  mag=    27.0000
       N       E                     dE             d eps       ncg     rms          rms(c)
DAV:   1    -0.147191444228E+03    0.14277E-01   -0.21597E+00  7904   0.303E+00    0.874E-01
DAV:   2    -0.147204349585E+03   -0.12905E-01   -0.13142E-01 11232   0.120E+00    0.430E-01
DAV:   3    -0.147206797912E+03   -0.24483E-02   -0.28627E-03 11296   0.237E-01    0.252E-01
DAV:   4    -0.147206674024E+03    0.12389E-03   -0.32228E-04 11584   0.721E-02    0.191E-01
DAV:   5    -0.147206665049E+03    0.89753E-05   -0.57398E-04 11560   0.118E-01    0.123E-01
DAV:   6    -0.147206745911E+03   -0.80863E-04   -0.33114E-04 12200   0.111E-01    0.353E-02
DAV:   7    -0.147206801267E+03   -0.55356E-04   -0.39926E-05 11680   0.467E-02    0.174E-02
DAV:   8    -0.147206849541E+03   -0.48274E-04   -0.87931E-06  8888   0.220E-02    0.103E-02
DAV:   9    -0.147206882488E+03   -0.32947E-04   -0.33848E-06  7376   0.844E-03    0.645E-03
DAV:  10    -0.147206907682E+03   -0.25194E-04   -0.15706E-06  5920   0.424E-03    0.363E-03
DAV:  11    -0.147206931055E+03   -0.23373E-04   -0.96844E-07  5736   0.392E-03    0.267E-03
DAV:  12    -0.147206946501E+03   -0.15446E-04   -0.76853E-07  5704   0.356E-03    0.195E-03
DAV:  13    -0.147206953486E+03   -0.69849E-05   -0.38291E-07  5312   0.284E-03    0.144E-03
DAV:  14    -0.147206960232E+03   -0.67467E-05   -0.30490E-07  5600   0.176E-03    0.119E-03
DAV:  15    -0.147206966125E+03   -0.58923E-05   -0.27669E-07  5640   0.164E-03    0.789E-04
DAV:  16    -0.147206968826E+03   -0.27014E-05   -0.24074E-07  5376   0.151E-03    0.605E-04
DAV:  17    -0.147206969268E+03   -0.44225E-06   -0.10758E-07  5200   0.125E-03
  16 F= -.15340301E+03 E0= -.15340301E+03  d E =-.320135E-02  mag=    27.0000
       N       E                     dE             d eps       ncg     rms          rms(c)
DAV:   1    -0.147201133752E+03    0.58351E-02   -0.10052E+00  7904   0.208E+00    0.626E-01
DAV:   2    -0.147207508287E+03   -0.63745E-02   -0.65255E-02 11248   0.847E-01    0.306E-01
DAV:   3    -0.147208940101E+03   -0.14318E-02   -0.16294E-03 11312   0.213E-01    0.181E-01
DAV:   4    -0.147208882228E+03    0.57874E-04   -0.19256E-04 12176   0.764E-02    0.134E-01
DAV:   5    -0.147208893753E+03   -0.11526E-04   -0.22299E-04 11392   0.627E-02    0.899E-02
DAV:   6    -0.147208969161E+03   -0.75408E-04   -0.17862E-04 11464   0.635E-02    0.291E-02
DAV:   7    -0.147208987153E+03   -0.17992E-04   -0.25002E-05 12144   0.334E-02    0.129E-02
DAV:   8    -0.147208996570E+03   -0.94169E-05   -0.31139E-06  6880   0.153E-02    0.770E-03
DAV:   9    -0.147209000790E+03   -0.42199E-05   -0.19660E-06  5896   0.639E-03    0.546E-03
DAV:  10    -0.147209003101E+03   -0.23115E-05   -0.97096E-07  5256   0.450E-03    0.345E-03
DAV:  11    -0.147209004907E+03   -0.18061E-05   -0.85645E-07  5632   0.389E-03    0.230E-03
DAV:  12    -0.147209006762E+03   -0.18545E-05   -0.53365E-07  5184   0.366E-03    0.165E-03
DAV:  13    -0.147209007734E+03   -0.97214E-06   -0.29935E-07  5160   0.249E-03
  17 F= -.15340437E+03 E0= -.15340437E+03  d E =-.136368E-02  mag=    27.0000
       N       E                     dE             d eps       ncg     rms          rms(c)
DAV:   1    -0.147208538677E+03    0.46808E-03   -0.10088E-01  7976   0.658E-01    0.198E-01
DAV:   2    -0.147209094490E+03   -0.55581E-03   -0.65096E-03 11304   0.267E-01    0.961E-02
DAV:   3    -0.147209306883E+03   -0.21239E-03   -0.16534E-04 11056   0.684E-02    0.574E-02
DAV:   4    -0.147209301189E+03    0.56941E-05   -0.19471E-05 11984   0.246E-02    0.426E-02
DAV:   5    -0.147209308019E+03   -0.68302E-05   -0.22787E-05 11168   0.203E-02    0.289E-02
DAV:   6    -0.147209320623E+03   -0.12604E-04   -0.18677E-05 11280   0.207E-02    0.943E-03
DAV:   7    -0.147209323378E+03   -0.27553E-05   -0.19674E-06  6144   0.107E-02    0.500E-03
DAV:   8    -0.147209325309E+03   -0.19313E-05   -0.79038E-07  5376   0.555E-03    0.289E-03
DAV:   9    -0.147209326152E+03   -0.84318E-06   -0.49540E-07  5160   0.258E-03
  18 F= -.15340447E+03 E0= -.15340447E+03  d E =-.146573E-02  mag=    27.0000
       N       E                     dE             d eps       ncg     rms          rms(c)
DAV:   1    -0.147205629094E+03    0.36962E-02   -0.67940E-01  7904   0.170E+00    0.519E-01
DAV:   2    -0.147210145777E+03   -0.45167E-02   -0.46525E-02 11248   0.719E-01    0.253E-01
DAV:   3    -0.147211105878E+03   -0.96010E-03   -0.11301E-03 11184   0.183E-01    0.150E-01
DAV:   4    -0.147211061697E+03    0.44181E-04   -0.13690E-04 11832   0.696E-02    0.112E-01
DAV:   5    -0.147211069628E+03   -0.79310E-05   -0.15938E-04 11576   0.530E-02    0.767E-02
DAV:   6    -0.147211121491E+03   -0.51862E-04   -0.11944E-04 11352   0.509E-02    0.240E-02
DAV:   7    -0.147211136820E+03   -0.15329E-04   -0.14819E-05 10528   0.239E-02    0.103E-02
DAV:   8    -0.147211145468E+03   -0.86488E-05   -0.29993E-06  7008   0.163E-02    0.607E-03
DAV:   9    -0.147211148806E+03   -0.33375E-05   -0.10952E-06  5432   0.619E-03    0.459E-03
DAV:  10    -0.147211150684E+03   -0.18777E-05   -0.67545E-07  5208   0.297E-03    0.306E-03
DAV:  11    -0.147211151736E+03   -0.10521E-05   -0.39226E-07  5112   0.300E-03    0.201E-03
DAV:  12    -0.147211152699E+03   -0.96289E-06   -0.36136E-07  5544   0.267E-03
  19 F= -.15340561E+03 E0= -.15340561E+03  d E =-.113884E-02  mag=    27.0000
