CrCl3 2x2 + Ni + H | In-Plane Embedded Interstitial | H_ads | U_all=3.29eV
   1.0000000000000000     
    12.1682319641000003    0.0000000000000000    0.0000000000000000
    -6.1300719177999996   10.5529468652999991    0.0000000000000000
     0.0000000000000000    0.0000000000000000   17.6887664794999999
   Cr   Cl   Ni   H 
     8    24     1     1
Direct
  0.1411675840461427  0.3234282258855534  0.3316938494112443
  0.1623789699062563  0.8356500844718578  0.3444578936874605
  0.6491580034673760  0.3373396111856465  0.3363223559364605
  0.6643038381854094  0.8509425065059332  0.3402608674638428
  0.8161475881464565  0.1759864225098688  0.3308678001728405
  0.8380889910089997  0.6864222729483366  0.3439407760258409
  0.3144434337556285  0.1617031420860068  0.3372247891950787
  0.3285422509324974  0.6732351107968579  0.3410498774489706
  0.1779602791701305  0.5119294089160282  0.2631346452969159
  0.1635820217247154  0.9941956876642054  0.2645909018394594
  0.6336028497519777  0.4948414587423844  0.2631578957347637
  0.6523020331347037 -0.0010767923364617  0.2616821876897847
  0.3069141818419487  0.3172176526386393  0.2557491197342796
  0.3168324422554827  0.8249232405596160  0.2645063894693943
  0.7998845692984463  0.3310641429713483  0.2568639387214118
  0.8176315611844833  0.8384095533216345  0.2659517742740465
  0.9585879249552421  0.1747897835913864  0.2441184675888020
  0.9985596403408289  0.6831491359422263  0.2669883314570961
  0.4831393585900973  0.1770799599936455  0.2617568772660878
  0.4988132183675379  0.6756860868921519  0.2669944290622048
  0.9803152852895962  0.3275181348155585  0.4080149951819476
  0.0193615672438018  0.8358932919010996  0.4313259550178449
  0.4788295892268412  0.3317028729052309  0.4127659569686264
  0.4955271785355065  0.8343191632378543  0.4156396365935653
  0.3427462773514263  0.5162879901861906  0.4164846241554762
  0.3248439814788486  0.0103349148421460  0.4146175154218755
  0.8003884443850476  0.4998960465816163  0.4139800657749101
  0.8155593675336683  0.0191282409642711  0.4117449198155236
  0.1597850871180923  0.1713147664267564  0.4116450085821290
  0.1773223892861885  0.6802261062184886  0.4194682394816897
  0.6623174046526679  0.1858084713494715  0.4119224765673773
  0.6878591912228107  0.7117139957932485  0.4308348779288034
  0.4717111675019836  0.4884904696170150  0.3338394544659073
  0.5713107681095134  0.5856645028739239  0.3866431815681622

  0.00000000E+00  0.00000000E+00  0.00000000E+00
  0.00000000E+00  0.00000000E+00  0.00000000E+00
  0.00000000E+00  0.00000000E+00  0.00000000E+00
  0.00000000E+00  0.00000000E+00  0.00000000E+00
  0.00000000E+00  0.00000000E+00  0.00000000E+00
  0.00000000E+00  0.00000000E+00  0.00000000E+00
  0.00000000E+00  0.00000000E+00  0.00000000E+00
  0.00000000E+00  0.00000000E+00  0.00000000E+00
  0.00000000E+00  0.00000000E+00  0.00000000E+00
  0.00000000E+00  0.00000000E+00  0.00000000E+00
  0.00000000E+00  0.00000000E+00  0.00000000E+00
  0.00000000E+00  0.00000000E+00  0.00000000E+00
  0.00000000E+00  0.00000000E+00  0.00000000E+00
  0.00000000E+00  0.00000000E+00  0.00000000E+00
  0.00000000E+00  0.00000000E+00  0.00000000E+00
  0.00000000E+00  0.00000000E+00  0.00000000E+00
  0.00000000E+00  0.00000000E+00  0.00000000E+00
  0.00000000E+00  0.00000000E+00  0.00000000E+00
  0.00000000E+00  0.00000000E+00  0.00000000E+00
  0.00000000E+00  0.00000000E+00  0.00000000E+00
  0.00000000E+00  0.00000000E+00  0.00000000E+00
  0.00000000E+00  0.00000000E+00  0.00000000E+00
  0.00000000E+00  0.00000000E+00  0.00000000E+00
  0.00000000E+00  0.00000000E+00  0.00000000E+00
  0.00000000E+00  0.00000000E+00  0.00000000E+00
  0.00000000E+00  0.00000000E+00  0.00000000E+00
  0.00000000E+00  0.00000000E+00  0.00000000E+00
  0.00000000E+00  0.00000000E+00  0.00000000E+00
  0.00000000E+00  0.00000000E+00  0.00000000E+00
  0.00000000E+00  0.00000000E+00  0.00000000E+00
  0.00000000E+00  0.00000000E+00  0.00000000E+00
  0.00000000E+00  0.00000000E+00  0.00000000E+00
  0.00000000E+00  0.00000000E+00  0.00000000E+00
  0.00000000E+00  0.00000000E+00  0.00000000E+00
