CrCl3 2x2 + Co S3 top-Cr (D3, U=0) (a_2x
   1.0000000000000000     
    12.0925489970493256    0.0000000000000000    0.0000000000000000
    -6.0462744985246628   10.4724546279527502    0.0000000000000000
     0.0000000000000000    0.0000000000000000   20.0000000000000000
   Cr   Cl   Co
     8    24     1
Direct
  0.1674298488767233  0.3334079214766295  0.5014279155258541
  0.3298853605066988  0.1641093022921844  0.5005699844672169
  0.6666666666666714  0.3333333333333286  0.4831986174826239
  0.8358906977078154  0.1657760582145286  0.5005699844672169
  0.1659780725999204  0.8325701511232768  0.5014279155258541
  0.3333333333333286  0.6666666666666714  0.5008545945071032
  0.6665920785233703  0.8340219274000794  0.5014279155258541
  0.8342239417854711  0.6701146394933012  0.5005699844672169
  0.1793198700926016  0.4994999144578293  0.4347471897967281
  0.4871032007643852  0.1709294979835217  0.4290297345747529
  0.3215676766933940  0.3220513715810613  0.4352893873112811
  0.3214371869092103  0.5006848638333165  0.5677302196654321
 -0.0000598750556343  0.3216790967586754  0.5675271339578644
  0.1775939216988483  0.1786070566412794  0.5683417766013233
  0.6838262972191363  0.5128967992356144  0.4290297345747529
  0.0039400941370204  0.1768768964520223  0.4353978892470048
  0.8290705020164783  0.3161737027808634  0.4290297345747529
  0.8336554939576947  0.5041410078625929  0.5694919745774376
  0.4958589921374075  0.3295144860951020  0.5694919745774376
  0.6704855139048981  0.1663445060423052  0.5694919745774376
  0.1729368023150018 -0.0039400941370204  0.4353978892470048
  0.5005000855421706  0.6798199556347722  0.4347471897967281
  0.3201800443652276  0.8206801299073985  0.4347471897967281
  0.3217389718143098  0.0000598750556343  0.5675271339578644
  0.0010131349424312  0.8224060783011513  0.5683417766013233
  0.1792476769241058  0.6785628130907897  0.5677302196654321
  0.6779486284189387 -0.0004836948876674  0.4352893873112811
  0.0004836948876674  0.6784323233066060  0.4352893873112811
  0.8231231035479780  0.8270631976849981  0.4353978892470048
  0.8213929433587208 -0.0010131349424311  0.5683417766013233
  0.4993151361666840  0.8207523230758943  0.5677302196654321
  0.6783209032413245  0.6782610281856901  0.5675271339578644
  0.6666666666666714  0.3333333333333286  0.6122871708355861

  0.00000000E+00  0.00000000E+00  0.00000000E+00
  0.00000000E+00  0.00000000E+00  0.00000000E+00
  0.00000000E+00  0.00000000E+00  0.00000000E+00
  0.00000000E+00  0.00000000E+00  0.00000000E+00
  0.00000000E+00  0.00000000E+00  0.00000000E+00
  0.00000000E+00  0.00000000E+00  0.00000000E+00
  0.00000000E+00  0.00000000E+00  0.00000000E+00
  0.00000000E+00  0.00000000E+00  0.00000000E+00
  0.00000000E+00  0.00000000E+00  0.00000000E+00
  0.00000000E+00  0.00000000E+00  0.00000000E+00
  0.00000000E+00  0.00000000E+00  0.00000000E+00
  0.00000000E+00  0.00000000E+00  0.00000000E+00
  0.00000000E+00  0.00000000E+00  0.00000000E+00
  0.00000000E+00  0.00000000E+00  0.00000000E+00
  0.00000000E+00  0.00000000E+00  0.00000000E+00
  0.00000000E+00  0.00000000E+00  0.00000000E+00
  0.00000000E+00  0.00000000E+00  0.00000000E+00
  0.00000000E+00  0.00000000E+00  0.00000000E+00
  0.00000000E+00  0.00000000E+00  0.00000000E+00
  0.00000000E+00  0.00000000E+00  0.00000000E+00
  0.00000000E+00  0.00000000E+00  0.00000000E+00
  0.00000000E+00  0.00000000E+00  0.00000000E+00
  0.00000000E+00  0.00000000E+00  0.00000000E+00
  0.00000000E+00  0.00000000E+00  0.00000000E+00
  0.00000000E+00  0.00000000E+00  0.00000000E+00
  0.00000000E+00  0.00000000E+00  0.00000000E+00
  0.00000000E+00  0.00000000E+00  0.00000000E+00
  0.00000000E+00  0.00000000E+00  0.00000000E+00
  0.00000000E+00  0.00000000E+00  0.00000000E+00
  0.00000000E+00  0.00000000E+00  0.00000000E+00
  0.00000000E+00  0.00000000E+00  0.00000000E+00
  0.00000000E+00  0.00000000E+00  0.00000000E+00
  0.00000000E+00  0.00000000E+00  0.00000000E+00
