Cr8Cl24Co1
1.0
     12.0969954       0.0000000       0.0000000
     -6.0484977      10.4763053       0.0000000
      0.0000000       0.0000000      17.6700249
  Cr    Cl    Co  
  8     24    1   
Direct
      0.1633672       0.8364839       0.3374763
      0.1592242       0.3308848       0.3396843
      0.6619970       0.8409454       0.3396917
      0.6691158       0.3380137       0.3397615
      0.8343204       0.6684326       0.3397728
      0.8301516       0.1700077       0.3375109
      0.3315925       0.6756382       0.3396662
      0.3243170       0.1655462       0.3397044
      0.1749084       0.0006335       0.2610556
      0.1791487       0.5032385       0.2668364
      0.6775824       0.0058768       0.2610619
      0.6750866       0.5031888       0.2666324
      0.3159805       0.8249493       0.2610498
      0.3182574       0.3246639       0.2664920
      0.8144784       0.8209393       0.2669269
      0.8185380       0.3226208       0.2611197
      0.9991535       0.6838507       0.2611105
      0.9942918       0.1815740       0.2610820
      0.4968505       0.6818773       0.2664591
      0.4967657       0.1855003       0.2669136
      0.9984899       0.8242044       0.4149071
      0.9951804       0.3226521       0.4148804
      0.4967415       0.8313139       0.4154819
      0.4967755       0.3231071       0.4240174
      0.3160159       0.0014227       0.4148507
      0.3169206       0.5031461       0.4238355
      0.8177667       0.0050134       0.4148942
      0.8247708       0.5032043       0.4155635
      0.1757120       0.6838004       0.4148274
      0.1686607       0.1751650       0.4154755
      0.6767773       0.6832780       0.4239777
      0.6775027       0.1822670       0.4149080
      0.4968889       0.5032251       0.4482689
