Cr8Cl24Co1                              
   1.00000000000000     
    12.0969953537000006    0.0000000000000000    0.0000000000000000
    -6.0484976768000003   10.4763052858000005    0.0000000000000000
     0.0000000000000000    0.0000000000000000   17.6700248717999990
   Cr   Cl   Co
     8    24     1
Direct
     0.1633671706948761    0.8364839333288927    0.3374763148197317
     0.1592241929394618    0.3308848264713049    0.3396843186816625
     0.6619970383723626    0.8409454101854692    0.3396917287160548
     0.6691157802626080    0.3380137089785151    0.3397614821908022
     0.8343203698048498    0.6684325561552882    0.3397728253675467
     0.8301515770941634    0.1700076612868742    0.3375108577615862
     0.3315924734160873    0.6756381684426387    0.3396661582797833
     0.3243170159773641    0.1655461864176999    0.3397044106543632
     0.1749084415456608    0.0006334956604235    0.2610555654841136
     0.1791486994349611    0.5032384663726361    0.2668363559996578
     0.6775824343684391    0.0058768258413266    0.2610618665924136
     0.6750865951980884    0.5031888067223704    0.2666323830837030
     0.3159804847554639    0.8249492919475045    0.2610498476261256
     0.3182573639428483    0.3246638603137413    0.2664919639114700
     0.8144784039234878    0.8209393053680074    0.2669268656424038
     0.8185380250299019    0.3226207546418749    0.2611196879097477
     0.9991534979443770    0.6838507459550414    0.2611104686643060
     0.9942918362071680    0.1815740136148847    0.2610820491451804
     0.4968504693377085    0.6818773001581988    0.2664590965449776
     0.4967657254462594    0.1855003449727519    0.2669135576496515
     0.9984899025963045    0.8242043807134252    0.4149071204189951
     0.9951804104093327    0.3226520886163655    0.4148804093819010
     0.4967415390249386    0.8313138776039821    0.4154819109188423
     0.4967754676488596    0.3231070557002127    0.4240174303167947
     0.3160158649070937    0.0014226853268795    0.4148506758423451
     0.3169205592836519    0.5031461021532309    0.4238354836273999
     0.8177666715617065    0.0050134006631808    0.4148941740630150
     0.8247707925019441    0.5032043452000750    0.4155634908471910
     0.1757120248159865    0.6838003574538334    0.4148273798476652
     0.1686606977195737    0.1751650251968542    0.4154754963604788
     0.6767772698220540    0.6832779770488600    0.4239777311993578
     0.6775026980875154    0.1822670046201225    0.4149080323455010
     0.4968889329249038    0.5032251418675457    0.4482689071052377
 
  0.00000000E+00  0.00000000E+00  0.00000000E+00
  0.00000000E+00  0.00000000E+00  0.00000000E+00
  0.00000000E+00  0.00000000E+00  0.00000000E+00
  0.00000000E+00  0.00000000E+00  0.00000000E+00
  0.00000000E+00  0.00000000E+00  0.00000000E+00
  0.00000000E+00  0.00000000E+00  0.00000000E+00
  0.00000000E+00  0.00000000E+00  0.00000000E+00
  0.00000000E+00  0.00000000E+00  0.00000000E+00
  0.00000000E+00  0.00000000E+00  0.00000000E+00
  0.00000000E+00  0.00000000E+00  0.00000000E+00
  0.00000000E+00  0.00000000E+00  0.00000000E+00
  0.00000000E+00  0.00000000E+00  0.00000000E+00
  0.00000000E+00  0.00000000E+00  0.00000000E+00
  0.00000000E+00  0.00000000E+00  0.00000000E+00
  0.00000000E+00  0.00000000E+00  0.00000000E+00
  0.00000000E+00  0.00000000E+00  0.00000000E+00
  0.00000000E+00  0.00000000E+00  0.00000000E+00
  0.00000000E+00  0.00000000E+00  0.00000000E+00
  0.00000000E+00  0.00000000E+00  0.00000000E+00
  0.00000000E+00  0.00000000E+00  0.00000000E+00
  0.00000000E+00  0.00000000E+00  0.00000000E+00
  0.00000000E+00  0.00000000E+00  0.00000000E+00
  0.00000000E+00  0.00000000E+00  0.00000000E+00
  0.00000000E+00  0.00000000E+00  0.00000000E+00
  0.00000000E+00  0.00000000E+00  0.00000000E+00
  0.00000000E+00  0.00000000E+00  0.00000000E+00
  0.00000000E+00  0.00000000E+00  0.00000000E+00
  0.00000000E+00  0.00000000E+00  0.00000000E+00
  0.00000000E+00  0.00000000E+00  0.00000000E+00
  0.00000000E+00  0.00000000E+00  0.00000000E+00
  0.00000000E+00  0.00000000E+00  0.00000000E+00
  0.00000000E+00  0.00000000E+00  0.00000000E+00
  0.00000000E+00  0.00000000E+00  0.00000000E+00
