CrCl3 2x2 + H S2 hollow (D3, U=0) (a_2x2
   1.00000000000000     
    12.0925489970493256    0.0000000000000000    0.0000000000000000
    -6.0462744985246628   10.4724546279527502    0.0000000000000000
     0.0000000000000000    0.0000000000000000   20.0000000000000000
   Cr   Cl   H 
     8    24     1
Direct
     0.1666639547194855    0.3330069112769124    0.5003198300061052
     0.3330069112769124    0.1666639547194855    0.5003198300061052
     0.6669930887230876    0.3336570434425518    0.5003198300061052
     0.8333333333333286    0.1666666666666714    0.5016256981165103
     0.1666666666666714    0.8333333333333286    0.5016256981165103
     0.3336570434425518    0.6669930887230876    0.5003198300061052
     0.6663429565574486    0.8333360452805145    0.5003198300061052
     0.8333360452805145    0.6663429565574486    0.5003198300061052
     0.1787156728219619    0.5000000000000000    0.4345340272569000
     0.5000000000000000    0.1787156728219619    0.4345340272569000
     0.3204729675268220    0.3204729675268220    0.4333801313161942
     0.3279824471911921    0.5000000000000000    0.5652437130212223
     0.0012049385504887    0.3215241389543383    0.5675786202248706
     0.1787293648875641    0.1787293648875641    0.5667228716911140
     0.6795270324731779    0.5000000000000000    0.4333801313161942
     0.9994688597460706    0.1787419864787225    0.4349867921573486
     0.8212580135212774    0.3207268732673411    0.4349867921573486
     0.8212706351124359    0.5000000000000000    0.5667228716911140
     0.5000000000000000    0.3279824471911921    0.5652437130212223
     0.6784758610456616    0.1796807995961504    0.5675786202248706
     0.1787419864787225    0.9994688597460706    0.4349867921573486
     0.5000000000000000    0.6795270324731779    0.4333801313161942
     0.3207268732673411    0.8212580135212774    0.4349867921573486
     0.3215241389543383    0.0012049385504887    0.5675786202248706
     0.9987950614495111    0.8203192004038500    0.5675786202248706
     0.1796807995961504    0.6784758610456616    0.5675786202248706
     0.6792731267326590    0.0005311402539296    0.4349867921573486
     0.0005311402539296    0.6792731267326590    0.4349867921573486
     0.8212843271780383    0.8212843271780383    0.4345340272569000
     0.8203192004038500    0.9987950614495111    0.5675786202248706
     0.5000000000000000    0.8212706351124359    0.5667228716911140
     0.6720175528088078    0.6720175528088078    0.5652437130212223
     0.5000000000000000    0.5000000000000000    0.5597949195807409
 
  0.00000000E+00  0.00000000E+00  0.00000000E+00
  0.00000000E+00  0.00000000E+00  0.00000000E+00
  0.00000000E+00  0.00000000E+00  0.00000000E+00
  0.00000000E+00  0.00000000E+00  0.00000000E+00
  0.00000000E+00  0.00000000E+00  0.00000000E+00
  0.00000000E+00  0.00000000E+00  0.00000000E+00
  0.00000000E+00  0.00000000E+00  0.00000000E+00
  0.00000000E+00  0.00000000E+00  0.00000000E+00
  0.00000000E+00  0.00000000E+00  0.00000000E+00
  0.00000000E+00  0.00000000E+00  0.00000000E+00
  0.00000000E+00  0.00000000E+00  0.00000000E+00
  0.00000000E+00  0.00000000E+00  0.00000000E+00
  0.00000000E+00  0.00000000E+00  0.00000000E+00
  0.00000000E+00  0.00000000E+00  0.00000000E+00
  0.00000000E+00  0.00000000E+00  0.00000000E+00
  0.00000000E+00  0.00000000E+00  0.00000000E+00
  0.00000000E+00  0.00000000E+00  0.00000000E+00
  0.00000000E+00  0.00000000E+00  0.00000000E+00
  0.00000000E+00  0.00000000E+00  0.00000000E+00
  0.00000000E+00  0.00000000E+00  0.00000000E+00
  0.00000000E+00  0.00000000E+00  0.00000000E+00
  0.00000000E+00  0.00000000E+00  0.00000000E+00
  0.00000000E+00  0.00000000E+00  0.00000000E+00
  0.00000000E+00  0.00000000E+00  0.00000000E+00
  0.00000000E+00  0.00000000E+00  0.00000000E+00
  0.00000000E+00  0.00000000E+00  0.00000000E+00
  0.00000000E+00  0.00000000E+00  0.00000000E+00
  0.00000000E+00  0.00000000E+00  0.00000000E+00
  0.00000000E+00  0.00000000E+00  0.00000000E+00
  0.00000000E+00  0.00000000E+00  0.00000000E+00
  0.00000000E+00  0.00000000E+00  0.00000000E+00
  0.00000000E+00  0.00000000E+00  0.00000000E+00
  0.00000000E+00  0.00000000E+00  0.00000000E+00
