 running   24 mpi-ranks, with    1 threads/rank, on    1 nodes
 distrk:  each k-point on   24 cores,    1 groups
 distr:  one band on    4 cores,    6 groups
 vasp.6.5.1 10Mar25 (build Feb 13 2026 23:13:13) complex                        
  
 POSCAR found type information on POSCAR CrClH 
 POSCAR found :  3 types and      33 ions
 scaLAPACK will be used
 LDA part: xc-table for (Slater+PW92), standard interpolation
 POSCAR, INCAR and KPOINTS ok, starting setup
 FFT: planning ... GRIDC
 FFT: planning ... GRID_SOFT
 FFT: planning ... GRID
 WAVECAR not read
 entering main loop
       N       E                     dE             d eps       ncg     rms          rms(c)
DAV:   1     0.208588771552E+04    0.20859E+04   -0.61570E+04  2928   0.918E+02
DAV:   2     0.411914434632E+03   -0.16740E+04   -0.15643E+04  3504   0.247E+02
DAV:   3    -0.125089802648E+03   -0.53700E+03   -0.51937E+03  4164   0.139E+02
DAV:   4    -0.172912119321E+03   -0.47822E+02   -0.46754E+02  4500   0.579E+01
DAV:   5    -0.173849266373E+03   -0.93715E+00   -0.91705E+00  4368   0.100E+01    0.417E+01
DAV:   6    -0.167606839031E+03    0.62424E+01   -0.17837E+02  4260   0.656E+01    0.456E+01
DAV:   7    -0.156731149466E+03    0.10876E+02   -0.33250E+01  4140   0.667E+01    0.213E+01
DAV:   8    -0.157702514142E+03   -0.97136E+00   -0.15887E+01  4248   0.165E+01    0.139E+01
DAV:   9    -0.157201364710E+03    0.50115E+00   -0.29281E+00  4044   0.117E+01    0.742E+00
DAV:  10    -0.157005183834E+03    0.19618E+00   -0.72897E-01  4248   0.506E+00    0.294E+00
DAV:  11    -0.157034586853E+03   -0.29403E-01   -0.23213E-01  4116   0.190E+00    0.175E+00
DAV:  12    -0.157076278925E+03   -0.41692E-01   -0.11421E-01  4164   0.250E+00    0.910E-01
DAV:  13    -0.157102799039E+03   -0.26520E-01   -0.15101E-02  4188   0.764E-01    0.535E-01
DAV:  14    -0.157126720303E+03   -0.23921E-01   -0.66470E-03  4320   0.469E-01    0.381E-01
DAV:  15    -0.157145790933E+03   -0.19071E-01   -0.29910E-03  4104   0.275E-01    0.160E-01
DAV:  16    -0.157153222754E+03   -0.74318E-02   -0.41210E-04  4188   0.144E-01    0.117E-01
DAV:  17    -0.157164008619E+03   -0.10786E-01   -0.55583E-04  3792   0.730E-02    0.674E-02
DAV:  18    -0.157175815868E+03   -0.11807E-01   -0.46176E-04  3660   0.554E-02    0.561E-02
DAV:  19    -0.157181655440E+03   -0.58396E-02   -0.17389E-04  3360   0.234E-02    0.446E-02
DAV:  20    -0.157187582255E+03   -0.59268E-02   -0.33898E-04  3192   0.335E-02    0.204E-02
DAV:  21    -0.157189351786E+03   -0.17695E-02   -0.11278E-04  3624   0.220E-02    0.237E-02
DAV:  22    -0.157189777958E+03   -0.42617E-03   -0.34483E-05  3204   0.130E-02    0.127E-02
DAV:  23    -0.157189867549E+03   -0.89591E-04   -0.11855E-05  3816   0.934E-03    0.385E-03
DAV:  24    -0.157189905901E+03   -0.38352E-04   -0.79970E-07  2136   0.337E-03    0.244E-03
DAV:  25    -0.157189961591E+03   -0.55689E-04   -0.12665E-06  2328   0.288E-03    0.150E-03
DAV:  26    -0.157189997458E+03   -0.35867E-04   -0.34645E-07  1872   0.312E-03    0.134E-03
DAV:  27    -0.157190020947E+03   -0.23490E-04   -0.29921E-07  1860   0.178E-03    0.117E-03
DAV:  28    -0.157190038170E+03   -0.17223E-04   -0.37955E-07  1968   0.134E-03    0.114E-03
DAV:  29    -0.157190045237E+03   -0.70671E-05   -0.57966E-07  1992   0.136E-03    0.728E-04
DAV:  30    -0.157190046755E+03   -0.15182E-05   -0.15798E-07  1884   0.120E-03    0.508E-04
DAV:  31    -0.157190049327E+03   -0.25719E-05   -0.67818E-08  1752   0.844E-04    0.464E-04
DAV:  32    -0.157190053247E+03   -0.39195E-05   -0.50599E-08  1704   0.675E-04    0.518E-04
DAV:  33    -0.157190054694E+03   -0.14471E-05   -0.20916E-08  1752   0.478E-04    0.348E-04
DAV:  34    -0.157190055427E+03   -0.73325E-06   -0.83338E-09  1680   0.315E-04
   1 F= -.16315076E+03 E0= -.16315076E+03  d E =-.163151E+03  mag=    23.0000
 curvature:   0.00 expect dE= 0.000E+00 dE for cont linesearch  0.000E+00
 trial: gam= 0.00000 g(F)=  0.515E-02 g(S)=  0.000E+00 ort = 0.000E+00 (trialstep = 0.100E+01)
 search vector abs. value=  0.515E-02
 bond charge predicted
       N       E                     dE             d eps       ncg     rms          rms(c)
DAV:   1    -0.157187470911E+03    0.25838E-02   -0.47380E-01  2928   0.140E+00    0.508E-01
DAV:   2    -0.157190643026E+03   -0.31721E-02   -0.36996E-02  4008   0.806E-01    0.317E-01
DAV:   3    -0.157190705363E+03   -0.62337E-04   -0.11633E-03  4068   0.250E-01    0.183E-01
DAV:   4    -0.157190649932E+03    0.55431E-04   -0.12474E-04  4308   0.798E-02    0.153E-01
DAV:   5    -0.157190598436E+03    0.51496E-04   -0.25421E-04  3852   0.413E-02    0.853E-02
DAV:   6    -0.157190625705E+03   -0.27268E-04   -0.68220E-05  4032   0.521E-02    0.256E-02
DAV:   7    -0.157190631979E+03   -0.62744E-05   -0.50954E-06  2520   0.154E-02    0.122E-02
DAV:   8    -0.157190641497E+03   -0.95180E-05   -0.21011E-06  1860   0.979E-03    0.124E-02
DAV:   9    -0.157190652061E+03   -0.10564E-04   -0.85992E-07  1776   0.692E-03    0.104E-02
DAV:  10    -0.157190662440E+03   -0.10379E-04   -0.12042E-06  1704   0.523E-03    0.376E-03
DAV:  11    -0.157190669622E+03   -0.71826E-05   -0.97564E-07  1824   0.356E-03    0.285E-03
DAV:  12    -0.157190672188E+03   -0.25650E-05   -0.50522E-07  1776   0.341E-03    0.126E-03
DAV:  13    -0.157190676665E+03   -0.44777E-05   -0.19279E-07  1752   0.177E-03    0.924E-04
DAV:  14    -0.157190681492E+03   -0.48266E-05   -0.11532E-07  1752   0.154E-03    0.663E-04
DAV:  15    -0.157190681994E+03   -0.50210E-06   -0.52787E-08  1800   0.101E-03
   2 F= -.16315470E+03 E0= -.16315470E+03  d E =-.393361E-02  mag=    23.0000
 trial-energy change:   -0.003934  1 .order   -0.003893   -0.005147   -0.002639
 step:   1.8887(harm=  2.0519)  dis= 0.00593  next Energy=  -163.155898 (dE=-0.513E-02)
 bond charge predicted
       N       E                     dE             d eps       ncg     rms          rms(c)
DAV:   1    -0.157186596457E+03    0.40850E-02   -0.37418E-01  2904   0.125E+00    0.451E-01
DAV:   2    -0.157189102144E+03   -0.25057E-02   -0.29315E-02  4044   0.719E-01    0.283E-01
DAV:   3    -0.157189158357E+03   -0.56213E-04   -0.91684E-04  4008   0.222E-01    0.163E-01
DAV:   4    -0.157189112680E+03    0.45677E-04   -0.98772E-05  4356   0.706E-02    0.136E-01
DAV:   5    -0.157189070943E+03    0.41737E-04   -0.20324E-04  3852   0.370E-02    0.756E-02
DAV:   6    -0.157189094030E+03   -0.23087E-04   -0.54148E-05  4008   0.465E-02    0.227E-02
DAV:   7    -0.157189100487E+03   -0.64578E-05   -0.39285E-06  2412   0.137E-02    0.109E-02
DAV:   8    -0.157189109792E+03   -0.93046E-05   -0.15118E-06  1716   0.884E-03    0.107E-02
DAV:   9    -0.157189119840E+03   -0.10048E-04   -0.79148E-07  1764   0.629E-03    0.922E-03
DAV:  10    -0.157189129955E+03   -0.10115E-04   -0.10366E-06  1668   0.485E-03    0.309E-03
DAV:  11    -0.157189136573E+03   -0.66179E-05   -0.77304E-07  1800   0.320E-03    0.240E-03
DAV:  12    -0.157189139291E+03   -0.27176E-05   -0.40366E-07  1788   0.296E-03    0.108E-03
DAV:  13    -0.157189143918E+03   -0.46275E-05   -0.15306E-07  1728   0.161E-03    0.937E-04
DAV:  14    -0.157189148173E+03   -0.42548E-05   -0.94355E-08  1740   0.132E-03    0.488E-04
DAV:  15    -0.157189148055E+03    0.11803E-06   -0.43054E-08  1764   0.929E-04
   3 F= -.16315609E+03 E0= -.16315609E+03  d E =-.533120E-02  mag=    23.0000
 curvature:  -1.00 expect dE=-0.369E-03 dE for cont linesearch -0.312E-04
 ZBRENT: extrapolating
 opt :   2.0477  next Energy=  -163.156126 (dE=-0.536E-02)
 bond charge predicted
       N       E                     dE             d eps       ncg     rms          rms(c)
DAV:   1    -0.157188577446E+03    0.57073E-03   -0.11983E-02  2976   0.223E-01    0.800E-02
DAV:   2    -0.157188649797E+03   -0.72351E-04   -0.94513E-04  4044   0.130E-01    0.511E-02
DAV:   3    -0.157188663003E+03   -0.13206E-04   -0.29221E-05  3936   0.395E-02    0.290E-02
DAV:   4    -0.157188661032E+03    0.19709E-05   -0.15152E-06  2100   0.124E-02    0.250E-02
DAV:   5    -0.157188660094E+03    0.93879E-06   -0.16003E-05  3060   0.886E-03    0.145E-02
DAV:   6    -0.157188662312E+03   -0.22178E-05   -0.20760E-06  1992   0.992E-03    0.556E-03
DAV:   7    -0.157188663599E+03   -0.12876E-05   -0.82063E-07  1632   0.402E-03    0.381E-03
DAV:   8    -0.157188665192E+03   -0.15933E-05   -0.24214E-07  1632   0.251E-03    0.218E-03
DAV:   9    -0.157188666287E+03   -0.10948E-05   -0.98793E-08  1776   0.150E-03    0.237E-03
DAV:  10    -0.157188666958E+03   -0.67103E-06   -0.44845E-08  1716   0.108E-03
   4 F= -.16315614E+03 E0= -.16315614E+03  d E =-.537379E-02  mag=    23.0000
 curvature:  -1.02 expect dE=-0.407E-03 dE for cont linesearch -0.287E-07
 trial: gam= 0.07498 g(F)=  0.398E-03 g(S)=  0.000E+00 ort = 0.120E-04 (trialstep = 0.121E+01)
 search vector abs. value=  0.429E-03
 bond charge predicted
       N       E                     dE             d eps       ncg     rms          rms(c)
DAV:   1    -0.157188263131E+03    0.40316E-03   -0.53249E-02  2880   0.474E-01    0.140E-01
DAV:   2    -0.157188548200E+03   -0.28507E-03   -0.34679E-03  3996   0.195E-01    0.658E-02
DAV:   3    -0.157188601837E+03   -0.53637E-04   -0.80577E-05  4104   0.499E-02    0.402E-02
DAV:   4    -0.157188597986E+03    0.38504E-05   -0.10053E-05  4176   0.171E-02    0.297E-02
DAV:   5    -0.157188597860E+03    0.12645E-06   -0.69788E-06  3144   0.832E-03
   5 F= -.16315654E+03 E0= -.16315654E+03  d E =-.398778E-03  mag=    23.0000
 trial-energy change:   -0.000399  1 .order   -0.000407   -0.000482   -0.000332
 step:   3.8881(harm=  3.8881)  dis= 0.00309  next Energy=  -163.156912 (dE=-0.775E-03)
 bond charge predicted
       N       E                     dE             d eps       ncg     rms          rms(c)
DAV:   1    -0.157186266762E+03    0.23312E-02   -0.25968E-01  2892   0.105E+00    0.305E-01
DAV:   2    -0.157187729259E+03   -0.14625E-02   -0.16709E-02  3996   0.426E-01    0.145E-01
DAV:   3    -0.157187903025E+03   -0.17377E-03   -0.39043E-04  4128   0.109E-01    0.892E-02
DAV:   4    -0.157187885338E+03    0.17687E-04   -0.49628E-05  4260   0.387E-02    0.667E-02
DAV:   5    -0.157187882220E+03    0.31179E-05   -0.37399E-05  4068   0.192E-02    0.434E-02
DAV:   6    -0.157187895612E+03   -0.13391E-04   -0.32894E-05  4068   0.181E-02    0.156E-02
DAV:   7    -0.157187899067E+03   -0.34554E-05   -0.29273E-06  2604   0.982E-03    0.763E-03
DAV:   8    -0.157187903385E+03   -0.43183E-05   -0.12551E-06  1704   0.516E-03    0.491E-03
DAV:   9    -0.157187906615E+03   -0.32301E-05   -0.10350E-06  1752   0.326E-03    0.279E-03
DAV:  10    -0.157187909262E+03   -0.26466E-05   -0.42753E-07  1776   0.276E-03    0.175E-03
DAV:  11    -0.157187910719E+03   -0.14574E-05   -0.20687E-07  1752   0.194E-03    0.120E-03
DAV:  12    -0.157187913236E+03   -0.25171E-05   -0.11601E-07  1704   0.140E-03    0.698E-04
DAV:  13    -0.157187914800E+03   -0.15632E-05   -0.63135E-08  1776   0.127E-03    0.493E-04
DAV:  14    -0.157187915587E+03   -0.78712E-06   -0.29454E-08  1752   0.731E-04
   6 F= -.16315689E+03 E0= -.16315689E+03  d E =-.748837E-03  mag=    23.0000
 curvature:  -2.09 expect dE=-0.167E-02 dE for cont linesearch -0.181E-05
 trial: gam= 2.06138 g(F)=  0.800E-03 g(S)=  0.000E+00 ort =-0.193E-04 (trialstep = 0.294E+00)
 search vector abs. value=  0.254E-02
 bond charge predicted
       N       E                     dE             d eps       ncg     rms          rms(c)
DAV:   1    -0.157187902244E+03    0.12556E-04   -0.17207E-02  2904   0.264E-01    0.641E-02
DAV:   2    -0.157187988433E+03   -0.86189E-04   -0.11294E-03  3972   0.107E-01    0.304E-02
DAV:   3    -0.157188001727E+03   -0.13293E-04   -0.17417E-05  3924   0.199E-02    0.200E-02
DAV:   4    -0.157187997874E+03    0.38530E-05   -0.14251E-06  2076   0.691E-03    0.159E-02
DAV:   5    -0.157187992508E+03    0.53655E-05   -0.39099E-06  2676   0.611E-03    0.107E-02
DAV:   6    -0.157187987565E+03    0.49432E-05   -0.31658E-06  2364   0.469E-03    0.382E-03
DAV:   7    -0.157187989080E+03   -0.15155E-05   -0.45804E-07  1800   0.307E-03    0.201E-03
DAV:   8    -0.157187991714E+03   -0.26335E-05   -0.12762E-07  1668   0.200E-03    0.137E-03
DAV:   9    -0.157187994841E+03   -0.31269E-05   -0.72797E-08  1680   0.122E-03    0.726E-04
DAV:  10    -0.157187998157E+03   -0.33159E-05   -0.48043E-08  1692   0.874E-04    0.533E-04
DAV:  11    -0.157188000941E+03   -0.27841E-05   -0.39879E-08  1704   0.663E-04    0.382E-04
DAV:  12    -0.157188003142E+03   -0.22013E-05   -0.30997E-08  1680   0.537E-04    0.266E-04
DAV:  13    -0.157188005306E+03   -0.21642E-05   -0.28161E-08  1692   0.463E-04    0.135E-04
DAV:  14    -0.157188006479E+03   -0.11725E-05   -0.17674E-08  1716   0.410E-04    0.142E-04
DAV:  15    -0.157188007389E+03   -0.90993E-06   -0.13988E-08  1680   0.311E-04
   7 F= -.16315711E+03 E0= -.16315711E+03  d E =-.222817E-03  mag=    23.0000
 ZBRENT: can't locate minimum, use default step
 trial-energy change:   -0.000223  1 .order   -0.000220   -0.000224   -0.000217
 step:   1.1772(harm=  9.9309)  dis= 0.00333  next Energy=  -163.160661 (dE=-0.378E-02)
 bond charge predicted
       N       E                     dE             d eps       ncg     rms          rms(c)
DAV:   1    -0.157187288773E+03    0.71771E-03   -0.15481E-01  2880   0.791E-01    0.192E-01
DAV:   2    -0.157188141925E+03   -0.85315E-03   -0.10176E-02  3936   0.320E-01    0.911E-02
DAV:   3    -0.157188195777E+03   -0.53853E-04   -0.15654E-04  3936   0.600E-02    0.601E-02
DAV:   4    -0.157188174245E+03    0.21532E-04   -0.21209E-05  4296   0.211E-02    0.450E-02
DAV:   5    -0.157188141939E+03    0.32307E-04   -0.16779E-05  3816   0.138E-02    0.305E-02
DAV:   6    -0.157188121781E+03    0.20158E-04   -0.16961E-05  4032   0.118E-02    0.106E-02
DAV:   7    -0.157188132205E+03   -0.10424E-04   -0.14359E-06  2004   0.604E-03    0.499E-03
DAV:   8    -0.157188151692E+03   -0.19488E-04   -0.59515E-07  1812   0.371E-03    0.262E-03
DAV:   9    -0.157188165469E+03   -0.13777E-04   -0.35932E-07  1728   0.233E-03    0.156E-03
DAV:  10    -0.157188178707E+03   -0.13238E-04   -0.22377E-07  1788   0.175E-03    0.118E-03
DAV:  11    -0.157188187994E+03   -0.92872E-05   -0.13994E-07  1716   0.121E-03    0.893E-04
DAV:  12    -0.157188202228E+03   -0.14233E-04   -0.16252E-07  1764   0.123E-03    0.699E-04
DAV:  13    -0.157188213884E+03   -0.11656E-04   -0.16749E-07  1752   0.118E-03    0.459E-04
DAV:  14    -0.157188217918E+03   -0.40341E-05   -0.10250E-07  1776   0.952E-04    0.346E-04
DAV:  15    -0.157188220951E+03   -0.30333E-05   -0.68484E-08  1764   0.679E-04    0.236E-04
DAV:  16    -0.157188226219E+03   -0.52680E-05   -0.87287E-08  1704   0.645E-04    0.278E-04
DAV:  17    -0.157188231030E+03   -0.48115E-05   -0.11225E-07  1692   0.750E-04    0.261E-04
DAV:  18    -0.157188231789E+03   -0.75895E-06   -0.53764E-08  1776   0.741E-04
   8 F= -.16315772E+03 E0= -.16315772E+03  d E =-.837744E-03  mag=    23.0000
 curvature:  -2.90 expect dE=-0.196E-02 dE for cont linesearch -0.488E-03
 ZBRENT: increasing intervall
 opt :   2.9429  next Energy=  -163.158730 (dE=-0.184E-02)
 bond charge predicted
       N       E                     dE             d eps       ncg     rms          rms(c)
DAV:   1    -0.157184694418E+03    0.35366E-02   -0.61920E-01  2880   0.158E+00    0.385E-01
DAV:   2    -0.157188249528E+03   -0.35551E-02   -0.40711E-02  3936   0.641E-01    0.182E-01
DAV:   3    -0.157188376925E+03   -0.12740E-03   -0.62649E-04  3996   0.120E-01    0.120E-01
DAV:   4    -0.157188306476E+03    0.70449E-04   -0.84303E-05  4296   0.426E-02    0.899E-02
DAV:   5    -0.157188215495E+03    0.90981E-04   -0.66015E-05  3996   0.274E-02    0.612E-02
DAV:   6    -0.157188166978E+03    0.48516E-04   -0.67655E-05  4080   0.236E-02    0.214E-02
DAV:   7    -0.157188197427E+03   -0.30448E-04   -0.79039E-06  3924   0.122E-02    0.742E-03
DAV:   8    -0.157188241620E+03   -0.44193E-04   -0.84858E-07  1896   0.546E-03    0.452E-03
DAV:   9    -0.157188279796E+03   -0.38176E-04   -0.53251E-07  1932   0.369E-03    0.266E-03
DAV:  10    -0.157188330734E+03   -0.50938E-04   -0.82530E-07  1956   0.246E-03    0.156E-03
DAV:  11    -0.157188360164E+03   -0.29430E-04   -0.50653E-07  1836   0.231E-03    0.109E-03
DAV:  12    -0.157188381652E+03   -0.21488E-04   -0.34865E-07  1752   0.197E-03    0.963E-04
DAV:  13    -0.157188406066E+03   -0.24414E-04   -0.32414E-07  1944   0.180E-03    0.818E-04
DAV:  14    -0.157188431247E+03   -0.25181E-04   -0.42878E-07  1944   0.154E-03    0.626E-04
DAV:  15    -0.157188441613E+03   -0.10365E-04   -0.21859E-07  1776   0.141E-03    0.531E-04
DAV:  16    -0.157188450039E+03   -0.84259E-05   -0.18620E-07  1788   0.104E-03    0.456E-04
DAV:  17    -0.157188459812E+03   -0.97734E-05   -0.21886E-07  1800   0.109E-03    0.449E-04
DAV:  18    -0.157188465545E+03   -0.57332E-05   -0.20311E-07  1800   0.110E-03    0.365E-04
DAV:  19    -0.157188467050E+03   -0.15044E-05   -0.11966E-07  1692   0.101E-03    0.275E-04
DAV:  20    -0.157188467543E+03   -0.49295E-06   -0.70772E-08  1728   0.670E-04
   9 F= -.16315873E+03 E0= -.16315873E+03  d E =-.184244E-02  mag=    23.0000
 curvature:  -5.98 expect dE=-0.407E-02 dE for cont linesearch -0.555E-03
 ZBRENT: increasing intervall
 opt :   6.4744  next Energy=  -163.159849 (dE=-0.296E-02)
 bond charge predicted
       N       E                     dE             d eps       ncg     rms          rms(c)
DAV:   1    -0.157173024907E+03    0.15442E-01   -0.24762E+00  2880   0.316E+00    0.773E-01
DAV:   2    -0.157187572384E+03   -0.14547E-01   -0.16308E-01  4020   0.128E+00    0.366E-01
DAV:   3    -0.157187920800E+03   -0.34842E-03   -0.25102E-03  4020   0.241E-01    0.241E-01
DAV:   4    -0.157187687056E+03    0.23374E-03   -0.33968E-04  4296   0.872E-02    0.180E-01
DAV:   5    -0.157187427292E+03    0.25976E-03   -0.25489E-04  4056   0.550E-02    0.124E-01
DAV:   6    -0.157187309198E+03    0.11809E-03   -0.27746E-04  4080   0.476E-02    0.435E-02
DAV:   7    -0.157187396741E+03   -0.87543E-04   -0.33328E-05  4068   0.245E-02    0.146E-02
DAV:   8    -0.157187514986E+03   -0.11824E-03   -0.42761E-06  2976   0.108E-02    0.842E-03
DAV:   9    -0.157187621552E+03   -0.10657E-03   -0.11060E-06  2172   0.634E-03    0.516E-03
DAV:  10    -0.157187761739E+03   -0.14019E-03   -0.33343E-06  2748   0.464E-03    0.241E-03
DAV:  11    -0.157187837476E+03   -0.75737E-04   -0.75575E-07  2040   0.255E-03    0.193E-03
DAV:  12    -0.157187870537E+03   -0.33061E-04   -0.29480E-07  1776   0.234E-03    0.133E-03
DAV:  13    -0.157187946484E+03   -0.75946E-04   -0.76190E-07  2088   0.168E-03    0.995E-04
DAV:  14    -0.157188017189E+03   -0.70705E-04   -0.75235E-07  2148   0.182E-03    0.105E-03
DAV:  15    -0.157188045401E+03   -0.28212E-04   -0.34219E-07  1860   0.169E-03    0.659E-04
DAV:  16    -0.157188075939E+03   -0.30538E-04   -0.49725E-07  2028   0.140E-03    0.723E-04
DAV:  17    -0.157188100648E+03   -0.24709E-04   -0.51309E-07  2016   0.168E-03    0.721E-04
DAV:  18    -0.157188111979E+03   -0.11332E-04   -0.41729E-07  1920   0.157E-03    0.496E-04
DAV:  19    -0.157188114981E+03   -0.30020E-05   -0.23469E-07  1704   0.143E-03    0.383E-04
DAV:  20    -0.157188116383E+03   -0.14013E-05   -0.15491E-07  1740   0.966E-04    0.304E-04
DAV:  21    -0.157188116853E+03   -0.46984E-06   -0.89280E-08  1728   0.862E-04
  10 F= -.16315986E+03 E0= -.16315986E+03  d E =-.297916E-02  mag=    23.0000
 curvature: -12.08 expect dE=-0.166E-01 dE for cont linesearch -0.115E-03
 trial: gam= 1.32847 g(F)=  0.138E-02 g(S)=  0.000E+00 ort = 0.156E-03 (trialstep = 0.620E+00)
 search vector abs. value=  0.628E-02
 bond charge predicted
       N       E                     dE             d eps       ncg     rms          rms(c)
DAV:   1    -0.157187598619E+03    0.51776E-03   -0.18462E-01  2880   0.883E-01    0.243E-01
DAV:   2    -0.157188579010E+03   -0.98039E-03   -0.11020E-02  3852   0.329E-01    0.110E-01
DAV:   3    -0.157188990104E+03   -0.41109E-03   -0.23044E-04  3396   0.593E-02    0.617E-02
DAV:   4    -0.157188979657E+03    0.10447E-04   -0.27638E-05  4128   0.168E-02    0.465E-02
DAV:   5    -0.157188980504E+03   -0.84654E-06   -0.33747E-05  3864   0.184E-02    0.269E-02
DAV:   6    -0.157188984527E+03   -0.40234E-05   -0.14408E-05  4092   0.156E-02    0.657E-03
DAV:   7    -0.157188990898E+03   -0.63708E-05   -0.67113E-07  1680   0.695E-03    0.398E-03
DAV:   8    -0.157188997374E+03   -0.64766E-05   -0.53076E-07  1848   0.379E-03    0.228E-03
DAV:   9    -0.157189003801E+03   -0.64264E-05   -0.50703E-07  1716   0.206E-03    0.149E-03
DAV:  10    -0.157189005876E+03   -0.20753E-05   -0.13650E-07  1788   0.168E-03    0.105E-03
DAV:  11    -0.157189007779E+03   -0.19031E-05   -0.54309E-08  1728   0.908E-04    0.778E-04
DAV:  12    -0.157189012466E+03   -0.46865E-05   -0.46956E-08  1704   0.105E-03    0.638E-04
DAV:  13    -0.157189015059E+03   -0.25930E-05   -0.48614E-08  1776   0.871E-04    0.318E-04
DAV:  14    -0.157189015866E+03   -0.80724E-06   -0.28736E-08  1776   0.583E-04
  11 F= -.16316072E+03 E0= -.16316072E+03  d E =-.858780E-03  mag=    23.0000
 ZBRENT: can't locate minimum, use default step
 trial-energy change:   -0.000859  1 .order   -0.000867   -0.000982   -0.000752
 step:   2.4787(harm=  2.6458)  dis= 0.01275  next Energy=  -163.161961 (dE=-0.210E-02)
 bond charge predicted
       N       E                     dE             d eps       ncg     rms          rms(c)
DAV:   1    -0.157177562028E+03    0.11453E-01   -0.16608E+00  2880   0.265E+00    0.730E-01
DAV:   2    -0.157187856302E+03   -0.10294E-01   -0.99908E-02  3948   0.999E-01    0.343E-01
DAV:   3    -0.157190332899E+03   -0.24766E-02   -0.20732E-03  3720   0.184E-01    0.186E-01
DAV:   4    -0.157190244583E+03    0.88315E-04   -0.24710E-04  4176   0.546E-02    0.138E-01
DAV:   5    -0.157190209421E+03    0.35162E-04   -0.28202E-04  3924   0.588E-02    0.840E-02
DAV:   6    -0.157190242590E+03   -0.33168E-04   -0.14282E-04  4116   0.515E-02    0.201E-02
DAV:   7    -0.157190278649E+03   -0.36059E-04   -0.12857E-05  4008   0.218E-02    0.112E-02
DAV:   8    -0.157190309474E+03   -0.30826E-04   -0.15394E-06  2184   0.909E-03    0.670E-03
DAV:   9    -0.157190340538E+03   -0.31063E-04   -0.17382E-06  1860   0.427E-03    0.359E-03
DAV:  10    -0.157190362520E+03   -0.21982E-04   -0.10349E-06  1872   0.362E-03    0.199E-03
DAV:  11    -0.157190377238E+03   -0.14718E-04   -0.57549E-07  1752   0.336E-03    0.145E-03
DAV:  12    -0.157190390267E+03   -0.13029E-04   -0.35589E-07  1848   0.230E-03    0.875E-04
DAV:  13    -0.157190400986E+03   -0.10720E-04   -0.20778E-07  1728   0.197E-03    0.745E-04
DAV:  14    -0.157190407938E+03   -0.69518E-05   -0.14699E-07  1764   0.116E-03    0.440E-04
DAV:  15    -0.157190414447E+03   -0.65089E-05   -0.10250E-07  1776   0.955E-04    0.426E-04
DAV:  16    -0.157190419618E+03   -0.51712E-05   -0.80977E-08  1728   0.799E-04    0.291E-04
DAV:  17    -0.157190428246E+03   -0.86275E-05   -0.15622E-07  1824   0.766E-04    0.330E-04
DAV:  18    -0.157190432238E+03   -0.39920E-05   -0.95881E-08  1776   0.873E-04    0.214E-04
DAV:  19    -0.157190433899E+03   -0.16608E-05   -0.66646E-08  1704   0.648E-04    0.220E-04
DAV:  20    -0.157190435290E+03   -0.13919E-05   -0.54215E-08  1728   0.589E-04    0.127E-04
DAV:  21    -0.157190436170E+03   -0.88002E-06   -0.49872E-08  1668   0.519E-04
  12 F= -.16316198E+03 E0= -.16316196E+03  d E =-.211550E-02  mag=    23.0003
 curvature:  -5.21 expect dE=-0.196E-02 dE for cont linesearch -0.167E-04
 ZBRENT: extrapolating
 opt :   2.7253  next Energy=  -163.161998 (dE=-0.213E-02)
 bond charge predicted
       N       E                     dE             d eps       ncg     rms          rms(c)
DAV:   1    -0.157190255883E+03    0.17941E-03   -0.29216E-02  2904   0.351E-01    0.970E-02
DAV:   2    -0.157190372748E+03   -0.11686E-03   -0.17402E-03  3888   0.130E-01    0.435E-02
DAV:   3    -0.157190470870E+03   -0.98123E-04   -0.36712E-05  3300   0.237E-02    0.246E-02
DAV:   4    -0.157190468333E+03    0.25375E-05   -0.37099E-06  2772   0.663E-03    0.188E-02
DAV:   5    -0.157190468708E+03   -0.37493E-06   -0.79802E-06  3492   0.878E-03
  13 F= -.16316199E+03 E0= -.16316196E+03  d E =-.212137E-02  mag=    23.0003
 curvature:  -5.45 expect dE=-0.274E-02 dE for cont linesearch -0.699E-08
 trial: gam= 0.61258 g(F)=  0.503E-03 g(S)=  0.000E+00 ort =-0.284E-05 (trialstep = 0.104E+01)
 search vector abs. value=  0.286E-02
 bond charge predicted
       N       E                     dE             d eps       ncg     rms          rms(c)
DAV:   1    -0.157189698845E+03    0.76949E-03   -0.21709E-01  2880   0.941E-01    0.248E-01
DAV:   2    -0.157190937292E+03   -0.12384E-02   -0.14376E-02  3912   0.384E-01    0.113E-01
DAV:   3    -0.157191040984E+03   -0.10369E-03   -0.29046E-04  3984   0.728E-02    0.737E-02
DAV:   4    -0.157190994139E+03    0.46844E-04   -0.31752E-05  4296   0.252E-02    0.553E-02
DAV:   5    -0.157190924014E+03    0.70125E-04   -0.28747E-05  3996   0.182E-02    0.373E-02
DAV:   6    -0.157190884250E+03    0.39765E-04   -0.24641E-05  4104   0.162E-02    0.123E-02
DAV:   7    -0.157190907998E+03   -0.23749E-04   -0.22663E-06  2376   0.742E-03    0.638E-03
DAV:   8    -0.157190950875E+03   -0.42877E-04   -0.88039E-07  1932   0.472E-03    0.393E-03
DAV:   9    -0.157190990023E+03   -0.39148E-04   -0.76297E-07  1980   0.306E-03    0.218E-03
DAV:  10    -0.157191027547E+03   -0.37523E-04   -0.60762E-07  1872   0.276E-03    0.153E-03
DAV:  11    -0.157191046490E+03   -0.18944E-04   -0.37981E-07  1788   0.206E-03    0.100E-03
DAV:  12    -0.157191069875E+03   -0.23385E-04   -0.32388E-07  1812   0.166E-03    0.946E-04
DAV:  13    -0.157191091936E+03   -0.22061E-04   -0.27468E-07  1824   0.171E-03    0.755E-04
DAV:  14    -0.157191114426E+03   -0.22490E-04   -0.37013E-07  1884   0.139E-03    0.506E-04
DAV:  15    -0.157191126453E+03   -0.12027E-04   -0.23211E-07  1812   0.137E-03    0.567E-04
DAV:  16    -0.157191136774E+03   -0.10321E-04   -0.23635E-07  1800   0.108E-03    0.363E-04
DAV:  17    -0.157191144231E+03   -0.74572E-05   -0.20220E-07  1776   0.118E-03    0.411E-04
DAV:  18    -0.157191148903E+03   -0.46719E-05   -0.20385E-07  1776   0.105E-03    0.297E-04
DAV:  19    -0.157191149778E+03   -0.87465E-06   -0.10290E-07  1740   0.102E-03
  14 F= -.16316247E+03 E0= -.16316243E+03  d E =-.480913E-03  mag=    23.0005
 trial-energy change:   -0.000481  1 .order   -0.000472   -0.000522   -0.000422
 step:   2.8300(harm=  5.4146)  dis= 0.01047  next Energy=  -163.162875 (dE=-0.889E-03)
 bond charge predicted
       N       E                     dE             d eps       ncg     rms          rms(c)
DAV:   1    -0.157187774550E+03    0.33744E-02   -0.64215E-01  2880   0.162E+00    0.428E-01
DAV:   2    -0.157191639286E+03   -0.38647E-02   -0.42913E-02  3960   0.664E-01    0.193E-01
DAV:   3    -0.157191877809E+03   -0.23852E-03   -0.85513E-04  3924   0.121E-01    0.126E-01
DAV:   4    -0.157191772790E+03    0.10502E-03   -0.96590E-05  4272   0.416E-02    0.940E-02
DAV:   5    -0.157191617104E+03    0.15569E-03   -0.82135E-05  4032   0.318E-02    0.639E-02
DAV:   6    -0.157191536778E+03    0.80326E-04   -0.72106E-05  4152   0.287E-02    0.215E-02
DAV:   7    -0.157191585666E+03   -0.48888E-04   -0.84782E-06  3900   0.129E-02    0.972E-03
DAV:   8    -0.157191664529E+03   -0.78863E-04   -0.10922E-06  2172   0.670E-03    0.592E-03
DAV:   9    -0.157191747248E+03   -0.82719E-04   -0.12659E-06  2256   0.430E-03    0.316E-03
DAV:  10    -0.157191841804E+03   -0.94556E-04   -0.15660E-06  2316   0.356E-03    0.176E-03
DAV:  11    -0.157191885463E+03   -0.43658E-04   -0.62043E-07  1860   0.266E-03    0.137E-03
DAV:  12    -0.157191924011E+03   -0.38549E-04   -0.45882E-07  1884   0.204E-03    0.113E-03
DAV:  13    -0.157191964494E+03   -0.40483E-04   -0.40260E-07  1980   0.196E-03    0.944E-04
DAV:  14    -0.157192005088E+03   -0.40594E-04   -0.49222E-07  2016   0.168E-03    0.695E-04
DAV:  15    -0.157192033764E+03   -0.28676E-04   -0.43052E-07  1896   0.167E-03    0.680E-04
DAV:  16    -0.157192054701E+03   -0.20937E-04   -0.41591E-07  1968   0.153E-03    0.579E-04
DAV:  17    -0.157192069027E+03   -0.14327E-04   -0.36871E-07  1884   0.150E-03    0.452E-04
DAV:  18    -0.157192077066E+03   -0.80391E-05   -0.32427E-07  1860   0.143E-03    0.436E-04
DAV:  19    -0.157192079751E+03   -0.26843E-05   -0.20573E-07  1752   0.129E-03    0.263E-04
DAV:  20    -0.157192080619E+03   -0.86812E-06   -0.12866E-07  1680   0.927E-04
  15 F= -.16316303E+03 E0= -.16316296E+03  d E =-.104376E-02  mag=    23.0012
 curvature: -10.03 expect dE=-0.529E-02 dE for cont linesearch -0.189E-03
 ZBRENT: increasing intervall
 opt :   6.4083  next Energy=  -163.163238 (dE=-0.125E-02)
 bond charge predicted
       N       E                     dE             d eps       ncg     rms          rms(c)
DAV:   1    -0.157175879337E+03    0.16200E-01   -0.25668E+00  2880   0.324E+00    0.855E-01
DAV:   2    -0.157191773396E+03   -0.15894E-01   -0.17213E-01  3984   0.133E+00    0.390E-01
DAV:   3    -0.157192541970E+03   -0.76857E-03   -0.34249E-03  3984   0.247E-01    0.251E-01
DAV:   4    -0.157192204872E+03    0.33710E-03   -0.39136E-04  4272   0.881E-02    0.187E-01
DAV:   5    -0.157191809899E+03    0.39497E-03   -0.31189E-04  4104   0.646E-02    0.130E-01
DAV:   6    -0.157191620341E+03    0.18956E-03   -0.30504E-04  4092   0.591E-02    0.441E-02
DAV:   7    -0.157191762150E+03   -0.14181E-03   -0.37696E-05  4020   0.268E-02    0.194E-02
DAV:   8    -0.157191978616E+03   -0.21647E-03   -0.61116E-06  3360   0.131E-02    0.111E-02
DAV:   9    -0.157192204979E+03   -0.22636E-03   -0.24037E-06  2772   0.769E-03    0.626E-03
DAV:  10    -0.157192465348E+03   -0.26037E-03   -0.54332E-06  3156   0.579E-03    0.283E-03
DAV:  11    -0.157192581763E+03   -0.11641E-03   -0.72527E-07  2052   0.249E-03    0.195E-03
DAV:  12    -0.157192708692E+03   -0.12693E-03   -0.90731E-07  2184   0.244E-03    0.166E-03
DAV:  13    -0.157192849354E+03   -0.14066E-03   -0.16003E-06  2484   0.229E-03    0.113E-03
DAV:  14    -0.157192939790E+03   -0.90436E-04   -0.78715E-07  2160   0.179E-03    0.100E-03
DAV:  15    -0.157192978375E+03   -0.38585E-04   -0.36219E-07  1872   0.160E-03    0.732E-04
DAV:  16    -0.157193050571E+03   -0.72196E-04   -0.15459E-06  2472   0.196E-03    0.569E-04
DAV:  17    -0.157193079983E+03   -0.29412E-04   -0.55957E-07  2100   0.166E-03    0.709E-04
DAV:  18    -0.157193086382E+03   -0.63988E-05   -0.24140E-07  1812   0.148E-03    0.325E-04
DAV:  19    -0.157193088893E+03   -0.25110E-05   -0.16328E-07  1668   0.101E-03    0.359E-04
DAV:  20    -0.157193089899E+03   -0.10062E-05   -0.95105E-08  1680   0.942E-04    0.181E-04
DAV:  21    -0.157193090167E+03   -0.26780E-06   -0.57264E-08  1740   0.654E-04
  16 F= -.16316321E+03 E0= -.16316295E+03  d E =-.121943E-02  mag=    23.0049
 curvature: -11.07 expect dE=-0.192E-01 dE for cont linesearch -0.606E-04
 ZBRENT: bracketing found
 ZBRENT: interpolating
 opt :   5.1543  next Energy=  -163.163284 (dE=-0.130E-02)
 bond charge predicted
       N       E                     dE             d eps       ncg     rms          rms(c)
DAV:   1    -0.157190763927E+03    0.23260E-02   -0.31507E-01  2880   0.113E+00    0.305E-01
DAV:   2    -0.157192603116E+03   -0.18392E-02   -0.21028E-02  3912   0.465E-01    0.137E-01
DAV:   3    -0.157192747944E+03   -0.14483E-03   -0.42511E-04  3948   0.843E-02    0.891E-02
DAV:   4    -0.157192685113E+03    0.62832E-04   -0.46692E-05  4284   0.276E-02    0.667E-02
DAV:   5    -0.157192594418E+03    0.90695E-04   -0.42618E-05  4008   0.206E-02    0.446E-02
DAV:   6    -0.157192545565E+03    0.48852E-04   -0.34047E-05  4152   0.185E-02    0.151E-02
DAV:   7    -0.157192573458E+03   -0.27893E-04   -0.29961E-06  2664   0.908E-03    0.802E-03
DAV:   8    -0.157192622936E+03   -0.49477E-04   -0.10544E-06  2052   0.584E-03    0.478E-03
DAV:   9    -0.157192672506E+03   -0.49570E-04   -0.10432E-06  1980   0.350E-03    0.220E-03
DAV:  10    -0.157192722498E+03   -0.49992E-04   -0.85099E-07  2040   0.271E-03    0.159E-03
DAV:  11    -0.157192744301E+03   -0.21802E-04   -0.39065E-07  1716   0.238E-03    0.113E-03
DAV:  12    -0.157192772429E+03   -0.28128E-04   -0.38778E-07  1848   0.161E-03    0.943E-04
DAV:  13    -0.157192800679E+03   -0.28250E-04   -0.31135E-07  1860   0.189E-03    0.808E-04
DAV:  14    -0.157192823524E+03   -0.22845E-04   -0.35081E-07  1812   0.151E-03    0.504E-04
DAV:  15    -0.157192838027E+03   -0.14503E-04   -0.27114E-07  1788   0.148E-03    0.685E-04
DAV:  16    -0.157192849242E+03   -0.11215E-04   -0.25589E-07  1812   0.122E-03    0.360E-04
DAV:  17    -0.157192860836E+03   -0.11594E-04   -0.31357E-07  1872   0.126E-03    0.539E-04
DAV:  18    -0.157192865363E+03   -0.45269E-05   -0.21348E-07  1776   0.127E-03    0.253E-04
DAV:  19    -0.157192866464E+03   -0.11005E-05   -0.12278E-07  1740   0.966E-04    0.328E-04
DAV:  20    -0.157192867081E+03   -0.61783E-06   -0.76731E-08  1692   0.716E-04
  17 F= -.16316329E+03 E0= -.16316312E+03  d E =-.130414E-02  mag=    23.0030
 curvature: -14.32 expect dE=-0.166E-01 dE for cont linesearch -0.212E-07
 trial: gam= 2.02666 g(F)=  0.116E-02 g(S)=  0.000E+00 ort =-0.206E-05 (trialstep = 0.413E+00)
 search vector abs. value=  0.129E-01
 bond charge predicted
       N       E                     dE             d eps       ncg     rms          rms(c)
DAV:   1    -0.157192351356E+03    0.51511E-03   -0.15268E-01  2880   0.783E-01    0.205E-01
DAV:   2    -0.157193231533E+03   -0.88018E-03   -0.10254E-02  3948   0.331E-01    0.958E-02
DAV:   3    -0.157193287275E+03   -0.55742E-04   -0.21778E-04  4020   0.767E-02    0.640E-02
DAV:   4    -0.157193276237E+03    0.11038E-04   -0.25467E-05  4272   0.284E-02    0.475E-02
DAV:   5    -0.157193268240E+03    0.79975E-05   -0.17601E-05  3888   0.130E-02    0.331E-02
DAV:   6    -0.157193269404E+03   -0.11645E-05   -0.18084E-05  3864   0.122E-02    0.127E-02
DAV:   7    -0.157193272966E+03   -0.35619E-05   -0.18459E-06  2136   0.682E-03    0.575E-03
DAV:   8    -0.157193278306E+03   -0.53395E-05   -0.58832E-07  1812   0.351E-03    0.287E-03
DAV:   9    -0.157193282732E+03   -0.44267E-05   -0.34187E-07  1728   0.232E-03    0.173E-03
DAV:  10    -0.157193287170E+03   -0.44376E-05   -0.17629E-07  1668   0.175E-03    0.102E-03
DAV:  11    -0.157193289151E+03   -0.19809E-05   -0.93538E-08  1788   0.101E-03    0.779E-04
DAV:  12    -0.157193291511E+03   -0.23597E-05   -0.49750E-08  1668   0.827E-04    0.581E-04
DAV:  13    -0.157193294210E+03   -0.26989E-05   -0.44504E-08  1656   0.733E-04    0.348E-04
DAV:  14    -0.157193295319E+03   -0.11093E-05   -0.26682E-08  1776   0.638E-04    0.243E-04
DAV:  15    -0.157193295893E+03   -0.57449E-06   -0.15616E-08  1680   0.394E-04
  18 F= -.16316372E+03 E0= -.16316351E+03  d E =-.429610E-03  mag=    23.0038
 ZBRENT: can't locate minimum, use default step
 trial-energy change:   -0.000430  1 .order   -0.000433   -0.000478   -0.000388
 step:   1.6525(harm=  2.1965)  dis= 0.01230  next Energy=  -163.164560 (dE=-0.127E-02)
 bond charge predicted
       N       E                     dE             d eps       ncg     rms          rms(c)
DAV:   1    -0.157185587099E+03    0.77082E-02   -0.13737E+00  2880   0.235E+00    0.614E-01
DAV:   2    -0.157193860793E+03   -0.82737E-02   -0.92284E-02  3888   0.991E-01    0.286E-01
DAV:   3    -0.157194086252E+03   -0.22546E-03   -0.19710E-03  3996   0.229E-01    0.191E-01
DAV:   4    -0.157194003233E+03    0.83019E-04   -0.23130E-04  4284   0.855E-02    0.142E-01
DAV:   5    -0.157193933884E+03    0.69350E-04   -0.15254E-04  3960   0.388E-02    0.998E-02
DAV:   6    -0.157193945296E+03   -0.11412E-04   -0.16327E-04  3972   0.368E-02    0.391E-02
DAV:   7    -0.157193967050E+03   -0.21755E-04   -0.21677E-05  4068   0.206E-02    0.142E-02
DAV:   8    -0.157193994037E+03   -0.26987E-04   -0.26495E-06  2604   0.862E-03    0.793E-03
DAV:   9    -0.157194019327E+03   -0.25289E-04   -0.10052E-06  1956   0.536E-03    0.406E-03
DAV:  10    -0.157194047276E+03   -0.27950E-04   -0.13410E-06  2040   0.386E-03    0.181E-03
DAV:  11    -0.157194058105E+03   -0.10829E-04   -0.62715E-07  1788   0.304E-03    0.145E-03
DAV:  12    -0.157194067838E+03   -0.97331E-05   -0.33021E-07  1668   0.198E-03    0.103E-03
DAV:  13    -0.157194075268E+03   -0.74301E-05   -0.15405E-07  1752   0.178E-03    0.788E-04
DAV:  14    -0.157194084859E+03   -0.95909E-05   -0.15708E-07  1752   0.113E-03    0.476E-04
DAV:  15    -0.157194090061E+03   -0.52016E-05   -0.10062E-07  1776   0.987E-04    0.462E-04
DAV:  16    -0.157194094734E+03   -0.46732E-05   -0.91523E-08  1668   0.722E-04    0.305E-04
DAV:  17    -0.157194099332E+03   -0.45975E-05   -0.88036E-08  1668   0.768E-04    0.365E-04
DAV:  18    -0.157194103509E+03   -0.41773E-05   -0.12274E-07  1764   0.782E-04    0.351E-04
DAV:  19    -0.157194104462E+03   -0.95282E-06   -0.60700E-08  1788   0.805E-04
  19 F= -.16316448E+03 E0= -.16316411E+03  d E =-.119462E-02  mag=    23.0073
 curvature: -11.10 expect dE=-0.288E-02 dE for cont linesearch -0.715E-04
 trial: gam=-0.04786 g(F)=  0.260E-03 g(S)=  0.000E+00 ort = 0.288E-03 (trialstep = 0.661E+00)
 search vector abs. value=  0.262E-03
 reached required accuracy - stopping structural energy minimisation
