Cr8Cl24                                 
   1.0000000000000000     
    12.1682323165561677    0.0016454480897831    0.0000000000000000
    -6.1314979671184711   10.5521182477466997    0.0000000000000000
     0.0000000000000000    0.0000000000000000   17.6887664794999999
   Cr   Cl   Ni
     8    24     1
Direct
  0.1553148753123721  0.3420589291812036  0.3374938892135019
  0.1560263213628728  0.8418793665990427  0.3375084346717750
  0.6584276544126992  0.3399166075555969  0.3383891112569825
  0.6568210687076093  0.8461007634365049  0.3353666332586339
  0.8261827578339800  0.1751695641859000  0.3373349719608840
  0.8231386143194608  0.6758587697829280  0.3355726434470697
  0.3233800160868112  0.1745156812548021  0.3398539303116215
  0.3234408790729144  0.6795589361769120  0.3361925832275977
  0.1682590800840737  0.5090806608632825  0.2640081805622137
  0.1696645487956854  0.0092565930867609  0.2632541551890880
  0.6595132590967241  0.5041576204165870  0.2592474094372921
  0.6721642538595752  0.0122540301246080  0.2605441743730108
  0.3288705905165553  0.3445658833459985  0.2651385944069198
  0.3098847390042995  0.8311566447026004  0.2614228155869406
  0.8131735029511583  0.3276588514184321  0.2622526404455751
  0.8099477548136546  0.8295811215914054  0.2625252039401987
  0.9928029403163242  0.1884881997977829  0.2612125571640759
  0.9916294686287692  0.6902893741302576  0.2604790334565220
  0.4896811022713458  0.1843276503913355  0.2669003354833158
  0.4889650184041505  0.6903894496569758  0.2591214163518016
  0.9909455625878328  0.3286417175703352  0.4138324191449506
  0.9895538984776011  0.8285414366107182  0.4125515255635816
  0.4923457090042476  0.3293395406041997  0.4205532057093392
  0.4908695775927650  0.8342741537389323  0.4098348182757529
  0.3256135626430788  0.5130450991869617  0.4089719647385535
  0.3076408015635775  0.0051882990734536  0.4145649062727174
  0.8132642473343148  0.5103272039646658  0.4092240633251216
  0.8118702402627133  0.0060940141868687  0.4115212942088611
  0.1690278709431230  0.1890931726484223  0.4115624775789249
  0.1697992456935497  0.6872711000419025  0.4120705762543286
  0.6745019375536272  0.1863871673201015  0.4139999313317492
  0.6516227120133182  0.6726786456309596  0.4086709826602694
  0.5024346854792172  0.4892194647235732  0.3420631641908311

  0.00000000E+00  0.00000000E+00  0.00000000E+00
  0.00000000E+00  0.00000000E+00  0.00000000E+00
  0.00000000E+00  0.00000000E+00  0.00000000E+00
  0.00000000E+00  0.00000000E+00  0.00000000E+00
  0.00000000E+00  0.00000000E+00  0.00000000E+00
  0.00000000E+00  0.00000000E+00  0.00000000E+00
  0.00000000E+00  0.00000000E+00  0.00000000E+00
  0.00000000E+00  0.00000000E+00  0.00000000E+00
  0.00000000E+00  0.00000000E+00  0.00000000E+00
  0.00000000E+00  0.00000000E+00  0.00000000E+00
  0.00000000E+00  0.00000000E+00  0.00000000E+00
  0.00000000E+00  0.00000000E+00  0.00000000E+00
  0.00000000E+00  0.00000000E+00  0.00000000E+00
  0.00000000E+00  0.00000000E+00  0.00000000E+00
  0.00000000E+00  0.00000000E+00  0.00000000E+00
  0.00000000E+00  0.00000000E+00  0.00000000E+00
  0.00000000E+00  0.00000000E+00  0.00000000E+00
  0.00000000E+00  0.00000000E+00  0.00000000E+00
  0.00000000E+00  0.00000000E+00  0.00000000E+00
  0.00000000E+00  0.00000000E+00  0.00000000E+00
  0.00000000E+00  0.00000000E+00  0.00000000E+00
  0.00000000E+00  0.00000000E+00  0.00000000E+00
  0.00000000E+00  0.00000000E+00  0.00000000E+00
  0.00000000E+00  0.00000000E+00  0.00000000E+00
  0.00000000E+00  0.00000000E+00  0.00000000E+00
  0.00000000E+00  0.00000000E+00  0.00000000E+00
  0.00000000E+00  0.00000000E+00  0.00000000E+00
  0.00000000E+00  0.00000000E+00  0.00000000E+00
  0.00000000E+00  0.00000000E+00  0.00000000E+00
  0.00000000E+00  0.00000000E+00  0.00000000E+00
  0.00000000E+00  0.00000000E+00  0.00000000E+00
  0.00000000E+00  0.00000000E+00  0.00000000E+00
  0.00000000E+00  0.00000000E+00  0.00000000E+00
