Cr8Cl24Fe1
1.0
     12.2092909       0.0111019       0.0000000
     -6.0950311      10.5791850       0.0000000
      0.0000000       0.0000000      17.6887665
  Cr    Cl    Fe  
  8     24    1   
Direct
      0.1544185       0.3393650       0.3373726
      0.1584739       0.8415272       0.3373623
      0.6604959       0.3395220       0.3373670
      0.6606052       0.8455588       0.3373354
      0.8252263       0.1747803       0.3373648
      0.8294891       0.6768882       0.3374858
      0.3231132       0.1705426       0.3372397
      0.3234073       0.6766164       0.3373482
      0.1692360       0.5080813       0.2649679
      0.1712339       0.0052807       0.2604573
      0.6636830       0.5070790       0.2602385
      0.6741753       0.0109983       0.2605596
      0.3206740       0.3364787       0.2603680
      0.3097200       0.8278144       0.2607635
      0.8116142       0.3261691       0.2607753
      0.8142668       0.8304346       0.2647933
      0.9890798       0.1878155       0.2605020
      0.9945260       0.6904745       0.2606318
      0.4919309       0.1850447       0.2649974
      0.4912348       0.6795973       0.2602314
      0.9889780       0.3257795       0.4141950
      0.9946981       0.8287076       0.4142789
      0.4929142       0.3362264       0.4144869
      0.4919140       0.8307516       0.4097811
      0.3204564       0.5088036       0.4145669
      0.3094770       0.0054819       0.4141022
      0.8149385       0.5080645       0.4097385
      0.8120961       0.0108650       0.4142211
      0.1695908       0.1857561       0.4099490
      0.1722494       0.6903141       0.4139621
      0.6738590       0.1884370       0.4139523
      0.6635581       0.6794089       0.4143825
      0.4919963       0.5079994       0.3374617
