33
Lattice="12.092548997049326 0.0 0.0 -6.046274498524663 10.47245462795275 0.0 0.0 0.0 20.0" Properties=species:S:1:pos:R:3:momenta:R:3 pbc="T T T"
Cr      -0.02362387       3.42847994       9.98116682       0.00000000       0.00000000       0.00000000
Cr       2.98096266       1.69378109       9.98116682       0.00000000       0.00000000       0.00000000
Cr       6.11207296       3.50152847       9.98116682       0.00000000       0.00000000       0.00000000
Cr       9.06941175       1.74540910       9.96571804       0.00000000       0.00000000       0.00000000
Cr      -3.02313725       8.72704552       9.96571804       0.00000000       0.00000000       0.00000000
Cr      -0.02362387       7.04397469       9.98116682       0.00000000       0.00000000       0.00000000
Cr       2.98096266       8.77867353       9.98116682       0.00000000       0.00000000       0.00000000
Cr       6.11207296       6.97092616       9.98116682       0.00000000       0.00000000       0.00000000
Cl      -0.86350934       5.23622731       8.67349334       0.00000000       0.00000000       0.00000000
Cl       4.96646055       1.87029263       8.67349334       0.00000000       0.00000000       0.00000000
Cl       1.95595670       3.38781637       8.67526974       0.00000000       0.00000000       0.00000000
Cl       0.84764724       5.23622731      11.47273756       0.00000000       0.00000000       0.00000000
Cl      10.13125629       3.36505711      11.34595694       0.00000000       0.00000000       0.00000000
Cl       1.04232458       1.80535913      11.36137890       0.00000000       0.00000000       0.00000000
Cl       5.15749836       5.23622731       8.67526974       0.00000000       0.00000000       0.00000000
Cl      10.99972590       1.80796830       8.59979317       0.00000000       0.00000000       0.00000000
Cl       8.05007682       3.38583060       8.59979317       0.00000000       0.00000000       0.00000000
Cl       6.98476259       5.23622731      11.36137890       0.00000000       0.00000000       0.00000000
Cl       4.11088226       3.35219770      11.47273756       0.00000000       0.00000000       0.00000000
Cl       7.13583316       1.85516945      11.34595694       0.00000000       0.00000000       0.00000000
Cl      -3.93411647      10.43002622       8.59979317       0.00000000       0.00000000       0.00000000
Cl       1.95595670       7.08463825       8.67526974       0.00000000       0.00000000       0.00000000
Cl      -1.09282310       8.66448632       8.59979317       0.00000000       0.00000000       0.00000000
Cl      -2.15140320      10.45645387      11.34595694       0.00000000       0.00000000       0.00000000
Cl      -4.95671584       8.61728518      11.34595694       0.00000000       0.00000000       0.00000000
Cl      -1.96129271       7.10739752      11.34595694       0.00000000       0.00000000       0.00000000
Cl       8.15843253       0.04242841       8.59979317       0.00000000       0.00000000       0.00000000
Cl      -4.04247218       7.08662403       8.59979317       0.00000000       0.00000000       0.00000000
Cl       4.96646055       8.60216200       8.67349334       0.00000000       0.00000000       0.00000000
Cl       9.94114580       0.01600076      11.34595694       0.00000000       0.00000000       0.00000000
Cl       1.04232458       8.66709550      11.36137890       0.00000000       0.00000000       0.00000000
Cl       4.11088226       7.12025693      11.47273756       0.00000000       0.00000000       0.00000000
Co       3.02313725       5.23622731      11.85842373       0.00000000       0.00000000       0.00000000
