33
Lattice="12.092548997049326 0.0 0.0 -6.046274498524663 10.47245462795275 0.0 0.0 0.0 20.0" Properties=species:S:1:pos:R:3:momenta:R:3 pbc="T T T"
Cr       0.00576084       3.49229615      10.03054840       0.00000000       0.00000000       0.00000000
Cr       2.98260501       1.70757486      10.00359893       0.00000000       0.00000000       0.00000000
Cr       6.04627450       3.49081821       9.67864499       0.00000000       0.00000000       0.00000000
Cr       9.12244329       1.72922428      10.00359893       0.00000000       0.00000000       0.00000000
Cr      -3.02473773       8.72131752      10.03054840       0.00000000       0.00000000       0.00000000
Cr      -0.00000000       6.98163642      10.01929753       0.00000000       0.00000000       0.00000000
Cr       3.01897689       8.73129558      10.03054840       0.00000000       0.00000000       0.00000000
Cr       6.03377520       7.03565549      10.00359893       0.00000000       0.00000000       0.00000000
Cl      -0.87171154       5.23265521       8.67202191       0.00000000       0.00000000       0.00000000
Cl       4.85893653       1.77199043       8.55024122       0.00000000       0.00000000       0.00000000
Cl       1.94835710       3.38780879       8.68355885       0.00000000       0.00000000       0.00000000
Cl       0.87702365       5.24213605      11.38256803       0.00000000       0.00000000       0.00000000
Cl      10.13763087       3.38137056      11.37721074       0.00000000       0.00000000       0.00000000
Cl       1.05401705       1.85758814      11.39644837       0.00000000       0.00000000       0.00000000
Cl       5.15139496       5.37849694       8.55024122       0.00000000       0.00000000       0.00000000
Cl      -1.00112948       1.83591246       8.67273236       0.00000000       0.00000000       0.00000000
Cl       8.12849200       3.32196726       8.55024122       0.00000000       0.00000000       0.00000000
Cl       7.05681532       5.27712809      11.41288980       0.00000000       0.00000000       0.00000000
Cl       3.99401436       3.47281729      11.41288980       0.00000000       0.00000000       0.00000000
Cl       7.08799382       1.72250925      11.41288980       0.00000000       0.00000000       0.00000000
Cl      -3.95576293      10.42150196       8.67273236       0.00000000       0.00000000       0.00000000
Cl       1.95051792       7.10120268       8.67202191       0.00000000       0.00000000       0.00000000
Cl      -1.07880638       8.61105136       8.67202191       0.00000000       0.00000000       0.00000000
Cl       3.90581187       0.00232348      11.37721074       0.00000000       0.00000000       0.00000000
Cl      -4.96456450       8.63085501      11.39644837       0.00000000       0.00000000       0.00000000
Cl      -1.94496333       7.09186184      11.38256803       0.00000000       0.00000000       0.00000000
Cl       2.13816747      10.46587698       8.68355885       0.00000000       0.00000000       0.00000000
Cl      -4.08652457       7.09122349       8.68355885       0.00000000       0.00000000       0.00000000
Cl       4.95689240       8.68749484       8.67273236       0.00000000       0.00000000       0.00000000
Cl       3.91054745      10.45646610      11.39644837       0.00000000       0.00000000       0.00000000
Cl       1.06793968       8.61091136      11.38256803       0.00000000       0.00000000       0.00000000
Cl       4.09538076       7.08876059      11.37721074       0.00000000       0.00000000       0.00000000
Co       6.04627450       3.49081821      12.25660163       0.00000000       0.00000000       0.00000000
