33
Lattice="12.092548997049326 0.0 0.0 -6.046274498524663 10.47245462795275 0.0 0.0 0.0 20.0" Properties=species:S:1:pos:R:3:momenta:R:3 pbc="T T T"
Cr       0.01303945       3.49438679      10.01118812       0.00000000       0.00000000       0.00000000
Cr       3.00357784       1.72135523       9.99568896       0.00000000       0.00000000       0.00000000
Cr       6.04627450       3.49081821       9.77777508       0.00000000       0.00000000       0.00000000
Cr       9.10002272       1.74049710       9.99568896       0.00000000       0.00000000       0.00000000
Cr      -3.02656650       8.71396874      10.01118812       0.00000000       0.00000000       0.00000000
Cr      -0.00000000       6.98163642      10.01093212       0.00000000       0.00000000       0.00000000
Cr       3.01352704       8.73655373      10.01118812       0.00000000       0.00000000       0.00000000
Cr       6.03522293       7.01060230       9.99568896       0.00000000       0.00000000       0.00000000
Cl      -0.86997149       5.23727529       8.65841288       0.00000000       0.00000000       0.00000000
Cl       4.92169698       1.79658923       8.57339500       0.00000000       0.00000000       0.00000000
Cl       1.97210986       3.40823602       8.67917853       0.00000000       0.00000000       0.00000000
Cl       0.88130009       5.24347934      11.37079497       0.00000000       0.00000000       0.00000000
Cl      -1.94733375       3.38673196      11.36291728       0.00000000       0.00000000       0.00000000
Cl       1.06892377       1.86085317      11.37491609       0.00000000       0.00000000       0.00000000
Cl       5.14131792       5.31184540       8.57339500       0.00000000       0.00000000       0.00000000
Cl      -1.00110190       1.85830221       8.64400160       0.00000000       0.00000000       0.00000000
Cl       8.07580860       3.36402000       8.57339500       0.00000000       0.00000000       0.00000000
Cl       7.00221222       5.21156546      11.42579717       0.00000000       0.00000000       0.00000000
Cl       4.07809481       3.45831093      11.42579717       0.00000000       0.00000000       0.00000000
Cl       7.05851647       1.80257823      11.42579717       0.00000000       0.00000000       0.00000000
Cl       2.10988787      -0.06217143       8.64400160       0.00000000       0.00000000       0.00000000
Cl       1.94564680       7.10039957       8.65841288       0.00000000       0.00000000       0.00000000
Cl      -1.07567531       8.60723440       8.65841288       0.00000000       0.00000000       0.00000000
Cl       3.90666279      -0.00692548      11.36291728       0.00000000       0.00000000       0.00000000
Cl      -4.96919026       8.61631291      11.37491609       0.00000000       0.00000000       0.00000000
Cl      -1.94593823       7.08748670      11.37079497       0.00000000       0.00000000       0.00000000
Cl       8.15487509       0.00377923       8.67917853       0.00000000       0.00000000       0.00000000
Cl      -4.08071045       7.06043938       8.67917853       0.00000000       0.00000000       0.00000000
Cl       4.93748852       8.67632385       8.64400160       0.00000000       0.00000000       0.00000000
Cl       9.94654099      -0.00471145      11.37491609       0.00000000       0.00000000       0.00000000
Cl       1.06463815       8.61394322      11.37079497       0.00000000       0.00000000       0.00000000
Cl       4.08694546       7.09264815      11.36291728       0.00000000       0.00000000       0.00000000
Ni       6.04627450       3.49081821      12.42242099       0.00000000       0.00000000       0.00000000
