CrCl3 2x2 + Fe | In-Plane Embedded Interstitial (pore coplanar, z=0.00A) | Clean | U_all=3.29eV
   1.00000000000000     
    12.2092909193533465    0.0111018667517055    0.0000000000000000
    -6.0950311049460471   10.5791850380812260    0.0000000000000000
     0.0000000000000000    0.0000000000000000   17.6887664794999999
   Cr   Cl   Fe
     8    24     1
Direct
     0.1522610305520621    0.3379665929801849    0.3370510493277936
     0.1587161228564082    0.8412818057960697    0.3373748819348012
     0.6604753413359342    0.3395212010464900    0.3373760811704639
     0.6620027596696196    0.8477233746505585    0.3377046536229247
     0.8251115397767483    0.1748816664715524    0.3373735612027753
     0.8315005250516205    0.6781582082947963    0.3377406473700641
     0.3218436348168707    0.1685186340369542    0.3370120565239191
     0.3233944648354076    0.6766097423582075    0.3373853768677631
     0.1665111657452539    0.5094606401409779    0.2639355562206711
     0.1663387925203877    0.0008024513192126    0.2580472511440771
     0.6574621881768010    0.5015739095233176    0.2589739650852322
     0.6707665233759795    0.0126365454696378    0.2595614897916420
     0.3253143472135789    0.3412464548178549    0.2598911675958465
     0.3144847825102630    0.8288781284316021    0.2605152475212845
     0.8127021573623940    0.3307039033191495    0.2605177209909770
     0.8153873955874597    0.8315184391443916    0.2627528358700034
     0.9844152011380943    0.1823813708125206    0.2579629600184807
     0.9963684104311297    0.6869720525381871    0.2596124019207304
     0.4933034043817021    0.1826414662394727    0.2639571223344444
     0.4853376500841130    0.6734699576772146    0.2589463528691936
     0.9872695303152651    0.3291711264290584    0.4151903784795389
     0.9992421875872450    0.8336818803601801    0.4166987865942533
     0.4984113437508750    0.3425030616812615    0.4157703040663766
     0.4905677546253553    0.8335278110393251    0.4107995802056328
     0.3266060594558720    0.5147458207674099    0.4158178455440351
     0.3130526508036200    0.0036708168678761    0.4151005434849570
     0.8173467920415858    0.5066907598862708    0.4107734929846213
     0.8175494158602947    0.0154927658628166    0.4167412641729955
     0.1685119761140227    0.1845993810961301    0.4119960833675083
     0.1711312034989451    0.6855309501267917    0.4142144819063412
     0.6692772305907490    0.1872863600598545    0.4142010345802177
     0.6587449526774313    0.6747551151248512    0.4148540235804170
     0.4919216242569294    0.5080619376297630    0.3373898486499967
 
  0.00000000E+00  0.00000000E+00  0.00000000E+00
  0.00000000E+00  0.00000000E+00  0.00000000E+00
  0.00000000E+00  0.00000000E+00  0.00000000E+00
  0.00000000E+00  0.00000000E+00  0.00000000E+00
  0.00000000E+00  0.00000000E+00  0.00000000E+00
  0.00000000E+00  0.00000000E+00  0.00000000E+00
  0.00000000E+00  0.00000000E+00  0.00000000E+00
  0.00000000E+00  0.00000000E+00  0.00000000E+00
  0.00000000E+00  0.00000000E+00  0.00000000E+00
  0.00000000E+00  0.00000000E+00  0.00000000E+00
  0.00000000E+00  0.00000000E+00  0.00000000E+00
  0.00000000E+00  0.00000000E+00  0.00000000E+00
  0.00000000E+00  0.00000000E+00  0.00000000E+00
  0.00000000E+00  0.00000000E+00  0.00000000E+00
  0.00000000E+00  0.00000000E+00  0.00000000E+00
  0.00000000E+00  0.00000000E+00  0.00000000E+00
  0.00000000E+00  0.00000000E+00  0.00000000E+00
  0.00000000E+00  0.00000000E+00  0.00000000E+00
  0.00000000E+00  0.00000000E+00  0.00000000E+00
  0.00000000E+00  0.00000000E+00  0.00000000E+00
  0.00000000E+00  0.00000000E+00  0.00000000E+00
  0.00000000E+00  0.00000000E+00  0.00000000E+00
  0.00000000E+00  0.00000000E+00  0.00000000E+00
  0.00000000E+00  0.00000000E+00  0.00000000E+00
  0.00000000E+00  0.00000000E+00  0.00000000E+00
  0.00000000E+00  0.00000000E+00  0.00000000E+00
  0.00000000E+00  0.00000000E+00  0.00000000E+00
  0.00000000E+00  0.00000000E+00  0.00000000E+00
  0.00000000E+00  0.00000000E+00  0.00000000E+00
  0.00000000E+00  0.00000000E+00  0.00000000E+00
  0.00000000E+00  0.00000000E+00  0.00000000E+00
  0.00000000E+00  0.00000000E+00  0.00000000E+00
  0.00000000E+00  0.00000000E+00  0.00000000E+00
