 running on   32 total cores
 distrk:  each k-point on   32 cores,    1 groups
 distr:  one band on    4 cores,    8 groups
 vasp.6.2.0 18Jan21 (build Jul 28 2023 11:58:00) complex                         
 POSCAR found type information on POSCAR CrClFe
 POSCAR found :  3 types and      33 ions
 scaLAPACK will be used
 LDA part: xc-table for Pade appr. of Perdew
 POSCAR, INCAR and KPOINTS ok, starting setup
 FFT: planning ...
 WAVECAR not read
 entering main loop
       N       E                     dE             d eps       ncg     rms          rms(c)
DAV:   1     0.213264901548E+04    0.21326E+04   -0.65333E+04  8072   0.921E+02
DAV:   2     0.397625798937E+03   -0.17350E+04   -0.16159E+04  9528   0.245E+02
DAV:   3    -0.119479630270E+03   -0.51711E+03   -0.50273E+03 11664   0.138E+02
DAV:   4    -0.155460765302E+03   -0.35981E+02   -0.35429E+02 11992   0.500E+01
DAV:   5    -0.156118762494E+03   -0.65800E+00   -0.65518E+00 12216   0.875E+00    0.417E+01
DAV:   6    -0.150436567827E+03    0.56822E+01   -0.15486E+02 13152   0.633E+01    0.563E+01
DAV:   7    -0.147559379959E+03    0.28772E+01   -0.35367E+01 11144   0.450E+01    0.298E+01
DAV:   8    -0.146014152437E+03    0.15452E+01   -0.74609E+00 13848   0.295E+01    0.231E+01
DAV:   9    -0.147177565930E+03   -0.11634E+01   -0.53269E+00 11904   0.206E+01    0.174E+01
DAV:  10    -0.146455465333E+03    0.72210E+00   -0.12782E+00 11456   0.139E+01    0.103E+01
DAV:  11    -0.147598004879E+03   -0.11425E+01   -0.81462E-01 11688   0.943E+00    0.238E+01
DAV:  12    -0.146249565935E+03    0.13484E+01   -0.90850E-01 11056   0.808E+00    0.161E+00
DAV:  13    -0.146680673479E+03   -0.43111E+00   -0.15026E-01 11816   0.168E+00    0.406E+00
DAV:  14    -0.146650561767E+03    0.30112E-01   -0.31094E-02  8984   0.749E-01    0.386E+00
DAV:  15    -0.146552781056E+03    0.97781E-01   -0.14571E-02 11368   0.371E-01    0.390E+00
DAV:  16    -0.146594872483E+03   -0.42091E-01   -0.37003E-01 12352   0.442E-01    0.380E+00
DAV:  17    -0.146677846599E+03   -0.82974E-01   -0.18475E-01 11416   0.530E-01    0.376E+00
DAV:  18    -0.146832636073E+03   -0.15479E+00   -0.40639E-02 12552   0.950E-01    0.325E+00
DAV:  19    -0.146960309861E+03   -0.12767E+00   -0.16688E-02 11456   0.481E-01    0.309E+00
DAV:  20    -0.147013881424E+03   -0.53572E-01   -0.65441E-03 11256   0.294E-01    0.281E+00
DAV:  21    -0.147022137843E+03   -0.82564E-02   -0.23384E-03 11296   0.169E-01    0.278E+00
DAV:  22    -0.147108914762E+03   -0.86777E-01   -0.79827E-02 13328   0.610E-01    0.254E+00
DAV:  23    -0.147113730028E+03   -0.48153E-02   -0.16002E-03  8520   0.124E-01    0.252E+00
DAV:  24    -0.147290142153E+03   -0.17641E+00   -0.54578E-02 12088   0.989E-01    0.194E+00
DAV:  25    -0.147470558181E+03   -0.18042E+00   -0.11914E-01 12168   0.148E+00    0.203E+00
DAV:  26    -0.147526312588E+03   -0.55754E-01   -0.46531E-02 11688   0.975E-01    0.168E+00
DAV:  27    -0.147544633319E+03   -0.18321E-01   -0.20164E-02 12280   0.720E-01    0.106E+00
DAV:  28    -0.147567085611E+03   -0.22452E-01   -0.97533E-03 11880   0.470E-01    0.676E-01
DAV:  29    -0.147587166719E+03   -0.20081E-01   -0.49779E-03 13328   0.378E-01    0.492E-01
DAV:  30    -0.147607128780E+03   -0.19962E-01   -0.41581E-03 12632   0.359E-01    0.390E-01
DAV:  31    -0.147621224225E+03   -0.14095E-01   -0.36423E-03 12104   0.241E-01    0.187E-01
DAV:  32    -0.147628407375E+03   -0.71832E-02   -0.66548E-04 10680   0.989E-02    0.129E-01
DAV:  33    -0.147631749971E+03   -0.33426E-02   -0.15222E-04 10992   0.507E-02    0.114E-01
DAV:  34    -0.147633838422E+03   -0.20885E-02   -0.13955E-04 12400   0.547E-02    0.864E-02
DAV:  35    -0.147635444422E+03   -0.16060E-02   -0.12110E-04 11792   0.515E-02    0.809E-02
DAV:  36    -0.147636070001E+03   -0.62558E-03   -0.51613E-05 11128   0.327E-02    0.627E-02
DAV:  37    -0.147636295838E+03   -0.22584E-03   -0.22114E-05 10792   0.275E-02    0.606E-02
DAV:  38    -0.147636349457E+03   -0.53619E-04   -0.15525E-05 10352   0.266E-02    0.417E-02
DAV:  39    -0.147636373097E+03   -0.23640E-04   -0.10150E-05  9616   0.199E-02    0.365E-02
DAV:  40    -0.147636391876E+03   -0.18779E-04   -0.40892E-06  8200   0.114E-02    0.310E-02
DAV:  41    -0.147636429102E+03   -0.37227E-04   -0.25227E-06  7312   0.149E-02    0.265E-02
DAV:  42    -0.147636470795E+03   -0.41693E-04   -0.55935E-06  8744   0.184E-02    0.215E-02
DAV:  43    -0.147636495514E+03   -0.24719E-04   -0.47240E-06  8616   0.148E-02    0.164E-02
DAV:  44    -0.147636507364E+03   -0.11850E-04   -0.21501E-06  7384   0.752E-03    0.136E-02
DAV:  45    -0.147636514982E+03   -0.76184E-05   -0.98949E-07  5896   0.617E-03    0.116E-02
DAV:  46    -0.147636522331E+03   -0.73490E-05   -0.11780E-06  6088   0.594E-03    0.978E-03
DAV:  47    -0.147636525594E+03   -0.32631E-05   -0.14088E-06  5768   0.424E-03    0.889E-03
DAV:  48    -0.147636525554E+03    0.39885E-07   -0.50684E-07  5432   0.339E-03
   1 F= -.15378729E+03 E0= -.15377920E+03  d E =-.153787E+03  mag=    30.0013
 curvature:   0.00 expect dE= 0.000E+00 dE for cont linesearch  0.000E+00
 trial: gam= 0.00000 g(F)=  0.634E-02 g(S)=  0.000E+00 ort = 0.000E+00 (trialstep = 0.100E+01)
 search vector abs. value=  0.634E-02
 bond charge predicted
       N       E                     dE             d eps       ncg     rms          rms(c)
DAV:   1    -0.147637585762E+03   -0.10602E-02   -0.59405E-01  8208   0.152E+00    0.533E-01
DAV:   2    -0.147642404018E+03   -0.48183E-02   -0.38135E-02 11216   0.712E-01    0.279E-01
DAV:   3    -0.147643090646E+03   -0.68663E-03   -0.12585E-03 11528   0.194E-01    0.154E-01
DAV:   4    -0.147643024756E+03    0.65889E-04   -0.14388E-04 11992   0.496E-02    0.108E-01
DAV:   5    -0.147642992177E+03    0.32579E-04   -0.11033E-04 10560   0.308E-02    0.735E-02
DAV:   6    -0.147643039524E+03   -0.47347E-04   -0.14412E-04 11576   0.475E-02    0.503E-02
DAV:   7    -0.147643067459E+03   -0.27935E-04   -0.35788E-05 11680   0.414E-02    0.175E-02
DAV:   8    -0.147643098784E+03   -0.31325E-04   -0.11428E-05  8144   0.120E-02    0.255E-02
DAV:   9    -0.147643113967E+03   -0.15182E-04   -0.99097E-06  7960   0.186E-02    0.186E-02
DAV:  10    -0.147643125517E+03   -0.11551E-04   -0.50239E-06  6056   0.138E-02    0.143E-02
DAV:  11    -0.147643135172E+03   -0.96553E-05   -0.72252E-06  7160   0.862E-03    0.111E-02
DAV:  12    -0.147643140947E+03   -0.57745E-05   -0.62766E-06  5864   0.778E-03    0.145E-02
DAV:  13    -0.147643145930E+03   -0.49829E-05   -0.80244E-06  6400   0.934E-03    0.932E-03
DAV:  14    -0.147643150921E+03   -0.49908E-05   -0.10796E-05  6128   0.689E-03    0.850E-03
DAV:  15    -0.147643154578E+03   -0.36574E-05   -0.65679E-06  6560   0.656E-03    0.958E-03
DAV:  16    -0.147643157152E+03   -0.25740E-05   -0.21932E-05  5944   0.887E-03    0.801E-03
DAV:  17    -0.147643161379E+03   -0.42274E-05   -0.26214E-05  7992   0.946E-03    0.711E-03
DAV:  18    -0.147643166024E+03   -0.46446E-05   -0.18993E-05  6712   0.752E-03    0.757E-03
DAV:  19    -0.147643165661E+03    0.36342E-06   -0.59245E-05  7808   0.130E-02    0.654E-03
DAV:  20    -0.147643161683E+03    0.39773E-05   -0.11719E-04 10224   0.179E-02    0.699E-03
DAV:  21    -0.147643146688E+03    0.14995E-04   -0.25766E-04 10608   0.263E-02    0.519E-03
DAV:  22    -0.147643154649E+03   -0.79609E-05   -0.14270E-04 10168   0.194E-02    0.715E-03
DAV:  23    -0.147643159157E+03   -0.45083E-05   -0.10590E-04  8536   0.167E-02    0.463E-03
DAV:  24    -0.147643160389E+03   -0.12318E-05   -0.96563E-05  9712   0.155E-02    0.310E-03
DAV:  25    -0.147643170160E+03   -0.97711E-05   -0.29702E-05  7608   0.896E-03    0.204E-03
DAV:  26    -0.147643175641E+03   -0.54807E-05   -0.19652E-05  6232   0.712E-03    0.322E-03
DAV:  27    -0.147643179412E+03   -0.37718E-05   -0.12577E-05  6352   0.553E-03    0.160E-03
DAV:  28    -0.147643183858E+03   -0.44461E-05   -0.33975E-06  5816   0.323E-03    0.154E-03
DAV:  29    -0.147643186971E+03   -0.31129E-05   -0.32059E-07  5104   0.201E-03    0.104E-03
DAV:  30    -0.147643187473E+03   -0.50199E-06   -0.64577E-08  5136   0.103E-03
   2 F= -.15379227E+03 E0= -.15378420E+03  d E =-.498731E-02  mag=    30.0000
 trial-energy change:   -0.004987  1 .order   -0.004955   -0.006342   -0.003567
 step:   2.1186(harm=  2.2856)  dis= 0.01185  next Energy=  -153.794313 (dE=-0.703E-02)
 bond charge predicted
       N       E                     dE             d eps       ncg     rms          rms(c)
DAV:   1    -0.147640398339E+03    0.27886E-02   -0.74327E-01  7936   0.170E+00    0.594E-01
DAV:   2    -0.147646451164E+03   -0.60528E-02   -0.47648E-02 11352   0.794E-01    0.312E-01
DAV:   3    -0.147647299971E+03   -0.84881E-03   -0.15467E-03 11512   0.216E-01    0.171E-01
DAV:   4    -0.147647219340E+03    0.80630E-04   -0.17840E-04 11976   0.584E-02    0.119E-01
DAV:   5    -0.147647176305E+03    0.43035E-04   -0.11356E-04 11296   0.373E-02    0.854E-02
DAV:   6    -0.147647219716E+03   -0.43411E-04   -0.14070E-04 11528   0.526E-02    0.435E-02
DAV:   7    -0.147647258578E+03   -0.38862E-04   -0.35690E-05 11600   0.347E-02    0.168E-02
DAV:   8    -0.147647287604E+03   -0.29025E-04   -0.58103E-06  8280   0.142E-02    0.244E-02
DAV:   9    -0.147647302857E+03   -0.15253E-04   -0.64440E-06  8432   0.216E-02    0.126E-02
DAV:  10    -0.147647315890E+03   -0.13033E-04   -0.18690E-06  6248   0.107E-02    0.109E-02
DAV:  11    -0.147647324832E+03   -0.89424E-05   -0.16782E-06  5984   0.737E-03    0.641E-03
DAV:  12    -0.147647330157E+03   -0.53247E-05   -0.12868E-06  5688   0.540E-03    0.794E-03
DAV:  13    -0.147647332124E+03   -0.19672E-05   -0.99880E-07  5240   0.614E-03    0.617E-03
DAV:  14    -0.147647334182E+03   -0.20578E-05   -0.70526E-07  5344   0.418E-03    0.401E-03
DAV:  15    -0.147647336238E+03   -0.20564E-05   -0.61019E-07  5128   0.403E-03    0.529E-03
DAV:  16    -0.147647338030E+03   -0.17919E-05   -0.59656E-07  5288   0.322E-03    0.336E-03
DAV:  17    -0.147647339617E+03   -0.15866E-05   -0.39593E-07  5184   0.261E-03    0.151E-03
DAV:  18    -0.147647340948E+03   -0.13317E-05   -0.35559E-07  5096   0.174E-03    0.407E-03
DAV:  19    -0.147647341772E+03   -0.82384E-06   -0.25446E-07  5144   0.192E-03
   3 F= -.15379455E+03 E0= -.15378647E+03  d E =-.726246E-02  mag=    30.0000
 curvature:  -1.12 expect dE=-0.209E-02 dE for cont linesearch -0.492E-04
 ZBRENT: extrapolating
 opt :   2.3123  next Energy=  -153.794599 (dE=-0.731E-02)
 bond charge predicted
       N       E                     dE             d eps       ncg     rms          rms(c)
DAV:   1    -0.147647512277E+03   -0.17133E-03   -0.22309E-02  8096   0.294E-01    0.104E-01
DAV:   2    -0.147647672844E+03   -0.16057E-03   -0.14062E-03 11088   0.135E-01    0.532E-02
DAV:   3    -0.147647713869E+03   -0.41026E-04   -0.48352E-05 11360   0.383E-02    0.304E-02
DAV:   4    -0.147647711107E+03    0.27621E-05   -0.48476E-06  9088   0.115E-02    0.215E-02
DAV:   5    -0.147647709724E+03    0.13827E-05   -0.31779E-06  6696   0.772E-03    0.168E-02
DAV:   6    -0.147647711054E+03   -0.13298E-05   -0.82505E-06 10248   0.112E-02    0.936E-03
DAV:   7    -0.147647713714E+03   -0.26602E-05   -0.15192E-06  5568   0.813E-03    0.790E-03
DAV:   8    -0.147647715127E+03   -0.14121E-05   -0.63706E-07  5256   0.664E-03    0.354E-03
DAV:   9    -0.147647717116E+03   -0.19891E-05   -0.43185E-07  5288   0.434E-03    0.402E-03
DAV:  10    -0.147647718388E+03   -0.12724E-05   -0.40712E-07  5288   0.413E-03    0.274E-03
DAV:  11    -0.147647718890E+03   -0.50206E-06   -0.32995E-07  5400   0.250E-03
   4 F= -.15379460E+03 E0= -.15378652E+03  d E =-.731339E-02  mag=    30.0000
 curvature:  -1.17 expect dE=-0.251E-02 dE for cont linesearch -0.665E-07
 trial: gam= 0.34220 g(F)=  0.215E-02 g(S)=  0.000E+00 ort =-0.190E-04 (trialstep = 0.126E+01)
 search vector abs. value=  0.288E-02
 bond charge predicted
       N       E                     dE             d eps       ncg     rms          rms(c)
DAV:   1    -0.147647488681E+03    0.22971E-03   -0.42575E-01  7936   0.129E+00    0.438E-01
DAV:   2    -0.147650773217E+03   -0.32845E-02   -0.32462E-02 11232   0.665E-01    0.245E-01
DAV:   3    -0.147650908036E+03   -0.13482E-03   -0.95803E-04 11352   0.197E-01    0.148E-01
DAV:   4    -0.147650862695E+03    0.45341E-04   -0.11610E-04 11888   0.571E-02    0.105E-01
DAV:   5    -0.147650833143E+03    0.29552E-04   -0.63784E-05 11864   0.303E-02    0.852E-02
DAV:   6    -0.147650828818E+03    0.43250E-05   -0.80877E-05 11968   0.643E-02    0.803E-02
DAV:   7    -0.147650838168E+03   -0.93500E-05   -0.52710E-05 11696   0.471E-02    0.408E-02
DAV:   8    -0.147650853482E+03   -0.15314E-04   -0.21022E-05 10872   0.238E-02    0.309E-02
DAV:   9    -0.147650865971E+03   -0.12489E-04   -0.13038E-05  9536   0.245E-02    0.195E-02
DAV:  10    -0.147650879590E+03   -0.13620E-04   -0.10971E-05  7296   0.192E-02    0.303E-02
DAV:  11    -0.147650882199E+03   -0.26086E-05   -0.30811E-06  6560   0.126E-02    0.147E-02
DAV:  12    -0.147650886606E+03   -0.44075E-05   -0.21238E-06  5624   0.778E-03    0.135E-02
DAV:  13    -0.147650890810E+03   -0.42040E-05   -0.23392E-06  5672   0.101E-02    0.842E-03
DAV:  14    -0.147650894092E+03   -0.32814E-05   -0.19672E-06  5864   0.628E-03    0.103E-02
DAV:  15    -0.147650894834E+03   -0.74228E-06   -0.10210E-06  5248   0.404E-03
   5 F= -.15379655E+03 E0= -.15378854E+03  d E =-.194669E-02  mag=    30.0000
 trial-energy change:   -0.001947  1 .order   -0.001934   -0.002708   -0.001161
 step:   2.1386(harm=  2.2100)  dis= 0.00667  next Energy=  -153.796952 (dE=-0.235E-02)
 bond charge predicted
       N       E                     dE             d eps       ncg     rms          rms(c)
DAV:   1    -0.147650570642E+03    0.32345E-03   -0.20509E-01  7968   0.896E-01    0.305E-01
DAV:   2    -0.147652133295E+03   -0.15627E-02   -0.15546E-02 11336   0.463E-01    0.181E-01
DAV:   3    -0.147652202990E+03   -0.69695E-04   -0.51871E-04 11288   0.162E-01    0.121E-01
DAV:   4    -0.147652182041E+03    0.20950E-04   -0.73677E-05 11864   0.676E-02    0.757E-02
DAV:   5    -0.147652169411E+03    0.12630E-04   -0.37144E-05 11648   0.233E-02    0.769E-02
DAV:   6    -0.147652164779E+03    0.46320E-05   -0.30694E-05 11048   0.440E-02    0.590E-02
DAV:   7    -0.147652164289E+03    0.48955E-06   -0.54274E-05 11416   0.294E-02    0.353E-02
DAV:   8    -0.147652175394E+03   -0.11105E-04   -0.15383E-05 10824   0.187E-02    0.172E-02
DAV:   9    -0.147652184287E+03   -0.88927E-05   -0.47206E-06  6208   0.133E-02    0.178E-02
DAV:  10    -0.147652191018E+03   -0.67309E-05   -0.38792E-06  7016   0.117E-02    0.100E-02
DAV:  11    -0.147652196262E+03   -0.52443E-05   -0.28482E-06  5744   0.951E-03    0.142E-02
DAV:  12    -0.147652199520E+03   -0.32581E-05   -0.18389E-06  5784   0.941E-03    0.103E-02
DAV:  13    -0.147652202133E+03   -0.26130E-05   -0.24240E-06  5224   0.542E-03    0.813E-03
DAV:  14    -0.147652204294E+03   -0.21606E-05   -0.15616E-06  5696   0.551E-03    0.339E-03
DAV:  15    -0.147652205873E+03   -0.15789E-05   -0.15144E-06  5224   0.325E-03    0.814E-03
DAV:  16    -0.147652206486E+03   -0.61327E-06   -0.78331E-07  5152   0.349E-03
   6 F= -.15379700E+03 E0= -.15378904E+03  d E =-.240414E-02  mag=    30.0000
 curvature:  -1.48 expect dE=-0.960E-03 dE for cont linesearch -0.480E-05
 trial: gam= 0.25980 g(F)=  0.651E-03 g(S)=  0.000E+00 ort = 0.968E-04 (trialstep = 0.144E+01)
 search vector abs. value=  0.896E-03
 bond charge predicted
       N       E                     dE             d eps       ncg     rms          rms(c)
DAV:   1    -0.147651395414E+03    0.81046E-03   -0.16870E-01  7968   0.811E-01    0.289E-01
DAV:   2    -0.147652613374E+03   -0.12180E-02   -0.13110E-02 11376   0.452E-01    0.202E-01
DAV:   3    -0.147652693576E+03   -0.80202E-04   -0.72219E-04 11560   0.225E-01    0.105E-01
DAV:   4    -0.147652682905E+03    0.10671E-04   -0.83053E-05 11368   0.331E-02    0.846E-02
DAV:   5    -0.147652676906E+03    0.59993E-05   -0.20473E-05 10512   0.355E-02    0.635E-02
DAV:   6    -0.147652671061E+03    0.58448E-05   -0.46452E-05 11016   0.184E-02    0.812E-02
DAV:   7    -0.147652669444E+03    0.16174E-05   -0.69485E-05 11920   0.411E-02    0.626E-02
DAV:   8    -0.147652672708E+03   -0.32641E-05   -0.26272E-05 11608   0.241E-02    0.345E-02
DAV:   9    -0.147652676097E+03   -0.33894E-05   -0.58395E-06  7544   0.171E-02    0.382E-02
DAV:  10    -0.147652680407E+03   -0.43091E-05   -0.72692E-06  5520   0.124E-02    0.217E-02
DAV:  11    -0.147652687847E+03   -0.74405E-05   -0.61381E-06  7336   0.146E-02    0.110E-02
DAV:  12    -0.147652695448E+03   -0.76012E-05   -0.75208E-06  6136   0.112E-02    0.239E-02
DAV:  13    -0.147652696205E+03   -0.75705E-06   -0.24646E-06  6168   0.902E-03
   7 F= -.15379783E+03 E0= -.15378998E+03  d E =-.829405E-03  mag=    30.0000
 trial-energy change:   -0.000829  1 .order   -0.000807   -0.000972   -0.000642
 step:   2.9635(harm=  4.2412)  dis= 0.00481  next Energy=  -153.798200 (dE=-0.120E-02)
 bond charge predicted
       N       E                     dE             d eps       ncg     rms          rms(c)
DAV:   1    -0.147651409976E+03    0.12855E-02   -0.19020E-01  7952   0.861E-01    0.306E-01
DAV:   2    -0.147652799524E+03   -0.13895E-02   -0.14740E-02 11232   0.467E-01    0.193E-01
DAV:   3    -0.147652875838E+03   -0.76314E-04   -0.67017E-04 11504   0.204E-01    0.106E-01
DAV:   4    -0.147652860831E+03    0.15007E-04   -0.77163E-05 11736   0.344E-02    0.804E-02
DAV:   5    -0.147652855522E+03    0.53084E-05   -0.21197E-05 11024   0.365E-02    0.672E-02
DAV:   6    -0.147652846854E+03    0.86686E-05   -0.46693E-05 11136   0.216E-02    0.716E-02
DAV:   7    -0.147652848854E+03   -0.20002E-05   -0.56616E-05 11848   0.417E-02    0.554E-02
DAV:   8    -0.147652855298E+03   -0.64445E-05   -0.18633E-05 11440   0.201E-02    0.457E-02
DAV:   9    -0.147652857308E+03   -0.20099E-05   -0.53833E-06  7328   0.184E-02    0.447E-02
DAV:  10    -0.147652863451E+03   -0.61427E-05   -0.96755E-06  6136   0.158E-02    0.181E-02
DAV:  11    -0.147652876665E+03   -0.13214E-04   -0.16880E-05  8424   0.150E-02    0.380E-02
DAV:  12    -0.147652880812E+03   -0.41472E-05   -0.65468E-06  6920   0.127E-02    0.275E-02
DAV:  13    -0.147652883009E+03   -0.21961E-05   -0.31413E-06  5896   0.888E-03    0.121E-02
DAV:  14    -0.147652886301E+03   -0.32926E-05   -0.27811E-06  5224   0.520E-03    0.699E-03
DAV:  15    -0.147652889082E+03   -0.27810E-05   -0.30555E-06  5632   0.528E-03    0.123E-02
DAV:  16    -0.147652890085E+03   -0.10032E-05   -0.27095E-06  5096   0.593E-03    0.575E-03
DAV:  17    -0.147652891379E+03   -0.12938E-05   -0.24223E-06  5704   0.367E-03    0.593E-03
DAV:  18    -0.147652892153E+03   -0.77371E-06   -0.18056E-06  5280   0.314E-03
   8 F= -.15379839E+03 E0= -.15379065E+03  d E =-.138515E-02  mag=    30.0000
 curvature:  -2.23 expect dE=-0.683E-03 dE for cont linesearch -0.139E-03
 trial: gam= 0.16953 g(F)=  0.307E-03 g(S)=  0.000E+00 ort = 0.236E-03 (trialstep = 0.174E+01)
 search vector abs. value=  0.413E-03
 reached required accuracy - stopping structural energy minimisation
Note: The following floating-point exceptions are signalling: IEEE_OVERFLOW_FLAG IEEE_UNDERFLOW_FLAG IEEE_DENORMAL
Note: The following floating-point exceptions are signalling: IEEE_OVERFLOW_FLAG IEEE_UNDERFLOW_FLAG IEEE_DENORMAL
Note: The following floating-point exceptions are signalling: IEEE_OVERFLOW_FLAG IEEE_UNDERFLOW_FLAG IEEE_DENORMAL
Note: The following floating-point exceptions are signalling: IEEE_OVERFLOW_FLAG IEEE_UNDERFLOW_FLAG IEEE_DENORMAL
Note: The following floating-point exceptions are signalling: IEEE_OVERFLOW_FLAG IEEE_UNDERFLOW_FLAG IEEE_DENORMAL
Note: The following floating-point exceptions are signalling: IEEE_OVERFLOW_FLAG IEEE_UNDERFLOW_FLAG IEEE_DENORMAL
Note: The following floating-point exceptions are signalling: IEEE_OVERFLOW_FLAG IEEE_UNDERFLOW_FLAG IEEE_DENORMAL
Note: The following floating-point exceptions are signalling: IEEE_OVERFLOW_FLAG IEEE_UNDERFLOW_FLAG IEEE_DENORMAL
Note: The following floating-point exceptions are signalling: IEEE_OVERFLOW_FLAG IEEE_UNDERFLOW_FLAG IEEE_DENORMAL
Note: The following floating-point exceptions are signalling: IEEE_OVERFLOW_FLAG IEEE_UNDERFLOW_FLAG IEEE_DENORMAL
Note: The following floating-point exceptions are signalling: IEEE_OVERFLOW_FLAG IEEE_UNDERFLOW_FLAG IEEE_DENORMAL
Note: The following floating-point exceptions are signalling: IEEE_OVERFLOW_FLAG IEEE_UNDERFLOW_FLAG IEEE_DENORMAL
Note: The following floating-point exceptions are signalling: IEEE_OVERFLOW_FLAG IEEE_UNDERFLOW_FLAG IEEE_DENORMAL
Note: The following floating-point exceptions are signalling: IEEE_OVERFLOW_FLAG IEEE_UNDERFLOW_FLAG IEEE_DENORMAL
Note: The following floating-point exceptions are signalling: IEEE_OVERFLOW_FLAG IEEE_UNDERFLOW_FLAG IEEE_DENORMAL
Note: The following floating-point exceptions are signalling: IEEE_OVERFLOW_FLAG IEEE_UNDERFLOW_FLAG IEEE_DENORMAL
Note: The following floating-point exceptions are signalling: IEEE_OVERFLOW_FLAG IEEE_UNDERFLOW_FLAG IEEE_DENORMAL
Note: The following floating-point exceptions are signalling: IEEE_OVERFLOW_FLAG IEEE_UNDERFLOW_FLAG IEEE_DENORMAL
Note: The following floating-point exceptions are signalling: IEEE_OVERFLOW_FLAG IEEE_UNDERFLOW_FLAG IEEE_DENORMAL
Note: The following floating-point exceptions are signalling: IEEE_OVERFLOW_FLAG IEEE_UNDERFLOW_FLAG IEEE_DENORMAL
Note: The following floating-point exceptions are signalling: IEEE_OVERFLOW_FLAG IEEE_UNDERFLOW_FLAG IEEE_DENORMAL
Note: The following floating-point exceptions are signalling: IEEE_OVERFLOW_FLAG IEEE_UNDERFLOW_FLAG IEEE_DENORMAL
Note: The following floating-point exceptions are signalling: IEEE_OVERFLOW_FLAG IEEE_UNDERFLOW_FLAG IEEE_DENORMAL
Note: The following floating-point exceptions are signalling: IEEE_OVERFLOW_FLAG IEEE_UNDERFLOW_FLAG IEEE_DENORMAL
Note: The following floating-point exceptions are signalling: IEEE_OVERFLOW_FLAG IEEE_UNDERFLOW_FLAG IEEE_DENORMAL
Note: The following floating-point exceptions are signalling: IEEE_OVERFLOW_FLAG IEEE_UNDERFLOW_FLAG IEEE_DENORMAL
Note: The following floating-point exceptions are signalling: IEEE_OVERFLOW_FLAG IEEE_UNDERFLOW_FLAG IEEE_DENORMAL
Note: The following floating-point exceptions are signalling: IEEE_OVERFLOW_FLAG IEEE_UNDERFLOW_FLAG IEEE_DENORMAL
Note: The following floating-point exceptions are signalling: IEEE_OVERFLOW_FLAG IEEE_UNDERFLOW_FLAG IEEE_DENORMAL
Note: The following floating-point exceptions are signalling: IEEE_OVERFLOW_FLAG IEEE_UNDERFLOW_FLAG IEEE_DENORMAL
Note: The following floating-point exceptions are signalling: IEEE_OVERFLOW_FLAG IEEE_UNDERFLOW_FLAG IEEE_DENORMAL
Note: The following floating-point exceptions are signalling: IEEE_OVERFLOW_FLAG IEEE_UNDERFLOW_FLAG IEEE_DENORMAL
