CrCl3 2x2 + Co | Bands U_Cr | In-Plane Embedded Interstitial (z=0.00A)
   1.0000000000000000     
    12.1343886061900470    0.0033722835295982    0.0000000000000000
    -6.0642738577024948   10.5103973726591580    0.0000000000000000
     0.0000000000000000    0.0000000000000000   17.6887664794999999
   Cr   Cl   Co
     8    24     1
Direct
  0.1515502846848319  0.3367538479937201  0.3374484560476459
  0.1604655423788138  0.8418172684793431  0.3379654895745470
  0.6583931502623651  0.3392068346692663  0.3370403484945240
  0.6595896984910152  0.8450772212232385  0.3370558422175073
  0.8226584542824545  0.1737075834863084  0.3367594463258953
  0.8322464292998419  0.6797496673166722  0.3374312552750981
  0.3243374272926944  0.1711442838731765  0.3373989090256706
  0.3257818120705084  0.6772232144059687  0.3379113872709372
  0.1713012105870644  0.5111574215290794  0.2630192098416811
  0.1717755256702007  0.0091744559211582  0.2608923304445443
  0.6516703342998453  0.4979459141869665  0.2591466897453217
  0.6637019730451161  0.0055143385438760  0.2606857845680908
  0.3287007824759577  0.3369926239667651  0.2605004057493719
  0.3177151008395492  0.8311612543819763  0.2608281140822931
  0.8112954689848697  0.3302802038476757  0.2604794382858231
  0.8144666322725354  0.8343723255195126  0.2620873707845477
  0.9771956895902821  0.1783234632302921  0.2557287332217594
  0.0022595096382090  0.6905148869038779  0.2581535027327535
  0.4914166888975516  0.1797805644615737  0.2630016903086612
  0.4926130957439676  0.6806232635884734  0.2601423394571057
  0.9801831944804670  0.3243331139103225  0.4169620764686341
  0.0061184596909311  0.8381307497296521  0.4189034240532210
  0.4912583815812496  0.3356618562221140  0.4144691535639799
  0.4931340089617869  0.8367341561805143  0.4118289202717720
  0.3331590535229999  0.5186580183781467  0.4155660995483803
  0.3194709095330009  0.0102567587486494  0.4137473154546375
  0.8128958647659310  0.5054670965080911  0.4120040148758996
  0.8122734938901436  0.0067780998323055  0.4135894028819421
  0.1696264611637356  0.1818976934476054  0.4125399734593864
  0.1726159644233324  0.6858978430783335  0.4145624877378210
  0.6651130019394246  0.1844050260939719  0.4139002692437938
  0.6559701260574926  0.6796257693712122  0.4141605038652778
  0.4923764281818647  0.5082975129701013  0.3373296621214775

  0.00000000E+00  0.00000000E+00  0.00000000E+00
  0.00000000E+00  0.00000000E+00  0.00000000E+00
  0.00000000E+00  0.00000000E+00  0.00000000E+00
  0.00000000E+00  0.00000000E+00  0.00000000E+00
  0.00000000E+00  0.00000000E+00  0.00000000E+00
  0.00000000E+00  0.00000000E+00  0.00000000E+00
  0.00000000E+00  0.00000000E+00  0.00000000E+00
  0.00000000E+00  0.00000000E+00  0.00000000E+00
  0.00000000E+00  0.00000000E+00  0.00000000E+00
  0.00000000E+00  0.00000000E+00  0.00000000E+00
  0.00000000E+00  0.00000000E+00  0.00000000E+00
  0.00000000E+00  0.00000000E+00  0.00000000E+00
  0.00000000E+00  0.00000000E+00  0.00000000E+00
  0.00000000E+00  0.00000000E+00  0.00000000E+00
  0.00000000E+00  0.00000000E+00  0.00000000E+00
  0.00000000E+00  0.00000000E+00  0.00000000E+00
  0.00000000E+00  0.00000000E+00  0.00000000E+00
  0.00000000E+00  0.00000000E+00  0.00000000E+00
  0.00000000E+00  0.00000000E+00  0.00000000E+00
  0.00000000E+00  0.00000000E+00  0.00000000E+00
  0.00000000E+00  0.00000000E+00  0.00000000E+00
  0.00000000E+00  0.00000000E+00  0.00000000E+00
  0.00000000E+00  0.00000000E+00  0.00000000E+00
  0.00000000E+00  0.00000000E+00  0.00000000E+00
  0.00000000E+00  0.00000000E+00  0.00000000E+00
  0.00000000E+00  0.00000000E+00  0.00000000E+00
  0.00000000E+00  0.00000000E+00  0.00000000E+00
  0.00000000E+00  0.00000000E+00  0.00000000E+00
  0.00000000E+00  0.00000000E+00  0.00000000E+00
  0.00000000E+00  0.00000000E+00  0.00000000E+00
  0.00000000E+00  0.00000000E+00  0.00000000E+00
  0.00000000E+00  0.00000000E+00  0.00000000E+00
  0.00000000E+00  0.00000000E+00  0.00000000E+00
