CrCl3 2x2 + Fe S3 top-Cr (no_vdw, U=0) (
   1.0000000000000000     
    12.0925489970493256    0.0000000000000000    0.0000000000000000
    -6.0462744985246628   10.4724546279527502    0.0000000000000000
     0.0000000000000000    0.0000000000000000   20.0000000000000000
   Cr   Cl   Fe
     8    24     1
Direct
  0.1649388403469229  0.3343017035349793  0.4995606056732262
  0.3274091014903109  0.1656191094404673  0.4987623434379065
  0.6666666666666714  0.3333333333333286  0.4974426211295105
  0.8343808905595325  0.1617899920498578  0.4987623434379065
  0.1693628631880706  0.8350611596530771  0.4995606056732262
  0.3333333333333286  0.6666666666666714  0.5005569009480922
  0.6656982964650209  0.8306371368119295  0.4995606056732262
  0.8382100079501421  0.6725908985096891  0.4987623434379065
  0.1783487285468762  0.5018315500304298  0.4336454748803464
  0.4988430456970155  0.1842790601499078  0.4332614931632340
  0.3209137538845306  0.3238775853035833  0.4336101814492601
  0.3172844801556340  0.4996205900075019  0.5681782719609278
 -0.0030370480766759  0.3177063594519916  0.5671416404113165
  0.1743478553628257  0.1783736618948283  0.5663187674331237
  0.6854360144528924  0.5011569543029846  0.4332614931632340
  0.0047729431133560  0.1825243742216702  0.4302327564395343
  0.8157209398500922  0.3145639855471077  0.4332614931632340
  0.8356888342206211  0.4999251013929352  0.5711178767571918
  0.5000748986070649  0.3357637328276861  0.5711178767571918
  0.6642362671723138  0.1643111657793787  0.5711178767571918
  0.1777514311083140 -0.0047729431133560  0.4302327564395343
  0.4981684499695703  0.6765171785164467  0.4336454748803464
  0.3234828214835533  0.8216512714531238  0.4336454748803464
  0.3207434075286676  0.0030370480766759  0.5671416404113165
  0.0040258065320027  0.8256521446371747  0.5663187674331237
  0.1823361098518677  0.6827155198443661  0.5681782719609278
  0.6761224146964167 -0.0029638314190526  0.4336101814492601
  0.0029638314190526  0.6790862461154693  0.4336101814492601
  0.8174756257783299  0.8222485688916857  0.4302327564395343
  0.8216263381051718 -0.0040258065320027  0.5663187674331237
  0.5003794099924984  0.8176638901481319  0.5681782719609278
  0.6822936405480083  0.6792565924713325  0.5671416404113165
  0.6666666666666714  0.3333333333333286  0.6215122431041961

  0.00000000E+00  0.00000000E+00  0.00000000E+00
  0.00000000E+00  0.00000000E+00  0.00000000E+00
  0.00000000E+00  0.00000000E+00  0.00000000E+00
  0.00000000E+00  0.00000000E+00  0.00000000E+00
  0.00000000E+00  0.00000000E+00  0.00000000E+00
  0.00000000E+00  0.00000000E+00  0.00000000E+00
  0.00000000E+00  0.00000000E+00  0.00000000E+00
  0.00000000E+00  0.00000000E+00  0.00000000E+00
  0.00000000E+00  0.00000000E+00  0.00000000E+00
  0.00000000E+00  0.00000000E+00  0.00000000E+00
  0.00000000E+00  0.00000000E+00  0.00000000E+00
  0.00000000E+00  0.00000000E+00  0.00000000E+00
  0.00000000E+00  0.00000000E+00  0.00000000E+00
  0.00000000E+00  0.00000000E+00  0.00000000E+00
  0.00000000E+00  0.00000000E+00  0.00000000E+00
  0.00000000E+00  0.00000000E+00  0.00000000E+00
  0.00000000E+00  0.00000000E+00  0.00000000E+00
  0.00000000E+00  0.00000000E+00  0.00000000E+00
  0.00000000E+00  0.00000000E+00  0.00000000E+00
  0.00000000E+00  0.00000000E+00  0.00000000E+00
  0.00000000E+00  0.00000000E+00  0.00000000E+00
  0.00000000E+00  0.00000000E+00  0.00000000E+00
  0.00000000E+00  0.00000000E+00  0.00000000E+00
  0.00000000E+00  0.00000000E+00  0.00000000E+00
  0.00000000E+00  0.00000000E+00  0.00000000E+00
  0.00000000E+00  0.00000000E+00  0.00000000E+00
  0.00000000E+00  0.00000000E+00  0.00000000E+00
  0.00000000E+00  0.00000000E+00  0.00000000E+00
  0.00000000E+00  0.00000000E+00  0.00000000E+00
  0.00000000E+00  0.00000000E+00  0.00000000E+00
  0.00000000E+00  0.00000000E+00  0.00000000E+00
  0.00000000E+00  0.00000000E+00  0.00000000E+00
  0.00000000E+00  0.00000000E+00  0.00000000E+00
