 running on   64 total cores
 distrk:  each k-point on   64 cores,    1 groups
 distr:  one band on    8 cores,    8 groups
 vasp.6.2.0 18Jan21 (build Jul 28 2023 11:58:00) complex                         
 POSCAR found type information on POSCAR CrClFe
 POSCAR found :  3 types and      33 ions
 scaLAPACK will be used
 LDA part: xc-table for Pade appr. of Perdew
 POSCAR, INCAR and KPOINTS ok, starting setup
 FFT: planning ...
 WAVECAR not read
 entering main loop
       N       E                     dE             d eps       ncg     rms          rms(c)
DAV:   1     0.211988146667E+04    0.21199E+04   -0.64102E+04  3096   0.905E+02
DAV:   2     0.408915136172E+03   -0.17110E+04   -0.15793E+04  3616   0.247E+02
DAV:   3    -0.133457116038E+03   -0.54237E+03   -0.52624E+03  4480   0.138E+02
DAV:   4    -0.175589951632E+03   -0.42133E+02   -0.41461E+02  4680   0.541E+01
DAV:   5    -0.176345853035E+03   -0.75590E+00   -0.74786E+00  4664   0.958E+00    0.414E+01
DAV:   6    -0.168428080195E+03    0.79178E+01   -0.14562E+02  4520   0.624E+01    0.503E+01
DAV:   7    -0.179612830845E+03   -0.11185E+02   -0.62223E+01  4352   0.712E+01    0.742E+01
DAV:   8    -0.160779967103E+03    0.18833E+02   -0.59472E+01  4504   0.409E+01    0.290E+01
DAV:   9    -0.185603512512E+03   -0.24824E+02   -0.61830E+01  4536   0.555E+01    0.741E+01
DAV:  10    -0.159864655120E+03    0.25739E+02   -0.10067E+01  4456   0.330E+01    0.277E+01
DAV:  11    -0.162653200430E+03   -0.27885E+01   -0.25986E+01  4448   0.275E+01    0.422E+01
DAV:  12    -0.155867926150E+03    0.67853E+01   -0.43793E+00  4592   0.178E+01    0.233E+01
DAV:  13    -0.156524641673E+03   -0.65672E+00   -0.44613E+01  4416   0.121E+01    0.219E+01
DAV:  14    -0.154887471833E+03    0.16372E+01   -0.11322E+00  4384   0.702E+00    0.154E+01
DAV:  15    -0.155500180910E+03   -0.61271E+00   -0.92908E+00  4504   0.312E+00    0.131E+01
DAV:  16    -0.155592349653E+03   -0.92169E-01   -0.81506E-01  4048   0.142E+00    0.135E+01
DAV:  17    -0.155610802754E+03   -0.18453E-01   -0.29580E+00  4288   0.151E+00    0.113E+01
DAV:  18    -0.155566872839E+03    0.43930E-01   -0.17216E-01  4328   0.113E+00    0.925E+00
DAV:  19    -0.155616281557E+03   -0.49409E-01   -0.31792E-02  4104   0.648E-01    0.798E+00
DAV:  20    -0.155626465310E+03   -0.10184E-01   -0.28580E-03  4232   0.204E-01    0.820E+00
DAV:  21    -0.155747965604E+03   -0.12150E+00   -0.39501E-01  4432   0.118E+00    0.888E+00
DAV:  22    -0.156289852006E+03   -0.54189E+00   -0.13959E+00  4416   0.229E+00    0.731E+00
DAV:  23    -0.156740225571E+03   -0.45037E+00   -0.93726E-02  4256   0.102E+00    0.755E+00
DAV:  24    -0.156915675514E+03   -0.17545E+00   -0.68114E-01  4272   0.123E+00    0.947E+00
DAV:  25    -0.157297739520E+03   -0.38206E+00   -0.14938E-01  4384   0.135E+00    0.133E+01
DAV:  26    -0.157155150885E+03    0.14259E+00   -0.20439E-02  3592   0.591E-01    0.134E+01
DAV:  27    -0.157019994856E+03    0.13516E+00   -0.78050E-02  4304   0.549E-01    0.131E+01
DAV:  28    -0.156996101785E+03    0.23893E-01   -0.35790E-01  4336   0.105E+00    0.112E+01
DAV:  29    -0.157288388152E+03   -0.29229E+00   -0.48580E-01  4248   0.167E+00    0.755E+00
DAV:  30    -0.157852381902E+03   -0.56399E+00   -0.57825E-01  4248   0.142E+00    0.102E+01
DAV:  31    -0.157987208847E+03   -0.13483E+00   -0.18244E-01  4328   0.800E-01    0.108E+01
DAV:  32    -0.158012973959E+03   -0.25765E-01   -0.83868E-02  4184   0.568E-01    0.752E+00
DAV:  33    -0.158192217868E+03   -0.17924E+00   -0.83319E-01  4264   0.777E-01    0.601E+00
DAV:  34    -0.158261913086E+03   -0.69695E-01   -0.27093E-01  4376   0.814E-01    0.509E+00
DAV:  35    -0.158352250655E+03   -0.90338E-01   -0.71624E-02  4208   0.624E-01    0.327E+00
DAV:  36    -0.158431740232E+03   -0.79490E-01   -0.36162E-02  4440   0.489E-01    0.195E+00
DAV:  37    -0.158474947682E+03   -0.43207E-01   -0.47191E-02  4384   0.266E-01    0.271E+00
DAV:  38    -0.158493312751E+03   -0.18365E-01   -0.82959E-03  4352   0.156E-01    0.154E+00
DAV:  39    -0.158504511416E+03   -0.11199E-01   -0.44867E-02  4384   0.284E-01    0.217E+00
DAV:  40    -0.158507631577E+03   -0.31202E-02   -0.19574E-03  4264   0.140E-01    0.129E+00
DAV:  41    -0.158511360103E+03   -0.37285E-02   -0.74870E-04  4208   0.721E-02    0.104E+00
DAV:  42    -0.158514176959E+03   -0.28169E-02   -0.35300E-04  4344   0.651E-02    0.869E-01
DAV:  43    -0.158516012143E+03   -0.18352E-02   -0.30421E-04  4352   0.335E-02    0.558E-01
DAV:  44    -0.158518505375E+03   -0.24932E-02   -0.12095E-04  4192   0.375E-02    0.384E-01
DAV:  45    -0.158519878129E+03   -0.13728E-02   -0.36326E-04  4144   0.390E-02    0.155E-01
DAV:  46    -0.158520482694E+03   -0.60456E-03   -0.81350E-05  4096   0.221E-02    0.183E-01
DAV:  47    -0.158520685854E+03   -0.20316E-03   -0.12144E-05  2992   0.107E-02    0.116E-01
DAV:  48    -0.158521207181E+03   -0.52133E-03   -0.19416E-05  3608   0.111E-02    0.901E-02
DAV:  49    -0.158521598475E+03   -0.39129E-03   -0.39443E-05  3688   0.997E-03    0.104E-01
DAV:  50    -0.158521753020E+03   -0.15455E-03   -0.35096E-05  2984   0.886E-03    0.926E-02
DAV:  51    -0.158521750826E+03    0.21941E-05   -0.54970E-05  3456   0.136E-02    0.734E-02
DAV:  52    -0.158521791904E+03   -0.41078E-04   -0.85773E-06  2616   0.838E-03    0.141E-02
DAV:  53    -0.158521812487E+03   -0.20583E-04   -0.14835E-06  2144   0.406E-03    0.944E-03
DAV:  54    -0.158521827722E+03   -0.15235E-04   -0.94085E-07  2080   0.296E-03    0.883E-03
DAV:  55    -0.158521847787E+03   -0.20065E-04   -0.41238E-07  2088   0.194E-03    0.115E-02
DAV:  56    -0.158521866541E+03   -0.18754E-04   -0.46071E-07  2136   0.165E-03    0.155E-02
DAV:  57    -0.158521876275E+03   -0.97341E-05   -0.18086E-07  2136   0.149E-03    0.157E-02
DAV:  58    -0.158521888121E+03   -0.11846E-04   -0.72459E-07  2072   0.164E-03    0.922E-03
DAV:  59    -0.158521893771E+03   -0.56503E-05   -0.17151E-07  2032   0.121E-03    0.539E-03
DAV:  60    -0.158521896395E+03   -0.26238E-05   -0.12302E-07  2016   0.864E-04    0.272E-03
DAV:  61    -0.158521898964E+03   -0.25692E-05   -0.57914E-08  2000   0.683E-04    0.216E-03
DAV:  62    -0.158521901632E+03   -0.26676E-05   -0.45873E-08  1928   0.509E-04    0.193E-03
DAV:  63    -0.158521904520E+03   -0.28881E-05   -0.48016E-08  1976   0.536E-04    0.753E-04
DAV:  64    -0.158521905687E+03   -0.11670E-05   -0.31441E-08  1904   0.477E-04    0.692E-04
DAV:  65    -0.158521906573E+03   -0.88577E-06   -0.22973E-08  1856   0.350E-04
   1 F= -.15852191E+03 E0= -.15848433E+03  d E =-.158522E+03  mag=    21.9640
 curvature:   0.00 expect dE= 0.000E+00 dE for cont linesearch  0.000E+00
 trial: gam= 0.00000 g(F)=  0.244E+00 g(S)=  0.000E+00 ort = 0.000E+00 (trialstep = 0.100E+01)
 search vector abs. value=  0.244E+00
 bond charge predicted
       N       E                     dE             d eps       ncg     rms          rms(c)
DAV:   1    -0.158514101425E+03    0.78043E-02   -0.24156E+01  3080   0.936E+00    0.610E+00
DAV:   2    -0.169980855385E+03   -0.11467E+02   -0.97223E+01  4376   0.230E+01    0.319E+01
DAV:   3    -0.159179329591E+03    0.10802E+02   -0.30345E+00  4312   0.201E+01    0.164E+01
DAV:   4    -0.158980666932E+03    0.19866E+00   -0.74822E+00  4376   0.395E+00    0.131E+01
DAV:   5    -0.159059302758E+03   -0.78636E-01   -0.60892E+00  4440   0.427E+00    0.159E+01
DAV:   6    -0.159060810596E+03   -0.15078E-02   -0.12542E-01  4384   0.106E+00    0.154E+01
DAV:   7    -0.158718664089E+03    0.34215E+00   -0.44944E-01  4408   0.183E+00    0.829E+00
DAV:   8    -0.158765689361E+03   -0.47025E-01   -0.27018E-01  4392   0.154E+00    0.823E+00
DAV:   9    -0.158772397619E+03   -0.67083E-02   -0.18851E-02  4256   0.368E-01    0.817E+00
DAV:  10    -0.158702597835E+03    0.69800E-01   -0.36774E-01  4488   0.742E-01    0.321E+00
DAV:  11    -0.158703760313E+03   -0.11625E-02   -0.35504E-02  4256   0.374E-01    0.373E+00
DAV:  12    -0.158704888917E+03   -0.11286E-02   -0.14878E-01  4752   0.542E-01    0.388E+00
DAV:  13    -0.158697490443E+03    0.73985E-02   -0.56876E-03  4288   0.329E-01    0.263E+00
DAV:  14    -0.158695278202E+03    0.22122E-02   -0.29724E-02  4768   0.436E-01    0.166E+00
DAV:  15    -0.158698445547E+03   -0.31673E-02   -0.13209E-02  4184   0.231E-01    0.110E+00
DAV:  16    -0.158698539908E+03   -0.94361E-04   -0.50537E-03  4480   0.113E-01    0.260E-01
DAV:  17    -0.158700384055E+03   -0.18441E-02   -0.10901E-03  4208   0.688E-02    0.249E-01
DAV:  18    -0.158701684252E+03   -0.13002E-02   -0.40264E-04  4328   0.311E-02    0.292E-01
DAV:  19    -0.158702096709E+03   -0.41246E-03   -0.16468E-04  4296   0.302E-02    0.529E-02
DAV:  20    -0.158702964131E+03   -0.86742E-03   -0.10221E-04  3872   0.132E-02    0.719E-02
DAV:  21    -0.158703600172E+03   -0.63604E-03   -0.52160E-05  3464   0.101E-02    0.516E-02
DAV:  22    -0.158704360955E+03   -0.76078E-03   -0.28128E-05  3192   0.776E-03    0.465E-02
DAV:  23    -0.158704953101E+03   -0.59215E-03   -0.12342E-05  3136   0.570E-03    0.182E-02
DAV:  24    -0.158705249220E+03   -0.29612E-03   -0.62524E-06  3216   0.437E-03    0.139E-02
DAV:  25    -0.158705370703E+03   -0.12148E-03   -0.36916E-06  2592   0.321E-03    0.109E-02
DAV:  26    -0.158705419761E+03   -0.49058E-04   -0.12293E-06  2312   0.293E-03    0.503E-03
DAV:  27    -0.158705438785E+03   -0.19024E-04   -0.80807E-07  2312   0.228E-03    0.627E-03
DAV:  28    -0.158705443283E+03   -0.44973E-05   -0.60587E-07  2120   0.215E-03    0.402E-03
DAV:  29    -0.158705446763E+03   -0.34808E-05   -0.35759E-07  2096   0.146E-03    0.295E-03
DAV:  30    -0.158705448655E+03   -0.18919E-05   -0.18134E-07  2016   0.132E-03    0.141E-03
DAV:  31    -0.158705450409E+03   -0.17540E-05   -0.11625E-07  2040   0.869E-04    0.885E-04
DAV:  32    -0.158705451359E+03   -0.94912E-06   -0.64258E-08  2016   0.787E-04
   2 F= -.15870545E+03 E0= -.15866804E+03  d E =-.183545E+00  mag=    22.0493
 trial-energy change:   -0.183545  1 .order   -0.184433   -0.244247   -0.124619
 step:   2.1522(harm=  2.0417)  dis= 0.07381  next Energy=  -158.775883 (dE=-0.254E+00)
 bond charge predicted
       N       E                     dE             d eps       ncg     rms          rms(c)
DAV:   1    -0.158515926573E+03    0.18952E+00   -0.32008E+01  3096   0.109E+01    0.637E+00
DAV:   2    -0.169226852764E+03   -0.10711E+02   -0.89965E+01  4520   0.230E+01    0.330E+01
DAV:   3    -0.158914442621E+03    0.10312E+02   -0.32408E+00  4368   0.204E+01    0.158E+01
DAV:   4    -0.159298963489E+03   -0.38452E+00   -0.12162E+01  4368   0.408E+00    0.141E+01
DAV:   5    -0.159219731689E+03    0.79232E-01   -0.72759E+00  4536   0.511E+00    0.163E+01
DAV:   6    -0.159188672225E+03    0.31059E-01   -0.16016E-01  4456   0.155E+00    0.154E+01
DAV:   7    -0.158820862612E+03    0.36781E+00   -0.16761E-01  4424   0.203E+00    0.819E+00
DAV:   8    -0.158779602366E+03    0.41260E-01   -0.25051E-01  4464   0.252E+00    0.515E+00
DAV:   9    -0.158773160747E+03    0.64416E-02   -0.20147E-01  4384   0.845E-01    0.302E+00
DAV:  10    -0.158780410866E+03   -0.72501E-02   -0.32645E-02  4128   0.248E-01    0.443E+00
DAV:  11    -0.158766069414E+03    0.14341E-01   -0.34739E-02  4584   0.429E-01    0.372E+00
DAV:  12    -0.158773750427E+03   -0.76810E-02   -0.79533E-02  4448   0.537E-01    0.391E+00
DAV:  13    -0.158761643697E+03    0.12107E-01   -0.10450E-02  4528   0.517E-01    0.170E+00
DAV:  14    -0.158763138463E+03   -0.14948E-02   -0.26489E-02  4560   0.367E-01    0.164E+00
DAV:  15    -0.158765188746E+03   -0.20503E-02   -0.29605E-03  3856   0.158E-01    0.107E+00
DAV:  16    -0.158766350347E+03   -0.11616E-02   -0.16458E-03  4368   0.727E-02    0.511E-01
DAV:  17    -0.158768528115E+03   -0.21778E-02   -0.16345E-03  4256   0.763E-02    0.392E-01
DAV:  18    -0.158769897801E+03   -0.13697E-02   -0.68834E-04  4264   0.478E-02    0.220E-01
DAV:  19    -0.158770784776E+03   -0.88698E-03   -0.23505E-04  4312   0.277E-02    0.105E-01
DAV:  20    -0.158772174518E+03   -0.13897E-02   -0.10318E-04  3432   0.138E-02    0.686E-02
DAV:  21    -0.158772900006E+03   -0.72549E-03   -0.21998E-05  3720   0.837E-03    0.547E-02
DAV:  22    -0.158773589338E+03   -0.68933E-03   -0.28046E-05  3304   0.672E-03    0.328E-02
DAV:  23    -0.158774107864E+03   -0.51853E-03   -0.91447E-06  3216   0.495E-03    0.236E-02
DAV:  24    -0.158774488768E+03   -0.38090E-03   -0.13979E-05  3320   0.536E-03    0.155E-02
DAV:  25    -0.158774595024E+03   -0.10626E-03   -0.23907E-06  2704   0.274E-03    0.383E-03
DAV:  26    -0.158774630378E+03   -0.35354E-04   -0.81768E-07  2296   0.230E-03    0.107E-02
DAV:  27    -0.158774642450E+03   -0.12072E-04   -0.96606E-07  2264   0.237E-03    0.632E-03
DAV:  28    -0.158774648659E+03   -0.62088E-05   -0.53574E-07  2184   0.207E-03    0.320E-03
DAV:  29    -0.158774650733E+03   -0.20738E-05   -0.20209E-07  1984   0.144E-03    0.855E-04
DAV:  30    -0.158774653267E+03   -0.25338E-05   -0.14407E-07  2064   0.952E-04    0.752E-04
DAV:  31    -0.158774654854E+03   -0.15874E-05   -0.86559E-08  2016   0.844E-04    0.107E-03
DAV:  32    -0.158774656351E+03   -0.14970E-05   -0.74544E-08  2064   0.586E-04    0.541E-04
DAV:  33    -0.158774657421E+03   -0.10699E-05   -0.51180E-08  2000   0.613E-04    0.517E-04
DAV:  34    -0.158774658229E+03   -0.80825E-06   -0.47270E-08  2048   0.462E-04
   3 F= -.15877466E+03 E0= -.15873754E+03  d E =-.252752E+00  mag=    22.1648
 curvature:  -1.01 expect dE=-0.126E+00 dE for cont linesearch -0.409E-04
 trial: gam= 0.52240 g(F)=  0.124E+00 g(S)=  0.000E+00 ort =-0.315E-02 (trialstep = 0.123E+01)
 search vector abs. value=  0.188E+00
 bond charge predicted
       N       E                     dE             d eps       ncg     rms          rms(c)
DAV:   1    -0.158632173928E+03    0.14248E+00   -0.34798E+01  3040   0.107E+01    0.600E+00
DAV:   2    -0.164811391769E+03   -0.61792E+01   -0.43437E+01  4408   0.196E+01    0.372E+01
DAV:   3    -0.158993020186E+03    0.58184E+01   -0.13898E+01  4104   0.187E+01    0.802E+00
DAV:   4    -0.159302615125E+03   -0.30959E+00   -0.18977E+00  4448   0.283E+00    0.112E+01
DAV:   5    -0.159283813379E+03    0.18802E-01   -0.97224E-02  4384   0.903E-01    0.113E+01
DAV:   6    -0.159479652843E+03   -0.19584E+00   -0.43503E+00  4432   0.326E+00    0.126E+01
DAV:   7    -0.159513117973E+03   -0.33465E-01   -0.65662E-01  4424   0.175E+00    0.124E+01
DAV:   8    -0.159174448010E+03    0.33867E+00   -0.42509E-01  4360   0.202E+00    0.127E+01
DAV:   9    -0.158961863107E+03    0.21258E+00   -0.43834E-01  4792   0.220E+00    0.874E+00
DAV:  10    -0.158976899992E+03   -0.15037E-01   -0.21164E+00  4496   0.213E+00    0.125E+01
DAV:  11    -0.158878846642E+03    0.98053E-01   -0.67242E-01  4560   0.222E+00    0.597E+00
DAV:  12    -0.158888953278E+03   -0.10107E-01   -0.57351E-01  4928   0.128E+00    0.548E+00
DAV:  13    -0.158880118396E+03    0.88349E-02   -0.28820E-01  4496   0.748E-01    0.270E+00
DAV:  14    -0.158887377695E+03   -0.72593E-02   -0.14923E-02  4704   0.513E-01    0.293E+00
DAV:  15    -0.158894941025E+03   -0.75633E-02   -0.10922E-01  4584   0.971E-01    0.374E+00
DAV:  16    -0.158901813239E+03   -0.68722E-02   -0.11182E-02  4136   0.318E-01    0.429E+00
DAV:  17    -0.158887337303E+03    0.14476E-01   -0.55937E-02  4584   0.350E-01    0.131E+00
DAV:  18    -0.158890738188E+03   -0.34009E-02   -0.72356E-03  4272   0.181E-01    0.104E+00
DAV:  19    -0.158891626288E+03   -0.88810E-03   -0.47863E-03  4800   0.122E-01    0.337E-01
DAV:  20    -0.158892566258E+03   -0.93997E-03   -0.29481E-04  4176   0.506E-02    0.408E-01
DAV:  21    -0.158892927958E+03   -0.36170E-03   -0.19924E-04  4368   0.633E-02    0.213E-01
DAV:  22    -0.158893323036E+03   -0.39508E-03   -0.10834E-04  4024   0.278E-02    0.102E-01
DAV:  23    -0.158893572792E+03   -0.24976E-03   -0.21973E-05  3280   0.114E-02    0.907E-02
DAV:  24    -0.158893769489E+03   -0.19670E-03   -0.13115E-05  2904   0.100E-02    0.495E-02
DAV:  25    -0.158893990638E+03   -0.22115E-03   -0.17820E-05  3056   0.826E-03    0.376E-02
DAV:  26    -0.158894141910E+03   -0.15127E-03   -0.49181E-06  2856   0.444E-03    0.540E-02
DAV:  27    -0.158894222269E+03   -0.80359E-04   -0.19153E-06  2520   0.374E-03    0.387E-02
DAV:  28    -0.158894329313E+03   -0.10704E-03   -0.48115E-06  2816   0.513E-03    0.399E-02
DAV:  29    -0.158894377838E+03   -0.48525E-04   -0.45091E-06  2704   0.422E-03    0.670E-03
DAV:  30    -0.158894386067E+03   -0.82289E-05   -0.58257E-07  2232   0.288E-03    0.864E-03
DAV:  31    -0.158894389136E+03   -0.30686E-05   -0.26650E-07  1952   0.183E-03    0.795E-03
DAV:  32    -0.158894397562E+03   -0.84257E-05   -0.49666E-07  2168   0.173E-03    0.653E-03
DAV:  33    -0.158894404030E+03   -0.64679E-05   -0.61215E-07  2256   0.144E-03    0.173E-03
DAV:  34    -0.158894405973E+03   -0.19436E-05   -0.25442E-07  2224   0.140E-03    0.589E-03
DAV:  35    -0.158894406767E+03   -0.79351E-06   -0.18088E-07  2008   0.108E-03
   4 F= -.15889441E+03 E0= -.15885652E+03  d E =-.119749E+00  mag=    22.1316
 trial-energy change:   -0.119749  1 .order   -0.119752   -0.151103   -0.088402
 step:   2.9652(harm=  2.9652)  dis= 0.09535  next Energy=  -158.956729 (dE=-0.182E+00)
 bond charge predicted
       N       E                     dE             d eps       ncg     rms          rms(c)
DAV:   1    -0.158408880605E+03    0.48553E+00   -0.69693E+01  3048   0.154E+01    0.745E+00
DAV:   2    -0.165236427695E+03   -0.68275E+01   -0.40442E+01  4368   0.223E+01    0.395E+01
DAV:   3    -0.159190688197E+03    0.60457E+01   -0.25796E+01  4288   0.219E+01    0.999E+00
DAV:   4    -0.160262085863E+03   -0.10714E+01   -0.14096E+01  4552   0.693E+00    0.171E+01
DAV:   5    -0.159695262023E+03    0.56682E+00   -0.17887E+01  4464   0.854E+00    0.118E+01
DAV:   6    -0.159611474728E+03    0.83787E-01   -0.62696E-01  4560   0.349E+00    0.954E+00
DAV:   7    -0.159567450779E+03    0.44024E-01   -0.21632E-02  4096   0.550E-01    0.955E+00
DAV:   8    -0.159647671009E+03   -0.80220E-01   -0.94841E-03  4488   0.460E-01    0.950E+00
DAV:   9    -0.159865815207E+03   -0.21814E+00   -0.47169E-02  4520   0.904E-01    0.855E+00
DAV:  10    -0.160150091585E+03   -0.28428E+00   -0.30556E-01  4808   0.296E+00    0.623E+00
DAV:  11    -0.160190103269E+03   -0.40012E-01   -0.72631E-02  4440   0.109E+00    0.581E+00
DAV:  12    -0.160214238725E+03   -0.24135E-01   -0.15218E-02  4928   0.117E+00    0.523E+00
DAV:  13    -0.160216561921E+03   -0.23232E-02   -0.75673E-02  4512   0.266E+00    0.411E+00
DAV:  14    -0.160205026752E+03    0.11535E-01   -0.61412E-02  4544   0.922E-01    0.345E+00
DAV:  15    -0.160221847187E+03   -0.16820E-01   -0.30277E-02  4992   0.101E+00    0.282E+00
DAV:  16    -0.160250761223E+03   -0.28914E-01   -0.36127E-02  4824   0.117E+00    0.372E+00
DAV:  17    -0.160262675778E+03   -0.11915E-01   -0.38421E-02  4648   0.796E-01    0.692E+00
DAV:  18    -0.160231123841E+03    0.31552E-01   -0.12533E-02  3776   0.385E-01    0.583E+00
DAV:  19    -0.160234707433E+03   -0.35836E-02   -0.56664E-04  4256   0.115E-01    0.553E+00
DAV:  20    -0.160257053008E+03   -0.22346E-01   -0.44123E-03  4048   0.244E-01    0.635E+00
DAV:  21    -0.160247267772E+03    0.97852E-02   -0.16823E-02  4512   0.625E-01    0.438E+00
DAV:  22    -0.160258010267E+03   -0.10742E-01   -0.23843E-03  3232   0.151E-01    0.430E+00
DAV:  23    -0.160256824355E+03    0.11859E-02   -0.26692E-03  4536   0.286E-01    0.392E+00
DAV:  24    -0.160255185708E+03    0.16386E-02   -0.48433E-03  4680   0.491E-01    0.311E+00
DAV:  25    -0.160249689147E+03    0.54966E-02   -0.27263E-02  4536   0.909E-01    0.464E+00
DAV:  26    -0.160293558112E+03   -0.43869E-01   -0.10423E-01  4320   0.443E-01    0.799E+00
DAV:  27    -0.160264103386E+03    0.29455E-01   -0.34092E-03  3608   0.229E-01    0.771E+00
DAV:  28    -0.160282053585E+03   -0.17950E-01   -0.56731E-03  5032   0.489E-01    0.744E+00
DAV:  29    -0.160299297749E+03   -0.17244E-01   -0.11089E-02  4648   0.612E-01    0.668E+00
DAV:  30    -0.160306704462E+03   -0.74067E-02   -0.89566E-03  4880   0.504E-01    0.574E+00
DAV:  31    -0.160312242347E+03   -0.55379E-02   -0.24798E-03  4272   0.149E-01    0.576E+00
DAV:  32    -0.160310301611E+03    0.19407E-02   -0.18741E-04  4144   0.475E-02    0.556E+00
DAV:  33    -0.160318335006E+03   -0.80334E-02   -0.69948E-04  4696   0.171E-01    0.550E+00
DAV:  34    -0.160325889020E+03   -0.75540E-02   -0.12295E-03  4696   0.200E-01    0.562E+00
DAV:  35    -0.160317245719E+03    0.86433E-02   -0.68603E-04  4264   0.130E-01    0.543E+00
DAV:  36    -0.160323510504E+03   -0.62648E-02   -0.40394E-04  4544   0.168E-01    0.534E+00
DAV:  37    -0.160308810565E+03    0.14700E-01   -0.34779E-03  4680   0.500E-01    0.532E+00
DAV:  38    -0.160317245742E+03   -0.84352E-02   -0.58934E-04  4208   0.164E-01    0.529E+00
DAV:  39    -0.160316998920E+03    0.24682E-03   -0.40348E-05  3840   0.195E-02    0.529E+00
DAV:  40    -0.160317078607E+03   -0.79686E-04   -0.94331E-07  2096   0.643E-03    0.528E+00
DAV:  41    -0.160316345015E+03    0.73359E-03   -0.10793E-05  2400   0.155E-02    0.524E+00
DAV:  42    -0.160331603888E+03   -0.15259E-01   -0.37590E-03  4752   0.447E-01    0.531E+00
DAV:  43    -0.160290488717E+03    0.41115E-01   -0.21830E-02  4712   0.108E+00    0.487E+00
DAV:  44    -0.160340832936E+03   -0.50344E-01   -0.29310E-02  4616   0.123E+00    0.540E+00
DAV:  45    -0.160343023055E+03   -0.21901E-02   -0.99962E-03  4376   0.427E-01    0.526E+00
DAV:  46    -0.160311558480E+03    0.31465E-01   -0.19955E-02  4368   0.740E-01    0.429E+00
DAV:  47    -0.160324321071E+03   -0.12763E-01   -0.28574E-02  4432   0.873E-01    0.481E+00
DAV:  48    -0.160265236877E+03    0.59084E-01   -0.10761E-01  4616   0.146E+00    0.266E+00
DAV:  49    -0.160280269706E+03   -0.15033E-01   -0.26220E-02  4216   0.512E-01    0.274E+00
DAV:  50    -0.160273578584E+03    0.66911E-02   -0.30137E-03  4584   0.272E-01    0.289E+00
DAV:  51    -0.160280996761E+03   -0.74182E-02   -0.95219E-04  3992   0.131E-01    0.293E+00
DAV:  52    -0.160269000652E+03    0.11996E-01   -0.31389E-03  5040   0.300E-01    0.318E+00
DAV:  53    -0.160274108439E+03   -0.51078E-02   -0.73726E-04  4248   0.113E-01    0.312E+00
DAV:  54    -0.160277019546E+03   -0.29111E-02   -0.22757E-04  4512   0.866E-02    0.301E+00
DAV:  55    -0.160282716977E+03   -0.56974E-02   -0.44302E-03  4752   0.385E-01    0.286E+00
DAV:  56    -0.160284072057E+03   -0.13551E-02   -0.14725E-03  4216   0.104E-01    0.292E+00
DAV:  57    -0.160275664737E+03    0.84073E-02   -0.12360E-02  4768   0.467E-01    0.369E+00
DAV:  58    -0.160277726705E+03   -0.20620E-02   -0.15057E-03  3600   0.104E-01    0.383E+00
DAV:  59    -0.160278581628E+03   -0.85492E-03   -0.27048E-04  4376   0.579E-02    0.370E+00
DAV:  60    -0.160286398954E+03   -0.78173E-02   -0.41525E-03  4664   0.221E-01    0.315E+00
DAV:  61    -0.160281331300E+03    0.50677E-02   -0.47302E-03  4400   0.330E-01    0.387E+00
DAV:  62    -0.160276338408E+03    0.49929E-02   -0.11207E-02  4632   0.376E-01    0.540E+00
DAV:  63    -0.160277772734E+03   -0.14343E-02   -0.93291E-03  4328   0.383E-01    0.423E+00
DAV:  64    -0.160277329653E+03    0.44308E-03   -0.25740E-04  4088   0.620E-02    0.412E+00
DAV:  65    -0.160278295196E+03   -0.96554E-03   -0.32001E-03  4760   0.210E-01    0.503E+00
DAV:  66    -0.160278454609E+03   -0.15941E-03   -0.19614E-03  4144   0.969E-02    0.541E+00
DAV:  67    -0.160256711000E+03    0.21744E-01   -0.38189E-02  4480   0.600E-01    0.796E+00
DAV:  68    -0.160263552701E+03   -0.68417E-02   -0.62888E-03  4096   0.245E-01    0.894E+00
DAV:  69    -0.160259219616E+03    0.43331E-02   -0.91413E-04  3872   0.100E-01    0.935E+00
DAV:  70    -0.160245567761E+03    0.13652E-01   -0.33248E-03  4416   0.259E-01    0.809E+00
DAV:  71    -0.160242923943E+03    0.26438E-02   -0.32462E-02  4840   0.620E-01    0.483E+00
DAV:  72    -0.160243677003E+03   -0.75306E-03   -0.13341E-02  4160   0.453E-01    0.620E+00
DAV:  73    -0.160249374006E+03   -0.56970E-02   -0.88258E-02  4776   0.971E-01    0.258E+00
DAV:  74    -0.160263603752E+03   -0.14230E-01   -0.17525E-02  4448   0.491E-01    0.176E+00
DAV:  75    -0.160265865254E+03   -0.22615E-02   -0.42175E-03  4328   0.264E-01    0.155E+00
DAV:  76    -0.160275090872E+03   -0.92256E-02   -0.33500E-03  5168   0.338E-01    0.136E+00
DAV:  77    -0.160278088130E+03   -0.29973E-02   -0.34205E-03  4760   0.347E-01    0.136E+00
DAV:  78    -0.160289454154E+03   -0.11366E-01   -0.33157E-03  5080   0.425E-01    0.144E+00
DAV:  79    -0.160305584876E+03   -0.16131E-01   -0.59721E-03  4960   0.603E-01    0.171E+00
DAV:  80    -0.160317022836E+03   -0.11438E-01   -0.54465E-03  5016   0.397E-01    0.187E+00
DAV:  81    -0.160325277162E+03   -0.82543E-02   -0.16996E-03  4776   0.299E-01    0.186E+00
DAV:  82    -0.160323111863E+03    0.21653E-02   -0.10979E-03  4352   0.316E-01    0.166E+00
DAV:  83    -0.160319998905E+03    0.31130E-02   -0.94844E-04  4808   0.212E-01    0.156E+00
DAV:  84    -0.160316297203E+03    0.37017E-02   -0.81628E-04  4640   0.148E-01    0.156E+00
DAV:  85    -0.160314891719E+03    0.14055E-02   -0.20314E-04  4368   0.552E-02    0.158E+00
DAV:  86    -0.160312817354E+03    0.20744E-02   -0.10554E-04  4240   0.580E-02    0.164E+00
DAV:  87    -0.160317223903E+03   -0.44065E-02   -0.60137E-04  4872   0.265E-01    0.175E+00
DAV:  88    -0.160320303586E+03   -0.30797E-02   -0.65728E-04  4320   0.116E-01    0.174E+00
DAV:  89    -0.160324781955E+03   -0.44784E-02   -0.81244E-04  4248   0.166E-01    0.158E+00
DAV:  90    -0.160327975607E+03   -0.31937E-02   -0.57569E-04  4376   0.114E-01    0.145E+00
DAV:  91    -0.160330301602E+03   -0.23260E-02   -0.22609E-04  4216   0.734E-02    0.137E+00
DAV:  92    -0.160330956663E+03   -0.65506E-03   -0.61551E-05  4184   0.350E-02    0.136E+00
DAV:  93    -0.160331557726E+03   -0.60106E-03   -0.16888E-05  3992   0.203E-02    0.135E+00
DAV:  94    -0.160332361965E+03   -0.80424E-03   -0.21296E-05  3560   0.258E-02    0.133E+00
DAV:  95    -0.160333357899E+03   -0.99593E-03   -0.38577E-05  4440   0.356E-02    0.131E+00
DAV:  96    -0.160335084496E+03   -0.17266E-02   -0.10168E-04  4488   0.611E-02    0.126E+00
DAV:  97    -0.160330983771E+03    0.41007E-02   -0.52762E-04  4136   0.145E-01    0.138E+00
DAV:  98    -0.160331725171E+03   -0.74140E-03   -0.75663E-05  3864   0.321E-02    0.137E+00
DAV:  99    -0.160331619799E+03    0.10537E-03   -0.31587E-06  2712   0.768E-03    0.137E+00
DAV: 100    -0.160331364364E+03    0.25543E-03   -0.26693E-06  2248   0.109E-02
 -----------------------------------------------------------------------------
|                                                                             |
|           W    W    AA    RRRRR   N    N  II  N    N   GGGG   !!!           |
|           W    W   A  A   R    R  NN   N  II  NN   N  G    G  !!!           |
|           W    W  A    A  R    R  N N  N  II  N N  N  G       !!!           |
|           W WW W  AAAAAA  RRRRR   N  N N  II  N  N N  G  GGG   !            |
|           WW  WW  A    A  R   R   N   NN  II  N   NN  G    G                |
|           W    W  A    A  R    R  N    N  II  N    N   GGGG   !!!           |
|                                                                             |
|     The electronic self-consistency was not achieved in the given           |
|     number of steps (NELM). The forces and other quantities evaluated       |
|     might not be reliable so examine the results carefully. If you find     |
|     spurious results, we suggest increasing NELM, if you were close to      |
|     convergence or switching to a different ALGO or adjusting the           |
|     density mixing parameters otherwise.                                    |
|                                                                             |
 -----------------------------------------------------------------------------

   5 F= -.16033136E+03 E0= -.16031414E+03  d E =-.155671E+01  mag=    22.6206
 curvature:  -2.27 expect dE=-0.173E+00 dE for cont linesearch -0.205E-01
 ZBRENT: interpolating
 opt :   2.3328  next Energy=  -160.344400 (dE=-0.157E+01)
 bond charge predicted
       N       E                     dE             d eps       ncg     rms          rms(c)
DAV:   1    -0.160280257415E+03    0.51362E-01   -0.92264E+00  3040   0.560E+00    0.261E+00
DAV:   2    -0.160463626695E+03   -0.18337E+00   -0.12269E+00  4496   0.342E+00    0.858E+00
DAV:   3    -0.160347630463E+03    0.11600E+00   -0.27058E-01  4496   0.203E+00    0.221E+00
DAV:   4    -0.160561388294E+03   -0.21376E+00   -0.97737E-01  4528   0.327E+00    0.110E+01
DAV:   5    -0.160545664968E+03    0.15723E-01   -0.53939E-02  4536   0.205E+00    0.706E+00
DAV:   6    -0.160504110100E+03    0.41555E-01   -0.21427E-02  4544   0.108E+00    0.714E+00
DAV:   7    -0.160511581489E+03   -0.74714E-02   -0.58432E-03  4768   0.474E-01    0.624E+00
DAV:   8    -0.160447494986E+03    0.64087E-01   -0.14603E-02  4392   0.916E-01    0.659E+00
DAV:   9    -0.160508375022E+03   -0.60880E-01   -0.64773E-03  4464   0.607E-01    0.622E+00
DAV:  10    -0.160693059151E+03   -0.18468E+00   -0.87873E-01  4576   0.192E+00    0.672E+00
DAV:  11    -0.160575690084E+03    0.11737E+00   -0.19268E-02  3536   0.526E-01    0.677E+00
DAV:  12    -0.160572667847E+03    0.30222E-02   -0.15902E-03  4384   0.268E-01    0.694E+00
DAV:  13    -0.160564993617E+03    0.76742E-02   -0.67643E-04  4544   0.218E-01    0.697E+00
DAV:  14    -0.160593885466E+03   -0.28892E-01   -0.62748E-03  4496   0.856E-01    0.667E+00
DAV:  15    -0.160655422111E+03   -0.61537E-01   -0.68916E-03  4448   0.688E-01    0.599E+00
DAV:  16    -0.160803032925E+03   -0.14761E+00   -0.15621E-02  4312   0.618E-01    0.537E+00
DAV:  17    -0.160903711664E+03   -0.10068E+00   -0.91979E-03  4592   0.464E-01    0.483E+00
DAV:  18    -0.160960993009E+03   -0.57281E-01   -0.37523E-03  4896   0.449E-01    0.413E+00
DAV:  19    -0.161050974556E+03   -0.89982E-01   -0.16708E-02  5024   0.109E+00    0.276E+00
DAV:  20    -0.161129086530E+03   -0.78112E-01   -0.39186E-02  4880   0.113E+00    0.139E+00
DAV:  21    -0.161150453041E+03   -0.21367E-01   -0.19787E-02  4504   0.517E-01    0.108E+00
DAV:  22    -0.161154438614E+03   -0.39856E-02   -0.17488E-03  4456   0.154E-01    0.103E+00
DAV:  23    -0.161154431296E+03    0.73179E-05   -0.37783E-04  4520   0.110E-01    0.109E+00
DAV:  24    -0.161161567796E+03   -0.71365E-02   -0.68830E-04  4352   0.187E-01    0.101E+00
DAV:  25    -0.161177719767E+03   -0.16152E-01   -0.54142E-03  4272   0.406E-01    0.779E-01
DAV:  26    -0.161183319318E+03   -0.55996E-02   -0.22832E-03  4544   0.200E-01    0.642E-01
DAV:  27    -0.161183142025E+03    0.17729E-03   -0.41941E-04  4320   0.111E-01    0.651E-01
DAV:  28    -0.161203169655E+03   -0.20028E-01   -0.41101E-03  4288   0.287E-01    0.692E-01
DAV:  29    -0.161217225708E+03   -0.14056E-01   -0.35831E-03  4368   0.206E-01    0.766E-01
DAV:  30    -0.161218301827E+03   -0.10761E-02   -0.34138E-04  4368   0.865E-02    0.685E-01
DAV:  31    -0.161221212003E+03   -0.29102E-02   -0.11888E-03  4424   0.188E-01    0.542E-01
DAV:  32    -0.161220369455E+03    0.84255E-03   -0.11362E-03  4336   0.132E-01    0.464E-01
DAV:  33    -0.161223403436E+03   -0.30340E-02   -0.13429E-03  4408   0.209E-01    0.460E-01
DAV:  34    -0.161223879313E+03   -0.47588E-03   -0.11598E-03  4328   0.115E-01    0.314E-01
DAV:  35    -0.161224532842E+03   -0.65353E-03   -0.14690E-04  4480   0.454E-02    0.299E-01
DAV:  36    -0.161227077687E+03   -0.25448E-02   -0.58942E-04  4288   0.900E-02    0.197E-01
DAV:  37    -0.161228943809E+03   -0.18661E-02   -0.18030E-04  4392   0.472E-02    0.162E-01
DAV:  38    -0.161230848716E+03   -0.19049E-02   -0.51980E-04  4304   0.107E-01    0.801E-02
DAV:  39    -0.161231194495E+03   -0.34578E-03   -0.59203E-05  4296   0.312E-02    0.856E-02
DAV:  40    -0.161231597967E+03   -0.40347E-03   -0.29786E-05  4336   0.173E-02    0.722E-02
DAV:  41    -0.161231874404E+03   -0.27644E-03   -0.51335E-05  4368   0.303E-02    0.384E-02
DAV:  42    -0.161231955180E+03   -0.80776E-04   -0.15944E-05  4160   0.114E-02    0.289E-02
DAV:  43    -0.161231980437E+03   -0.25256E-04   -0.19576E-06  2256   0.670E-03    0.251E-02
DAV:  44    -0.161231996341E+03   -0.15905E-04   -0.15086E-06  2360   0.611E-03    0.205E-02
DAV:  45    -0.161232002371E+03   -0.60297E-05   -0.11145E-06  2112   0.403E-03    0.200E-02
DAV:  46    -0.161232008908E+03   -0.65371E-05   -0.88498E-07  2168   0.411E-03    0.161E-02
DAV:  47    -0.161232013820E+03   -0.49121E-05   -0.14620E-06  2160   0.484E-03    0.105E-02
DAV:  48    -0.161232018014E+03   -0.41934E-05   -0.75424E-07  2152   0.331E-03    0.602E-03
DAV:  49    -0.161232020694E+03   -0.26804E-05   -0.48719E-07  2088   0.213E-03    0.373E-03
DAV:  50    -0.161232021660E+03   -0.96578E-06   -0.15163E-07  1912   0.158E-03
   6 F= -.16123202E+03 E0= -.16121376E+03  d E =-.245736E+01  mag=    20.9211
 curvature:  -1.44 expect dE=-0.127E+00 dE for cont linesearch -0.158E-02
 trial: gam= 0.59154 g(F)=  0.881E-01 g(S)=  0.000E+00 ort =-0.144E-01 (trialstep = 0.145E+01)
 search vector abs. value=  0.137E+00
 bond charge predicted
       N       E                     dE             d eps       ncg     rms          rms(c)
DAV:   1    -0.161017832808E+03    0.21419E+00   -0.29940E+01  3040   0.110E+01    0.403E+00
DAV:   2    -0.161463799016E+03   -0.44597E+00   -0.21187E+00  4360   0.744E+00    0.777E+00
DAV:   3    -0.161545444445E+03   -0.81645E-01   -0.19499E+00  4400   0.845E+00    0.145E+01
DAV:   4    -0.161272509021E+03    0.27294E+00   -0.19897E-01  4600   0.392E+00    0.266E+00
DAV:   5    -0.161289121507E+03   -0.16612E-01   -0.84291E-02  4520   0.282E+00    0.227E+00
DAV:   6    -0.161285711805E+03    0.34097E-02   -0.16863E-02  4568   0.861E-01    0.178E+00
DAV:   7    -0.161282975734E+03    0.27361E-02   -0.60861E-03  4808   0.549E-01    0.563E-01
DAV:   8    -0.161284379383E+03   -0.14036E-02   -0.46638E-03  4544   0.470E-01    0.493E-01
DAV:   9    -0.161284526837E+03   -0.14745E-03   -0.18432E-03  4496   0.285E-01    0.370E-01
DAV:  10    -0.161284458216E+03    0.68622E-04   -0.46539E-04  4608   0.158E-01    0.258E-01
DAV:  11    -0.161285095531E+03   -0.63732E-03   -0.14450E-04  4320   0.958E-02    0.541E-02
DAV:  12    -0.161286218472E+03   -0.11229E-02   -0.84507E-05  4464   0.390E-02    0.415E-02
DAV:  13    -0.161286798422E+03   -0.57995E-03   -0.20629E-05  4064   0.247E-02    0.247E-02
DAV:  14    -0.161287290974E+03   -0.49255E-03   -0.11111E-05  3568   0.146E-02    0.256E-02
DAV:  15    -0.161287810704E+03   -0.51973E-03   -0.13550E-05  3472   0.103E-02    0.103E-02
DAV:  16    -0.161288109813E+03   -0.29911E-03   -0.76836E-06  3056   0.610E-03    0.910E-03
DAV:  17    -0.161288288683E+03   -0.17887E-03   -0.39504E-06  2744   0.440E-03    0.664E-03
DAV:  18    -0.161288470496E+03   -0.18181E-03   -0.75584E-06  2984   0.516E-03    0.502E-03
DAV:  19    -0.161288546386E+03   -0.75890E-04   -0.32510E-06  2792   0.351E-03    0.602E-03
DAV:  20    -0.161288560987E+03   -0.14601E-04   -0.52354E-07  2240   0.236E-03    0.163E-03
DAV:  21    -0.161288571017E+03   -0.10030E-04   -0.54320E-07  2216   0.192E-03    0.988E-04
DAV:  22    -0.161288575253E+03   -0.42365E-05   -0.26145E-07  2080   0.169E-03    0.706E-04
DAV:  23    -0.161288578843E+03   -0.35898E-05   -0.21015E-07  2088   0.117E-03    0.606E-04
DAV:  24    -0.161288580004E+03   -0.11607E-05   -0.81594E-08  1968   0.103E-03    0.410E-04
DAV:  25    -0.161288581657E+03   -0.16536E-05   -0.78446E-08  2000   0.599E-04    0.396E-04
DAV:  26    -0.161288583275E+03   -0.16175E-05   -0.56758E-08  1992   0.703E-04    0.879E-04
DAV:  27    -0.161288584472E+03   -0.11971E-05   -0.52390E-08  1984   0.587E-04    0.288E-04
DAV:  28    -0.161288585034E+03   -0.56232E-06   -0.29657E-08  1920   0.505E-04
   7 F= -.16128859E+03 E0= -.16127188E+03  d E =-.565634E-01  mag=    20.7997
 trial-energy change:   -0.056563  1 .order   -0.057151   -0.115425    0.001123
 step:   1.4365(harm=  1.4369)  dis= 0.02800  next Energy=  -161.288591 (dE=-0.566E-01)
 bond charge predicted
       N       E                     dE             d eps       ncg     rms          rms(c)
DAV:   1    -0.161288566035E+03    0.18437E-04   -0.29582E-03  3224   0.109E-01    0.398E-02
DAV:   2    -0.161288601410E+03   -0.35375E-04   -0.17639E-04  4376   0.632E-02    0.151E-01
DAV:   3    -0.161288575147E+03    0.26263E-04   -0.50993E-05  4136   0.614E-02    0.129E-01
DAV:   4    -0.161288577711E+03   -0.25635E-05   -0.17900E-05  4088   0.382E-02    0.203E-02
DAV:   5    -0.161288588191E+03   -0.10480E-04   -0.37596E-06  2648   0.188E-02    0.171E-02
DAV:   6    -0.161288588598E+03   -0.40706E-06   -0.11649E-06  2032   0.511E-03
   8 F= -.16128859E+03 E0= -.16127185E+03  d E =-.565669E-01  mag=    20.8002
 curvature:  -1.23 expect dE=-0.239E-01 dE for cont linesearch -0.659E-06
 trial: gam= 0.02831 g(F)=  0.194E-01 g(S)=  0.000E+00 ort =-0.270E-03 (trialstep = 0.145E+01)
 search vector abs. value=  0.194E-01
 bond charge predicted
       N       E                     dE             d eps       ncg     rms          rms(c)
DAV:   1    -0.161273645851E+03    0.14942E-01   -0.38659E+00  3040   0.395E+00    0.199E+00
DAV:   2    -0.161473843138E+03   -0.20020E+00   -0.39559E-01  4624   0.485E+00    0.696E+00
DAV:   3    -0.161310071085E+03    0.16377E+00   -0.27513E-01  4568   0.511E+00    0.406E+00
DAV:   4    -0.161295890358E+03    0.14181E-01   -0.45425E-02  4392   0.174E+00    0.837E-01
DAV:   5    -0.161299824454E+03   -0.39341E-02   -0.71104E-03  4520   0.615E-01    0.104E+00
DAV:   6    -0.161300012243E+03   -0.18779E-03   -0.17642E-03  4496   0.348E-01    0.828E-01
DAV:   7    -0.161300932433E+03   -0.92019E-03   -0.13868E-03  4952   0.293E-01    0.450E-01
DAV:   8    -0.161301329938E+03   -0.39751E-03   -0.63046E-04  4376   0.131E-01    0.172E-01
DAV:   9    -0.161301345651E+03   -0.15713E-04   -0.46346E-04  4512   0.135E-01    0.236E-01
DAV:  10    -0.161301655684E+03   -0.31003E-03   -0.97252E-05  4464   0.630E-02    0.335E-01
DAV:  11    -0.161301966771E+03   -0.31109E-03   -0.74305E-05  4640   0.769E-02    0.205E-02
DAV:  12    -0.161302365238E+03   -0.39847E-03   -0.24025E-05  4016   0.211E-02    0.245E-02
DAV:  13    -0.161302610622E+03   -0.24538E-03   -0.30557E-06  2696   0.839E-03    0.436E-02
DAV:  14    -0.161303004550E+03   -0.39393E-03   -0.67334E-06  3664   0.127E-02    0.664E-03
DAV:  15    -0.161303308498E+03   -0.30395E-03   -0.42917E-06  3096   0.608E-03    0.145E-02
DAV:  16    -0.161303458289E+03   -0.14979E-03   -0.12344E-06  2400   0.494E-03    0.102E-02
DAV:  17    -0.161303581311E+03   -0.12302E-03   -0.14941E-06  2360   0.345E-03    0.965E-03
DAV:  18    -0.161303722146E+03   -0.14084E-03   -0.21213E-06  2728   0.319E-03    0.565E-03
DAV:  19    -0.161303822776E+03   -0.10063E-03   -0.95022E-07  2368   0.266E-03    0.304E-03
DAV:  20    -0.161303890680E+03   -0.67904E-04   -0.94138E-07  2248   0.239E-03    0.446E-03
DAV:  21    -0.161303916845E+03   -0.26165E-04   -0.44052E-07  2024   0.206E-03    0.387E-03
DAV:  22    -0.161303973867E+03   -0.57022E-04   -0.13918E-06  2424   0.209E-03    0.888E-04
DAV:  23    -0.161304001589E+03   -0.27723E-04   -0.73008E-07  2304   0.210E-03    0.913E-04
DAV:  24    -0.161304006364E+03   -0.47751E-05   -0.31136E-07  1936   0.173E-03    0.596E-04
DAV:  25    -0.161304008972E+03   -0.26074E-05   -0.20194E-07  1968   0.116E-03    0.344E-04
DAV:  26    -0.161304010739E+03   -0.17666E-05   -0.12194E-07  1904   0.108E-03    0.304E-04
DAV:  27    -0.161304011710E+03   -0.97164E-06   -0.90647E-08  1904   0.743E-04
   9 F= -.16130401E+03 E0= -.16128685E+03  d E =-.154231E-01  mag=    20.8502
 trial-energy change:   -0.015423  1 .order   -0.015365   -0.028015   -0.002715
 step:   1.6011(harm=  1.6034)  dis= 0.00922  next Energy=  -161.304155 (dE=-0.156E-01)
 bond charge predicted
       N       E                     dE             d eps       ncg     rms          rms(c)
DAV:   1    -0.161303817379E+03    0.19336E-03   -0.43212E-02  3192   0.418E-01    0.205E-01
DAV:   2    -0.161307341666E+03   -0.35243E-02   -0.44845E-03  4592   0.497E-01    0.183E+00
DAV:   3    -0.161302442507E+03    0.48992E-02   -0.33986E-03  4480   0.530E-01    0.410E-01
DAV:   4    -0.161304157299E+03   -0.17148E-02   -0.64146E-04  4344   0.190E-01    0.133E-01
DAV:   5    -0.161304071085E+03    0.86214E-04   -0.12032E-04  4584   0.998E-02    0.110E-01
DAV:   6    -0.161304046000E+03    0.25085E-04   -0.19825E-05  4256   0.293E-02    0.325E-02
DAV:   7    -0.161304062000E+03   -0.16000E-04   -0.12280E-05  4120   0.211E-02    0.186E-02
DAV:   8    -0.161304064908E+03   -0.29074E-05   -0.36860E-06  2704   0.142E-02    0.523E-02
DAV:   9    -0.161304060374E+03    0.45331E-05   -0.43308E-06  3168   0.109E-02    0.210E-02
DAV:  10    -0.161304075309E+03   -0.14935E-04   -0.79582E-07  2000   0.568E-03    0.626E-03
DAV:  11    -0.161304088500E+03   -0.13191E-04   -0.53518E-07  2104   0.346E-03    0.249E-03
DAV:  12    -0.161304103446E+03   -0.14946E-04   -0.36015E-07  1976   0.234E-03    0.278E-03
DAV:  13    -0.161304112369E+03   -0.89233E-05   -0.15585E-07  1920   0.159E-03    0.296E-03
DAV:  14    -0.161304121260E+03   -0.88902E-05   -0.12568E-07  1944   0.111E-03    0.220E-03
DAV:  15    -0.161304132759E+03   -0.11500E-04   -0.13985E-07  1976   0.101E-03    0.733E-04
DAV:  16    -0.161304140054E+03   -0.72949E-05   -0.10587E-07  1920   0.890E-04    0.426E-04
DAV:  17    -0.161304143597E+03   -0.35431E-05   -0.62441E-08  1912   0.767E-04    0.343E-04
DAV:  18    -0.161304148491E+03   -0.48932E-05   -0.68592E-08  1960   0.649E-04    0.497E-04
DAV:  19    -0.161304152322E+03   -0.38309E-05   -0.59957E-08  1920   0.658E-04    0.307E-04
DAV:  20    -0.161304156880E+03   -0.45585E-05   -0.90724E-08  1984   0.599E-04    0.348E-04
DAV:  21    -0.161304159877E+03   -0.29974E-05   -0.81218E-08  1960   0.713E-04    0.261E-04
DAV:  22    -0.161304160423E+03   -0.54508E-06   -0.42452E-08  1944   0.615E-04
  10 F= -.16130416E+03 E0= -.16128696E+03  d E =-.155718E-01  mag=    20.8550
 curvature:  -0.81 expect dE=-0.519E-02 dE for cont linesearch -0.224E-07
 trial: gam= 0.32985 g(F)=  0.644E-02 g(S)=  0.000E+00 ort = 0.233E-04 (trialstep = 0.148E+01)
 search vector abs. value=  0.857E-02
 bond charge predicted
       N       E                     dE             d eps       ncg     rms          rms(c)
DAV:   1    -0.161295804736E+03    0.83551E-02   -0.16811E+00  3040   0.266E+00    0.927E-01
DAV:   2    -0.161309223189E+03   -0.13418E-01   -0.11543E-01  4320   0.135E+00    0.913E-01
DAV:   3    -0.161334823887E+03   -0.25601E-01   -0.27144E-02  4472   0.146E+00    0.498E+00
DAV:   4    -0.161302371637E+03    0.32452E-01   -0.19642E-02  4392   0.116E+00    0.624E-01
DAV:   5    -0.161309826457E+03   -0.74548E-02   -0.35185E-03  4304   0.460E-01    0.273E-01
DAV:   6    -0.161309868747E+03   -0.42290E-04   -0.56556E-04  4576   0.114E-01    0.190E-01
DAV:   7    -0.161309829672E+03    0.39075E-04   -0.28193E-04  4544   0.857E-02    0.189E-01
DAV:   8    -0.161309766144E+03    0.63528E-04   -0.15380E-04  4392   0.675E-02    0.605E-02
DAV:   9    -0.161309831643E+03   -0.65498E-04   -0.54239E-05  4360   0.285E-02    0.386E-02
DAV:  10    -0.161309950913E+03   -0.11927E-03   -0.63995E-06  3448   0.132E-02    0.124E-02
DAV:  11    -0.161310041360E+03   -0.90447E-04   -0.21491E-06  2400   0.697E-03    0.106E-02
DAV:  12    -0.161310146802E+03   -0.10544E-03   -0.16212E-06  2360   0.568E-03    0.489E-03
DAV:  13    -0.161310240765E+03   -0.93963E-04   -0.21850E-06  2536   0.499E-03    0.571E-03
DAV:  14    -0.161310280557E+03   -0.39792E-04   -0.72431E-07  1984   0.326E-03    0.463E-03
DAV:  15    -0.161310317026E+03   -0.36469E-04   -0.54819E-07  2008   0.207E-03    0.247E-03
DAV:  16    -0.161310357144E+03   -0.40118E-04   -0.35960E-07  2048   0.194E-03    0.113E-03
DAV:  17    -0.161310419127E+03   -0.61983E-04   -0.93052E-07  2320   0.181E-03    0.123E-03
DAV:  18    -0.161310453965E+03   -0.34838E-04   -0.54664E-07  2176   0.183E-03    0.106E-03
DAV:  19    -0.161310460747E+03   -0.67827E-05   -0.22502E-07  1944   0.149E-03    0.833E-04
DAV:  20    -0.161310474129E+03   -0.13382E-04   -0.25514E-07  1976   0.109E-03    0.620E-04
DAV:  21    -0.161310491971E+03   -0.17841E-04   -0.43752E-07  2192   0.137E-03    0.773E-04
DAV:  22    -0.161310496123E+03   -0.41519E-05   -0.20916E-07  1968   0.143E-03    0.490E-04
DAV:  23    -0.161310497540E+03   -0.14179E-05   -0.12534E-07  1904   0.860E-04    0.262E-04
DAV:  24    -0.161310498922E+03   -0.13812E-05   -0.87501E-08  1896   0.807E-04    0.294E-04
DAV:  25    -0.161310499483E+03   -0.56104E-06   -0.56555E-08  1904   0.603E-04
  11 F= -.16131050E+03 E0= -.16129324E+03  d E =-.633906E-02  mag=    20.8624
 trial-energy change:   -0.006339  1 .order   -0.006321   -0.009532   -0.003111
 step:   2.1781(harm=  2.1951)  dis= 0.00963  next Energy=  -161.311237 (dE=-0.708E-02)
 bond charge predicted
       N       E                     dE             d eps       ncg     rms          rms(c)
DAV:   1    -0.161307963120E+03    0.25358E-02   -0.37614E-01  3096   0.126E+00    0.436E-01
DAV:   2    -0.161310859217E+03   -0.28961E-02   -0.25911E-02  4344   0.646E-01    0.540E-01
DAV:   3    -0.161318183128E+03   -0.73239E-02   -0.71626E-03  4480   0.751E-01    0.284E+00
DAV:   4    -0.161307661701E+03    0.10521E-01   -0.56899E-03  4304   0.632E-01    0.289E-01
DAV:   5    -0.161310969575E+03   -0.33079E-02   -0.90867E-04  4344   0.233E-01    0.117E-01
DAV:   6    -0.161311045640E+03   -0.76065E-04   -0.13316E-04  4544   0.585E-02    0.897E-02
DAV:   7    -0.161311032609E+03    0.13031E-04   -0.72929E-05  4552   0.453E-02    0.958E-02
DAV:   8    -0.161311008981E+03    0.23628E-04   -0.34032E-05  4352   0.342E-02    0.225E-02
DAV:   9    -0.161311031611E+03   -0.22630E-04   -0.10219E-05  4256   0.130E-02    0.186E-02
DAV:  10    -0.161311071106E+03   -0.39495E-04   -0.11792E-06  2320   0.805E-03    0.120E-02
DAV:  11    -0.161311106615E+03   -0.35509E-04   -0.11336E-06  2112   0.483E-03    0.101E-02
DAV:  12    -0.161311140270E+03   -0.33655E-04   -0.88004E-07  2088   0.386E-03    0.222E-03
DAV:  13    -0.161311159898E+03   -0.19628E-04   -0.54802E-07  1936   0.330E-03    0.145E-03
DAV:  14    -0.161311171013E+03   -0.11115E-04   -0.31174E-07  1944   0.176E-03    0.161E-03
DAV:  15    -0.161311189336E+03   -0.18323E-04   -0.22790E-07  1992   0.140E-03    0.115E-03
DAV:  16    -0.161311202792E+03   -0.13456E-04   -0.16763E-07  1936   0.105E-03    0.116E-03
DAV:  17    -0.161311220498E+03   -0.17706E-04   -0.23354E-07  2032   0.102E-03    0.927E-04
DAV:  18    -0.161311230321E+03   -0.98227E-05   -0.14203E-07  1960   0.106E-03    0.529E-04
DAV:  19    -0.161311236312E+03   -0.59908E-05   -0.11448E-07  1896   0.825E-04    0.479E-04
DAV:  20    -0.161311244243E+03   -0.79312E-05   -0.14024E-07  1984   0.840E-04    0.636E-04
DAV:  21    -0.161311250073E+03   -0.58301E-05   -0.13852E-07  1976   0.911E-04    0.354E-04
DAV:  22    -0.161311253250E+03   -0.31772E-05   -0.11997E-07  1936   0.837E-04    0.397E-04
DAV:  23    -0.161311254327E+03   -0.10768E-05   -0.73489E-08  1912   0.730E-04    0.219E-04
DAV:  24    -0.161311254898E+03   -0.57089E-06   -0.50146E-08  1888   0.542E-04
  12 F= -.16131125E+03 E0= -.16129397E+03  d E =-.709448E-02  mag=    20.8660
 curvature:  -1.46 expect dE=-0.239E-02 dE for cont linesearch -0.275E-06
 trial: gam= 0.24680 g(F)=  0.164E-02 g(S)=  0.000E+00 ort = 0.402E-04 (trialstep = 0.162E+01)
 search vector abs. value=  0.218E-02
 bond charge predicted
       N       E                     dE             d eps       ncg     rms          rms(c)
DAV:   1    -0.161308721907E+03    0.25324E-02   -0.56691E-01  3064   0.153E+00    0.527E-01
DAV:   2    -0.161316502165E+03   -0.77803E-02   -0.38183E-02  4392   0.891E-01    0.203E+00
DAV:   3    -0.161317705916E+03   -0.12038E-02   -0.15263E-02  4344   0.109E+00    0.266E+00
DAV:   4    -0.161310886822E+03    0.68191E-02   -0.58438E-03  4272   0.658E-01    0.413E-01
DAV:   5    -0.161312624342E+03   -0.17375E-02   -0.83059E-04  4456   0.260E-01    0.394E-01
DAV:   6    -0.161312557004E+03    0.67337E-04   -0.21050E-04  4600   0.712E-02    0.102E-01
DAV:   7    -0.161312791319E+03   -0.23431E-03   -0.92841E-05  4264   0.455E-02    0.169E-01
DAV:   8    -0.161312821611E+03   -0.30291E-04   -0.42533E-05  4592   0.370E-02    0.737E-02
DAV:   9    -0.161312910862E+03   -0.89252E-04   -0.10821E-05  4352   0.206E-02    0.111E-02
DAV:  10    -0.161312991374E+03   -0.80512E-04   -0.21632E-06  2320   0.792E-03    0.114E-02
DAV:  11    -0.161313063938E+03   -0.72564E-04   -0.10670E-06  2208   0.576E-03    0.542E-03
DAV:  12    -0.161313151639E+03   -0.87700E-04   -0.21330E-06  2496   0.391E-03    0.440E-03
DAV:  13    -0.161313206690E+03   -0.55052E-04   -0.74616E-07  2152   0.366E-03    0.430E-03
DAV:  14    -0.161313248539E+03   -0.41849E-04   -0.62544E-07  2208   0.297E-03    0.271E-03
DAV:  15    -0.161313293483E+03   -0.44943E-04   -0.80877E-07  2144   0.244E-03    0.462E-03
DAV:  16    -0.161313333407E+03   -0.39924E-04   -0.86532E-07  2224   0.216E-03    0.440E-03
DAV:  17    -0.161313350190E+03   -0.16783E-04   -0.37576E-07  2032   0.178E-03    0.334E-03
DAV:  18    -0.161313365336E+03   -0.15146E-04   -0.38360E-07  2008   0.143E-03    0.946E-04
DAV:  19    -0.161313372650E+03   -0.73144E-05   -0.24749E-07  1968   0.147E-03    0.697E-04
DAV:  20    -0.161313376218E+03   -0.35680E-05   -0.17375E-07  1928   0.113E-03    0.980E-04
DAV:  21    -0.161313377640E+03   -0.14224E-05   -0.11381E-07  1968   0.104E-03    0.493E-04
DAV:  22    -0.161313377829E+03   -0.18816E-06   -0.58579E-08  1936   0.705E-04
  13 F= -.16131338E+03 E0= -.16129582E+03  d E =-.212293E-02  mag=    20.8995
 trial-energy change:   -0.002123  1 .order   -0.002129   -0.002671   -0.001587
 step:   4.2096(harm=  3.9855)  dis= 0.01310  next Energy=  -161.314623 (dE=-0.337E-02)
 bond charge predicted
       N       E                     dE             d eps       ncg     rms          rms(c)
DAV:   1    -0.161302525136E+03    0.10853E-01   -0.14528E+00  3040   0.245E+00    0.839E-01
DAV:   2    -0.161322375039E+03   -0.19850E-01   -0.97754E-02  4344   0.141E+00    0.306E+00
DAV:   3    -0.161327100001E+03   -0.47250E-02   -0.39148E-02  4352   0.174E+00    0.413E+00
DAV:   4    -0.161309105855E+03    0.17994E-01   -0.13945E-02  4272   0.100E+00    0.695E-01
DAV:   5    -0.161312955164E+03   -0.38493E-02   -0.19054E-03  4384   0.378E-01    0.639E-01
DAV:   6    -0.161312839023E+03    0.11614E-03   -0.55735E-04  4616   0.122E-01    0.145E-01
DAV:   7    -0.161313368528E+03   -0.52950E-03   -0.22957E-04  4248   0.741E-02    0.259E-01
DAV:   8    -0.161313449659E+03   -0.81131E-04   -0.11180E-04  4560   0.570E-02    0.117E-01
DAV:   9    -0.161313641928E+03   -0.19227E-03   -0.30223E-05  4592   0.357E-02    0.186E-02
DAV:  10    -0.161313776273E+03   -0.13435E-03   -0.77146E-06  3368   0.151E-02    0.128E-02
DAV:  11    -0.161313897355E+03   -0.12108E-03   -0.11039E-06  2304   0.747E-03    0.823E-03
DAV:  12    -0.161314063355E+03   -0.16600E-03   -0.42785E-06  2976   0.576E-03    0.715E-03
DAV:  13    -0.161314187718E+03   -0.12436E-03   -0.16069E-06  2472   0.387E-03    0.734E-03
DAV:  14    -0.161314274710E+03   -0.86992E-04   -0.11414E-06  2272   0.369E-03    0.302E-03
DAV:  15    -0.161314354129E+03   -0.79419E-04   -0.13772E-06  2368   0.282E-03    0.455E-03
DAV:  16    -0.161314435215E+03   -0.81086E-04   -0.14692E-06  2408   0.282E-03    0.608E-03
DAV:  17    -0.161314475730E+03   -0.40515E-04   -0.81005E-07  2296   0.281E-03    0.344E-03
DAV:  18    -0.161314496814E+03   -0.21084E-04   -0.72467E-07  2128   0.232E-03    0.211E-03
DAV:  19    -0.161314501693E+03   -0.48785E-05   -0.34249E-07  1992   0.200E-03    0.101E-03
DAV:  20    -0.161314505072E+03   -0.33788E-05   -0.25131E-07  1928   0.123E-03    0.900E-04
DAV:  21    -0.161314505917E+03   -0.84545E-06   -0.11928E-07  1920   0.125E-03
  14 F= -.16131451E+03 E0= -.16129656E+03  d E =-.325102E-02  mag=    20.9518
 curvature:  -2.61 expect dE=-0.497E-02 dE for cont linesearch -0.118E-04
 trial: gam= 1.23494 g(F)=  0.190E-02 g(S)=  0.000E+00 ort =-0.995E-04 (trialstep = 0.935E+00)
 search vector abs. value=  0.499E-02
 bond charge predicted
       N       E                     dE             d eps       ncg     rms          rms(c)
DAV:   1    -0.161312323472E+03    0.21816E-02   -0.46022E-01  3056   0.136E+00    0.526E-01
DAV:   2    -0.161326762489E+03   -0.14439E-01   -0.33962E-02  4544   0.102E+00    0.339E+00
DAV:   3    -0.161314469098E+03    0.12293E-01   -0.20159E-02  4400   0.128E+00    0.196E+00
DAV:   4    -0.161314930871E+03   -0.46177E-03   -0.41273E-03  4272   0.517E-01    0.512E-01
DAV:   5    -0.161315145373E+03   -0.21450E-03   -0.53243E-04  4480   0.200E-01    0.419E-01
DAV:   6    -0.161315034517E+03    0.11086E-03   -0.17126E-04  4576   0.794E-02    0.749E-02
DAV:   7    -0.161315356033E+03   -0.32152E-03   -0.76831E-05  4128   0.508E-02    0.150E-01
DAV:   8    -0.161315442240E+03   -0.86207E-04   -0.47398E-05  4528   0.330E-02    0.141E-01
DAV:   9    -0.161315504991E+03   -0.62751E-04   -0.12029E-05  4392   0.240E-02    0.637E-02
DAV:  10    -0.161315583829E+03   -0.78838E-04   -0.31554E-06  2600   0.123E-02    0.178E-02
DAV:  11    -0.161315665906E+03   -0.82077E-04   -0.33522E-06  2808   0.751E-03    0.118E-02
DAV:  12    -0.161315714858E+03   -0.48952E-04   -0.72355E-07  2096   0.469E-03    0.388E-03
DAV:  13    -0.161315773765E+03   -0.58907E-04   -0.10825E-06  2272   0.305E-03    0.666E-03
DAV:  14    -0.161315847699E+03   -0.73934E-04   -0.12300E-06  2328   0.314E-03    0.252E-03
DAV:  15    -0.161315893146E+03   -0.45447E-04   -0.77176E-07  2240   0.257E-03    0.317E-03
DAV:  16    -0.161315911463E+03   -0.18317E-04   -0.39859E-07  1984   0.245E-03    0.182E-03
DAV:  17    -0.161315930527E+03   -0.19064E-04   -0.46133E-07  2088   0.168E-03    0.316E-03
DAV:  18    -0.161315949263E+03   -0.18736E-04   -0.53804E-07  2128   0.206E-03    0.112E-03
DAV:  19    -0.161315954703E+03   -0.54396E-05   -0.28424E-07  2024   0.158E-03    0.117E-03
DAV:  20    -0.161315956270E+03   -0.15677E-05   -0.14998E-07  1912   0.123E-03    0.976E-04
DAV:  21    -0.161315956822E+03   -0.55117E-06   -0.84580E-08  1912   0.881E-04
  15 F= -.16131596E+03 E0= -.16129776E+03  d E =-.145090E-02  mag=    20.9901
 trial-energy change:   -0.001451  1 .order   -0.001455   -0.001665   -0.001245
 step:   3.7032(harm=  3.7032)  dis= 0.02301  next Energy=  -161.317802 (dE=-0.330E-02)
 bond charge predicted
       N       E                     dE             d eps       ncg     rms          rms(c)
DAV:   1    -0.161285571640E+03    0.30385E-01   -0.40302E+00  3040   0.403E+00    0.155E+00
DAV:   2    -0.161400654496E+03   -0.11508E+00   -0.30067E-01  4504   0.313E+00    0.668E+00
DAV:   3    -0.161333409672E+03    0.67245E-01   -0.17149E-01  4432   0.380E+00    0.525E+00
DAV:   4    -0.161309308104E+03    0.24102E-01   -0.27559E-02  4280   0.135E+00    0.126E+00
DAV:   5    -0.161312030223E+03   -0.27221E-02   -0.38221E-03  4520   0.467E-01    0.488E-01
DAV:   6    -0.161313461750E+03   -0.14315E-02   -0.16523E-03  4472   0.317E-01    0.510E-01
DAV:   7    -0.161314932439E+03   -0.14707E-02   -0.85085E-04  4320   0.237E-01    0.553E-01
DAV:   8    -0.161315224835E+03   -0.29240E-03   -0.46857E-04  4536   0.917E-02    0.444E-01
DAV:   9    -0.161315710466E+03   -0.48563E-03   -0.18891E-04  4448   0.725E-02    0.196E-01
DAV:  10    -0.161316222547E+03   -0.51208E-03   -0.53802E-05  4400   0.389E-02    0.163E-01
DAV:  11    -0.161316447388E+03   -0.22484E-03   -0.16710E-05  4144   0.343E-02    0.715E-02
DAV:  12    -0.161316651001E+03   -0.20361E-03   -0.91578E-06  3712   0.170E-02    0.113E-02
DAV:  13    -0.161316905052E+03   -0.25405E-03   -0.50120E-06  3024   0.833E-03    0.825E-03
DAV:  14    -0.161317188290E+03   -0.28324E-03   -0.51556E-06  3200   0.723E-03    0.161E-02
DAV:  15    -0.161317387095E+03   -0.19881E-03   -0.29401E-06  2872   0.654E-03    0.719E-03
DAV:  16    -0.161317512985E+03   -0.12589E-03   -0.22984E-06  2656   0.418E-03    0.346E-03
DAV:  17    -0.161317647688E+03   -0.13470E-03   -0.37499E-06  2760   0.359E-03    0.499E-03
DAV:  18    -0.161317693653E+03   -0.45965E-04   -0.93868E-07  2464   0.258E-03    0.144E-03
DAV:  19    -0.161317702302E+03   -0.86495E-05   -0.29321E-07  1984   0.247E-03    0.451E-03
DAV:  20    -0.161317711300E+03   -0.89977E-05   -0.42713E-07  2072   0.158E-03    0.376E-03
DAV:  21    -0.161317713759E+03   -0.24593E-05   -0.21999E-07  1960   0.139E-03    0.189E-03
DAV:  22    -0.161317714841E+03   -0.10815E-05   -0.93962E-08  1904   0.101E-03    0.333E-04
DAV:  23    -0.161317715353E+03   -0.51169E-06   -0.55983E-08  1912   0.726E-04
  16 F= -.16131772E+03 E0= -.16129895E+03  d E =-.320944E-02  mag=    21.0975
 curvature:  -5.19 expect dE=-0.117E-01 dE for cont linesearch -0.289E-05
 trial: gam= 1.03752 g(F)=  0.227E-02 g(S)=  0.000E+00 ort =-0.527E-04 (trialstep = 0.987E+00)
 search vector abs. value=  0.752E-02
 bond charge predicted
       N       E                     dE             d eps       ncg     rms          rms(c)
DAV:   1    -0.161313257681E+03    0.44572E-02   -0.76111E-01  3040   0.175E+00    0.655E-01
DAV:   2    -0.161333756936E+03   -0.20499E-01   -0.52597E-02  4584   0.117E+00    0.405E+00
DAV:   3    -0.161318861302E+03    0.14896E-01   -0.27360E-02  4376   0.152E+00    0.259E+00
DAV:   4    -0.161317987547E+03    0.87375E-03   -0.50103E-03  4120   0.554E-01    0.809E-01
DAV:   5    -0.161318423679E+03   -0.43613E-03   -0.53683E-04  4496   0.170E-01    0.586E-01
DAV:   6    -0.161318366605E+03    0.57074E-04   -0.25776E-04  4744   0.120E-01    0.110E-01
DAV:   7    -0.161318868697E+03   -0.50209E-03   -0.14108E-04  4192   0.655E-02    0.178E-01
DAV:   8    -0.161318989963E+03   -0.12127E-03   -0.59039E-05  4544   0.373E-02    0.199E-01
DAV:   9    -0.161319036899E+03   -0.46936E-04   -0.18973E-05  4352   0.319E-02    0.774E-02
DAV:  10    -0.161319157466E+03   -0.12057E-03   -0.53292E-06  2944   0.138E-02    0.284E-02
DAV:  11    -0.161319273274E+03   -0.11581E-03   -0.46277E-06  2976   0.854E-03    0.184E-02
DAV:  12    -0.161319338574E+03   -0.65300E-04   -0.10147E-06  2240   0.519E-03    0.544E-03
DAV:  13    -0.161319425670E+03   -0.87096E-04   -0.16803E-06  2504   0.435E-03    0.984E-03
DAV:  14    -0.161319523765E+03   -0.98095E-04   -0.20933E-06  2552   0.483E-03    0.376E-03
DAV:  15    -0.161319584549E+03   -0.60784E-04   -0.13590E-06  2392   0.285E-03    0.655E-03
DAV:  16    -0.161319602233E+03   -0.17683E-04   -0.41979E-07  1976   0.261E-03    0.336E-03
DAV:  17    -0.161319628684E+03   -0.26452E-04   -0.65432E-07  2104   0.175E-03    0.382E-03
DAV:  18    -0.161319650959E+03   -0.22275E-04   -0.63044E-07  2184   0.227E-03    0.158E-03
DAV:  19    -0.161319655512E+03   -0.45522E-05   -0.32389E-07  2032   0.173E-03    0.117E-03
DAV:  20    -0.161319657013E+03   -0.15010E-05   -0.16993E-07  1896   0.128E-03    0.112E-03
DAV:  21    -0.161319657434E+03   -0.42154E-06   -0.96297E-08  1896   0.922E-04
  17 F= -.16131966E+03 E0= -.16130069E+03  d E =-.194208E-02  mag=    21.1482
 ZBRENT: can't locate minimum, use default step
 trial-energy change:   -0.001942  1 .order   -0.001938   -0.002181   -0.001695
 step:   3.9471(harm=  4.4261)  dis= 0.02852  next Energy=  -161.322608 (dE=-0.489E-02)
 bond charge predicted
       N       E                     dE             d eps       ncg     rms          rms(c)
DAV:   1    -0.161264323572E+03    0.55333E-01   -0.68504E+00  3040   0.525E+00    0.196E+00
DAV:   2    -0.161432932912E+03   -0.16861E+00   -0.48053E-01  4592   0.363E+00    0.784E+00
DAV:   3    -0.161356769325E+03    0.76164E-01   -0.24740E-01  4408   0.451E+00    0.732E+00
DAV:   4    -0.161311527575E+03    0.45242E-01   -0.35570E-02  4264   0.153E+00    0.228E+00
DAV:   5    -0.161311501871E+03    0.25704E-04   -0.62377E-03  4864   0.460E-01    0.402E-01
DAV:   6    -0.161317475009E+03   -0.59731E-02   -0.31931E-03  4488   0.455E-01    0.345E-01
DAV:   7    -0.161318436040E+03   -0.96103E-03   -0.12101E-03  4584   0.283E-01    0.667E-01
DAV:   8    -0.161318835488E+03   -0.39945E-03   -0.64313E-04  4416   0.102E-01    0.390E-01
DAV:   9    -0.161319819874E+03   -0.98439E-03   -0.25521E-04  4464   0.813E-02    0.987E-02
DAV:  10    -0.161320520416E+03   -0.70054E-03   -0.61939E-05  4288   0.399E-02    0.126E-01
DAV:  11    -0.161320824440E+03   -0.30402E-03   -0.14582E-05  4360   0.268E-02    0.357E-02
DAV:  12    -0.161321119846E+03   -0.29541E-03   -0.96014E-06  3752   0.142E-02    0.164E-02
DAV:  13    -0.161321473559E+03   -0.35371E-03   -0.73497E-06  3296   0.105E-02    0.110E-02
DAV:  14    -0.161321798421E+03   -0.32486E-03   -0.67419E-06  3448   0.746E-03    0.125E-02
DAV:  15    -0.161322035584E+03   -0.23716E-03   -0.45660E-06  3088   0.580E-03    0.632E-03
DAV:  16    -0.161322183960E+03   -0.14838E-03   -0.26827E-06  2696   0.371E-03    0.533E-03
DAV:  17    -0.161322308961E+03   -0.12500E-03   -0.36353E-06  2800   0.367E-03    0.410E-03
DAV:  18    -0.161322363033E+03   -0.54071E-04   -0.14382E-06  2512   0.307E-03    0.215E-03
DAV:  19    -0.161322372880E+03   -0.98472E-05   -0.51635E-07  2120   0.283E-03    0.181E-03
DAV:  20    -0.161322376015E+03   -0.31356E-05   -0.41248E-07  2008   0.162E-03    0.118E-03
DAV:  21    -0.161322377135E+03   -0.11194E-05   -0.17728E-07  1896   0.158E-03    0.181E-03
DAV:  22    -0.161322377663E+03   -0.52785E-06   -0.89362E-08  1920   0.925E-04
  18 F= -.16132238E+03 E0= -.16130310E+03  d E =-.466231E-02  mag=    21.2894
 curvature:  -7.39 expect dE=-0.163E-01 dE for cont linesearch -0.608E-05
 trial: gam= 0.81397 g(F)=  0.220E-02 g(S)=  0.000E+00 ort = 0.787E-04 (trialstep = 0.158E+01)
 search vector abs. value=  0.732E-02
 bond charge predicted
       N       E                     dE             d eps       ncg     rms          rms(c)
DAV:   1    -0.161309095525E+03    0.13282E-01   -0.20777E+00  3040   0.283E+00    0.117E+00
DAV:   2    -0.161401927900E+03   -0.92832E-01   -0.15638E-01  4768   0.244E+00    0.756E+00
DAV:   3    -0.161318454284E+03    0.83474E-01   -0.95371E-02  4416   0.289E+00    0.340E+00
DAV:   4    -0.161323048597E+03   -0.45943E-02   -0.14162E-02  4272   0.896E-01    0.122E+00
DAV:   5    -0.161322214689E+03    0.83391E-03   -0.17087E-03  4544   0.311E-01    0.760E-01
DAV:   6    -0.161322086743E+03    0.12795E-03   -0.62312E-04  4912   0.190E-01    0.192E-01
DAV:   7    -0.161323225297E+03   -0.11386E-02   -0.37359E-04  4296   0.142E-01    0.402E-01
DAV:   8    -0.161323466755E+03   -0.24146E-03   -0.20486E-04  4528   0.671E-02    0.424E-01
DAV:   9    -0.161323541345E+03   -0.74590E-04   -0.84119E-05  4504   0.681E-02    0.132E-01
DAV:  10    -0.161323966267E+03   -0.42492E-03   -0.29560E-05  4168   0.247E-02    0.915E-02
DAV:  11    -0.161324219972E+03   -0.25371E-03   -0.51047E-06  3064   0.184E-02    0.276E-02
DAV:  12    -0.161324476138E+03   -0.25617E-03   -0.93874E-06  3768   0.128E-02    0.173E-02
DAV:  13    -0.161324715998E+03   -0.23986E-03   -0.35480E-06  2688   0.778E-03    0.560E-03
DAV:  14    -0.161324959172E+03   -0.24317E-03   -0.43035E-06  3088   0.572E-03    0.809E-03
DAV:  15    -0.161325141055E+03   -0.18188E-03   -0.33321E-06  2824   0.425E-03    0.468E-03
DAV:  16    -0.161325221519E+03   -0.80465E-04   -0.11737E-06  2416   0.280E-03    0.445E-03
DAV:  17    -0.161325287133E+03   -0.65614E-04   -0.15995E-06  2408   0.273E-03    0.318E-03
DAV:  18    -0.161325310683E+03   -0.23550E-04   -0.59682E-07  2264   0.230E-03    0.128E-03
DAV:  19    -0.161325319707E+03   -0.90243E-05   -0.46299E-07  2032   0.187E-03    0.904E-04
DAV:  20    -0.161325321347E+03   -0.16398E-05   -0.19857E-07  1920   0.147E-03    0.168E-03
DAV:  21    -0.161325322672E+03   -0.13249E-05   -0.11511E-07  1968   0.104E-03    0.122E-03
DAV:  22    -0.161325323418E+03   -0.74667E-06   -0.61298E-08  1912   0.811E-04
  19 F= -.16132532E+03 E0= -.16130600E+03  d E =-.294576E-02  mag=    21.3762
 trial-energy change:   -0.002946  1 .order   -0.002945   -0.003580   -0.002311
 step:   4.4535(harm=  4.4535)  dis= 0.04090  next Energy=  -161.327427 (dE=-0.505E-02)
 bond charge predicted
       N       E                     dE             d eps       ncg     rms          rms(c)
DAV:   1    -0.161272732812E+03    0.52590E-01   -0.68900E+00  3040   0.516E+00    0.205E+00
DAV:   2    -0.161498177832E+03   -0.22545E+00   -0.49258E-01  4656   0.412E+00    0.934E+00
DAV:   3    -0.161345000595E+03    0.15318E+00   -0.26578E-01  4424   0.475E+00    0.716E+00
DAV:   4    -0.161315090957E+03    0.29910E-01   -0.33815E-02  4336   0.152E+00    0.194E+00
DAV:   5    -0.161316093528E+03   -0.10026E-02   -0.58443E-03  4576   0.473E-01    0.452E-01
DAV:   6    -0.161321003710E+03   -0.49102E-02   -0.30906E-03  4512   0.458E-01    0.363E-01
DAV:   7    -0.161322102052E+03   -0.10983E-02   -0.11644E-03  4664   0.275E-01    0.697E-01
DAV:   8    -0.161322349362E+03   -0.24731E-03   -0.61934E-04  4392   0.123E-01    0.323E-01
DAV:   9    -0.161323727690E+03   -0.13783E-02   -0.29645E-04  4504   0.862E-02    0.121E-01
DAV:  10    -0.161324652829E+03   -0.92514E-03   -0.64335E-05  4400   0.406E-02    0.160E-01
DAV:  11    -0.161325100631E+03   -0.44780E-03   -0.16802E-05  4416   0.324E-02    0.517E-02
DAV:  12    -0.161325434575E+03   -0.33394E-03   -0.10817E-05  3944   0.172E-02    0.161E-02
DAV:  13    -0.161325960832E+03   -0.52626E-03   -0.99630E-06  3472   0.109E-02    0.212E-02
DAV:  14    -0.161326457954E+03   -0.49712E-03   -0.87998E-06  3376   0.764E-03    0.610E-03
DAV:  15    -0.161326719709E+03   -0.26176E-03   -0.37745E-06  2824   0.508E-03    0.537E-03
DAV:  16    -0.161327031180E+03   -0.31147E-03   -0.81008E-06  3176   0.552E-03    0.103E-02
DAV:  17    -0.161327135377E+03   -0.10420E-03   -0.18093E-06  2704   0.409E-03    0.218E-03
DAV:  18    -0.161327170115E+03   -0.34738E-04   -0.56614E-07  2168   0.255E-03    0.181E-03
DAV:  19    -0.161327208179E+03   -0.38064E-04   -0.12548E-06  2256   0.226E-03    0.390E-03
DAV:  20    -0.161327217356E+03   -0.91775E-05   -0.46007E-07  2152   0.226E-03    0.217E-03
DAV:  21    -0.161327218617E+03   -0.12604E-05   -0.20678E-07  1976   0.139E-03    0.981E-04
DAV:  22    -0.161327219675E+03   -0.10586E-05   -0.99866E-08  1864   0.101E-03    0.613E-04
DAV:  23    -0.161327220674E+03   -0.99874E-06   -0.54488E-08  1904   0.788E-04
  20 F= -.16132722E+03 E0= -.16130807E+03  d E =-.484301E-02  mag=    21.5195
 curvature:  -7.18 expect dE=-0.165E-01 dE for cont linesearch -0.343E-04
 trial: gam= 0.99176 g(F)=  0.229E-02 g(S)=  0.000E+00 ort =-0.187E-03 (trialstep = 0.173E+01)
 search vector abs. value=  0.912E-02
 bond charge predicted
       N       E                     dE             d eps       ncg     rms          rms(c)
DAV:   1    -0.161305550680E+03    0.21669E-01   -0.29842E+00  3040   0.340E+00    0.113E+00
DAV:   2    -0.161331275127E+03   -0.25724E-01   -0.16959E-01  4320   0.153E+00    0.284E+00
DAV:   3    -0.161376946420E+03   -0.45671E-01   -0.52869E-02  4368   0.214E+00    0.812E+00
DAV:   4    -0.161313500916E+03    0.63446E-01   -0.21678E-02  4232   0.146E+00    0.159E+00
DAV:   5    -0.161324405268E+03   -0.10904E-01   -0.41140E-03  4280   0.380E-01    0.814E-01
DAV:   6    -0.161327390040E+03   -0.29848E-02   -0.93427E-04  4336   0.171E-01    0.374E-01
DAV:   7    -0.161328533103E+03   -0.11431E-02   -0.43491E-04  4416   0.123E-01    0.602E-01
DAV:   8    -0.161328275359E+03    0.25774E-03   -0.39224E-04  4520   0.148E-01    0.103E-01
DAV:   9    -0.161328838040E+03   -0.56268E-03   -0.10982E-04  3776   0.413E-02    0.908E-02
DAV:  10    -0.161329032779E+03   -0.19474E-03   -0.17697E-05  4160   0.261E-02    0.370E-02
DAV:  11    -0.161329173740E+03   -0.14096E-03   -0.44365E-06  3048   0.956E-03    0.295E-02
DAV:  12    -0.161329330962E+03   -0.15722E-03   -0.33132E-06  2864   0.968E-03    0.119E-02
DAV:  13    -0.161329452316E+03   -0.12135E-03   -0.44800E-06  3184   0.766E-03    0.134E-02
DAV:  14    -0.161329564647E+03   -0.11233E-03   -0.22230E-06  2664   0.593E-03    0.133E-02
DAV:  15    -0.161329665506E+03   -0.10086E-03   -0.22356E-06  2640   0.368E-03    0.172E-02
DAV:  16    -0.161329717150E+03   -0.51644E-04   -0.72657E-07  2224   0.319E-03    0.845E-03
DAV:  17    -0.161329789806E+03   -0.72656E-04   -0.25139E-06  2480   0.319E-03    0.238E-03
DAV:  18    -0.161329820213E+03   -0.30407E-04   -0.97982E-07  2304   0.250E-03    0.191E-03
DAV:  19    -0.161329826200E+03   -0.59871E-05   -0.36455E-07  2080   0.223E-03    0.219E-03
DAV:  20    -0.161329829173E+03   -0.29732E-05   -0.28075E-07  1984   0.158E-03    0.914E-04
DAV:  21    -0.161329829863E+03   -0.69049E-06   -0.13555E-07  1920   0.125E-03
  21 F= -.16132983E+03 E0= -.16131085E+03  d E =-.260919E-02  mag=    21.5942
 trial-energy change:   -0.002609  1 .order   -0.002617   -0.003644   -0.001591
 step:   3.1268(harm=  3.0662)  dis= 0.02899  next Energy=  -161.330469 (dE=-0.325E-02)
 bond charge predicted
       N       E                     dE             d eps       ncg     rms          rms(c)
DAV:   1    -0.161314509678E+03    0.15319E-01   -0.19566E+00  3040   0.274E+00    0.908E-01
DAV:   2    -0.161328834927E+03   -0.14325E-01   -0.10925E-01  4320   0.117E+00    0.140E+00
DAV:   3    -0.161372937056E+03   -0.44102E-01   -0.32216E-02  4328   0.171E+00    0.762E+00
DAV:   4    -0.161313498913E+03    0.59438E-01   -0.17593E-02  4144   0.135E+00    0.107E+00
DAV:   5    -0.161326459817E+03   -0.12961E-01   -0.39582E-03  4088   0.308E-01    0.448E-01
DAV:   6    -0.161328979890E+03   -0.25201E-02   -0.64042E-04  4152   0.131E-01    0.274E-01
DAV:   7    -0.161329723890E+03   -0.74400E-03   -0.29448E-04  4456   0.102E-01    0.562E-01
DAV:   8    -0.161329347268E+03    0.37662E-03   -0.24608E-04  4472   0.128E-01    0.547E-02
DAV:   9    -0.161329761416E+03   -0.41415E-03   -0.72535E-05  3720   0.318E-02    0.102E-01
DAV:  10    -0.161329881813E+03   -0.12040E-03   -0.18116E-05  3888   0.283E-02    0.291E-02
DAV:  11    -0.161329982220E+03   -0.10041E-03   -0.36929E-06  2648   0.852E-03    0.293E-02
DAV:  12    -0.161330072916E+03   -0.90696E-04   -0.20823E-06  2600   0.938E-03    0.124E-02
DAV:  13    -0.161330166026E+03   -0.93109E-04   -0.40221E-06  3104   0.695E-03    0.469E-03
DAV:  14    -0.161330223684E+03   -0.57658E-04   -0.93354E-07  2296   0.356E-03    0.856E-03
DAV:  15    -0.161330289883E+03   -0.66200E-04   -0.15437E-06  2376   0.288E-03    0.142E-02
DAV:  16    -0.161330337031E+03   -0.47147E-04   -0.84008E-07  2224   0.278E-03    0.946E-03
DAV:  17    -0.161330372074E+03   -0.35044E-04   -0.96706E-07  2240   0.271E-03    0.279E-03
DAV:  18    -0.161330398735E+03   -0.26660E-04   -0.10296E-06  2248   0.258E-03    0.173E-03
DAV:  19    -0.161330404555E+03   -0.58199E-05   -0.38764E-07  2096   0.207E-03    0.361E-03
DAV:  20    -0.161330410194E+03   -0.56394E-05   -0.33235E-07  2040   0.174E-03    0.697E-04
DAV:  21    -0.161330411045E+03   -0.85103E-06   -0.15773E-07  1920   0.140E-03
  22 F= -.16133041E+03 E0= -.16131157E+03  d E =-.319037E-02  mag=    21.6508
 curvature:  -6.62 expect dE=-0.525E-02 dE for cont linesearch -0.591E-05
 trial: gam= 0.12934 g(F)=  0.794E-03 g(S)=  0.000E+00 ort =-0.903E-04 (trialstep = 0.201E+01)
 search vector abs. value=  0.923E-03
 bond charge predicted
       N       E                     dE             d eps       ncg     rms          rms(c)
DAV:   1    -0.161328476085E+03    0.19341E-02   -0.35421E-01  3160   0.121E+00    0.412E-01
DAV:   2    -0.161331325276E+03   -0.28492E-02   -0.22903E-02  4312   0.570E-01    0.747E-01
DAV:   3    -0.161339109218E+03   -0.77839E-02   -0.52285E-03  4432   0.720E-01    0.328E+00
DAV:   4    -0.161327095042E+03    0.12014E-01   -0.37326E-03  4272   0.602E-01    0.143E-01
DAV:   5    -0.161331091978E+03   -0.39969E-02   -0.92686E-04  3960   0.134E-01    0.239E-01
DAV:   6    -0.161331257597E+03   -0.16562E-03   -0.18116E-04  4432   0.990E-02    0.952E-02
DAV:   7    -0.161331263756E+03   -0.61594E-05   -0.61404E-05  4432   0.401E-02    0.200E-01
DAV:   8    -0.161331183289E+03    0.80467E-04   -0.38702E-05  4352   0.486E-02    0.623E-02
DAV:   9    -0.161331240050E+03   -0.56761E-04   -0.10802E-05  3728   0.202E-02    0.298E-02
DAV:  10    -0.161331275918E+03   -0.35868E-04   -0.11450E-06  2544   0.996E-03    0.590E-03
DAV:  11    -0.161331326529E+03   -0.50611E-04   -0.11180E-06  2232   0.407E-03    0.126E-02
DAV:  12    -0.161331367675E+03   -0.41147E-04   -0.84944E-07  2136   0.377E-03    0.336E-03
DAV:  13    -0.161331385679E+03   -0.18004E-04   -0.41966E-07  1976   0.215E-03    0.136E-03
DAV:  14    -0.161331397355E+03   -0.11676E-04   -0.20834E-07  1896   0.153E-03    0.111E-03
DAV:  15    -0.161331419971E+03   -0.22616E-04   -0.23932E-07  2032   0.118E-03    0.916E-04
DAV:  16    -0.161331455715E+03   -0.35744E-04   -0.47799E-07  2208   0.153E-03    0.772E-04
DAV:  17    -0.161331471813E+03   -0.16098E-04   -0.30101E-07  2104   0.169E-03    0.633E-04
DAV:  18    -0.161331475840E+03   -0.40267E-05   -0.16180E-07  1952   0.117E-03    0.440E-04
DAV:  19    -0.161331482559E+03   -0.67198E-05   -0.14049E-07  1960   0.897E-04    0.492E-04
DAV:  20    -0.161331494560E+03   -0.12001E-04   -0.26437E-07  2104   0.975E-04    0.752E-04
DAV:  21    -0.161331499620E+03   -0.50598E-05   -0.17218E-07  2080   0.116E-03    0.382E-04
DAV:  22    -0.161331500874E+03   -0.12546E-05   -0.10257E-07  1904   0.842E-04    0.210E-04
DAV:  23    -0.161331501309E+03   -0.43501E-06   -0.53405E-08  1920   0.650E-04
  23 F= -.16133150E+03 E0= -.16131269E+03  d E =-.109026E-02  mag=    21.6541
 trial-energy change:   -0.001090  1 .order   -0.001098   -0.001571   -0.000625
 step:   3.4537(harm=  3.3330)  dis= 0.00425  next Energy=  -161.331723 (dE=-0.131E-02)
 bond charge predicted
       N       E                     dE             d eps       ncg     rms          rms(c)
DAV:   1    -0.161330135794E+03    0.13651E-02   -0.18381E-01  3144   0.869E-01    0.297E-01
DAV:   2    -0.161331554737E+03   -0.14189E-02   -0.11852E-02  4272   0.408E-01    0.536E-01
DAV:   3    -0.161335559749E+03   -0.40050E-02   -0.27342E-03  4400   0.518E-01    0.233E+00
DAV:   4    -0.161329181151E+03    0.63786E-02   -0.19124E-03  4296   0.435E-01    0.103E-01
DAV:   5    -0.161331449773E+03   -0.22686E-02   -0.45274E-04  3960   0.952E-02    0.168E-01
DAV:   6    -0.161331556085E+03   -0.10631E-03   -0.92856E-05  4336   0.706E-02    0.718E-02
DAV:   7    -0.161331551473E+03    0.46127E-05   -0.31374E-05  4304   0.285E-02    0.145E-01
DAV:   8    -0.161331502832E+03    0.48641E-04   -0.20192E-05  4272   0.354E-02    0.450E-02
DAV:   9    -0.161331536008E+03   -0.33176E-04   -0.51000E-06  2904   0.147E-02    0.236E-02
DAV:  10    -0.161331558966E+03   -0.22959E-04   -0.92518E-07  2288   0.821E-03    0.393E-03
DAV:  11    -0.161331590239E+03   -0.31273E-04   -0.92707E-07  2264   0.373E-03    0.114E-02
DAV:  12    -0.161331615940E+03   -0.25701E-04   -0.56989E-07  2088   0.325E-03    0.346E-03
DAV:  13    -0.161331627454E+03   -0.11514E-04   -0.30132E-07  1928   0.164E-03    0.138E-03
DAV:  14    -0.161331634205E+03   -0.67503E-05   -0.13355E-07  1912   0.132E-03    0.102E-03
DAV:  15    -0.161331645322E+03   -0.11118E-04   -0.12081E-07  1960   0.875E-04    0.114E-03
DAV:  16    -0.161331672906E+03   -0.27584E-04   -0.37015E-07  2136   0.118E-03    0.626E-04
DAV:  17    -0.161331683059E+03   -0.10152E-04   -0.18450E-07  2032   0.136E-03    0.484E-04
DAV:  18    -0.161331685229E+03   -0.21698E-05   -0.94461E-08  1968   0.909E-04    0.494E-04
DAV:  19    -0.161331688039E+03   -0.28106E-05   -0.63871E-08  1872   0.671E-04    0.389E-04
DAV:  20    -0.161331695063E+03   -0.70234E-05   -0.11864E-07  2048   0.648E-04    0.575E-04
DAV:  21    -0.161331699695E+03   -0.46326E-05   -0.10596E-07  2048   0.832E-04    0.285E-04
DAV:  22    -0.161331701175E+03   -0.14798E-05   -0.71000E-08  1904   0.701E-04    0.227E-04
DAV:  23    -0.161331701687E+03   -0.51221E-06   -0.39457E-08  1904   0.548E-04
  24 F= -.16133170E+03 E0= -.16131290E+03  d E =-.129064E-02  mag=    21.6564
 curvature:  -1.95 expect dE=-0.146E-02 dE for cont linesearch -0.156E-05
 trial: gam= 0.96421 g(F)=  0.748E-03 g(S)=  0.000E+00 ort =-0.272E-04 (trialstep = 0.136E+01)
 search vector abs. value=  0.155E-02
 bond charge predicted
       N       E                     dE             d eps       ncg     rms          rms(c)
DAV:   1    -0.161330384946E+03    0.13162E-02   -0.26183E-01  3088   0.102E+00    0.359E-01
DAV:   2    -0.161335465514E+03   -0.50806E-02   -0.20364E-02  4384   0.690E-01    0.183E+00
DAV:   3    -0.161332144683E+03    0.33208E-02   -0.46651E-03  4336   0.684E-01    0.128E+00
DAV:   4    -0.161331890402E+03    0.25428E-03   -0.97738E-04  4176   0.273E-01    0.126E-01
DAV:   5    -0.161332267619E+03   -0.37722E-03   -0.12889E-04  4024   0.405E-02    0.839E-02
DAV:   6    -0.161332331999E+03   -0.64381E-04   -0.43851E-05  4216   0.338E-02    0.611E-02
DAV:   7    -0.161332342894E+03   -0.10895E-04   -0.22821E-05  4392   0.173E-02    0.603E-02
DAV:   8    -0.161332346726E+03   -0.38320E-05   -0.44006E-06  3192   0.119E-02    0.365E-02
DAV:   9    -0.161332357196E+03   -0.10470E-04   -0.32571E-06  2832   0.105E-02    0.320E-02
DAV:  10    -0.161332361688E+03   -0.44918E-05   -0.12798E-06  2336   0.101E-02    0.792E-03
DAV:  11    -0.161332369193E+03   -0.75054E-05   -0.59343E-07  1952   0.502E-03    0.436E-03
DAV:  12    -0.161332374771E+03   -0.55774E-05   -0.43259E-07  2000   0.275E-03    0.146E-03
DAV:  13    -0.161332378944E+03   -0.41736E-05   -0.18335E-07  1992   0.159E-03    0.142E-03
DAV:  14    -0.161332382630E+03   -0.36854E-05   -0.73282E-08  2024   0.106E-03    0.181E-03
DAV:  15    -0.161332385985E+03   -0.33549E-05   -0.41888E-08  1984   0.859E-04    0.134E-03
DAV:  16    -0.161332389794E+03   -0.38093E-05   -0.51490E-08  1992   0.688E-04    0.118E-03
DAV:  17    -0.161332392334E+03   -0.25395E-05   -0.36331E-08  1944   0.618E-04    0.303E-04
DAV:  18    -0.161332393930E+03   -0.15961E-05   -0.26228E-08  1904   0.519E-04    0.507E-04
DAV:  19    -0.161332395219E+03   -0.12891E-05   -0.18178E-08  1968   0.421E-04    0.279E-04
DAV:  20    -0.161332397334E+03   -0.21157E-05   -0.29423E-08  2024   0.364E-04    0.236E-04
DAV:  21    -0.161332398875E+03   -0.15407E-05   -0.26131E-08  1984   0.369E-04    0.263E-04
DAV:  22    -0.161332399532E+03   -0.65652E-06   -0.18498E-08  1896   0.319E-04
  25 F= -.16133240E+03 E0= -.16131360E+03  d E =-.697844E-03  mag=    21.6514
 trial-energy change:   -0.000698  1 .order   -0.000699   -0.000985   -0.000413
 step:   2.3502(harm=  2.3502)  dis= 0.00521  next Energy=  -161.332550 (dE=-0.848E-03)
 reached required accuracy - stopping structural energy minimisation
Note: The following floating-point exceptions are signalling: IEEE_OVERFLOW_FLAG IEEE_UNDERFLOW_FLAG IEEE_DENORMAL
Note: The following floating-point exceptions are signalling: IEEE_OVERFLOW_FLAG IEEE_UNDERFLOW_FLAG IEEE_DENORMAL
Note: The following floating-point exceptions are signalling: IEEE_OVERFLOW_FLAG IEEE_UNDERFLOW_FLAG IEEE_DENORMAL
Note: The following floating-point exceptions are signalling: IEEE_OVERFLOW_FLAG IEEE_UNDERFLOW_FLAG IEEE_DENORMAL
Note: The following floating-point exceptions are signalling: IEEE_OVERFLOW_FLAG IEEE_UNDERFLOW_FLAG IEEE_DENORMAL
Note: The following floating-point exceptions are signalling: IEEE_OVERFLOW_FLAG IEEE_UNDERFLOW_FLAG IEEE_DENORMAL
Note: The following floating-point exceptions are signalling: IEEE_OVERFLOW_FLAG IEEE_UNDERFLOW_FLAG IEEE_DENORMAL
Note: The following floating-point exceptions are signalling: IEEE_OVERFLOW_FLAG IEEE_UNDERFLOW_FLAG IEEE_DENORMAL
Note: The following floating-point exceptions are signalling: IEEE_OVERFLOW_FLAG IEEE_UNDERFLOW_FLAG IEEE_DENORMAL
Note: The following floating-point exceptions are signalling: IEEE_OVERFLOW_FLAG IEEE_UNDERFLOW_FLAG IEEE_DENORMAL
Note: The following floating-point exceptions are signalling: IEEE_OVERFLOW_FLAG IEEE_UNDERFLOW_FLAG IEEE_DENORMAL
Note: The following floating-point exceptions are signalling: IEEE_OVERFLOW_FLAG IEEE_UNDERFLOW_FLAG IEEE_DENORMAL
Note: The following floating-point exceptions are signalling: IEEE_OVERFLOW_FLAG IEEE_UNDERFLOW_FLAG IEEE_DENORMAL
Note: The following floating-point exceptions are signalling: IEEE_OVERFLOW_FLAG IEEE_UNDERFLOW_FLAG IEEE_DENORMAL
Note: The following floating-point exceptions are signalling: IEEE_OVERFLOW_FLAG IEEE_UNDERFLOW_FLAG IEEE_DENORMAL
Note: The following floating-point exceptions are signalling: IEEE_OVERFLOW_FLAG IEEE_UNDERFLOW_FLAG IEEE_DENORMAL
Note: The following floating-point exceptions are signalling: IEEE_OVERFLOW_FLAG IEEE_UNDERFLOW_FLAG IEEE_DENORMAL
Note: The following floating-point exceptions are signalling: IEEE_OVERFLOW_FLAG IEEE_UNDERFLOW_FLAG IEEE_DENORMAL
Note: The following floating-point exceptions are signalling: IEEE_OVERFLOW_FLAG IEEE_UNDERFLOW_FLAG IEEE_DENORMAL
Note: The following floating-point exceptions are signalling: IEEE_OVERFLOW_FLAG IEEE_UNDERFLOW_FLAG IEEE_DENORMAL
Note: The following floating-point exceptions are signalling: IEEE_OVERFLOW_FLAG IEEE_UNDERFLOW_FLAG IEEE_DENORMAL
Note: The following floating-point exceptions are signalling: IEEE_OVERFLOW_FLAG IEEE_UNDERFLOW_FLAG IEEE_DENORMAL
Note: The following floating-point exceptions are signalling: IEEE_OVERFLOW_FLAG IEEE_UNDERFLOW_FLAG IEEE_DENORMAL
Note: The following floating-point exceptions are signalling: IEEE_OVERFLOW_FLAG IEEE_UNDERFLOW_FLAG IEEE_DENORMAL
Note: The following floating-point exceptions are signalling: IEEE_OVERFLOW_FLAG IEEE_UNDERFLOW_FLAG IEEE_DENORMAL
Note: The following floating-point exceptions are signalling: IEEE_OVERFLOW_FLAG IEEE_UNDERFLOW_FLAG IEEE_DENORMAL
Note: The following floating-point exceptions are signalling: IEEE_OVERFLOW_FLAG IEEE_UNDERFLOW_FLAG IEEE_DENORMAL
Note: The following floating-point exceptions are signalling: IEEE_OVERFLOW_FLAG IEEE_UNDERFLOW_FLAG IEEE_DENORMAL
Note: The following floating-point exceptions are signalling: IEEE_OVERFLOW_FLAG IEEE_UNDERFLOW_FLAG IEEE_DENORMAL
Note: The following floating-point exceptions are signalling: IEEE_OVERFLOW_FLAG IEEE_UNDERFLOW_FLAG IEEE_DENORMAL
Note: The following floating-point exceptions are signalling: IEEE_OVERFLOW_FLAG IEEE_UNDERFLOW_FLAG IEEE_DENORMAL
Note: The following floating-point exceptions are signalling: IEEE_OVERFLOW_FLAG IEEE_UNDERFLOW_FLAG IEEE_DENORMAL
Note: The following floating-point exceptions are signalling: IEEE_OVERFLOW_FLAG IEEE_UNDERFLOW_FLAG IEEE_DENORMAL
Note: The following floating-point exceptions are signalling: IEEE_OVERFLOW_FLAG IEEE_UNDERFLOW_FLAG IEEE_DENORMAL
Note: The following floating-point exceptions are signalling: IEEE_OVERFLOW_FLAG IEEE_UNDERFLOW_FLAG IEEE_DENORMAL
Note: The following floating-point exceptions are signalling: IEEE_OVERFLOW_FLAG IEEE_UNDERFLOW_FLAG IEEE_DENORMAL
Note: The following floating-point exceptions are signalling: IEEE_OVERFLOW_FLAG IEEE_UNDERFLOW_FLAG IEEE_DENORMAL
Note: The following floating-point exceptions are signalling: IEEE_OVERFLOW_FLAG IEEE_UNDERFLOW_FLAG IEEE_DENORMAL
Note: The following floating-point exceptions are signalling: IEEE_OVERFLOW_FLAG IEEE_UNDERFLOW_FLAG IEEE_DENORMAL
Note: The following floating-point exceptions are signalling: IEEE_OVERFLOW_FLAG IEEE_UNDERFLOW_FLAG IEEE_DENORMAL
Note: The following floating-point exceptions are signalling: IEEE_OVERFLOW_FLAG IEEE_UNDERFLOW_FLAG IEEE_DENORMAL
Note: The following floating-point exceptions are signalling: IEEE_OVERFLOW_FLAG IEEE_UNDERFLOW_FLAG IEEE_DENORMAL
Note: The following floating-point exceptions are signalling: IEEE_OVERFLOW_FLAG IEEE_UNDERFLOW_FLAG IEEE_DENORMAL
Note: The following floating-point exceptions are signalling: IEEE_OVERFLOW_FLAG IEEE_UNDERFLOW_FLAG IEEE_DENORMAL
Note: The following floating-point exceptions are signalling: IEEE_OVERFLOW_FLAG IEEE_UNDERFLOW_FLAG IEEE_DENORMAL
Note: The following floating-point exceptions are signalling: IEEE_OVERFLOW_FLAG IEEE_UNDERFLOW_FLAG IEEE_DENORMAL
Note: The following floating-point exceptions are signalling: IEEE_OVERFLOW_FLAG IEEE_UNDERFLOW_FLAG IEEE_DENORMAL
Note: The following floating-point exceptions are signalling: IEEE_OVERFLOW_FLAG IEEE_UNDERFLOW_FLAG IEEE_DENORMAL
Note: The following floating-point exceptions are signalling: IEEE_OVERFLOW_FLAG IEEE_UNDERFLOW_FLAG IEEE_DENORMAL
Note: The following floating-point exceptions are signalling: IEEE_OVERFLOW_FLAG IEEE_UNDERFLOW_FLAG IEEE_DENORMAL
Note: The following floating-point exceptions are signalling: IEEE_OVERFLOW_FLAG IEEE_UNDERFLOW_FLAG IEEE_DENORMAL
Note: The following floating-point exceptions are signalling: IEEE_OVERFLOW_FLAG IEEE_UNDERFLOW_FLAG IEEE_DENORMAL
Note: The following floating-point exceptions are signalling: IEEE_OVERFLOW_FLAG IEEE_UNDERFLOW_FLAG IEEE_DENORMAL
Note: The following floating-point exceptions are signalling: IEEE_OVERFLOW_FLAG IEEE_UNDERFLOW_FLAG IEEE_DENORMAL
Note: The following floating-point exceptions are signalling: IEEE_OVERFLOW_FLAG IEEE_UNDERFLOW_FLAG IEEE_DENORMAL
Note: The following floating-point exceptions are signalling: IEEE_OVERFLOW_FLAG IEEE_UNDERFLOW_FLAG IEEE_DENORMAL
Note: The following floating-point exceptions are signalling: IEEE_OVERFLOW_FLAG IEEE_UNDERFLOW_FLAG IEEE_DENORMAL
Note: The following floating-point exceptions are signalling: IEEE_OVERFLOW_FLAG IEEE_UNDERFLOW_FLAG IEEE_DENORMAL
Note: The following floating-point exceptions are signalling: IEEE_OVERFLOW_FLAG IEEE_UNDERFLOW_FLAG IEEE_DENORMAL
Note: The following floating-point exceptions are signalling: IEEE_OVERFLOW_FLAG IEEE_UNDERFLOW_FLAG IEEE_DENORMAL
Note: The following floating-point exceptions are signalling: IEEE_OVERFLOW_FLAG IEEE_UNDERFLOW_FLAG IEEE_DENORMAL
Note: The following floating-point exceptions are signalling: IEEE_OVERFLOW_FLAG IEEE_UNDERFLOW_FLAG IEEE_DENORMAL
Note: The following floating-point exceptions are signalling: IEEE_OVERFLOW_FLAG IEEE_UNDERFLOW_FLAG IEEE_DENORMAL
Note: The following floating-point exceptions are signalling: IEEE_OVERFLOW_FLAG IEEE_UNDERFLOW_FLAG IEEE_DENORMAL
