CrCl3 2x2 + Fe S2 hollow (no_vdw, U=0) (
   1.0000000000000000     
    12.0925489970493256    0.0000000000000000    0.0000000000000000
    -6.0462744985246628   10.4724546279527502    0.0000000000000000
     0.0000000000000000    0.0000000000000000   20.0000000000000000
   Cr   Cl   Fe
     8    24     1
Direct
  0.1633016893186364  0.3316458658091989  0.5029102457466136
  0.3316458658091989  0.1633016893186364  0.5029102457466136
  0.6683541341908013  0.3316558235094231  0.5029102457466136
  0.8333333333333286  0.1666666666666714  0.5029632070890264
  0.1666666666666714  0.8333333333333286  0.5029632070890264
  0.3316558235094231  0.6683541341908013  0.5029102457466136
  0.6683441764905764  0.8366983106813635  0.5029102457466136
  0.8366983106813635  0.6683441764905764  0.5029102457466136
  0.1775369656977900  0.5000000000000000  0.4374915519476567
  0.5000000000000000  0.1775369656977900  0.4374915519476567
  0.3268465749851053  0.3268465749851053  0.4340088308267008
  0.3273025252414173  0.5000000000000000  0.5713924295853220
 -0.0018397950012639  0.3196033558411650  0.5709305307054600
  0.1772604991729405  0.1772604991729405  0.5683447307045292
  0.6731534250148949  0.5000000000000000  0.4340088308267008
 -0.0018703090215886  0.1784220694885169  0.4349984522515684
  0.8215779305114829  0.3197076214898943  0.4349984522515684
  0.8227395008270592  0.5000000000000000  0.5683447307045292
  0.5000000000000000  0.3273025252414173  0.5713924295853220
  0.6803966441588353  0.1785568491575711  0.5709305307054600
  0.1784220694885169 -0.0018703090215886  0.4349984522515684
  0.5000000000000000  0.6731534250148949  0.4340088308267008
  0.3197076214898943  0.8215779305114829  0.4349984522515684
  0.3196033558411650 -0.0018397950012639  0.5709305307054600
  0.0018397950012639  0.8214431508424291  0.5709305307054600
  0.1785568491575711  0.6803966441588353  0.5709305307054600
  0.6802923785101058  0.0018703090215886  0.4349984522515684
  0.0018703090215886  0.6802923785101058  0.4349984522515684
  0.8224630343022102  0.8224630343022102  0.4374915519476567
  0.8214431508424291  0.0018397950012639  0.5709305307054600
  0.5000000000000000  0.8227395008270592  0.5683447307045292
  0.6726974747585831  0.6726974747585831  0.5713924295853220
  0.5000000000000000  0.5000000000000000  0.5023255844074680

  0.00000000E+00  0.00000000E+00  0.00000000E+00
  0.00000000E+00  0.00000000E+00  0.00000000E+00
  0.00000000E+00  0.00000000E+00  0.00000000E+00
  0.00000000E+00  0.00000000E+00  0.00000000E+00
  0.00000000E+00  0.00000000E+00  0.00000000E+00
  0.00000000E+00  0.00000000E+00  0.00000000E+00
  0.00000000E+00  0.00000000E+00  0.00000000E+00
  0.00000000E+00  0.00000000E+00  0.00000000E+00
  0.00000000E+00  0.00000000E+00  0.00000000E+00
  0.00000000E+00  0.00000000E+00  0.00000000E+00
  0.00000000E+00  0.00000000E+00  0.00000000E+00
  0.00000000E+00  0.00000000E+00  0.00000000E+00
  0.00000000E+00  0.00000000E+00  0.00000000E+00
  0.00000000E+00  0.00000000E+00  0.00000000E+00
  0.00000000E+00  0.00000000E+00  0.00000000E+00
  0.00000000E+00  0.00000000E+00  0.00000000E+00
  0.00000000E+00  0.00000000E+00  0.00000000E+00
  0.00000000E+00  0.00000000E+00  0.00000000E+00
  0.00000000E+00  0.00000000E+00  0.00000000E+00
  0.00000000E+00  0.00000000E+00  0.00000000E+00
  0.00000000E+00  0.00000000E+00  0.00000000E+00
  0.00000000E+00  0.00000000E+00  0.00000000E+00
  0.00000000E+00  0.00000000E+00  0.00000000E+00
  0.00000000E+00  0.00000000E+00  0.00000000E+00
  0.00000000E+00  0.00000000E+00  0.00000000E+00
  0.00000000E+00  0.00000000E+00  0.00000000E+00
  0.00000000E+00  0.00000000E+00  0.00000000E+00
  0.00000000E+00  0.00000000E+00  0.00000000E+00
  0.00000000E+00  0.00000000E+00  0.00000000E+00
  0.00000000E+00  0.00000000E+00  0.00000000E+00
  0.00000000E+00  0.00000000E+00  0.00000000E+00
  0.00000000E+00  0.00000000E+00  0.00000000E+00
  0.00000000E+00  0.00000000E+00  0.00000000E+00
