32
Lattice="12.092548997049326 0.0 0.0 -6.046274498524663 10.47245462795275 0.0 0.0 0.0 20.0" Properties=species:S:1:pos:R:3:momenta:R:3 pbc="T T T"
Cr       0.00000000       3.49081821      10.00000000       0.00000000       0.00000000       0.00000000
Cr       3.02313725       1.74540910      10.00000000       0.00000000       0.00000000       0.00000000
Cr       6.04627450       3.49081821      10.00000000       0.00000000       0.00000000       0.00000000
Cr       9.06941175       1.74540910      10.00000000       0.00000000       0.00000000       0.00000000
Cr      -3.02313725       8.72704552      10.00000000       0.00000000       0.00000000       0.00000000
Cr      -0.00000000       6.98163642      10.00000000       0.00000000       0.00000000       0.00000000
Cr       3.02313725       8.72704552      10.00000000       0.00000000       0.00000000       0.00000000
Cr       6.04627450       6.98163642      10.00000000       0.00000000       0.00000000       0.00000000
Cl      -0.87318037       5.23622731       8.64464209       0.00000000       0.00000000       0.00000000
Cl       4.97129606       1.86191728       8.64464209       0.00000000       0.00000000       0.00000000
Cl       1.94815881       3.37431004       8.64464209       0.00000000       0.00000000       0.00000000
Cl       0.87318037       5.23622731      11.35535791       0.00000000       0.00000000       0.00000000
Cl      -1.94815881       3.37431004      11.35535791       0.00000000       0.00000000       0.00000000
Cl       1.07497844       1.86191728      11.35535791       0.00000000       0.00000000       0.00000000
Cl       5.17309413       5.23622731       8.64464209       0.00000000       0.00000000       0.00000000
Cl      -1.07497844       1.86191728       8.64464209       0.00000000       0.00000000       0.00000000
Cl       7.99443331       3.37431004       8.64464209       0.00000000       0.00000000       0.00000000
Cl       6.91945486       5.23622731      11.35535791       0.00000000       0.00000000       0.00000000
Cl       4.09811569       3.37431004      11.35535791       0.00000000       0.00000000       0.00000000
Cl       7.12125294       1.86191728      11.35535791       0.00000000       0.00000000       0.00000000
Cl       2.14995688       0.00000000       8.64464209       0.00000000       0.00000000       0.00000000
Cl       1.94815881       7.09814459       8.64464209       0.00000000       0.00000000       0.00000000
Cl      -1.07497844       8.61053735       8.64464209       0.00000000       0.00000000       0.00000000
Cl       3.89631761       0.00000000      11.35535791       0.00000000       0.00000000       0.00000000
Cl      -4.97129606       8.61053735      11.35535791       0.00000000       0.00000000       0.00000000
Cl      -1.94815881       7.09814459      11.35535791       0.00000000       0.00000000       0.00000000
Cl       8.19623138       0.00000000       8.64464209       0.00000000       0.00000000       0.00000000
Cl      -4.09811569       7.09814459       8.64464209       0.00000000       0.00000000       0.00000000
Cl       4.97129606       8.61053735       8.64464209       0.00000000       0.00000000       0.00000000
Cl       9.94259211       0.00000000      11.35535791       0.00000000       0.00000000       0.00000000
Cl       1.07497844       8.61053735      11.35535791       0.00000000       0.00000000       0.00000000
Cl       4.09811569       7.09814459      11.35535791       0.00000000       0.00000000       0.00000000
