# Monolayer CrCl3 (2x2) + Co (S2 Hollow) Relaxation (U_all = 3.29 eV + PBE-D3)
PREC     = Accurate
ENCUT    = 500
EDIFF    = 1E-06
EDIFFG   = -0.02
IBRION   = 2
NSW      = 120
ISIF     = 2
ISMEAR   = 0
SIGMA    = 0.05
ISPIN    = 2
MAGMOM   = 8*3.0 24*0.0 1*3.0
IVDW     = 12
LDAU     = .TRUE.
LDAUTYPE = 2
LDAUL    = 2 -1 2
LDAUU    = 3.29 0.00 3.29
LDAUJ    = 0.00 0.00 0.00
LREAL    = Auto
NCORE    = 8
LCHARG   = .TRUE.
LWAVE    = .FALSE.
LAECHG   = .TRUE.
LDIPOL   = .TRUE.
IDIPOL   = 3
DIPOL    = 0.5 0.5 0.5
