 running   28 mpi-ranks, with    1 threads/rank, on    1 nodes
 distrk:  each k-point on   28 cores,    1 groups
 distr:  one band on    4 cores,    7 groups
 vasp.6.5.1 10Mar25 (build Feb 13 2026 23:13:13) complex                        
  
 POSCAR found type information on POSCAR CrClCo
 POSCAR found :  3 types and      33 ions
 scaLAPACK will be used
 LDA part: xc-table for (Slater+PW92), standard interpolation
 POSCAR, INCAR and KPOINTS ok, starting setup
 FFT: planning ... GRIDC
 FFT: planning ... GRID_SOFT
 FFT: planning ... GRID
 WAVECAR not read
 augmentation electrons   225.117532779250     
 soft         electrons  0.000000000000000E+000
 total        electrons   225.117532779250     
 augmentation electrons  2.291970565814726E-004
 soft         electrons  0.000000000000000E+000
 total        electrons  2.291970565814726E-004
 augmentation electrons   427.941238486058     
 soft         electrons  0.000000000000000E+000
 total        electrons   427.941238486058     
 augmentation electrons   398.400910686058     
 soft         electrons  0.000000000000000E+000
 total        electrons   398.400910686058     
 entering main loop
       N       E                     dE             d eps       ncg     rms          rms(c)
DAV:   1     0.230480236152E+04    0.23048E+04   -0.71210E+04  3080   0.107E+03
DAV:   2     0.460151731098E+03   -0.18447E+04   -0.17289E+04  3920   0.244E+02
DAV:   3    -0.115045116259E+03   -0.57520E+03   -0.56269E+03  4858   0.143E+02
DAV:   4    -0.150831027856E+03   -0.35786E+02   -0.35148E+02  4130   0.469E+01
DAV:   5    -0.151984355313E+03   -0.11533E+01   -0.11486E+01  4648   0.974E+00    0.399E+01
DAV:   6    -0.148902466519E+03    0.30819E+01   -0.16589E+02  5222   0.629E+01    0.419E+01
DAV:   7    -0.145115472786E+03    0.37870E+01   -0.32770E+01  3668   0.500E+01    0.382E+01
DAV:   8    -0.145507149141E+03   -0.39168E+00   -0.21220E+01  5362   0.320E+01    0.330E+01
DAV:   9    -0.142123841276E+03    0.33833E+01   -0.84233E+00  4284   0.257E+01    0.137E+01
DAV:  10    -0.144253052452E+03   -0.21292E+01   -0.56460E+00  5166   0.174E+01    0.296E+01
DAV:  11    -0.142067102195E+03    0.21860E+01   -0.26077E+00  5124   0.119E+01    0.706E+00
DAV:  12    -0.143502697972E+03   -0.14356E+01   -0.87996E-01  5124   0.487E+00    0.474E+00
DAV:  13    -0.144117480711E+03   -0.61478E+00   -0.38595E-01  5124   0.315E+00    0.416E+00
DAV:  14    -0.144205319382E+03   -0.87839E-01   -0.88281E-02  4424   0.165E+00    0.358E+00
DAV:  15    -0.144235012844E+03   -0.29693E-01   -0.42843E-02  5222   0.222E+00    0.273E+00
DAV:  16    -0.144255916302E+03   -0.20903E-01   -0.34583E-02  5012   0.148E+00    0.218E+00
DAV:  17    -0.144262608221E+03   -0.66919E-02   -0.15830E-02  5124   0.102E+00    0.180E+00
DAV:  18    -0.144255516377E+03    0.70918E-02   -0.10012E-02  4690   0.109E+00    0.140E+00
DAV:  19    -0.144241046484E+03    0.14470E-01   -0.16765E-02  4816   0.142E+00    0.882E-01
DAV:  20    -0.144241041569E+03    0.49151E-05   -0.10575E-02  4592   0.305E-01    0.779E-01
DAV:  21    -0.144240853972E+03    0.18760E-03   -0.40942E-04  4886   0.129E-01    0.698E-01
DAV:  22    -0.144237913435E+03    0.29405E-02   -0.91128E-03  4718   0.107E+00    0.254E-01
DAV:  23    -0.144244095069E+03   -0.61816E-02   -0.46816E-03  4424   0.294E-01    0.959E-02
DAV:  24    -0.144250937621E+03   -0.68426E-02   -0.10278E-03  4074   0.126E-01    0.716E-02
DAV:  25    -0.144259526174E+03   -0.85886E-02   -0.23751E-04  3738   0.520E-02    0.515E-02
DAV:  26    -0.144268656564E+03   -0.91304E-02   -0.29672E-04  4578   0.578E-02    0.342E-02
DAV:  27    -0.144273737176E+03   -0.50806E-02   -0.15663E-04  4270   0.380E-02    0.220E-02
DAV:  28    -0.144276779127E+03   -0.30420E-02   -0.80975E-05  3598   0.207E-02    0.163E-02
DAV:  29    -0.144278357332E+03   -0.15782E-02   -0.60441E-05  4018   0.371E-02    0.252E-02
DAV:  30    -0.144278838485E+03   -0.48115E-03   -0.16891E-05  4032   0.144E-02    0.185E-02
DAV:  31    -0.144278930494E+03   -0.92009E-04   -0.17834E-06  2940   0.552E-03    0.137E-02
DAV:  32    -0.144279019623E+03   -0.89129E-04   -0.29861E-06  2926   0.132E-02    0.540E-03
DAV:  33    -0.144279055030E+03   -0.35407E-04   -0.23620E-06  2926   0.403E-03    0.368E-03
DAV:  34    -0.144279069320E+03   -0.14290E-04   -0.35449E-07  2394   0.319E-03    0.189E-03
DAV:  35    -0.144279082996E+03   -0.13676E-04   -0.45507E-07  2338   0.257E-03    0.873E-04
DAV:  36    -0.144279090788E+03   -0.77927E-05   -0.27587E-07  2338   0.175E-03    0.707E-04
DAV:  37    -0.144279093759E+03   -0.29710E-05   -0.13517E-07  2030   0.110E-03    0.633E-04
DAV:  38    -0.144279096217E+03   -0.24576E-05   -0.79955E-08  2184   0.136E-03    0.425E-04
DAV:  39    -0.144279101890E+03   -0.56731E-05   -0.14344E-07  2324   0.889E-04    0.357E-04
DAV:  40    -0.144279104610E+03   -0.27203E-05   -0.83602E-08  2268   0.839E-04    0.372E-04
DAV:  41    -0.144279105143E+03   -0.53301E-06   -0.33426E-08  1960   0.585E-04
   1 F= -.15040103E+03 E0= -.15038582E+03  d E =-.150401E+03  mag=    27.0000
 curvature:   0.00 expect dE= 0.000E+00 dE for cont linesearch  0.000E+00
 trial: gam= 0.00000 g(F)=  0.199E-01 g(S)=  0.000E+00 ort = 0.000E+00 (trialstep = 0.100E+01)
 search vector abs. value=  0.199E-01
 bond charge predicted
       N       E                     dE             d eps       ncg     rms          rms(c)
DAV:   1    -0.144279213925E+03   -0.10931E-03   -0.18217E+00  3094   0.239E+00    0.744E-01
DAV:   2    -0.144293066267E+03   -0.13852E-01   -0.14215E-01  4494   0.113E+00    0.461E-01
DAV:   3    -0.144292850893E+03    0.21537E-03   -0.23671E-03  4214   0.201E-01    0.337E-01
DAV:   4    -0.144292173936E+03    0.67696E-03   -0.73206E-04  4270   0.748E-02    0.242E-01
DAV:   5    -0.144291545498E+03    0.62844E-03   -0.89925E-04  4284   0.759E-02    0.703E-02
DAV:   6    -0.144291682016E+03   -0.13652E-03   -0.24743E-04  4228   0.661E-02    0.390E-02
DAV:   7    -0.144291805439E+03   -0.12342E-03   -0.22721E-05  4760   0.323E-02    0.325E-02
DAV:   8    -0.144291999937E+03   -0.19450E-03   -0.11141E-05  4424   0.200E-02    0.234E-02
DAV:   9    -0.144292213572E+03   -0.21364E-03   -0.11728E-05  3738   0.774E-03    0.120E-02
DAV:  10    -0.144292395146E+03   -0.18157E-03   -0.37231E-06  3626   0.695E-03    0.359E-03
DAV:  11    -0.144292520960E+03   -0.12581E-03   -0.12957E-06  2604   0.325E-03    0.220E-03
DAV:  12    -0.144292609273E+03   -0.88312E-04   -0.73731E-07  2310   0.249E-03    0.193E-03
DAV:  13    -0.144292763539E+03   -0.15427E-03   -0.21589E-06  2856   0.286E-03    0.180E-03
DAV:  14    -0.144292858456E+03   -0.94918E-04   -0.85571E-07  2590   0.215E-03    0.106E-03
DAV:  15    -0.144292931443E+03   -0.72987E-04   -0.10597E-06  2646   0.208E-03    0.841E-04
DAV:  16    -0.144292953778E+03   -0.22335E-04   -0.35480E-07  2352   0.181E-03    0.568E-04
DAV:  17    -0.144292970867E+03   -0.17089E-04   -0.39115E-07  2338   0.149E-03    0.593E-04
DAV:  18    -0.144292979340E+03   -0.84727E-05   -0.28957E-07  2296   0.152E-03    0.420E-04
DAV:  19    -0.144292981922E+03   -0.25823E-05   -0.18311E-07  2086   0.117E-03    0.292E-04
DAV:  20    -0.144292982695E+03   -0.77312E-06   -0.10142E-07  1946   0.952E-04
   2 F= -.15041549E+03 E0= -.15040036E+03  d E =-.144577E-01  mag=    27.0000
 trial-energy change:   -0.014458  1 .order   -0.014528   -0.019902   -0.009154
 step:   1.9211(harm=  1.8517)  dis= 0.02733  next Energy=  -150.419651 (dE=-0.186E-01)
 bond charge predicted
       N       E                     dE             d eps       ncg     rms          rms(c)
DAV:   1    -0.144284911062E+03    0.80709E-02   -0.15452E+00  3080   0.220E+00    0.681E-01
DAV:   2    -0.144296556778E+03   -0.11646E-01   -0.11979E-01  4368   0.104E+00    0.412E-01
DAV:   3    -0.144296378524E+03    0.17825E-03   -0.20033E-03  4200   0.187E-01    0.300E-01
DAV:   4    -0.144295837127E+03    0.54140E-03   -0.57281E-04  4312   0.661E-02    0.218E-01
DAV:   5    -0.144295249049E+03    0.58808E-03   -0.75096E-04  4060   0.691E-02    0.649E-02
DAV:   6    -0.144295366274E+03   -0.11723E-03   -0.22738E-04  4186   0.616E-02    0.348E-02
DAV:   7    -0.144295471348E+03   -0.10507E-03   -0.19337E-05  4620   0.291E-02    0.287E-02
DAV:   8    -0.144295644941E+03   -0.17359E-03   -0.92561E-06  4270   0.176E-02    0.206E-02
DAV:   9    -0.144295831876E+03   -0.18694E-03   -0.98475E-06  3696   0.706E-03    0.106E-02
DAV:  10    -0.144295983076E+03   -0.15120E-03   -0.27454E-06  3318   0.619E-03    0.343E-03
DAV:  11    -0.144296098483E+03   -0.11541E-03   -0.14081E-06  2604   0.313E-03    0.211E-03
DAV:  12    -0.144296175340E+03   -0.76858E-04   -0.63721E-07  2268   0.238E-03    0.174E-03
DAV:  13    -0.144296313910E+03   -0.13857E-03   -0.19378E-06  2814   0.270E-03    0.165E-03
DAV:  14    -0.144296405506E+03   -0.91595E-04   -0.94220E-07  2632   0.219E-03    0.949E-04
DAV:  15    -0.144296459176E+03   -0.53671E-04   -0.69954E-07  2520   0.191E-03    0.800E-04
DAV:  16    -0.144296475183E+03   -0.16007E-04   -0.28827E-07  2240   0.169E-03    0.605E-04
DAV:  17    -0.144296488638E+03   -0.13455E-04   -0.29213E-07  2198   0.129E-03    0.523E-04
DAV:  18    -0.144296498864E+03   -0.10226E-04   -0.28853E-07  2254   0.139E-03    0.524E-04
DAV:  19    -0.144296501984E+03   -0.31198E-05   -0.18764E-07  2170   0.123E-03    0.278E-04
DAV:  20    -0.144296502762E+03   -0.77790E-06   -0.10524E-07  1946   0.948E-04
   3 F= -.15041954E+03 E0= -.15040448E+03  d E =-.185056E-01  mag=    27.0000
 curvature:  -0.92 expect dE=-0.202E-02 dE for cont linesearch -0.264E-05
 trial: gam= 0.12213 g(F)=  0.219E-02 g(S)=  0.000E+00 ort =-0.239E-03 (trialstep = 0.118E+01)
 search vector abs. value=  0.243E-02
 bond charge predicted
       N       E                     dE             d eps       ncg     rms          rms(c)
DAV:   1    -0.144295429665E+03    0.10723E-02   -0.32723E-01  3080   0.116E+00    0.388E-01
DAV:   2    -0.144297718276E+03   -0.22886E-02   -0.20067E-02  4410   0.445E-01    0.188E-01
DAV:   3    -0.144297877362E+03   -0.15909E-03   -0.69224E-04  4046   0.990E-02    0.106E-01
DAV:   4    -0.144297678404E+03    0.19896E-03   -0.74365E-05  4466   0.295E-02    0.791E-02
DAV:   5    -0.144297263576E+03    0.41483E-03   -0.89867E-05  3976   0.234E-02    0.454E-02
DAV:   6    -0.144297086366E+03    0.17721E-03   -0.53849E-05  4522   0.248E-02    0.198E-02
DAV:   7    -0.144297163200E+03   -0.76834E-04   -0.75944E-06  4284   0.115E-02    0.140E-02
DAV:   8    -0.144297350878E+03   -0.18768E-03   -0.29615E-06  2870   0.597E-03    0.804E-03
DAV:   9    -0.144297564410E+03   -0.21353E-03   -0.46797E-06  3472   0.515E-03    0.312E-03
DAV:  10    -0.144297706446E+03   -0.14204E-03   -0.97152E-07  2506   0.295E-03    0.221E-03
DAV:  11    -0.144297816780E+03   -0.11033E-03   -0.86067E-07  2408   0.286E-03    0.200E-03
DAV:  12    -0.144297934059E+03   -0.11728E-03   -0.13933E-06  2688   0.283E-03    0.146E-03
DAV:  13    -0.144298079109E+03   -0.14505E-03   -0.21974E-06  2814   0.273E-03    0.978E-04
DAV:  14    -0.144298169999E+03   -0.90890E-04   -0.14228E-06  2730   0.218E-03    0.736E-04
DAV:  15    -0.144298199406E+03   -0.29407E-04   -0.47143E-07  2408   0.187E-03    0.689E-04
DAV:  16    -0.144298211381E+03   -0.11975E-04   -0.34720E-07  2296   0.165E-03    0.632E-04
DAV:  17    -0.144298215333E+03   -0.39515E-05   -0.22008E-07  2198   0.139E-03    0.287E-04
DAV:  18    -0.144298216780E+03   -0.14473E-05   -0.13613E-07  2044   0.106E-03    0.366E-04
DAV:  19    -0.144298217330E+03   -0.54995E-06   -0.76908E-08  2086   0.861E-04
   4 F= -.15042123E+03 E0= -.15040602E+03  d E =-.169570E-02  mag=    27.0000
 trial-energy change:   -0.001696  1 .order   -0.001691   -0.002561   -0.000821
 step:   1.7298(harm=  1.7430)  dis= 0.00449  next Energy=  -150.421423 (dE=-0.189E-02)
 bond charge predicted
       N       E                     dE             d eps       ncg     rms          rms(c)
DAV:   1    -0.144297825965E+03    0.39082E-03   -0.69461E-02  3192   0.535E-01    0.179E-01
DAV:   2    -0.144298281811E+03   -0.45585E-03   -0.42672E-03  4382   0.206E-01    0.869E-02
DAV:   3    -0.144298321334E+03   -0.39523E-04   -0.14900E-04  4032   0.463E-02    0.488E-02
DAV:   4    -0.144298259615E+03    0.61719E-04   -0.16089E-05  4396   0.137E-02    0.365E-02
DAV:   5    -0.144298118978E+03    0.14064E-03   -0.19500E-05  3962   0.109E-02    0.210E-02
DAV:   6    -0.144298046285E+03    0.72693E-04   -0.11643E-05  4494   0.116E-02    0.917E-03
DAV:   7    -0.144298068870E+03   -0.22584E-04   -0.10941E-06  2380   0.538E-03    0.680E-03
DAV:   8    -0.144298132592E+03   -0.63722E-04   -0.12832E-06  2436   0.415E-03    0.436E-03
DAV:   9    -0.144298195880E+03   -0.63288E-04   -0.12075E-06  2352   0.305E-03    0.198E-03
DAV:  10    -0.144298234267E+03   -0.38387E-04   -0.55681E-07  2254   0.291E-03    0.159E-03
DAV:  11    -0.144298273182E+03   -0.38915E-04   -0.48277E-07  2324   0.232E-03    0.127E-03
DAV:  12    -0.144298305713E+03   -0.32532E-04   -0.43195E-07  2268   0.204E-03    0.951E-04
DAV:  13    -0.144298347849E+03   -0.42135E-04   -0.67420E-07  2408   0.177E-03    0.719E-04
DAV:  14    -0.144298379428E+03   -0.31579E-04   -0.46343E-07  2352   0.178E-03    0.650E-04
DAV:  15    -0.144298402374E+03   -0.22946E-04   -0.55059E-07  2324   0.157E-03    0.573E-04
DAV:  16    -0.144298411616E+03   -0.92424E-05   -0.30712E-07  2282   0.152E-03    0.438E-04
DAV:  17    -0.144298415305E+03   -0.36883E-05   -0.19413E-07  2114   0.113E-03    0.311E-04
DAV:  18    -0.144298418380E+03   -0.30754E-05   -0.16606E-07  2184   0.101E-03    0.319E-04
DAV:  19    -0.144298418885E+03   -0.50493E-06   -0.83375E-08  1946   0.864E-04
   5 F= -.15042143E+03 E0= -.15040614E+03  d E =-.188770E-02  mag=    27.0000
 curvature:  -0.98 expect dE=-0.936E-03 dE for cont linesearch -0.253E-07
 trial: gam= 0.43207 g(F)=  0.956E-03 g(S)=  0.000E+00 ort = 0.792E-05 (trialstep = 0.129E+01)
 search vector abs. value=  0.142E-02
 bond charge predicted
       N       E                     dE             d eps       ncg     rms          rms(c)
DAV:   1    -0.144297858350E+03    0.56003E-03   -0.25851E-01  3108   0.979E-01    0.283E-01
DAV:   2    -0.144299382612E+03   -0.15243E-02   -0.15211E-02  4424   0.413E-01    0.135E-01
DAV:   3    -0.144299566613E+03   -0.18400E-03   -0.34661E-04  4102   0.822E-02    0.812E-02
DAV:   4    -0.144299547612E+03    0.19001E-04   -0.45773E-05  4480   0.253E-02    0.605E-02
DAV:   5    -0.144299513435E+03    0.34177E-04   -0.63823E-05  4200   0.237E-02    0.363E-02
DAV:   6    -0.144299503793E+03    0.96425E-05   -0.30111E-05  4662   0.199E-02    0.110E-02
DAV:   7    -0.144299512725E+03   -0.89328E-05   -0.22427E-06  2632   0.861E-03    0.713E-03
DAV:   8    -0.144299530952E+03   -0.18227E-04   -0.14497E-06  2408   0.539E-03    0.452E-03
DAV:   9    -0.144299547758E+03   -0.16805E-04   -0.11408E-06  2072   0.339E-03    0.254E-03
DAV:  10    -0.144299558355E+03   -0.10597E-04   -0.45727E-07  1960   0.320E-03    0.173E-03
DAV:  11    -0.144299571185E+03   -0.12830E-04   -0.28595E-07  2114   0.250E-03    0.123E-03
DAV:  12    -0.144299585427E+03   -0.14243E-04   -0.28769E-07  2114   0.185E-03    0.807E-04
DAV:  13    -0.144299594540E+03   -0.91122E-05   -0.19435E-07  2058   0.140E-03    0.685E-04
DAV:  14    -0.144299599966E+03   -0.54263E-05   -0.10971E-07  1960   0.115E-03    0.408E-04
DAV:  15    -0.144299610301E+03   -0.10335E-04   -0.21459E-07  2268   0.999E-04    0.533E-04
DAV:  16    -0.144299615300E+03   -0.49981E-05   -0.14003E-07  2198   0.107E-03    0.294E-04
DAV:  17    -0.144299616130E+03   -0.83006E-06   -0.70688E-08  1960   0.748E-04
   6 F= -.15042242E+03 E0= -.15040714E+03  d E =-.997932E-03  mag=    27.0000
 trial-energy change:   -0.000998  1 .order   -0.001006   -0.001241   -0.000772
 step:   4.8813(harm=  3.4210)  dis= 0.01227  next Energy=  -150.423314 (dE=-0.189E-02)
 bond charge predicted
       N       E                     dE             d eps       ncg     rms          rms(c)
DAV:   1    -0.144287049982E+03    0.12565E-01   -0.19897E+00  3080   0.272E+00    0.784E-01
DAV:   2    -0.144299486920E+03   -0.12437E-01   -0.11788E-01  4466   0.116E+00    0.380E-01
DAV:   3    -0.144300371349E+03   -0.88443E-03   -0.27780E-03  4270   0.244E-01    0.226E-01
DAV:   4    -0.144300249888E+03    0.12146E-03   -0.37300E-04  4480   0.763E-02    0.168E-01
DAV:   5    -0.144300119397E+03    0.13049E-03   -0.44935E-04  4158   0.606E-02    0.104E-01
DAV:   6    -0.144300108772E+03    0.10625E-04   -0.24259E-04  4564   0.512E-02    0.306E-02
DAV:   7    -0.144300157578E+03   -0.48805E-04   -0.23638E-05  4466   0.222E-02    0.185E-02
DAV:   8    -0.144300232511E+03   -0.74933E-04   -0.64684E-06  3444   0.110E-02    0.105E-02
DAV:   9    -0.144300303209E+03   -0.70698E-04   -0.26403E-06  2772   0.581E-03    0.533E-03
DAV:  10    -0.144300384013E+03   -0.80805E-04   -0.38572E-06  3234   0.484E-03    0.240E-03
DAV:  11    -0.144300432274E+03   -0.48261E-04   -0.51469E-07  2380   0.273E-03    0.140E-03
DAV:  12    -0.144300474774E+03   -0.42500E-04   -0.39409E-07  2310   0.198E-03    0.116E-03
DAV:  13    -0.144300545617E+03   -0.70843E-04   -0.11958E-06  2576   0.213E-03    0.110E-03
DAV:  14    -0.144300572338E+03   -0.26721E-04   -0.33297E-07  2436   0.170E-03    0.620E-04
DAV:  15    -0.144300598804E+03   -0.26466E-04   -0.50321E-07  2310   0.143E-03    0.748E-04
DAV:  16    -0.144300614964E+03   -0.16160E-04   -0.45368E-07  2408   0.174E-03    0.611E-04
DAV:  17    -0.144300620237E+03   -0.52728E-05   -0.29341E-07  2254   0.149E-03    0.318E-04
DAV:  18    -0.144300621648E+03   -0.14114E-05   -0.16906E-07  2044   0.118E-03    0.352E-04
DAV:  19    -0.144300622540E+03   -0.89127E-06   -0.10627E-07  2142   0.877E-04
   7 F= -.15042286E+03 E0= -.15040758E+03  d E =-.143455E-02  mag=    27.0000
 curvature:  -1.34 expect dE=-0.301E-02 dE for cont linesearch -0.123E-03
 ZBRENT: interpolating
 opt :   3.5283  next Energy=  -150.423105 (dE=-0.168E-02)
 bond charge predicted
       N       E                     dE             d eps       ncg     rms          rms(c)
DAV:   1    -0.144298721691E+03    0.19000E-02   -0.28292E-01  3150   0.102E+00    0.297E-01
DAV:   2    -0.144300417102E+03   -0.16954E-02   -0.16553E-02  4270   0.429E-01    0.139E-01
DAV:   3    -0.144300604992E+03   -0.18789E-03   -0.39241E-04  4116   0.832E-02    0.852E-02
DAV:   4    -0.144300583191E+03    0.21801E-04   -0.42573E-05  4452   0.219E-02    0.637E-02
DAV:   5    -0.144300541767E+03    0.41424E-04   -0.67905E-05  3794   0.219E-02    0.378E-02
DAV:   6    -0.144300536696E+03    0.50712E-05   -0.33584E-05  4410   0.179E-02    0.110E-02
DAV:   7    -0.144300547589E+03   -0.10892E-04   -0.25381E-06  2702   0.940E-03    0.735E-03
DAV:   8    -0.144300566604E+03   -0.19015E-04   -0.16316E-06  2450   0.695E-03    0.470E-03
DAV:   9    -0.144300584106E+03   -0.17502E-04   -0.14404E-06  2030   0.411E-03    0.255E-03
DAV:  10    -0.144300594423E+03   -0.10317E-04   -0.64891E-07  1960   0.348E-03    0.185E-03
DAV:  11    -0.144300604372E+03   -0.99487E-05   -0.29289E-07  1960   0.244E-03    0.123E-03
DAV:  12    -0.144300618430E+03   -0.14058E-04   -0.24067E-07  2156   0.170E-03    0.825E-04
DAV:  13    -0.144300631034E+03   -0.12605E-04   -0.20187E-07  2100   0.135E-03    0.713E-04
DAV:  14    -0.144300635732E+03   -0.46982E-05   -0.97723E-08  1946   0.114E-03    0.398E-04
DAV:  15    -0.144300641846E+03   -0.61137E-05   -0.96066E-08  1960   0.804E-04    0.337E-04
DAV:  16    -0.144300651389E+03   -0.95426E-05   -0.19597E-07  2226   0.950E-04    0.403E-04
DAV:  17    -0.144300652871E+03   -0.14827E-05   -0.67581E-08  1946   0.846E-04    0.278E-04
DAV:  18    -0.144300653647E+03   -0.77608E-06   -0.39868E-08  1890   0.495E-04
   8 F= -.15042311E+03 E0= -.15040783E+03  d E =-.168343E-02  mag=    27.0000
 curvature:  -2.65 expect dE=-0.292E-02 dE for cont linesearch -0.345E-07
 trial: gam= 1.14639 g(F)=  0.110E-02 g(S)=  0.000E+00 ort = 0.429E-05 (trialstep = 0.829E+00)
 search vector abs. value=  0.297E-02
 bond charge predicted
       N       E                     dE             d eps       ncg     rms          rms(c)
DAV:   1    -0.144299659295E+03    0.99358E-03   -0.23889E-01  3108   0.928E-01    0.272E-01
DAV:   2    -0.144301004665E+03   -0.13454E-02   -0.11194E-02  4452   0.340E-01    0.136E-01
DAV:   3    -0.144301348902E+03   -0.34424E-03   -0.35778E-04  4004   0.806E-02    0.726E-02
DAV:   4    -0.144301336583E+03    0.12319E-04   -0.41744E-05  4396   0.264E-02    0.548E-02
DAV:   5    -0.144301318623E+03    0.17960E-04   -0.55691E-05  4284   0.252E-02    0.337E-02
DAV:   6    -0.144301320141E+03   -0.15182E-05   -0.26836E-05  4844   0.232E-02    0.972E-03
DAV:   7    -0.144301333076E+03   -0.12935E-04   -0.24464E-06  2772   0.836E-03    0.632E-03
DAV:   8    -0.144301349972E+03   -0.16896E-04   -0.18505E-06  2464   0.473E-03    0.372E-03
DAV:   9    -0.144301363100E+03   -0.13128E-04   -0.77969E-07  2100   0.323E-03    0.204E-03
DAV:  10    -0.144301371605E+03   -0.85053E-05   -0.37126E-07  2016   0.249E-03    0.132E-03
DAV:  11    -0.144301381185E+03   -0.95798E-05   -0.21482E-07  2184   0.187E-03    0.914E-04
DAV:  12    -0.144301390710E+03   -0.95248E-05   -0.16407E-07  2156   0.143E-03    0.437E-04
DAV:  13    -0.144301396426E+03   -0.57157E-05   -0.97581E-08  2058   0.113E-03    0.398E-04
DAV:  14    -0.144301399711E+03   -0.32856E-05   -0.58320E-08  1960   0.873E-04    0.298E-04
DAV:  15    -0.144301403675E+03   -0.39640E-05   -0.53342E-08  2156   0.640E-04    0.265E-04
DAV:  16    -0.144301411047E+03   -0.73713E-05   -0.11890E-07  2226   0.728E-04    0.325E-04
DAV:  17    -0.144301412334E+03   -0.12869E-05   -0.45107E-08  1960   0.794E-04    0.156E-04
DAV:  18    -0.144301413067E+03   -0.73359E-06   -0.27094E-08  1946   0.391E-04
   9 F= -.15042389E+03 E0= -.15040867E+03  d E =-.783376E-03  mag=    27.0000
 trial-energy change:   -0.000783  1 .order   -0.000791   -0.000918   -0.000665
 step:   3.0110(harm=  3.0110)  dis= 0.00975  next Energy=  -150.424775 (dE=-0.167E-02)
 bond charge predicted
       N       E                     dE             d eps       ncg     rms          rms(c)
DAV:   1    -0.144289901807E+03    0.11511E-01   -0.16544E+00  3080   0.244E+00    0.716E-01
DAV:   2    -0.144299980922E+03   -0.10079E-01   -0.78398E-02  4424   0.912E-01    0.364E-01
DAV:   3    -0.144301756935E+03   -0.17760E-02   -0.25463E-03  4172   0.227E-01    0.192E-01
DAV:   4    -0.144301691176E+03    0.65759E-04   -0.31070E-04  4396   0.741E-02    0.144E-01
DAV:   5    -0.144301656543E+03    0.34633E-04   -0.37099E-04  4326   0.636E-02    0.903E-02
DAV:   6    -0.144301687675E+03   -0.31132E-04   -0.18970E-04  4774   0.573E-02    0.251E-02
DAV:   7    -0.144301743674E+03   -0.55999E-04   -0.22740E-05  4354   0.210E-02    0.174E-02
DAV:   8    -0.144301803948E+03   -0.60274E-04   -0.76889E-06  3766   0.973E-03    0.892E-03
DAV:   9    -0.144301858343E+03   -0.54395E-04   -0.12025E-06  2632   0.512E-03    0.483E-03
DAV:  10    -0.144301922606E+03   -0.64262E-04   -0.23605E-06  2870   0.486E-03    0.284E-03
DAV:  11    -0.144301952233E+03   -0.29627E-04   -0.76825E-07  2338   0.376E-03    0.150E-03
DAV:  12    -0.144301974149E+03   -0.21916E-04   -0.41070E-07  2212   0.255E-03    0.150E-03
DAV:  13    -0.144301995951E+03   -0.21802E-04   -0.29742E-07  2324   0.204E-03    0.119E-03
DAV:  14    -0.144302042747E+03   -0.46796E-04   -0.97770E-07  2506   0.197E-03    0.855E-04
DAV:  15    -0.144302053785E+03   -0.11038E-04   -0.24189E-07  2380   0.173E-03    0.516E-04
DAV:  16    -0.144302058283E+03   -0.44979E-05   -0.12424E-07  2002   0.102E-03    0.517E-04
DAV:  17    -0.144302067108E+03   -0.88245E-05   -0.17496E-07  2170   0.989E-04    0.329E-04
DAV:  18    -0.144302073771E+03   -0.66636E-05   -0.19094E-07  2324   0.965E-04    0.358E-04
DAV:  19    -0.144302075533E+03   -0.17621E-05   -0.10336E-07  2268   0.953E-04    0.166E-04
DAV:  20    -0.144302075887E+03   -0.35306E-06   -0.55108E-08  1946   0.621E-04
  10 F= -.15042460E+03 E0= -.15040953E+03  d E =-.149465E-02  mag=    27.0000
 curvature:  -4.04 expect dE=-0.269E-02 dE for cont linesearch -0.297E-04
 ZBRENT: interpolating
 opt :   2.6715  next Energy=  -150.424629 (dE=-0.152E-02)
 bond charge predicted
       N       E                     dE             d eps       ncg     rms          rms(c)
DAV:   1    -0.144301813138E+03    0.26240E-03   -0.40062E-02  3234   0.380E-01    0.111E-01
DAV:   2    -0.144302017431E+03   -0.20429E-03   -0.18657E-03  4396   0.138E-01    0.551E-02
DAV:   3    -0.144302093890E+03   -0.76459E-04   -0.58420E-05  3864   0.310E-02    0.297E-02
DAV:   4    -0.144302090830E+03    0.30604E-05   -0.55881E-06  3458   0.934E-03    0.228E-02
DAV:   5    -0.144302086154E+03    0.46763E-05   -0.12309E-05  4102   0.114E-02    0.136E-02
DAV:   6    -0.144302085807E+03    0.34655E-06   -0.36884E-06  2814   0.101E-02
  11 F= -.15042461E+03 E0= -.15040951E+03  d E =-.149844E-02  mag=    27.0000
 curvature:  -3.42 expect dE=-0.176E-02 dE for cont linesearch -0.456E-07
 trial: gam= 0.44050 g(F)=  0.514E-03 g(S)=  0.000E+00 ort =-0.630E-05 (trialstep = 0.120E+01)
 search vector abs. value=  0.109E-02
 bond charge predicted
       N       E                     dE             d eps       ncg     rms          rms(c)
DAV:   1    -0.144300507823E+03    0.15783E-02   -0.18312E-01  3108   0.818E-01    0.242E-01
DAV:   2    -0.144301531050E+03   -0.10232E-02   -0.85735E-03  4382   0.314E-01    0.124E-01
DAV:   3    -0.144301803676E+03   -0.27263E-03   -0.30811E-04  4368   0.952E-02    0.698E-02
DAV:   4    -0.144301800724E+03    0.29524E-05   -0.29711E-05  4396   0.270E-02    0.497E-02
DAV:   5    -0.144301807069E+03   -0.63449E-05   -0.34675E-05  3892   0.167E-02    0.302E-02
DAV:   6    -0.144301820424E+03   -0.13355E-04   -0.23171E-05  4466   0.178E-02    0.943E-03
DAV:   7    -0.144301824422E+03   -0.39981E-05   -0.15833E-06  2520   0.861E-03    0.496E-03
DAV:   8    -0.144301829535E+03   -0.51135E-05   -0.13099E-06  2198   0.477E-03    0.313E-03
DAV:   9    -0.144301833237E+03   -0.37022E-05   -0.55357E-07  1960   0.458E-03    0.233E-03
DAV:  10    -0.144301835578E+03   -0.23408E-05   -0.29146E-07  2002   0.226E-03    0.139E-03
DAV:  11    -0.144301839324E+03   -0.37455E-05   -0.15698E-07  2044   0.166E-03    0.135E-03
DAV:  12    -0.144301843366E+03   -0.40423E-05   -0.94527E-08  2086   0.147E-03    0.330E-04
DAV:  13    -0.144301844906E+03   -0.15398E-05   -0.61939E-08  1960   0.102E-03    0.702E-04
DAV:  14    -0.144301845895E+03   -0.98973E-06   -0.35009E-08  1946   0.725E-04
  12 F= -.15042510E+03 E0= -.15041006E+03  d E =-.496393E-03  mag=    27.0000
 trial-energy change:   -0.000496  1 .order   -0.000480   -0.000612   -0.000349
 step:   2.1539(harm=  2.7801)  dis= 0.00308  next Energy=  -150.425251 (dE=-0.644E-03)
 reached required accuracy - stopping structural energy minimisation
 augmentation electrons   3.35569889961464     
 soft         electrons   221.710550879277     
 total        electrons   225.066249778892     
 augmentation electrons   19.3623599810314     
 soft         electrons   7.63544268357546     
 total        electrons   26.9978026646069     
