33
Lattice="12.134388606190047 0.0033722835295982 0.0 -6.064273857702495 10.510397372659158 0.0 0.0 0.0 17.6887664795" Properties=species:S:1:pos:R:3:momenta:R:3 pbc="T T T"
Cr      -0.20319751       3.53992783       5.96904694       0.00000000       0.00000000       0.00000000
Cr      -3.15785921       8.84837514       5.97819262       0.00000000       0.00000000       0.00000000
Cr       5.93215520       3.56741891       5.96182802       0.00000000       0.00000000       0.00000000
Cr       2.87893802       8.88432173       5.96210208       0.00000000       0.00000000       0.00000000
Cr       8.92904702       1.82850997       5.95685921       0.00000000       0.00000000       0.00000000
Cr       5.97661345       7.14724569       5.96874268       0.00000000       0.00000000       0.00000000
Cr       2.89777058       1.79988819       5.96817051       0.00000000       0.00000000       0.00000000
Cr      -0.15370393       7.11898372       5.97723562       0.00000000       0.00000000       0.00000000
Cl      -1.02116313       5.37304530       4.65248538       0.00000000       0.00000000       0.00000000
Cl       2.02875457       0.09700645       4.61486351       0.00000000       0.00000000       0.00000000
Cl       4.88794069       5.23580705       4.58398528       0.00000000       0.00000000       0.00000000
Cl       8.02017720       0.06019608       4.61120997       0.00000000       0.00000000       0.00000000
Cl       1.94496747       3.54303486       4.60793085       0.00000000       0.00000000       0.00000000
Cl      -1.18511097       8.73690649       4.61372760       0.00000000       0.00000000       0.00000000
Cl       7.84166489       3.47411211       4.60755996       0.00000000       0.00000000       0.00000000
Cl       4.82319234       8.77233131       4.63600230       0.00000000       0.00000000       0.00000000
Cl      10.77626993       1.87754584       4.52352584       0.00000000       0.00000000       0.00000000
Cl      -4.16005361       7.25759347       4.56641703       0.00000000       0.00000000       0.00000000
Cl       4.87280249       1.89122237       4.65217548       0.00000000       0.00000000       0.00000000
Cl       1.85007287       7.15528219       4.60159709       0.00000000       0.00000000       0.00000000
Cl       9.92707896       3.41217536       7.37554480       0.00000000       0.00000000       0.00000000
Cl      -5.00841063       8.80910786       7.40988485       0.00000000       0.00000000       0.00000000
Cl       3.92557469       3.52959615       7.33144807       0.00000000       0.00000000       0.00000000
Cl       0.90969463       8.79607146       7.28474560       0.00000000       0.00000000       0.00000000
Cl       0.89739716       5.45242538       7.35085169       0.00000000       0.00000000       0.00000000
Cl       3.81438437       0.10887996       7.31867964       0.00000000       0.00000000       0.00000000
Cl       6.79870342       5.31540136       7.28784281       0.00000000       0.00000000       0.00000000
Cl       9.81533798       0.07397974       7.31588637       0.00000000       0.00000000       0.00000000
Cl       0.95523597       1.91238907       7.29732325       0.00000000       0.00000000       0.00000000
Cl      -2.06488317       7.20964100       7.33309904       0.00000000       0.00000000       0.00000000
Cl       6.95245705       1.94041305       7.32138521       0.00000000       0.00000000       0.00000000
Cl       3.83835964       7.14534902       7.32598844       0.00000000       0.00000000       0.00000000
Co       2.89223160       5.34406928       5.96694562       0.00000000       0.00000000       0.00000000
