Cr2Cl6 Monolayer 1x1 Primitive Cell     
   1.0000000000000000     
     6.1018691155480704    0.0000000000000000    0.0000000000000000
    -3.0509345577740352    5.2843736646323132    0.0000000000000000
     0.0000000000000000    0.0000000000000000   17.6700000000000017
  Cr              Cl            
     2     6
Direct
     0.3333333333333357    0.6666666666666643    0.5000000000000000
     0.6666666666666643    0.3333333333333357    0.5000000000000000
     0.3539562133071544    0.0000000000000000    0.4225674080813780
     0.0000000000000000    0.3539562133071544    0.4225674080813780
     0.6460437866928455    0.6460437866928455    0.4225674080813780
     0.6460437866928455    0.0000000000000000    0.5774325919186220
     0.0000000000000000    0.6460437866928455    0.5774325919186220
     0.3539562133071544    0.3539562133071544    0.5774325919186220

  0.00000000E+00  0.00000000E+00  0.00000000E+00
  0.00000000E+00  0.00000000E+00  0.00000000E+00
  0.00000000E+00  0.00000000E+00  0.00000000E+00
  0.00000000E+00  0.00000000E+00  0.00000000E+00
  0.00000000E+00  0.00000000E+00  0.00000000E+00
  0.00000000E+00  0.00000000E+00  0.00000000E+00
  0.00000000E+00  0.00000000E+00  0.00000000E+00
  0.00000000E+00  0.00000000E+00  0.00000000E+00
