       N       E                     dE             d eps       ncg     rms          rms(c)
DAV:   1     0.527738942293E+03    0.52774E+03   -0.15614E+04  2304   0.922E+02
DAV:   2     0.911716750802E+02   -0.43657E+03   -0.41568E+03  3016   0.242E+02
DAV:   3    -0.265104186359E+02   -0.11768E+03   -0.11413E+03  3236   0.133E+02
DAV:   4    -0.334825130117E+02   -0.69721E+01   -0.68925E+01  3120   0.463E+01
DAV:   5    -0.337120498592E+02   -0.22954E+00   -0.22913E+00  3316   0.816E+00    0.196E+01
DAV:   6    -0.320824663266E+02    0.16296E+01   -0.42888E+01  3420   0.608E+01    0.175E+01
DAV:   7    -0.324036161991E+02   -0.32115E+00   -0.44480E+00  3368   0.280E+01    0.931E+00
DAV:   8    -0.325968773961E+02   -0.19326E+00   -0.69894E-01  3288   0.456E+00    0.509E+00
DAV:   9    -0.326408035812E+02   -0.43926E-01   -0.15275E-01  3524   0.590E+00    0.937E-01
DAV:  10    -0.326597579334E+02   -0.18954E-01   -0.48004E-02  3152   0.197E+00    0.464E-01
DAV:  11    -0.326684190499E+02   -0.86611E-02   -0.24063E-03  3232   0.376E-01    0.331E-01
DAV:  12    -0.326845067671E+02   -0.16088E-01   -0.23450E-03  3372   0.521E-01    0.155E-01
DAV:  13    -0.326931737703E+02   -0.86670E-02   -0.60800E-04  3028   0.157E-01    0.684E-02
DAV:  14    -0.326960795686E+02   -0.29058E-02   -0.13401E-04  3140   0.163E-01    0.369E-02
DAV:  15    -0.326985376067E+02   -0.24580E-02   -0.30985E-05  3188   0.580E-02    0.248E-02
DAV:  16    -0.327046088734E+02   -0.60713E-02   -0.50302E-05  3132   0.788E-02    0.185E-02
DAV:  17    -0.327053634115E+02   -0.75454E-03   -0.14450E-05  2712   0.295E-02    0.927E-03
DAV:  18    -0.327059169368E+02   -0.55353E-03   -0.46430E-06  2180   0.171E-02    0.575E-03
DAV:  19    -0.327062169086E+02   -0.29997E-03   -0.60937E-06  2372   0.138E-02    0.506E-03
DAV:  20    -0.327062179850E+02   -0.10764E-05   -0.17932E-06  1860   0.568E-03    0.404E-03
DAV:  21    -0.327062268318E+02   -0.88468E-05   -0.13703E-07  1604   0.276E-03    0.272E-03
DAV:  22    -0.327062450719E+02   -0.18240E-04   -0.68775E-07  1732   0.627E-03    0.338E-03
DAV:  23    -0.327062447855E+02    0.28637E-06   -0.28768E-07  1764   0.464E-03
   1 F= -.33625436E+02 E0= -.33625436E+02  d E =-.336254E+02  mag=     6.0000
       N       E                     dE             d eps       ncg     rms          rms(c)
DAV:   1    -0.328998526059E+02   -0.19361E+00   -0.86121E+00  2472   0.163E+01    0.320E+00
DAV:   2    -0.327922066767E+02    0.10765E+00   -0.71694E-01  3408   0.618E+00    0.149E+00
DAV:   3    -0.327639242225E+02    0.28282E-01   -0.98752E-02  3228   0.366E+00    0.139E+00
DAV:   4    -0.327600105648E+02    0.39137E-02   -0.10834E-02  3416   0.613E-01    0.635E-01
DAV:   5    -0.327574781173E+02    0.25324E-02   -0.48133E-03  2968   0.316E-01    0.412E-01
DAV:   6    -0.327571508868E+02    0.32723E-03   -0.10532E-03  3316   0.264E-01    0.121E-01
DAV:   7    -0.327572932605E+02   -0.14237E-03   -0.27959E-04  3512   0.132E-01    0.386E-02
DAV:   8    -0.327574771004E+02   -0.18384E-03   -0.46155E-05  3448   0.510E-02    0.292E-02
DAV:   9    -0.327576521110E+02   -0.17501E-03   -0.96230E-06  3128   0.235E-02    0.911E-03
DAV:  10    -0.327577059549E+02   -0.53844E-04   -0.20015E-06  2056   0.104E-02    0.328E-03
DAV:  11    -0.327577301918E+02   -0.24237E-04   -0.14901E-06  1868   0.623E-03    0.222E-03
DAV:  12    -0.327577731842E+02   -0.42992E-04   -0.30692E-06  2288   0.574E-03    0.189E-03
DAV:  13    -0.327578052182E+02   -0.32034E-04   -0.22375E-06  2232   0.506E-03    0.139E-03
DAV:  14    -0.327578187335E+02   -0.13515E-04   -0.97459E-07  1904   0.326E-03    0.783E-04
DAV:  15    -0.327578230839E+02   -0.43504E-05   -0.52805E-07  1792   0.317E-03    0.422E-04
DAV:  16    -0.327578240791E+02   -0.99515E-06   -0.19583E-07  1696   0.256E-03
   2 F= -.33659462E+02 E0= -.33659462E+02  d E =-.340254E-01  mag=     6.0000
       N       E                     dE             d eps       ncg     rms          rms(c)
DAV:   1    -0.327596923609E+02   -0.18693E-02   -0.21104E-01  2560   0.253E+00    0.521E-01
DAV:   2    -0.327570104778E+02    0.26819E-02   -0.17631E-02  3500   0.959E-01    0.236E-01
DAV:   3    -0.327563152229E+02    0.69525E-03   -0.22981E-03  3076   0.569E-01    0.208E-01
DAV:   4    -0.327562188804E+02    0.96343E-04   -0.28084E-04  3368   0.969E-02    0.962E-02
DAV:   5    -0.327561617037E+02    0.57177E-04   -0.11643E-04  2848   0.493E-02    0.621E-02
DAV:   6    -0.327561740386E+02   -0.12335E-04   -0.29505E-05  3280   0.464E-02    0.180E-02
DAV:   7    -0.327561925860E+02   -0.18547E-04   -0.53818E-06  2392   0.175E-02    0.577E-03
DAV:   8    -0.327562078766E+02   -0.15291E-04   -0.18021E-06  1720   0.104E-02    0.497E-03
DAV:   9    -0.327562218063E+02   -0.13930E-04   -0.59545E-07  1400   0.770E-03    0.307E-03
DAV:  10    -0.327562276773E+02   -0.58710E-05   -0.24868E-07  1420   0.416E-03    0.935E-04
DAV:  11    -0.327562293914E+02   -0.17141E-05   -0.10056E-07  1508   0.251E-03    0.124E-03
DAV:  12    -0.327562305709E+02   -0.11795E-05   -0.78578E-08  1400   0.258E-03    0.352E-04
DAV:  13    -0.327562319670E+02   -0.13961E-05   -0.86628E-08  1596   0.150E-03    0.492E-04
DAV:  14    -0.327562325299E+02   -0.56288E-06   -0.35962E-08  1476   0.139E-03
   3 F= -.33660620E+02 E0= -.33660620E+02  d E =-.351840E-01  mag=     6.0000
       N       E                     dE             d eps       ncg     rms          rms(c)
DAV:   1    -0.327559824338E+02    0.24953E-03   -0.46471E-02  2572   0.972E-01    0.146E-01
DAV:   2    -0.327560039146E+02   -0.21481E-04   -0.40446E-03  3256   0.378E-01    0.805E-02
DAV:   3    -0.327559529816E+02    0.50933E-04   -0.11171E-04  3236   0.138E-01    0.600E-02
DAV:   4    -0.327559410847E+02    0.11897E-04   -0.27190E-05  3220   0.304E-02    0.336E-02
DAV:   5    -0.327559342170E+02    0.68677E-05   -0.24716E-05  3272   0.291E-02    0.201E-02
DAV:   6    -0.327559343833E+02   -0.16626E-06   -0.43569E-06  2460   0.313E-02
   4 F= -.33661089E+02 E0= -.33661089E+02  d E =-.468646E-03  mag=     6.0000
       N       E                     dE             d eps       ncg     rms          rms(c)
DAV:   1    -0.327547406615E+02    0.11936E-02   -0.41772E-01  2560   0.292E+00    0.438E-01
DAV:   2    -0.327550040613E+02   -0.26340E-03   -0.36713E-02  3344   0.114E+00    0.243E-01
DAV:   3    -0.327545273161E+02    0.47675E-03   -0.10164E-03  3196   0.419E-01    0.180E-01
DAV:   4    -0.327544136466E+02    0.11367E-03   -0.24908E-04  3232   0.919E-02    0.101E-01
DAV:   5    -0.327543338898E+02    0.79757E-04   -0.22466E-04  3276   0.893E-02    0.609E-02
DAV:   6    -0.327543257341E+02    0.81557E-05   -0.48877E-05  3344   0.945E-02    0.259E-02
DAV:   7    -0.327543317548E+02   -0.60208E-05   -0.55743E-06  2464   0.196E-02    0.108E-02
DAV:   8    -0.327543362049E+02   -0.44501E-05   -0.25890E-06  2048   0.112E-02    0.569E-03
DAV:   9    -0.327543395527E+02   -0.33478E-05   -0.55821E-07  1560   0.589E-03    0.271E-03
DAV:  10    -0.327543431738E+02   -0.36211E-05   -0.20419E-07  1648   0.420E-03    0.149E-03
DAV:  11    -0.327543460402E+02   -0.28665E-05   -0.96627E-08  1516   0.307E-03    0.564E-04
DAV:  12    -0.327543474816E+02   -0.14413E-05   -0.63150E-08  1492   0.221E-03    0.435E-04
DAV:  13    -0.327543488210E+02   -0.13394E-05   -0.39522E-08  1516   0.153E-03    0.460E-04
DAV:  14    -0.327543494368E+02   -0.61582E-06   -0.20638E-08  1492   0.125E-03
   5 F= -.33661786E+02 E0= -.33661786E+02  d E =-.116563E-02  mag=     6.0000
