Cr Cl                                   
   1.0000000000000000     
    12.0925489970493256    0.0000000000000000    0.0000000000000000
    -6.0462744985246628   10.4724546279527502    0.0000000000000000
     0.0000000000000000    0.0000000000000000   20.0000000000000000
  Cr              Cl            
     8    24
Direct
     0.1666666666666714    0.3333333333333286    0.5000000000000000
     0.3333333333333286    0.1666666666666714    0.5000000000000000
     0.6666666666666714    0.3333333333333286    0.5000000000000000
     0.8333333333333286    0.1666666666666714    0.5000000000000000
     0.1666666666666714    0.8333333333333286    0.5000000000000000
     0.3333333333333286    0.6666666666666714    0.5000000000000000
     0.6666666666666714    0.8333333333333286    0.5000000000000000
     0.8333333333333286    0.6666666666666714    0.5000000000000000
     0.1777918687330526    0.5000000000000000    0.4322321042820008
     0.5000000000000000    0.1777918687330526    0.4322321042820008
     0.3222081312669474    0.3222081312669474    0.4322321042820008
     0.3222081312669474    0.5000000000000000    0.5677678957179992
     0.0000000000000000    0.3222081312669474    0.5677678957179992
     0.1777918687330526    0.1777918687330526    0.5677678957179992
     0.6777918687330526    0.5000000000000000    0.4322321042820008
     0.0000000000000000    0.1777918687330526    0.4322321042820008
     0.8222081312669474    0.3222081312669474    0.4322321042820008
     0.8222081312669474    0.5000000000000000    0.5677678957179992
     0.5000000000000000    0.3222081312669474    0.5677678957179992
     0.6777918687330526    0.1777918687330526    0.5677678957179992
     0.1777918687330526    0.0000000000000000    0.4322321042820008
     0.5000000000000000    0.6777918687330526    0.4322321042820008
     0.3222081312669474    0.8222081312669474    0.4322321042820008
     0.3222081312669474    0.0000000000000000    0.5677678957179992
     0.0000000000000000    0.8222081312669474    0.5677678957179992
     0.1777918687330526    0.6777918687330526    0.5677678957179992
     0.6777918687330526    0.0000000000000000    0.4322321042820008
     0.0000000000000000    0.6777918687330526    0.4322321042820008
     0.8222081312669474    0.8222081312669474    0.4322321042820008
     0.8222081312669474    0.0000000000000000    0.5677678957179992
     0.5000000000000000    0.8222081312669474    0.5677678957179992
     0.6777918687330526    0.6777918687330526    0.5677678957179992

  0.00000000E+00  0.00000000E+00  0.00000000E+00
  0.00000000E+00  0.00000000E+00  0.00000000E+00
  0.00000000E+00  0.00000000E+00  0.00000000E+00
  0.00000000E+00  0.00000000E+00  0.00000000E+00
  0.00000000E+00  0.00000000E+00  0.00000000E+00
  0.00000000E+00  0.00000000E+00  0.00000000E+00
  0.00000000E+00  0.00000000E+00  0.00000000E+00
  0.00000000E+00  0.00000000E+00  0.00000000E+00
  0.00000000E+00  0.00000000E+00  0.00000000E+00
  0.00000000E+00  0.00000000E+00  0.00000000E+00
  0.00000000E+00  0.00000000E+00  0.00000000E+00
  0.00000000E+00  0.00000000E+00  0.00000000E+00
  0.00000000E+00  0.00000000E+00  0.00000000E+00
  0.00000000E+00  0.00000000E+00  0.00000000E+00
  0.00000000E+00  0.00000000E+00  0.00000000E+00
  0.00000000E+00  0.00000000E+00  0.00000000E+00
  0.00000000E+00  0.00000000E+00  0.00000000E+00
  0.00000000E+00  0.00000000E+00  0.00000000E+00
  0.00000000E+00  0.00000000E+00  0.00000000E+00
  0.00000000E+00  0.00000000E+00  0.00000000E+00
  0.00000000E+00  0.00000000E+00  0.00000000E+00
  0.00000000E+00  0.00000000E+00  0.00000000E+00
  0.00000000E+00  0.00000000E+00  0.00000000E+00
  0.00000000E+00  0.00000000E+00  0.00000000E+00
  0.00000000E+00  0.00000000E+00  0.00000000E+00
  0.00000000E+00  0.00000000E+00  0.00000000E+00
  0.00000000E+00  0.00000000E+00  0.00000000E+00
  0.00000000E+00  0.00000000E+00  0.00000000E+00
  0.00000000E+00  0.00000000E+00  0.00000000E+00
  0.00000000E+00  0.00000000E+00  0.00000000E+00
  0.00000000E+00  0.00000000E+00  0.00000000E+00
  0.00000000E+00  0.00000000E+00  0.00000000E+00
