       N       E                     dE             d eps       ncg     rms          rms(c)
DAV:   1    -0.140262213602E+03   -0.14026E+03   -0.13171E+02 48024   0.174E+01
DAV:   2    -0.141470788766E+03   -0.12086E+01   -0.12076E+01 59160   0.897E+00
DAV:   3    -0.141498021063E+03   -0.27232E-01   -0.27222E-01 66836   0.135E+00
DAV:   4    -0.141498690391E+03   -0.66933E-03   -0.66912E-03 62812   0.204E-01
DAV:   5    -0.141498718061E+03   -0.27669E-04   -0.27667E-04 59336   0.363E-02
DAV:   6    -0.141498718885E+03   -0.82464E-06   -0.82429E-06 42376   0.640E-03
   1 F= -.14729243E+03 E0= -.14729243E+03  d E =-.250950E-15  mag=    24.0000
