 running   16 mpi-ranks, with    1 threads/rank, on    1 nodes
 distrk:  each k-point on   16 cores,    1 groups
 distr:  one band on    4 cores,    4 groups
 vasp.6.6.1 17Jul2026 (build Sep  1 2026 13:17:54) complex                       
 POSCAR found type information on POSCAR CrCl
 POSCAR found :  2 types and      32 ions
 Reading from existing POTCAR
 scaLAPACK will be used
 Reading from existing POTCAR
 -----------------------------------------------------------------------------
|                                                                             |
|               ----> ADVICE to this user running VASP <----                  |
|                                                                             |
|     You have a (more or less) 'large supercell' and for larger cells it     |
|     might be more efficient to use real-space projection operators.         |
|     Therefore, try LREAL= Auto in the INCAR file.                           |
|     Mind: For very accurate calculation, you might also keep the            |
|     reciprocal projection scheme (i.e. LREAL=.FALSE.).                      |
|                                                                             |
 -----------------------------------------------------------------------------

 LDA part: xc-table for (Slater+PW92), standard interpolation
 POSCAR, INCAR and KPOINTS ok, starting setup
 FFT: planning ... GRIDC
 FFT: planning ... GRID_SOFT
 FFT: planning ... GRID
 WAVECAR not read
 entering main loop
       N       E                     dE             d eps       ncg     rms          rms(c)
DAV:   1     0.208497601530E+04    0.20850E+04   -0.61207E+04  2960   0.913E+02
DAV:   2     0.423133802642E+03   -0.16618E+04   -0.15551E+04  3552   0.243E+02
DAV:   3    -0.108283938823E+03   -0.53142E+03   -0.51348E+03  4224   0.139E+02
DAV:   4    -0.151217535382E+03   -0.42934E+02   -0.42221E+02  4424   0.543E+01
DAV:   5    -0.151998272676E+03   -0.78074E+00   -0.77378E+00  4456   0.969E+00    0.391E+01
DAV:   6    -0.142366142191E+03    0.96321E+01   -0.15741E+02  4616   0.609E+01    0.382E+01
DAV:   7    -0.140595889351E+03    0.17703E+01   -0.17326E+01  4368   0.387E+01    0.190E+01
DAV:   8    -0.141305836238E+03   -0.70995E+00   -0.44882E+00  3944   0.580E+00    0.919E+00
DAV:   9    -0.141324984353E+03   -0.19148E-01   -0.86194E-01  4360   0.838E+00    0.318E+00
DAV:  10    -0.141351353229E+03   -0.26369E-01   -0.22210E-01  4272   0.291E+00    0.102E+00
DAV:  11    -0.141380795085E+03   -0.29442E-01   -0.12523E-02  3864   0.645E-01    0.593E-01
DAV:  12    -0.141415572531E+03   -0.34777E-01   -0.64157E-03  4216   0.377E-01    0.381E-01
DAV:  13    -0.141449203952E+03   -0.33631E-01   -0.16389E-03  3808   0.118E-01    0.140E-01
DAV:  14    -0.141463889181E+03   -0.14685E-01   -0.52036E-04  3960   0.193E-01    0.100E-01
DAV:  15    -0.141470700226E+03   -0.68110E-02   -0.11526E-04  4272   0.427E-02    0.599E-02
DAV:  16    -0.141486842836E+03   -0.16143E-01   -0.81197E-05  4112   0.398E-02    0.298E-02
DAV:  17    -0.141494981409E+03   -0.81386E-02   -0.53440E-05  3456   0.262E-02    0.260E-02
DAV:  18    -0.141498971082E+03   -0.39897E-02   -0.34202E-05  3240   0.158E-02    0.232E-02
DAV:  19    -0.141501255873E+03   -0.22848E-02   -0.21024E-05  3312   0.161E-02    0.122E-02
DAV:  20    -0.141501881989E+03   -0.62612E-03   -0.11959E-05  3312   0.989E-03    0.730E-03
DAV:  21    -0.141501878735E+03    0.32537E-05   -0.11908E-06  2240   0.651E-03    0.389E-03
DAV:  22    -0.141501945473E+03   -0.66738E-04   -0.18061E-06  2408   0.651E-03    0.439E-03
DAV:  23    -0.141501970586E+03   -0.25113E-04   -0.89372E-07  1936   0.296E-03    0.248E-03
DAV:  24    -0.141501973905E+03   -0.33196E-05   -0.57312E-07  2016   0.209E-03    0.177E-03
DAV:  25    -0.141502013123E+03   -0.39217E-04   -0.34747E-07  1952   0.324E-03    0.290E-03
DAV:  26    -0.141502051736E+03   -0.38613E-04   -0.87316E-07  1992   0.162E-03    0.237E-03
DAV:  27    -0.141502057988E+03   -0.62523E-05   -0.12015E-07  1976   0.121E-03    0.101E-03
DAV:  28    -0.141502060835E+03   -0.28472E-05   -0.59009E-08  1608   0.719E-04    0.330E-04
DAV:  29    -0.141502068256E+03   -0.74208E-05   -0.10243E-07  1800   0.799E-04    0.578E-04
DAV:  30    -0.141502070042E+03   -0.17864E-05   -0.36772E-08  1640   0.965E-04    0.416E-04
DAV:  31    -0.141502070690E+03   -0.64782E-06   -0.27012E-08  1640   0.424E-04
   1 F= -.14729578E+03 E0= -.14729578E+03  d E =-.182726E-10  mag=    24.0000
 writing wavefunctions
