Cr Cl Co H                              
   1.00000000000000     
    12.0925489970493256    0.0000000000000000    0.0000000000000000
    -6.0462744985246628   10.4724546279527502    0.0000000000000000
     0.0000000000000000    0.0000000000000000   20.0000000000000000
   Cr   Cl   Co   H 
     8    24     1     1
Direct
     0.1677423567074852    0.3337175494000207    0.5022326493873637
     0.3314763506607671    0.1665713243758941    0.5028862021222651
     0.6757466974086292    0.3358005290626654    0.4810625702112447
     0.8394489103967345    0.1666368841378162    0.4959813021775571
     0.1664574574247120    0.8335614656887811    0.5020370669550188
     0.3330574136789495    0.6669612651127925    0.5013318457286087
     0.6664396089972993    0.8339708890067323    0.5007001879851646
     0.8328075433915595    0.6694956759744717    0.4989142318137355
     0.1785303662336545    0.4998876748633826    0.4339603077958191
     0.4870242083055492    0.1755156481858467    0.4279721844631202
     0.3251480539676960    0.3257535137757794    0.4362501690349779
     0.3213405160897086    0.5015411457549905    0.5701772274492588
     0.9973159505134166    0.3221401753020372    0.5670066485838973
     0.1742331806457539    0.1766560622436895    0.5705691869954688
     0.6816248316621104    0.5129385245689038    0.4258452313883136
     0.0080093497727188    0.1710033552574103    0.4347224485728617
     0.8436872607622674    0.3136696424327841    0.4191482627220627
     0.8280196027256960    0.4951938590061090    0.5636356392513138
     0.4873788869145153    0.3285251925641716    0.5757716876072738
     0.6677660225449640    0.1727867816294419    0.5600491719933921
     0.1743415641775569    0.9994145038689872    0.4355915970380523
     0.4994449538817724    0.6777113072852831    0.4335166895430972
     0.3218538299438249    0.8229801740448243    0.4340439224921927
     0.3231090225523905    0.0004544090764401    0.5696991626637892
     0.9982198099796797    0.8201987726531715    0.5696167919772720
     0.1773742433207172    0.6776278066695096    0.5693523367157753
     0.6787464522453405    0.9982049571919004    0.4313054582747404
     0.0010229160581436    0.6784286025314478    0.4337026789013662
     0.8259109647883277    0.8282581032747156    0.4337900124894125
     0.8207151248944330    0.0004888517046429    0.5685308376055949
     0.5004115702195581    0.8239135466076835    0.5683353048657417
     0.6764402247860020    0.6756281657205929    0.5674754395095498
     0.6602948268135910    0.3322297571202164    0.6236433368058033
     0.6646741273921045    0.3288005505734996    0.7009722903650202
 
  0.00000000E+00  0.00000000E+00  0.00000000E+00
  0.00000000E+00  0.00000000E+00  0.00000000E+00
  0.00000000E+00  0.00000000E+00  0.00000000E+00
  0.00000000E+00  0.00000000E+00  0.00000000E+00
  0.00000000E+00  0.00000000E+00  0.00000000E+00
  0.00000000E+00  0.00000000E+00  0.00000000E+00
  0.00000000E+00  0.00000000E+00  0.00000000E+00
  0.00000000E+00  0.00000000E+00  0.00000000E+00
  0.00000000E+00  0.00000000E+00  0.00000000E+00
  0.00000000E+00  0.00000000E+00  0.00000000E+00
  0.00000000E+00  0.00000000E+00  0.00000000E+00
  0.00000000E+00  0.00000000E+00  0.00000000E+00
  0.00000000E+00  0.00000000E+00  0.00000000E+00
  0.00000000E+00  0.00000000E+00  0.00000000E+00
  0.00000000E+00  0.00000000E+00  0.00000000E+00
  0.00000000E+00  0.00000000E+00  0.00000000E+00
  0.00000000E+00  0.00000000E+00  0.00000000E+00
  0.00000000E+00  0.00000000E+00  0.00000000E+00
  0.00000000E+00  0.00000000E+00  0.00000000E+00
  0.00000000E+00  0.00000000E+00  0.00000000E+00
  0.00000000E+00  0.00000000E+00  0.00000000E+00
  0.00000000E+00  0.00000000E+00  0.00000000E+00
  0.00000000E+00  0.00000000E+00  0.00000000E+00
  0.00000000E+00  0.00000000E+00  0.00000000E+00
  0.00000000E+00  0.00000000E+00  0.00000000E+00
  0.00000000E+00  0.00000000E+00  0.00000000E+00
  0.00000000E+00  0.00000000E+00  0.00000000E+00
  0.00000000E+00  0.00000000E+00  0.00000000E+00
  0.00000000E+00  0.00000000E+00  0.00000000E+00
  0.00000000E+00  0.00000000E+00  0.00000000E+00
  0.00000000E+00  0.00000000E+00  0.00000000E+00
  0.00000000E+00  0.00000000E+00  0.00000000E+00
  0.00000000E+00  0.00000000E+00  0.00000000E+00
  0.00000000E+00  0.00000000E+00  0.00000000E+00
