# =========================================================================
# VASP INCAR: CrCl3 2x2 + Co-H Adsorbed State (PBE+D3(BJ) + U=3.29eV)
# Hydrogen adsorbed directly atop Co adatom
# =========================================================================

PREC     = Accurate
ENCUT    = 400.0
EDIFF    = 1.0E-06
NELM     = 100

ISPIN    = 2
MAGMOM   = 8*3.0 24*0.0 1*3.0 1*0.5

ISMEAR   = 0
SIGMA    = 0.05

NCORE    = 4
LREAL    = Auto

IVDW     = 12

IBRION   = 2
NSW      = 100
EDIFFG   = -0.025

LASPH    = .TRUE.
LMAXMIX  = 4

LDAU     = .TRUE.
LDAUL    = 2 -1 -1 -1
LDAUU    = 3.29 0.0 0.0 0.0

LDIPOL   = .TRUE.
IDIPOL   = 3
DIPOL    = 0.5 0.5 0.5

LWAVE    = .FALSE.
LCHARG   = .FALSE.
