       N       E                     dE             d eps       ncg     rms          rms(c)
DAV:   1     0.213212166570E+04    0.21321E+04   -0.64633E+04  8064   0.901E+02
DAV:   2     0.394471425153E+03   -0.17377E+04   -0.16273E+04  9940   0.239E+02
DAV:   3    -0.119246335700E+03   -0.51372E+03   -0.49991E+03 11452   0.134E+02
DAV:   4    -0.157595611045E+03   -0.38349E+02   -0.37881E+02 11550   0.545E+01
DAV:   5    -0.158471722043E+03   -0.87611E+00   -0.87438E+00 11998   0.904E+00    0.404E+01
DAV:   6    -0.148631785691E+03    0.98399E+01   -0.16335E+02 12460   0.620E+01    0.437E+01
DAV:   7    -0.147695228252E+03    0.93656E+00   -0.23894E+01 11676   0.448E+01    0.288E+01
DAV:   8    -0.160275088876E+03   -0.12580E+02   -0.42980E+01 11270   0.599E+01    0.590E+01
DAV:   9    -0.146701120011E+03    0.13574E+02   -0.68649E+01 12768   0.191E+01    0.166E+01
DAV:  10    -0.145567829712E+03    0.11333E+01   -0.29708E+00 11298   0.107E+01    0.103E+01
DAV:  11    -0.145392900591E+03    0.17493E+00   -0.22130E+00 11718   0.139E+01    0.105E+01
DAV:  12    -0.145237572312E+03    0.15533E+00   -0.53437E-01 12124   0.587E+00    0.582E+00
DAV:  13    -0.145240492528E+03   -0.29202E-02   -0.14724E-01 11046   0.172E+00    0.516E+00
DAV:  14    -0.146071030171E+03   -0.83054E+00   -0.65496E-01 10682   0.452E+00    0.466E+00
DAV:  15    -0.146349759189E+03   -0.27873E+00   -0.22021E-01 11326   0.113E+00    0.447E+00
DAV:  16    -0.146246355617E+03    0.10340E+00   -0.34835E-02 11018   0.907E-01    0.458E+00
DAV:  17    -0.146195338556E+03    0.51017E-01   -0.59730E-03 12278   0.358E-01    0.465E+00
DAV:  18    -0.146254324087E+03   -0.58986E-01   -0.15499E-02 11648   0.458E-01    0.456E+00
DAV:  19    -0.146223142831E+03    0.31181E-01   -0.21936E-02 12166   0.382E-01    0.464E+00
DAV:  20    -0.146445354073E+03   -0.22221E+00   -0.60980E-02 11228   0.136E+00    0.425E+00
DAV:  21    -0.147521693258E+03   -0.10763E+01   -0.12277E+00 11186   0.761E+00    0.346E+00
DAV:  22    -0.147798841828E+03   -0.27715E+00   -0.28002E-01 10500   0.199E+00    0.283E+00
DAV:  23    -0.147853839156E+03   -0.54997E-01   -0.27590E-02 10864   0.709E-01    0.261E+00
DAV:  24    -0.148031917799E+03   -0.17808E+00   -0.42413E-02 11802   0.121E+00    0.191E+00
DAV:  25    -0.148249910303E+03   -0.21799E+00   -0.10056E-01 11508   0.137E+00    0.117E+00
DAV:  26    -0.148311625387E+03   -0.61715E-01   -0.25033E-02 12068   0.615E-01    0.914E-01
DAV:  27    -0.148368176350E+03   -0.56551E-01   -0.70699E-03 10976   0.264E-01    0.743E-01
DAV:  28    -0.148596320851E+03   -0.22814E+00   -0.59066E-02 11018   0.984E-01    0.386E-01
DAV:  29    -0.148735811259E+03   -0.13949E+00   -0.21612E-02 11354   0.380E-01    0.492E-01
DAV:  30    -0.148783409656E+03   -0.47598E-01   -0.30539E-03 11522   0.208E-01    0.385E-01
DAV:  31    -0.148824342629E+03   -0.40933E-01   -0.41175E-03 11606   0.280E-01    0.175E-01
DAV:  32    -0.148864569991E+03   -0.40227E-01   -0.20776E-03 11942   0.200E-01    0.161E-01
DAV:  33    -0.148888478298E+03   -0.23908E-01   -0.99699E-04 11522   0.153E-01    0.115E-01
DAV:  34    -0.148902484270E+03   -0.14006E-01   -0.50957E-04 10598   0.654E-02    0.745E-02
DAV:  35    -0.148909719040E+03   -0.72348E-02   -0.32370E-04 11200   0.478E-02    0.700E-02
DAV:  36    -0.148911755446E+03   -0.20364E-02   -0.76331E-05 11270   0.370E-02    0.618E-02
DAV:  37    -0.148912824541E+03   -0.10691E-02   -0.45528E-05 11186   0.235E-02    0.509E-02
DAV:  38    -0.148913449781E+03   -0.62524E-03   -0.38915E-05 11186   0.237E-02    0.445E-02
DAV:  39    -0.148913663372E+03   -0.21359E-03   -0.12887E-05 10556   0.146E-02    0.438E-02
DAV:  40    -0.148913737719E+03   -0.74346E-04   -0.56212E-06  9828   0.970E-03    0.439E-02
DAV:  41    -0.148913784077E+03   -0.46358E-04   -0.77689E-06  9982   0.146E-02    0.446E-02
DAV:  42    -0.148913802065E+03   -0.17988E-04   -0.90093E-06 10584   0.145E-02    0.456E-02
DAV:  43    -0.148913802157E+03   -0.92787E-07   -0.44437E-06  9198   0.976E-03
   1 F= -.15502202E+03 E0= -.15502202E+03  d E =-.155022E+03  mag=    21.9990
       N       E                     dE             d eps       ncg     rms          rms(c)
DAV:   1    -0.148971339398E+03   -0.57537E-01   -0.13514E+01  8022   0.712E+00    0.213E+00
DAV:   2    -0.149069973836E+03   -0.98634E-01   -0.92328E-01 11816   0.499E+00    0.220E+00
DAV:   3    -0.149059542915E+03    0.10431E-01   -0.19030E-01 11522   0.359E+00    0.115E+00
DAV:   4    -0.149056496151E+03    0.30468E-02   -0.23233E-02 11648   0.110E+00    0.607E-01
DAV:   5    -0.149055682032E+03    0.81412E-03   -0.76869E-03 10234   0.244E-01    0.438E-01
DAV:   6    -0.149055088502E+03    0.59353E-03   -0.33726E-03 12068   0.341E-01    0.181E-01
DAV:   7    -0.149055154159E+03   -0.65657E-04   -0.60467E-04 11424   0.144E-01    0.809E-02
DAV:   8    -0.149055422750E+03   -0.26859E-03   -0.16187E-04 11018   0.523E-02    0.746E-02
DAV:   9    -0.149055704530E+03   -0.28178E-03   -0.66285E-05 11522   0.443E-02    0.533E-02
DAV:  10    -0.149056040487E+03   -0.33596E-03   -0.59407E-05 11326   0.307E-02    0.407E-02
DAV:  11    -0.149056250788E+03   -0.21030E-03   -0.35645E-05 12152   0.308E-02    0.348E-02
DAV:  12    -0.149056463377E+03   -0.21259E-03   -0.52470E-05 11242   0.411E-02    0.321E-02
DAV:  13    -0.149056596796E+03   -0.13342E-03   -0.71456E-05 11704   0.418E-02    0.260E-02
DAV:  14    -0.149056605935E+03   -0.91388E-05   -0.63179E-05 11970   0.409E-02    0.164E-02
DAV:  15    -0.149056554863E+03    0.51072E-04   -0.49634E-05 12222   0.358E-02    0.827E-03
DAV:  16    -0.149056559580E+03   -0.47165E-05   -0.12099E-05 11466   0.134E-02    0.770E-03
DAV:  17    -0.149056567482E+03   -0.79020E-05   -0.78819E-07  6118   0.397E-03    0.606E-03
DAV:  18    -0.149056588870E+03   -0.21388E-04   -0.26569E-06  7994   0.908E-03    0.364E-03
DAV:  19    -0.149056616375E+03   -0.27505E-04   -0.12136E-06  6958   0.429E-03    0.171E-03
DAV:  20    -0.149056629694E+03   -0.13319E-04   -0.30752E-07  5124   0.285E-03    0.145E-03
DAV:  21    -0.149056639349E+03   -0.96548E-05   -0.21031E-07  5208   0.158E-03    0.116E-03
DAV:  22    -0.149056652792E+03   -0.13443E-04   -0.26696E-07  5824   0.185E-03    0.845E-04
DAV:  23    -0.149056660559E+03   -0.77673E-05   -0.26597E-07  5362   0.150E-03    0.894E-04
DAV:  24    -0.149056666013E+03   -0.54540E-05   -0.18477E-07  5418   0.133E-03    0.464E-04
DAV:  25    -0.149056668905E+03   -0.28922E-05   -0.11889E-07  5110   0.125E-03    0.495E-04
DAV:  26    -0.149056670508E+03   -0.16030E-05   -0.81571E-08  5082   0.799E-04    0.299E-04
DAV:  27    -0.149056671459E+03   -0.95091E-06   -0.49178E-08  5096   0.766E-04
   2 F= -.15516919E+03 E0= -.15516919E+03  d E =-.147174E+00  mag=    22.0000
       N       E                     dE             d eps       ncg     rms          rms(c)
DAV:   1    -0.149055749951E+03    0.92056E-03   -0.62669E-01  8008   0.153E+00    0.438E-01
DAV:   2    -0.149059847058E+03   -0.40971E-02   -0.38357E-02 11662   0.944E-01    0.395E-01
DAV:   3    -0.149059856653E+03   -0.95953E-05   -0.62094E-03 11830   0.619E-01    0.241E-01
DAV:   4    -0.149059670853E+03    0.18580E-03   -0.99438E-04 11676   0.254E-01    0.124E-01
DAV:   5    -0.149059636615E+03    0.34238E-04   -0.28163E-04  9688   0.449E-02    0.908E-02
DAV:   6    -0.149059592599E+03    0.44016E-04   -0.15216E-04 12068   0.672E-02    0.389E-02
DAV:   7    -0.149059584807E+03    0.77918E-05   -0.27894E-05 11550   0.312E-02    0.140E-02
DAV:   8    -0.149059589159E+03   -0.43514E-05   -0.47366E-06  7924   0.844E-03    0.113E-02
DAV:   9    -0.149059606382E+03   -0.17223E-04   -0.16503E-06  6286   0.586E-03    0.792E-03
DAV:  10    -0.149059629195E+03   -0.22813E-04   -0.20922E-06  7294   0.513E-03    0.485E-03
DAV:  11    -0.149059643302E+03   -0.14107E-04   -0.82066E-07  5124   0.456E-03    0.371E-03
DAV:  12    -0.149059655926E+03   -0.12624E-04   -0.71084E-07  5502   0.308E-03    0.318E-03
DAV:  13    -0.149059664614E+03   -0.86878E-05   -0.44217E-07  5222   0.306E-03    0.288E-03
DAV:  14    -0.149059675491E+03   -0.10877E-04   -0.43547E-07  5810   0.308E-03    0.236E-03
DAV:  15    -0.149059685654E+03   -0.10163E-04   -0.72220E-07  6258   0.256E-03    0.190E-03
DAV:  16    -0.149059690291E+03   -0.46372E-05   -0.45145E-07  6076   0.263E-03    0.135E-03
DAV:  17    -0.149059691024E+03   -0.73311E-06   -0.37832E-07  5222   0.205E-03
   3 F= -.15517325E+03 E0= -.15517325E+03  d E =-.151230E+00  mag=    22.0000
       N       E                     dE             d eps       ncg     rms          rms(c)
DAV:   1    -0.148993988664E+03    0.65702E-01   -0.23275E+01  8008   0.879E+00    0.304E+00
DAV:   2    -0.149159656183E+03   -0.16567E+00   -0.12315E+00 11508   0.568E+00    0.258E+00
DAV:   3    -0.149156515486E+03    0.31407E-02   -0.27491E-01 11116   0.439E+00    0.148E+00
DAV:   4    -0.149152727042E+03    0.37884E-02   -0.33493E-02 11214   0.123E+00    0.664E-01
DAV:   5    -0.149152758726E+03   -0.31684E-04   -0.12249E-02 10262   0.279E-01    0.518E-01
DAV:   6    -0.149153836355E+03   -0.10776E-02   -0.42204E-03 11494   0.257E-01    0.233E-01
DAV:   7    -0.149154888133E+03   -0.10518E-02   -0.72967E-04 12334   0.182E-01    0.775E-02
DAV:   8    -0.149155634987E+03   -0.74685E-03   -0.14193E-04 11116   0.548E-02    0.725E-02
DAV:   9    -0.149156132733E+03   -0.49775E-03   -0.48024E-05 11956   0.461E-02    0.379E-02
DAV:  10    -0.149156723962E+03   -0.59123E-03   -0.34108E-05 11382   0.166E-02    0.168E-02
DAV:  11    -0.149157065143E+03   -0.34118E-03   -0.75755E-06 10458   0.980E-03    0.103E-02
DAV:  12    -0.149157365672E+03   -0.30053E-03   -0.40901E-06  7616   0.870E-03    0.523E-03
DAV:  13    -0.149157545149E+03   -0.17948E-03   -0.15133E-06  6468   0.381E-03    0.418E-03
DAV:  14    -0.149157693661E+03   -0.14851E-03   -0.10283E-06  6538   0.315E-03    0.349E-03
DAV:  15    -0.149157878085E+03   -0.18442E-03   -0.21243E-06  7308   0.318E-03    0.268E-03
DAV:  16    -0.149158040994E+03   -0.16291E-03   -0.18396E-06  7308   0.319E-03    0.196E-03
DAV:  17    -0.149158132391E+03   -0.91397E-04   -0.10466E-06  6454   0.271E-03    0.184E-03
DAV:  18    -0.149158208703E+03   -0.76313E-04   -0.13326E-06  6734   0.290E-03    0.130E-03
DAV:  19    -0.149158256340E+03   -0.47637E-04   -0.15992E-06  7028   0.258E-03    0.973E-04
DAV:  20    -0.149158265246E+03   -0.89061E-05   -0.46241E-07  6048   0.185E-03    0.671E-04
DAV:  21    -0.149158263427E+03    0.18192E-05   -0.28208E-07  5824   0.152E-03    0.652E-04
DAV:  22    -0.149158260311E+03    0.31164E-05   -0.18355E-07  5446   0.126E-03    0.398E-04
DAV:  23    -0.149158262634E+03   -0.23227E-05   -0.59297E-08  5082   0.935E-04    0.320E-04
DAV:  24    -0.149158264126E+03   -0.14928E-05   -0.23904E-08  5096   0.536E-04    0.260E-04
DAV:  25    -0.149158263491E+03    0.63549E-06   -0.17776E-08  5054   0.435E-04
   4 F= -.15527037E+03 E0= -.15527037E+03  d E =-.971226E-01  mag=    22.0000
       N       E                     dE             d eps       ncg     rms          rms(c)
DAV:   1    -0.149027565548E+03    0.13070E+00   -0.23003E+01  8008   0.873E+00    0.303E+00
DAV:   2    -0.149187826542E+03   -0.16026E+00   -0.11787E+00 11452   0.552E+00    0.244E+00
DAV:   3    -0.149187357340E+03    0.46920E-03   -0.21934E-01 11200   0.395E+00    0.131E+00
DAV:   4    -0.149185210232E+03    0.21471E-02   -0.24961E-02 11340   0.101E+00    0.625E-01
DAV:   5    -0.149185254431E+03   -0.44199E-04   -0.99806E-03 10584   0.246E-01    0.478E-01
DAV:   6    -0.149186401200E+03   -0.11468E-02   -0.43709E-03 11536   0.305E-01    0.227E-01
DAV:   7    -0.149187345766E+03   -0.94457E-03   -0.75482E-04 12292   0.194E-01    0.749E-02
DAV:   8    -0.149188048503E+03   -0.70274E-03   -0.13779E-04 10920   0.620E-02    0.701E-02
DAV:   9    -0.149188628405E+03   -0.57990E-03   -0.62623E-05 11746   0.469E-02    0.332E-02
DAV:  10    -0.149189187578E+03   -0.55917E-03   -0.29868E-05 11424   0.148E-02    0.161E-02
DAV:  11    -0.149189484692E+03   -0.29711E-03   -0.53702E-06  9926   0.763E-03    0.939E-03
DAV:  12    -0.149189773147E+03   -0.28845E-03   -0.35203E-06  7672   0.648E-03    0.489E-03
DAV:  13    -0.149189933586E+03   -0.16044E-03   -0.12104E-06  6566   0.347E-03    0.376E-03
DAV:  14    -0.149190064142E+03   -0.13056E-03   -0.76515E-07  6398   0.295E-03    0.327E-03
DAV:  15    -0.149190222011E+03   -0.15787E-03   -0.16230E-06  7098   0.275E-03    0.240E-03
DAV:  16    -0.149190408153E+03   -0.18614E-03   -0.22870E-06  7714   0.327E-03    0.166E-03
DAV:  17    -0.149190492076E+03   -0.83923E-04   -0.85611E-07  6664   0.241E-03    0.140E-03
DAV:  18    -0.149190547938E+03   -0.55862E-04   -0.59807E-07  6272   0.228E-03    0.114E-03
DAV:  19    -0.149190603297E+03   -0.55359E-04   -0.13835E-06  6930   0.214E-03    0.816E-04
DAV:  20    -0.149190621642E+03   -0.18344E-04   -0.37647E-07  6062   0.164E-03    0.567E-04
DAV:  21    -0.149190627887E+03   -0.62450E-05   -0.22236E-07  5544   0.136E-03    0.435E-04
DAV:  22    -0.149190629790E+03   -0.19029E-05   -0.12525E-07  5096   0.111E-03    0.340E-04
DAV:  23    -0.149190631333E+03   -0.15435E-05   -0.11185E-07  5628   0.811E-04    0.229E-04
DAV:  24    -0.149190631679E+03   -0.34625E-06   -0.63761E-08  5096   0.790E-04
   5 F= -.15530121E+03 E0= -.15530121E+03  d E =-.127963E+00  mag=    22.0000
       N       E                     dE             d eps       ncg     rms          rms(c)
DAV:   1    -0.149148144760E+03    0.42487E-01   -0.13770E+01  8008   0.704E+00    0.239E+00
DAV:   2    -0.149240798633E+03   -0.92654E-01   -0.61372E-01 11550   0.285E+00    0.140E+00
DAV:   3    -0.149251793304E+03   -0.10995E-01   -0.71731E-02 10822   0.187E+00    0.828E-01
DAV:   4    -0.149250080132E+03    0.17132E-02   -0.11127E-02 11564   0.780E-01    0.437E-01
DAV:   5    -0.149249828925E+03    0.25121E-03   -0.30302E-03 11830   0.186E-01    0.333E-01
DAV:   6    -0.149250107132E+03   -0.27821E-03   -0.22421E-03 10458   0.132E-01    0.132E-01
DAV:   7    -0.149250741257E+03   -0.63413E-03   -0.41964E-04 11242   0.852E-02    0.472E-02
DAV:   8    -0.149251154183E+03   -0.41293E-03   -0.52229E-05 12082   0.334E-02    0.342E-02
DAV:   9    -0.149251505891E+03   -0.35171E-03   -0.14756E-05 12054   0.175E-02    0.225E-02
DAV:  10    -0.149251897136E+03   -0.39124E-03   -0.10017E-05 10598   0.105E-02    0.119E-02
DAV:  11    -0.149252244765E+03   -0.34763E-03   -0.63077E-06 10262   0.724E-03    0.688E-03
DAV:  12    -0.149252476835E+03   -0.23207E-03   -0.20727E-06  7154   0.482E-03    0.521E-03
DAV:  13    -0.149252685396E+03   -0.20856E-03   -0.28115E-06  7812   0.423E-03    0.409E-03
DAV:  14    -0.149252801068E+03   -0.11567E-03   -0.92260E-07  6496   0.304E-03    0.332E-03
DAV:  15    -0.149252934034E+03   -0.13297E-03   -0.16726E-06  7028   0.315E-03    0.236E-03
DAV:  16    -0.149253079074E+03   -0.14504E-03   -0.32591E-06  8176   0.377E-03    0.140E-03
DAV:  17    -0.149253127955E+03   -0.48881E-04   -0.69826E-07  6440   0.232E-03    0.112E-03
DAV:  18    -0.149253157995E+03   -0.30040E-04   -0.61402E-07  6146   0.202E-03    0.106E-03
DAV:  19    -0.149253166908E+03   -0.89128E-05   -0.29794E-07  5502   0.173E-03    0.727E-04
DAV:  20    -0.149253173068E+03   -0.61594E-05   -0.22410E-07  5572   0.118E-03    0.576E-04
DAV:  21    -0.149253177354E+03   -0.42864E-05   -0.18897E-07  5670   0.121E-03    0.446E-04
DAV:  22    -0.149253179224E+03   -0.18704E-05   -0.15179E-07  5446   0.986E-04    0.301E-04
DAV:  23    -0.149253179399E+03   -0.17482E-06   -0.93277E-08  5082   0.898E-04
   6 F= -.15535982E+03 E0= -.15535982E+03  d E =-.586045E-01  mag=    22.0000
       N       E                     dE             d eps       ncg     rms          rms(c)
DAV:   1    -0.149059368366E+03    0.19381E+00   -0.29656E+01  8008   0.103E+01    0.357E+00
DAV:   2    -0.149266935818E+03   -0.20757E+00   -0.13972E+00 11256   0.455E+00    0.230E+00
DAV:   3    -0.149288609349E+03   -0.21674E-01   -0.20010E-01 10570   0.333E+00    0.136E+00
DAV:   4    -0.149284938876E+03    0.36705E-02   -0.31781E-02 11452   0.127E+00    0.666E-01
DAV:   5    -0.149284796466E+03    0.14241E-03   -0.89792E-03 11760   0.297E-01    0.516E-01
DAV:   6    -0.149285415725E+03   -0.61926E-03   -0.53572E-03 10094   0.197E-01    0.217E-01
DAV:   7    -0.149286666262E+03   -0.12505E-02   -0.12062E-03 11718   0.128E-01    0.812E-02
DAV:   8    -0.149287311259E+03   -0.64500E-03   -0.11572E-04 11928   0.571E-02    0.565E-02
DAV:   9    -0.149287951356E+03   -0.64010E-03   -0.46636E-05 12614   0.377E-02    0.349E-02
DAV:  10    -0.149288667509E+03   -0.71615E-03   -0.33100E-05 11844   0.224E-02    0.177E-02
DAV:  11    -0.149289219041E+03   -0.55153E-03   -0.12370E-05 11396   0.110E-02    0.102E-02
DAV:  12    -0.149289630377E+03   -0.41134E-03   -0.43201E-06  8680   0.674E-03    0.764E-03
DAV:  13    -0.149289978340E+03   -0.34796E-03   -0.43735E-06  8512   0.538E-03    0.563E-03
DAV:  14    -0.149290179787E+03   -0.20145E-03   -0.15998E-06  7084   0.393E-03    0.436E-03
DAV:  15    -0.149290444170E+03   -0.26438E-03   -0.38588E-06  8218   0.457E-03    0.292E-03
DAV:  16    -0.149290639070E+03   -0.19490E-03   -0.32467E-06  7868   0.386E-03    0.180E-03
DAV:  17    -0.149290721735E+03   -0.82665E-04   -0.10435E-06  6776   0.255E-03    0.149E-03
DAV:  18    -0.149290774963E+03   -0.53227E-04   -0.87482E-07  6482   0.246E-03    0.119E-03
DAV:  19    -0.149290798933E+03   -0.23971E-04   -0.46475E-07  5922   0.195E-03    0.909E-04
DAV:  20    -0.149290817328E+03   -0.18395E-04   -0.48095E-07  6146   0.162E-03    0.659E-04
DAV:  21    -0.149290827914E+03   -0.10586E-04   -0.33746E-07  5796   0.153E-03    0.514E-04
DAV:  22    -0.149290833132E+03   -0.52185E-05   -0.24215E-07  5488   0.132E-03    0.344E-04
DAV:  23    -0.149290835173E+03   -0.20403E-05   -0.14960E-07  5138   0.108E-03    0.246E-04
DAV:  24    -0.149290836229E+03   -0.10564E-05   -0.91097E-08  5138   0.809E-04    0.173E-04
DAV:  25    -0.149290837066E+03   -0.83655E-06   -0.69745E-08  5432   0.672E-04
   7 F= -.15539156E+03 E0= -.15539156E+03  d E =-.903458E-01  mag=    22.0000
       N       E                     dE             d eps       ncg     rms          rms(c)
DAV:   1    -0.149198784218E+03    0.92052E-01   -0.15627E+01  8078   0.783E+00    0.251E+00
DAV:   2    -0.149317995908E+03   -0.11921E+00   -0.11069E+00 11802   0.377E+00    0.139E+00
DAV:   3    -0.149323556211E+03   -0.55603E-02   -0.52554E-02 11116   0.165E+00    0.872E-01
DAV:   4    -0.149321363636E+03    0.21926E-02   -0.12927E-02 11564   0.821E-01    0.613E-01
DAV:   5    -0.149320538191E+03    0.82544E-03   -0.29285E-03 12698   0.321E-01    0.468E-01
DAV:   6    -0.149320392175E+03    0.14602E-03   -0.48114E-03 11186   0.222E-01    0.215E-01
DAV:   7    -0.149321023958E+03   -0.63178E-03   -0.95809E-04 11214   0.134E-01    0.638E-02
DAV:   8    -0.149321310498E+03   -0.28654E-03   -0.13911E-04 12096   0.560E-02    0.420E-02
DAV:   9    -0.149321520777E+03   -0.21028E-03   -0.35502E-05 12656   0.294E-02    0.345E-02
DAV:  10    -0.149321658162E+03   -0.13738E-03   -0.19352E-05 11452   0.255E-02    0.186E-02
DAV:  11    -0.149321812724E+03   -0.15456E-03   -0.12689E-05 11522   0.115E-02    0.935E-03
DAV:  12    -0.149321911221E+03   -0.98498E-04   -0.22415E-06  7784   0.688E-03    0.583E-03
DAV:  13    -0.149322003516E+03   -0.92295E-04   -0.22627E-06  7000   0.468E-03    0.442E-03
DAV:  14    -0.149322074121E+03   -0.70604E-04   -0.13832E-06  6538   0.477E-03    0.360E-03
DAV:  15    -0.149322127018E+03   -0.52898E-04   -0.10854E-06  6398   0.355E-03    0.301E-03
DAV:  16    -0.149322184475E+03   -0.57457E-04   -0.18840E-06  7224   0.323E-03    0.164E-03
DAV:  17    -0.149322208916E+03   -0.24441E-04   -0.61464E-07  6104   0.245E-03    0.111E-03
DAV:  18    -0.149322220495E+03   -0.11578E-04   -0.36453E-07  5880   0.200E-03    0.893E-04
DAV:  19    -0.149322226764E+03   -0.62690E-05   -0.24988E-07  5460   0.145E-03    0.632E-04
DAV:  20    -0.149322230702E+03   -0.39383E-05   -0.15062E-07  5348   0.111E-03    0.457E-04
DAV:  21    -0.149322234235E+03   -0.35327E-05   -0.12841E-07  5334   0.924E-04    0.367E-04
DAV:  22    -0.149322238258E+03   -0.40235E-05   -0.19212E-07  5838   0.924E-04    0.320E-04
DAV:  23    -0.149322239392E+03   -0.11332E-05   -0.88714E-08  5152   0.888E-04    0.205E-04
DAV:  24    -0.149322239711E+03   -0.31973E-06   -0.43213E-08  5096   0.578E-04
   8 F= -.15541898E+03 E0= -.15541898E+03  d E =-.274230E-01  mag=    22.0000
       N       E                     dE             d eps       ncg     rms          rms(c)
DAV:   1    -0.149319870386E+03    0.23690E-02   -0.32912E-01  8064   0.113E+00    0.351E-01
DAV:   2    -0.149322279774E+03   -0.24094E-02   -0.23286E-02 11802   0.533E-01    0.188E-01
DAV:   3    -0.149322452007E+03   -0.17223E-03   -0.94783E-04 11088   0.210E-01    0.119E-01
DAV:   4    -0.149322409071E+03    0.42936E-04   -0.22374E-04 11494   0.109E-01    0.847E-02
DAV:   5    -0.149322389763E+03    0.19308E-04   -0.64535E-05 12740   0.432E-02    0.634E-02
DAV:   6    -0.149322389762E+03    0.12751E-08   -0.88392E-05 11298   0.319E-02    0.288E-02
DAV:   7    -0.149322416954E+03   -0.27192E-04   -0.17330E-05 10934   0.174E-02    0.903E-03
DAV:   8    -0.149322433871E+03   -0.16917E-04   -0.22407E-06  7476   0.790E-03    0.594E-03
DAV:   9    -0.149322447177E+03   -0.13306E-04   -0.82489E-07  5418   0.462E-03    0.474E-03
DAV:  10    -0.149322455114E+03   -0.79362E-05   -0.42194E-07  5222   0.326E-03    0.305E-03
DAV:  11    -0.149322463459E+03   -0.83450E-05   -0.45514E-07  5544   0.233E-03    0.220E-03
DAV:  12    -0.149322468090E+03   -0.46318E-05   -0.24884E-07  5096   0.213E-03    0.117E-03
DAV:  13    -0.149322471961E+03   -0.38704E-05   -0.13278E-07  5040   0.161E-03    0.111E-03
DAV:  14    -0.149322476124E+03   -0.41628E-05   -0.90119E-08  5194   0.124E-03    0.613E-04
DAV:  15    -0.149322479250E+03   -0.31269E-05   -0.68530E-08  5502   0.816E-04    0.579E-04
DAV:  16    -0.149322481552E+03   -0.23013E-05   -0.39901E-08  5096   0.718E-04    0.406E-04
DAV:  17    -0.149322483063E+03   -0.15114E-05   -0.30897E-08  5096   0.521E-04    0.334E-04
DAV:  18    -0.149322484542E+03   -0.14791E-05   -0.26348E-08  4984   0.473E-04    0.249E-04
DAV:  19    -0.149322486075E+03   -0.15329E-05   -0.34540E-08  5558   0.457E-04    0.173E-04
DAV:  20    -0.149322486410E+03   -0.33455E-06   -0.16290E-08  5096   0.449E-04
   9 F= -.15541980E+03 E0= -.15541980E+03  d E =-.282461E-01  mag=    22.0000
       N       E                     dE             d eps       ncg     rms          rms(c)
DAV:   1    -0.149298566291E+03    0.23920E-01   -0.34020E+00  8008   0.364E+00    0.136E+00
DAV:   2    -0.149325889955E+03   -0.27324E-01   -0.13396E-01 11802   0.124E+00    0.681E-01
DAV:   3    -0.149331665216E+03   -0.57753E-02   -0.99633E-03 10598   0.638E-01    0.333E-01
DAV:   4    -0.149331300360E+03    0.36486E-03   -0.19811E-03 11354   0.334E-01    0.206E-01
DAV:   5    -0.149331175172E+03    0.12519E-03   -0.58794E-04 12138   0.144E-01    0.153E-01
DAV:   6    -0.149331168670E+03    0.65024E-05   -0.67815E-04 11298   0.914E-02    0.547E-02
DAV:   7    -0.149331386294E+03   -0.21762E-03   -0.11294E-04 10290   0.357E-02    0.319E-02
DAV:   8    -0.149331576905E+03   -0.19061E-03   -0.17195E-05 12362   0.243E-02    0.202E-02
DAV:   9    -0.149331769837E+03   -0.19293E-03   -0.82267E-06 10640   0.123E-02    0.134E-02
DAV:  10    -0.149331963637E+03   -0.19380E-03   -0.45724E-06  8960   0.890E-03    0.743E-03
DAV:  11    -0.149332120960E+03   -0.15732E-03   -0.36221E-06  8890   0.748E-03    0.523E-03
DAV:  12    -0.149332210284E+03   -0.89324E-04   -0.14115E-06  6930   0.479E-03    0.418E-03
DAV:  13    -0.149332286532E+03   -0.76247E-04   -0.12578E-06  6790   0.383E-03    0.297E-03
DAV:  14    -0.149332341029E+03   -0.54497E-04   -0.13188E-06  6944   0.335E-03    0.171E-03
DAV:  15    -0.149332358522E+03   -0.17493E-04   -0.42566E-07  5628   0.245E-03    0.130E-03
DAV:  16    -0.149332372824E+03   -0.14303E-04   -0.33903E-07  5712   0.176E-03    0.885E-04
DAV:  17    -0.149332381813E+03   -0.89882E-05   -0.25801E-07  5516   0.158E-03    0.730E-04
DAV:  18    -0.149332384994E+03   -0.31811E-05   -0.13614E-07  5096   0.117E-03    0.401E-04
DAV:  19    -0.149332390074E+03   -0.50804E-05   -0.14574E-07  5586   0.911E-04    0.393E-04
DAV:  20    -0.149332393497E+03   -0.34231E-05   -0.10686E-07  5278   0.923E-04    0.271E-04
DAV:  21    -0.149332394710E+03   -0.12129E-05   -0.61589E-08  5096   0.717E-04    0.226E-04
DAV:  22    -0.149332395983E+03   -0.12725E-05   -0.46911E-08  5208   0.556E-04    0.171E-04
DAV:  23    -0.149332397515E+03   -0.15329E-05   -0.49597E-08  5446   0.521E-04    0.138E-04
DAV:  24    -0.149332398316E+03   -0.80066E-06   -0.38283E-08  5278   0.508E-04
  10 F= -.15542768E+03 E0= -.15542768E+03  d E =-.787887E-02  mag=    22.0000
       N       E                     dE             d eps       ncg     rms          rms(c)
DAV:   1    -0.149332217941E+03    0.17957E-03   -0.98370E-03  8288   0.196E-01    0.727E-02
DAV:   2    -0.149332283013E+03   -0.65072E-04   -0.38366E-04 11718   0.631E-02    0.351E-02
DAV:   3    -0.149332307175E+03   -0.24162E-04   -0.22145E-05 10108   0.262E-02    0.161E-02
DAV:   4    -0.149332304314E+03    0.28611E-05   -0.40818E-06  8134   0.146E-02    0.110E-02
DAV:   5    -0.149332301604E+03    0.27098E-05   -0.17990E-06  5992   0.999E-03    0.893E-03
DAV:   6    -0.149332298144E+03    0.34604E-05   -0.44281E-06  8778   0.696E-03    0.377E-03
DAV:   7    -0.149332300243E+03   -0.20991E-05   -0.45880E-07  5278   0.293E-03    0.175E-03
DAV:   8    -0.149332303473E+03   -0.32304E-05   -0.17599E-07  5040   0.211E-03    0.145E-03
DAV:   9    -0.149332305999E+03   -0.25264E-05   -0.11458E-07  5068   0.133E-03    0.122E-03
DAV:  10    -0.149332307999E+03   -0.20000E-05   -0.69470E-08  5012   0.106E-03    0.756E-04
DAV:  11    -0.149332309853E+03   -0.18533E-05   -0.45295E-08  5040   0.826E-04    0.613E-04
DAV:  12    -0.149332312378E+03   -0.25250E-05   -0.41055E-08  5390   0.750E-04    0.335E-04
DAV:  13    -0.149332313447E+03   -0.10693E-05   -0.29385E-08  5096   0.589E-04    0.318E-04
DAV:  14    -0.149332314232E+03   -0.78466E-06   -0.16372E-08  4984   0.431E-04
  11 F= -.15542771E+03 E0= -.15542771E+03  d E =-.790368E-02  mag=    22.0000
       N       E                     dE             d eps       ncg     rms          rms(c)
DAV:   1    -0.149329722770E+03    0.25907E-02   -0.84035E-01  8008   0.183E+00    0.584E-01
DAV:   2    -0.149335981334E+03   -0.62586E-02   -0.56062E-02 11648   0.782E-01    0.278E-01
DAV:   3    -0.149336589819E+03   -0.60848E-03   -0.14476E-03 11298   0.225E-01    0.171E-01
DAV:   4    -0.149336522371E+03    0.67448E-04   -0.28450E-04 11382   0.111E-01    0.124E-01
DAV:   5    -0.149336492575E+03    0.29796E-04   -0.12409E-04 12656   0.610E-02    0.996E-02
DAV:   6    -0.149336511519E+03   -0.18944E-04   -0.22937E-04 11606   0.557E-02    0.429E-02
DAV:   7    -0.149336541864E+03   -0.30345E-04   -0.43000E-05 11004   0.238E-02    0.200E-02
DAV:   8    -0.149336558933E+03   -0.17069E-04   -0.65829E-06  9786   0.154E-02    0.142E-02
DAV:   9    -0.149336569789E+03   -0.10855E-04   -0.48843E-06  8512   0.107E-02    0.107E-02
DAV:  10    -0.149336577993E+03   -0.82045E-05   -0.26132E-06  7140   0.755E-03    0.738E-03
DAV:  11    -0.149336583377E+03   -0.53836E-05   -0.22557E-06  6916   0.595E-03    0.437E-03
DAV:  12    -0.149336586926E+03   -0.35492E-05   -0.76000E-07  5796   0.453E-03    0.267E-03
DAV:  13    -0.149336589574E+03   -0.26479E-05   -0.64424E-07  5166   0.324E-03    0.206E-03
DAV:  14    -0.149336590916E+03   -0.13421E-05   -0.42257E-07  5614   0.258E-03    0.130E-03
DAV:  15    -0.149336591593E+03   -0.67669E-06   -0.13265E-07  5124   0.154E-03
  12 F= -.15543127E+03 E0= -.15543127E+03  d E =-.356323E-02  mag=    22.0000
       N       E                     dE             d eps       ncg     rms          rms(c)
DAV:   1    -0.149327075044E+03    0.95159E-02   -0.14650E+00  8008   0.242E+00    0.772E-01
DAV:   2    -0.149338083402E+03   -0.11008E-01   -0.97920E-02 11606   0.103E+00    0.369E-01
DAV:   3    -0.149339079018E+03   -0.99562E-03   -0.25506E-03 11256   0.302E-01    0.227E-01
DAV:   4    -0.149338963731E+03    0.11529E-03   -0.50681E-04 11452   0.150E-01    0.164E-01
DAV:   5    -0.149338910653E+03    0.53078E-04   -0.21464E-04 12628   0.814E-02    0.132E-01
DAV:   6    -0.149338940922E+03   -0.30269E-04   -0.40664E-04 11550   0.743E-02    0.575E-02
DAV:   7    -0.149338990658E+03   -0.49736E-04   -0.77913E-05 10934   0.320E-02    0.268E-02
DAV:   8    -0.149339018781E+03   -0.28123E-04   -0.12268E-05 10668   0.202E-02    0.191E-02
DAV:   9    -0.149339037523E+03   -0.18743E-04   -0.85003E-06  9576   0.138E-02    0.144E-02
DAV:  10    -0.149339051692E+03   -0.14169E-04   -0.47492E-06  8708   0.101E-02    0.967E-03
DAV:  11    -0.149339060917E+03   -0.92250E-05   -0.31759E-06  7616   0.784E-03    0.566E-03
DAV:  12    -0.149339067351E+03   -0.64342E-05   -0.14269E-06  6678   0.596E-03    0.328E-03
DAV:  13    -0.149339071630E+03   -0.42790E-05   -0.11552E-06  6174   0.390E-03    0.230E-03
DAV:  14    -0.149339073381E+03   -0.17511E-05   -0.36800E-07  5124   0.269E-03    0.156E-03
DAV:  15    -0.149339074714E+03   -0.13328E-05   -0.18069E-07  5096   0.174E-03    0.110E-03
DAV:  16    -0.149339075947E+03   -0.12327E-05   -0.11303E-07  5068   0.137E-03    0.774E-04
DAV:  17    -0.149339077117E+03   -0.11701E-05   -0.82031E-08  5068   0.115E-03    0.554E-04
DAV:  18    -0.149339077733E+03   -0.61659E-06   -0.49043E-08  5096   0.857E-04
  13 F= -.15543281E+03 E0= -.15543281E+03  d E =-.510065E-02  mag=    22.0000
       N       E                     dE             d eps       ncg     rms          rms(c)
DAV:   1    -0.149338525373E+03    0.55174E-03   -0.45044E-01  8008   0.133E+00    0.404E-01
DAV:   2    -0.149341590034E+03   -0.30647E-02   -0.27546E-02 11298   0.546E-01    0.198E-01
DAV:   3    -0.149341994295E+03   -0.40426E-03   -0.76100E-04 10710   0.164E-01    0.122E-01
DAV:   4    -0.149341966246E+03    0.28049E-04   -0.13347E-04 10948   0.763E-02    0.894E-02
DAV:   5    -0.149341960132E+03    0.61137E-05   -0.69707E-05 12152   0.467E-02    0.751E-02
DAV:   6    -0.149341981401E+03   -0.21269E-04   -0.13006E-04 11704   0.452E-02    0.308E-02
DAV:   7    -0.149342004204E+03   -0.22803E-04   -0.25429E-05 10794   0.203E-02    0.163E-02
DAV:   8    -0.149342018974E+03   -0.14770E-04   -0.43172E-06  8568   0.135E-02    0.113E-02
DAV:   9    -0.149342031520E+03   -0.12546E-04   -0.33057E-06  7882   0.794E-03    0.855E-03
DAV:  10    -0.149342042050E+03   -0.10530E-04   -0.20054E-06  7280   0.866E-03    0.549E-03
DAV:  11    -0.149342049009E+03   -0.69597E-05   -0.16143E-06  6916   0.654E-03    0.267E-03
DAV:  12    -0.149342051406E+03   -0.23968E-05   -0.72970E-07  5586   0.344E-03    0.191E-03
DAV:  13    -0.149342052413E+03   -0.10062E-05   -0.33859E-07  5516   0.280E-03    0.134E-03
DAV:  14    -0.149342053075E+03   -0.66241E-06   -0.13314E-07  5096   0.153E-03
  14 F= -.15543505E+03 E0= -.15543505E+03  d E =-.223834E-02  mag=    22.0000
       N       E                     dE             d eps       ncg     rms          rms(c)
DAV:   1    -0.149316199641E+03    0.25853E-01   -0.40547E+00  8008   0.399E+00    0.122E+00
DAV:   2    -0.149344898791E+03   -0.28699E-01   -0.24852E-01 11298   0.166E+00    0.614E-01
DAV:   3    -0.149347756159E+03   -0.28574E-02   -0.76366E-03 10584   0.558E-01    0.376E-01
DAV:   4    -0.149347501135E+03    0.25502E-03   -0.14637E-03 10864   0.267E-01    0.270E-01
DAV:   5    -0.149347435068E+03    0.66067E-04   -0.63818E-04 12460   0.130E-01    0.225E-01
DAV:   6    -0.149347608841E+03   -0.17377E-03   -0.11240E-03 11522   0.123E-01    0.932E-02
DAV:   7    -0.149347752179E+03   -0.14334E-03   -0.23310E-04 10808   0.615E-02    0.502E-02
DAV:   8    -0.149347828968E+03   -0.76789E-04   -0.44485E-05 10864   0.458E-02    0.348E-02
DAV:   9    -0.149347897367E+03   -0.68399E-04   -0.27407E-05 10626   0.242E-02    0.262E-02
DAV:  10    -0.149347959680E+03   -0.62313E-04   -0.21644E-05 10556   0.256E-02    0.161E-02
DAV:  11    -0.149347989694E+03   -0.30015E-04   -0.13621E-05  9912   0.203E-02    0.807E-03
DAV:  12    -0.149348002075E+03   -0.12380E-04   -0.42978E-06  8218   0.996E-03    0.524E-03
DAV:  13    -0.149348007404E+03   -0.53296E-05   -0.17226E-06  6538   0.507E-03    0.367E-03
DAV:  14    -0.149348009886E+03   -0.24814E-05   -0.57820E-07  5474   0.347E-03    0.228E-03
DAV:  15    -0.149348011695E+03   -0.18089E-05   -0.27626E-07  5082   0.217E-03    0.171E-03
DAV:  16    -0.149348013126E+03   -0.14318E-05   -0.19585E-07  5376   0.180E-03    0.972E-04
DAV:  17    -0.149348014048E+03   -0.92185E-06   -0.13185E-07  5110   0.149E-03
  15 F= -.15543878E+03 E0= -.15543878E+03  d E =-.597035E-02  mag=    22.0000
       N       E                     dE             d eps       ncg     rms          rms(c)
DAV:   1    -0.149345149995E+03    0.28631E-02   -0.49727E-01  8008   0.140E+00    0.426E-01
DAV:   2    -0.149348547115E+03   -0.33971E-02   -0.30423E-02 11242   0.573E-01    0.208E-01
DAV:   3    -0.149348986521E+03   -0.43941E-03   -0.84459E-04 10752   0.172E-01    0.128E-01
DAV:   4    -0.149348956082E+03    0.30439E-04   -0.14626E-04 10990   0.797E-02    0.936E-02
DAV:   5    -0.149348948826E+03    0.72553E-05   -0.76385E-05 12180   0.478E-02    0.785E-02
DAV:   6    -0.149348974242E+03   -0.25415E-04   -0.13879E-04 11704   0.463E-02    0.325E-02
DAV:   7    -0.149348999474E+03   -0.25232E-04   -0.27145E-05 10822   0.209E-02    0.175E-02
DAV:   8    -0.149349016061E+03   -0.16588E-04   -0.52595E-06  8792   0.148E-02    0.123E-02
DAV:   9    -0.149349030142E+03   -0.14081E-04   -0.38754E-06  8288   0.883E-03    0.927E-03
DAV:  10    -0.149349042302E+03   -0.12160E-04   -0.26006E-06  7630   0.931E-03    0.600E-03
DAV:  11    -0.149349049374E+03   -0.70718E-05   -0.20812E-06  7238   0.740E-03    0.291E-03
DAV:  12    -0.149349051730E+03   -0.23563E-05   -0.80886E-07  5824   0.378E-03    0.209E-03
DAV:  13    -0.149349052727E+03   -0.99746E-06   -0.44444E-07  5460   0.287E-03
  16 F= -.15543903E+03 E0= -.15543903E+03  d E =-.622194E-02  mag=    22.0000
       N       E                     dE             d eps       ncg     rms          rms(c)
DAV:   1    -0.149347146226E+03    0.19055E-02   -0.55597E-01  8008   0.149E+00    0.468E-01
DAV:   2    -0.149351118916E+03   -0.39727E-02   -0.33487E-02 11256   0.608E-01    0.229E-01
DAV:   3    -0.149351832962E+03   -0.71405E-03   -0.96730E-04 11242   0.168E-01    0.131E-01
DAV:   4    -0.149351802044E+03    0.30919E-04   -0.13642E-04 11508   0.651E-02    0.963E-02
DAV:   5    -0.149351805418E+03   -0.33744E-05   -0.92095E-05 12222   0.550E-02    0.773E-02
DAV:   6    -0.149351837166E+03   -0.31748E-04   -0.13893E-04 12054   0.689E-02    0.413E-02
DAV:   7    -0.149351861059E+03   -0.23893E-04   -0.37015E-05 11004   0.342E-02    0.218E-02
DAV:   8    -0.149351882108E+03   -0.21049E-04   -0.11117E-05  9982   0.151E-02    0.162E-02
DAV:   9    -0.149351896704E+03   -0.14596E-04   -0.70610E-06  9870   0.155E-02    0.118E-02
DAV:  10    -0.149351904981E+03   -0.82777E-05   -0.40621E-06  8316   0.120E-02    0.733E-03
DAV:  11    -0.149351910614E+03   -0.56330E-05   -0.30108E-06  8106   0.801E-03    0.454E-03
DAV:  12    -0.149351912672E+03   -0.20574E-05   -0.10313E-06  6020   0.539E-03    0.247E-03
DAV:  13    -0.149351914114E+03   -0.14427E-05   -0.82456E-07  5544   0.336E-03    0.166E-03
DAV:  14    -0.149351914754E+03   -0.63974E-06   -0.23139E-07  5250   0.201E-03
  17 F= -.15544127E+03 E0= -.15544127E+03  d E =-.223986E-02  mag=    22.0000
       N       E                     dE             d eps       ncg     rms          rms(c)
DAV:   1    -0.149313036741E+03    0.38877E-01   -0.50032E+00  8008   0.448E+00    0.141E+00
DAV:   2    -0.149350524399E+03   -0.37488E-01   -0.30369E-01 11410   0.186E+00    0.721E-01
DAV:   3    -0.149355709304E+03   -0.51849E-02   -0.91576E-03 11172   0.549E-01    0.398E-01
DAV:   4    -0.149355425436E+03    0.28387E-03   -0.14271E-03 11354   0.226E-01    0.291E-01
DAV:   5    -0.149355417648E+03    0.77878E-05   -0.81525E-04 12306   0.170E-01    0.235E-01
DAV:   6    -0.149355638978E+03   -0.22133E-03   -0.12895E-03 11872   0.202E-01    0.122E-01
DAV:   7    -0.149355798399E+03   -0.15942E-03   -0.34623E-04 10934   0.989E-02    0.632E-02
DAV:   8    -0.149355913051E+03   -0.11465E-03   -0.90749E-05 10864   0.427E-02    0.477E-02
DAV:   9    -0.149355995006E+03   -0.81955E-04   -0.55068E-05 11550   0.438E-02    0.354E-02
DAV:  10    -0.149356042192E+03   -0.47186E-04   -0.33144E-05 10752   0.344E-02    0.216E-02
DAV:  11    -0.149356075561E+03   -0.33369E-04   -0.26585E-05 11032   0.248E-02    0.132E-02
DAV:  12    -0.149356086085E+03   -0.10524E-04   -0.98443E-06 10248   0.135E-02    0.796E-03
DAV:  13    -0.149356092676E+03   -0.65911E-05   -0.24611E-06  7070   0.759E-03    0.509E-03
DAV:  14    -0.149356097257E+03   -0.45804E-05   -0.98292E-07  5894   0.538E-03    0.321E-03
DAV:  15    -0.149356099380E+03   -0.21232E-05   -0.75201E-07  5586   0.355E-03    0.178E-03
DAV:  16    -0.149356100712E+03   -0.13319E-05   -0.35054E-07  5264   0.231E-03    0.127E-03
DAV:  17    -0.149356101777E+03   -0.10650E-05   -0.16212E-07  5096   0.181E-03    0.786E-04
DAV:  18    -0.149356102382E+03   -0.60565E-06   -0.73106E-08  5096   0.112E-03
  18 F= -.15544357E+03 E0= -.15544357E+03  d E =-.453751E-02  mag=    22.0000
       N       E                     dE             d eps       ncg     rms          rms(c)
DAV:   1    -0.149355231061E+03    0.87072E-03   -0.34869E-01  8008   0.115E+00    0.341E-01
DAV:   2    -0.149357603272E+03   -0.23722E-02   -0.22256E-02 11256   0.490E-01    0.167E-01
DAV:   3    -0.149357867880E+03   -0.26461E-03   -0.52662E-04 10654   0.128E-01    0.104E-01
DAV:   4    -0.149357850948E+03    0.16932E-04   -0.89855E-05 10794   0.555E-02    0.782E-02
DAV:   5    -0.149357851392E+03   -0.44333E-06   -0.52505E-05 12614   0.415E-02    0.653E-02
DAV:   6    -0.149357870522E+03   -0.19131E-04   -0.80074E-05 11816   0.440E-02    0.337E-02
DAV:   7    -0.149357885997E+03   -0.15475E-04   -0.22317E-05 10906   0.217E-02    0.183E-02
DAV:   8    -0.149357896480E+03   -0.10482E-04   -0.69068E-06  8932   0.133E-02    0.131E-02
DAV:   9    -0.149357902782E+03   -0.63027E-05   -0.51570E-06  9408   0.113E-02    0.978E-03
DAV:  10    -0.149357907062E+03   -0.42794E-05   -0.30164E-06  7560   0.999E-03    0.547E-03
DAV:  11    -0.149357909695E+03   -0.26330E-05   -0.17907E-06  6650   0.582E-03    0.318E-03
DAV:  12    -0.149357910951E+03   -0.12558E-05   -0.84258E-07  5992   0.407E-03    0.179E-03
DAV:  13    -0.149357911621E+03   -0.67037E-06   -0.35486E-07  5082   0.253E-03
  19 F= -.15544501E+03 E0= -.15544501E+03  d E =-.143865E-02  mag=    22.0000
       N       E                     dE             d eps       ncg     rms          rms(c)
DAV:   1    -0.149338027052E+03    0.19884E-01   -0.31383E+00  8008   0.347E+00    0.103E+00
DAV:   2    -0.149360095394E+03   -0.22068E-01   -0.20047E-01 11298   0.148E+00    0.510E-01
DAV:   3    -0.149361893926E+03   -0.17985E-02   -0.50286E-03 10626   0.411E-01    0.316E-01
DAV:   4    -0.149361734098E+03    0.15983E-03   -0.90035E-04 10878   0.187E-01    0.237E-01
DAV:   5    -0.149361706420E+03    0.27678E-04   -0.45553E-04 12656   0.121E-01    0.198E-01
DAV:   6    -0.149361828952E+03   -0.12253E-03   -0.73528E-04 12040   0.124E-01    0.992E-02
DAV:   7    -0.149361933979E+03   -0.10503E-03   -0.19011E-04 11060   0.615E-02    0.509E-02
DAV:   8    -0.149361995482E+03   -0.61503E-04   -0.51052E-05 10724   0.396E-02    0.367E-02
DAV:   9    -0.149362033775E+03   -0.38293E-04   -0.35644E-05 11494   0.280E-02    0.271E-02
DAV:  10    -0.149362058709E+03   -0.24934E-04   -0.21384E-05 10556   0.248E-02    0.151E-02
DAV:  11    -0.149362072623E+03   -0.13915E-04   -0.11937E-05  9926   0.171E-02    0.805E-03
DAV:  12    -0.149362078279E+03   -0.56557E-05   -0.43087E-06  7784   0.922E-03    0.499E-03
DAV:  13    -0.149362081247E+03   -0.29676E-05   -0.12746E-06  6314   0.461E-03    0.343E-03
DAV:  14    -0.149362082906E+03   -0.16594E-05   -0.67087E-07  5334   0.324E-03    0.201E-03
DAV:  15    -0.149362083802E+03   -0.89540E-06   -0.28078E-07  5264   0.236E-03
  20 F= -.15544805E+03 E0= -.15544805E+03  d E =-.448335E-02  mag=    22.0000
       N       E                     dE             d eps       ncg     rms          rms(c)
DAV:   1    -0.149266839913E+03    0.95243E-01   -0.12553E+01  8008   0.694E+00    0.209E+00
DAV:   2    -0.149356816049E+03   -0.89976E-01   -0.81081E-01 11564   0.300E+00    0.108E+00
DAV:   3    -0.149362998272E+03   -0.61822E-02   -0.21381E-02 10612   0.905E-01    0.651E-01
DAV:   4    -0.149362242868E+03    0.75540E-03   -0.42159E-03 10934   0.433E-01    0.481E-01
DAV:   5    -0.149362023137E+03    0.21973E-03   -0.18221E-03 12740   0.240E-01    0.398E-01
DAV:   6    -0.149362321410E+03   -0.29827E-03   -0.28707E-03 12236   0.223E-01    0.191E-01
DAV:   7    -0.149362643577E+03   -0.32217E-03   -0.70781E-04 10962   0.114E-01    0.848E-02
DAV:   8    -0.149362795716E+03   -0.15214E-03   -0.13672E-04 10500   0.721E-02    0.608E-02
DAV:   9    -0.149362887724E+03   -0.92008E-04   -0.76611E-05 11186   0.400E-02    0.463E-02
DAV:  10    -0.149362953727E+03   -0.66003E-04   -0.48633E-05 11130   0.348E-02    0.268E-02
DAV:  11    -0.149362991847E+03   -0.38120E-04   -0.27630E-05 10500   0.266E-02    0.148E-02
DAV:  12    -0.149363009324E+03   -0.17478E-04   -0.12859E-05  9954   0.164E-02    0.949E-03
DAV:  13    -0.149363017216E+03   -0.78913E-05   -0.34810E-06  8190   0.722E-03    0.682E-03
DAV:  14    -0.149363021483E+03   -0.42677E-05   -0.10947E-06  5824   0.416E-03    0.381E-03
DAV:  15    -0.149363024304E+03   -0.28207E-05   -0.61032E-07  5082   0.361E-03    0.231E-03
DAV:  16    -0.149363025943E+03   -0.16389E-05   -0.38852E-07  5530   0.251E-03    0.118E-03
DAV:  17    -0.149363027074E+03   -0.11312E-05   -0.18766E-07  5068   0.172E-03    0.810E-04
DAV:  18    -0.149363027943E+03   -0.86885E-06   -0.88981E-08  5096   0.127E-03
  21 F= -.15544667E+03 E0= -.15544667E+03  d E =-.310317E-02  mag=    22.0000
       N       E                     dE             d eps       ncg     rms          rms(c)
DAV:   1    -0.149323827351E+03    0.39200E-01   -0.51761E+00  8008   0.446E+00    0.131E+00
DAV:   2    -0.149360907292E+03   -0.37080E-01   -0.33933E-01 11550   0.193E+00    0.670E-01
DAV:   3    -0.149363602015E+03   -0.26947E-02   -0.67272E-03 10934   0.434E-01    0.394E-01
DAV:   4    -0.149363328704E+03    0.27331E-03   -0.10536E-03 11088   0.162E-01    0.295E-01
DAV:   5    -0.149363275665E+03    0.53039E-04   -0.97375E-04 12558   0.172E-01    0.230E-01
DAV:   6    -0.149363409131E+03   -0.13347E-03   -0.10431E-03 11872   0.185E-01    0.111E-01
DAV:   7    -0.149363516082E+03   -0.10695E-03   -0.23806E-04 11396   0.832E-02    0.530E-02
DAV:   8    -0.149363583387E+03   -0.67305E-04   -0.56917E-05 10654   0.300E-02    0.380E-02
DAV:   9    -0.149363624380E+03   -0.40994E-04   -0.28717E-05 10906   0.317E-02    0.283E-02
DAV:  10    -0.149363657520E+03   -0.33139E-04   -0.23394E-05 10416   0.281E-02    0.169E-02
DAV:  11    -0.149363679369E+03   -0.21850E-04   -0.18183E-05 10570   0.200E-02    0.959E-03
DAV:  12    -0.149363687701E+03   -0.83317E-05   -0.63436E-06  8526   0.107E-02    0.718E-03
DAV:  13    -0.149363691487E+03   -0.37867E-05   -0.19199E-06  6748   0.597E-03    0.443E-03
DAV:  14    -0.149363693477E+03   -0.19899E-05   -0.51696E-07  5054   0.365E-03    0.281E-03
DAV:  15    -0.149363694735E+03   -0.12579E-05   -0.36733E-07  5222   0.221E-03    0.160E-03
DAV:  16    -0.149363695393E+03   -0.65738E-06   -0.20078E-07  5082   0.182E-03
  22 F= -.15544884E+03 E0= -.15544884E+03  d E =-.527432E-02  mag=    22.0000
       N       E                     dE             d eps       ncg     rms          rms(c)
DAV:   1    -0.149362939610E+03    0.75512E-03   -0.41649E-01  8008   0.129E+00    0.410E-01
DAV:   2    -0.149365963023E+03   -0.30234E-02   -0.27681E-02 11480   0.574E-01    0.206E-01
DAV:   3    -0.149366342154E+03   -0.37913E-03   -0.74909E-04 11830   0.166E-01    0.128E-01
DAV:   4    -0.149366311445E+03    0.30710E-04   -0.10640E-04 12250   0.663E-02    0.905E-02
DAV:   5    -0.149366295954E+03    0.15491E-04   -0.67080E-05 12194   0.435E-02    0.701E-02
DAV:   6    -0.149366306710E+03   -0.10757E-04   -0.96707E-05 11886   0.482E-02    0.345E-02
DAV:   7    -0.149366317450E+03   -0.10740E-04   -0.27503E-05 11704   0.297E-02    0.148E-02
DAV:   8    -0.149366324554E+03   -0.71040E-05   -0.51759E-06  8442   0.126E-02    0.109E-02
DAV:   9    -0.149366329663E+03   -0.51088E-05   -0.35993E-06  7784   0.961E-03    0.829E-03
DAV:  10    -0.149366333665E+03   -0.40018E-05   -0.20605E-06  6986   0.839E-03    0.536E-03
DAV:  11    -0.149366337073E+03   -0.34088E-05   -0.14501E-06  6482   0.578E-03    0.312E-03
DAV:  12    -0.149366338809E+03   -0.17353E-05   -0.78120E-07  5908   0.374E-03    0.237E-03
DAV:  13    -0.149366339858E+03   -0.10494E-05   -0.39658E-07  5390   0.249E-03    0.150E-03
DAV:  14    -0.149366340484E+03   -0.62572E-06   -0.14485E-07  5068   0.151E-03
  23 F= -.15545172E+03 E0= -.15545172E+03  d E =-.287359E-02  mag=    22.0000
       N       E                     dE             d eps       ncg     rms          rms(c)
DAV:   1    -0.149354570164E+03    0.11770E-01   -0.17031E+00  8008   0.261E+00    0.830E-01
DAV:   2    -0.149367209503E+03   -0.12639E-01   -0.11316E-01 11522   0.116E+00    0.415E-01
DAV:   3    -0.149368509485E+03   -0.13000E-02   -0.30603E-03 11858   0.335E-01    0.259E-01
DAV:   4    -0.149368384632E+03    0.12485E-03   -0.42684E-04 12264   0.132E-01    0.183E-01
DAV:   5    -0.149368312279E+03    0.72353E-04   -0.26660E-04 12292   0.856E-02    0.142E-01
DAV:   6    -0.149368339777E+03   -0.27498E-04   -0.39076E-04 11732   0.965E-02    0.697E-02
DAV:   7    -0.149368373994E+03   -0.34217E-04   -0.11202E-04 11788   0.604E-02    0.286E-02
DAV:   8    -0.149368395593E+03   -0.21599E-04   -0.21875E-05 11200   0.247E-02    0.208E-02
DAV:   9    -0.149368410702E+03   -0.15109E-04   -0.10595E-05  9716   0.166E-02    0.157E-02
DAV:  10    -0.149368423249E+03   -0.12547E-04   -0.67012E-06  9030   0.155E-02    0.100E-02
DAV:  11    -0.149368434452E+03   -0.11203E-04   -0.51244E-06  9212   0.117E-02    0.568E-03
DAV:  12    -0.149368439495E+03   -0.50422E-05   -0.21360E-06  7000   0.621E-03    0.415E-03
DAV:  13    -0.149368442702E+03   -0.32072E-05   -0.75906E-07  5278   0.373E-03    0.279E-03
DAV:  14    -0.149368444512E+03   -0.18104E-05   -0.38748E-07  5320   0.267E-03    0.194E-03
DAV:  15    -0.149368445616E+03   -0.11035E-05   -0.20422E-07  5264   0.184E-03    0.128E-03
DAV:  16    -0.149368446435E+03   -0.81953E-06   -0.87064E-08  5054   0.130E-03
  24 F= -.15545427E+03 E0= -.15545427E+03  d E =-.543105E-02  mag=    22.0000
       N       E                     dE             d eps       ncg     rms          rms(c)
DAV:   1    -0.149366081657E+03    0.23640E-02   -0.58658E-01  8008   0.152E+00    0.468E-01
DAV:   2    -0.149370142979E+03   -0.40613E-02   -0.40283E-02 11382   0.666E-01    0.226E-01
DAV:   3    -0.149370540982E+03   -0.39800E-03   -0.90318E-04 11326   0.154E-01    0.142E-01
DAV:   4    -0.149370501552E+03    0.39430E-04   -0.11660E-04 11592   0.507E-02    0.106E-01
DAV:   5    -0.149370479644E+03    0.21907E-04   -0.11085E-04 11872   0.482E-02    0.780E-02
DAV:   6    -0.149370498870E+03   -0.19225E-04   -0.12305E-04 11942   0.601E-02    0.384E-02
DAV:   7    -0.149370515705E+03   -0.16836E-04   -0.28124E-05 11788   0.330E-02    0.162E-02
DAV:   8    -0.149370532236E+03   -0.16530E-04   -0.52174E-06  8736   0.117E-02    0.107E-02
DAV:   9    -0.149370541463E+03   -0.92276E-05   -0.29352E-06  7756   0.823E-03    0.806E-03
DAV:  10    -0.149370547061E+03   -0.55983E-05   -0.11803E-06  5838   0.596E-03    0.563E-03
DAV:  11    -0.149370553087E+03   -0.60255E-05   -0.14510E-06  6370   0.466E-03    0.387E-03
DAV:  12    -0.149370557567E+03   -0.44800E-05   -0.76182E-07  5768   0.511E-03    0.232E-03
DAV:  13    -0.149370559475E+03   -0.19084E-05   -0.67475E-07  5656   0.300E-03    0.162E-03
DAV:  14    -0.149370560685E+03   -0.12096E-05   -0.17834E-07  5124   0.188E-03    0.103E-03
DAV:  15    -0.149370561456E+03   -0.77124E-06   -0.10793E-07  5348   0.128E-03
  25 F= -.15545673E+03 E0= -.15545673E+03  d E =-.245862E-02  mag=    22.0000
       N       E                     dE             d eps       ncg     rms          rms(c)
DAV:   1    -0.149352606253E+03    0.17954E-01   -0.24748E+00  8008   0.312E+00    0.962E-01
DAV:   2    -0.149370115838E+03   -0.17510E-01   -0.17018E-01 11382   0.137E+00    0.468E-01
DAV:   3    -0.149371516544E+03   -0.14007E-02   -0.37903E-03 11396   0.311E-01    0.291E-01
DAV:   4    -0.149371349979E+03    0.16656E-03   -0.48113E-04 11690   0.101E-01    0.217E-01
DAV:   5    -0.149371245734E+03    0.10424E-03   -0.45916E-04 11914   0.965E-02    0.159E-01
DAV:   6    -0.149371309819E+03   -0.64084E-04   -0.50293E-04 11970   0.122E-01    0.785E-02
DAV:   7    -0.149371361878E+03   -0.52059E-04   -0.11786E-04 11844   0.689E-02    0.324E-02
DAV:   8    -0.149371409953E+03   -0.48075E-04   -0.22735E-05 11200   0.241E-02    0.209E-02
DAV:   9    -0.149371436560E+03   -0.26607E-04   -0.10271E-05 10458   0.154E-02    0.155E-02
DAV:  10    -0.149371453438E+03   -0.16878E-04   -0.39392E-06  8204   0.108E-02    0.108E-02
DAV:  11    -0.149371475815E+03   -0.22377E-04   -0.49273E-06  8344   0.969E-03    0.680E-03
DAV:  12    -0.149371488461E+03   -0.12646E-04   -0.26767E-06  7840   0.872E-03    0.403E-03
DAV:  13    -0.149371494816E+03   -0.63556E-05   -0.13370E-06  6342   0.496E-03    0.308E-03
DAV:  14    -0.149371498003E+03   -0.31872E-05   -0.61818E-07  5474   0.313E-03    0.195E-03
DAV:  15    -0.149371499666E+03   -0.16623E-05   -0.21451E-07  5110   0.186E-03    0.144E-03
DAV:  16    -0.149371500961E+03   -0.12958E-05   -0.11234E-07  5054   0.140E-03    0.901E-04
DAV:  17    -0.149371502079E+03   -0.11175E-05   -0.86172E-08  5152   0.112E-03    0.559E-04
DAV:  18    -0.149371502700E+03   -0.62155E-06   -0.47621E-08  5110   0.864E-04
  26 F= -.15545836E+03 E0= -.15545836E+03  d E =-.408516E-02  mag=    22.0000
       N       E                     dE             d eps       ncg     rms          rms(c)
DAV:   1    -0.149367132624E+03    0.43695E-02   -0.80345E-01  8008   0.178E+00    0.515E-01
DAV:   2    -0.149372488631E+03   -0.53560E-02   -0.52921E-02 11564   0.758E-01    0.260E-01
DAV:   3    -0.149373059394E+03   -0.57076E-03   -0.14244E-03 10542   0.243E-01    0.169E-01
DAV:   4    -0.149373005800E+03    0.53594E-04   -0.25569E-04 10906   0.113E-01    0.120E-01
DAV:   5    -0.149372984724E+03    0.21076E-04   -0.12654E-04 12838   0.482E-02    0.969E-02
DAV:   6    -0.149373007463E+03   -0.22739E-04   -0.18770E-04 11634   0.406E-02    0.369E-02
DAV:   7    -0.149373026892E+03   -0.19428E-04   -0.29645E-05 10486   0.189E-02    0.151E-02
DAV:   8    -0.149373035931E+03   -0.90394E-05   -0.42106E-06  8834   0.142E-02    0.980E-03
DAV:   9    -0.149373044946E+03   -0.90145E-05   -0.18425E-06  6944   0.743E-03    0.795E-03
DAV:  10    -0.149373055988E+03   -0.11042E-04   -0.11488E-06  5992   0.485E-03    0.539E-03
DAV:  11    -0.149373064286E+03   -0.82986E-05   -0.16405E-06  6482   0.534E-03    0.346E-03
DAV:  12    -0.149373069117E+03   -0.48309E-05   -0.58182E-07  5530   0.382E-03    0.248E-03
DAV:  13    -0.149373072008E+03   -0.28909E-05   -0.35024E-07  5138   0.288E-03    0.188E-03
DAV:  14    -0.149373073956E+03   -0.19479E-05   -0.27195E-07  5376   0.219E-03    0.125E-03
DAV:  15    -0.149373074620E+03   -0.66435E-06   -0.11377E-07  5222   0.136E-03
  27 F= -.15546005E+03 E0= -.15546005E+03  d E =-.169479E-02  mag=    22.0000
       N       E                     dE             d eps       ncg     rms          rms(c)
DAV:   1    -0.149352293410E+03    0.20781E-01   -0.28979E+00  8008   0.338E+00    0.976E-01
DAV:   2    -0.149372042510E+03   -0.19749E-01   -0.19109E-01 11494   0.144E+00    0.500E-01
DAV:   3    -0.149373795297E+03   -0.17528E-02   -0.51852E-03 10458   0.460E-01    0.319E-01
DAV:   4    -0.149373604138E+03    0.19116E-03   -0.93782E-04 10962   0.218E-01    0.227E-01
DAV:   5    -0.149373512299E+03    0.91839E-04   -0.45555E-04 12670   0.962E-02    0.183E-01
DAV:   6    -0.149373565555E+03   -0.53256E-04   -0.70123E-04 11550   0.787E-02    0.693E-02
DAV:   7    -0.149373618082E+03   -0.52527E-04   -0.11028E-04 10430   0.361E-02    0.276E-02
DAV:   8    -0.149373642428E+03   -0.24346E-04   -0.14810E-05 10444   0.255E-02    0.178E-02
DAV:   9    -0.149373665696E+03   -0.23268E-04   -0.54905E-06  8764   0.133E-02    0.146E-02
DAV:  10    -0.149373693910E+03   -0.28214E-04   -0.44954E-06  8694   0.888E-03    0.942E-03
DAV:  11    -0.149373715270E+03   -0.21360E-04   -0.34998E-06  7812   0.863E-03    0.598E-03
DAV:  12    -0.149373728802E+03   -0.13532E-04   -0.14114E-06  6958   0.667E-03    0.409E-03
DAV:  13    -0.149373737453E+03   -0.86505E-05   -0.10308E-06  5936   0.410E-03    0.330E-03
DAV:  14    -0.149373740960E+03   -0.35076E-05   -0.45091E-07  5222   0.345E-03    0.237E-03
DAV:  15    -0.149373743168E+03   -0.22079E-05   -0.32861E-07  5390   0.229E-03    0.164E-03
DAV:  16    -0.149373744213E+03   -0.10448E-05   -0.12747E-07  5264   0.143E-03    0.103E-03
DAV:  17    -0.149373745023E+03   -0.81011E-06   -0.69577E-08  5096   0.104E-03
  28 F= -.15546094E+03 E0= -.15546094E+03  d E =-.258025E-02  mag=    22.0000
       N       E                     dE             d eps       ncg     rms          rms(c)
DAV:   1    -0.149369198533E+03    0.45457E-02   -0.71778E-01  8008   0.172E+00    0.535E-01
DAV:   2    -0.149374114631E+03   -0.49161E-02   -0.46445E-02 11606   0.734E-01    0.274E-01
DAV:   3    -0.149374721797E+03   -0.60717E-03   -0.15972E-03 11340   0.276E-01    0.173E-01
DAV:   4    -0.149374602221E+03    0.11958E-03   -0.27469E-04 11298   0.122E-01    0.118E-01
DAV:   5    -0.149374489813E+03    0.11241E-03   -0.11519E-04 12166   0.522E-02    0.937E-02
DAV:   6    -0.149374351007E+03    0.13881E-03   -0.20408E-04 11900   0.474E-02    0.368E-02
DAV:   7    -0.149374419417E+03   -0.68410E-04   -0.32849E-05 11452   0.248E-02    0.135E-02
DAV:   8    -0.149374496364E+03   -0.76947E-04   -0.35191E-06  8344   0.141E-02    0.894E-03
DAV:   9    -0.149374575524E+03   -0.79160E-04   -0.23812E-06  7476   0.720E-03    0.600E-03
DAV:  10    -0.149374649435E+03   -0.73911E-04   -0.13698E-06  6356   0.413E-03    0.428E-03
DAV:  11    -0.149374699086E+03   -0.49651E-04   -0.90470E-07  5754   0.396E-03    0.308E-03
DAV:  12    -0.149374761918E+03   -0.62832E-04   -0.12378E-06  6720   0.338E-03    0.232E-03
DAV:  13    -0.149374814543E+03   -0.52625E-04   -0.82794E-07  6720   0.313E-03    0.169E-03
DAV:  14    -0.149374850514E+03   -0.35970E-04   -0.61451E-07  6314   0.272E-03    0.135E-03
DAV:  15    -0.149374869357E+03   -0.18843E-04   -0.43514E-07  5642   0.202E-03    0.996E-04
DAV:  16    -0.149374885017E+03   -0.15660E-04   -0.36600E-07  5852   0.165E-03    0.841E-04
DAV:  17    -0.149374895565E+03   -0.10548E-04   -0.30896E-07  5726   0.149E-03    0.585E-04
DAV:  18    -0.149374898916E+03   -0.33512E-05   -0.16734E-07  5096   0.124E-03    0.356E-04
DAV:  19    -0.149374900834E+03   -0.19182E-05   -0.10386E-07  5124   0.867E-04    0.258E-04
DAV:  20    -0.149374902995E+03   -0.21609E-05   -0.79816E-08  5236   0.731E-04    0.176E-04
DAV:  21    -0.149374904089E+03   -0.10933E-05   -0.50857E-08  5278   0.620E-04    0.139E-04
DAV:  22    -0.149374904857E+03   -0.76806E-06   -0.35124E-08  5068   0.477E-04
  29 F= -.15546227E+03 E0= -.15546227E+03  d E =-.132759E-02  mag=    22.0000
       N       E                     dE             d eps       ncg     rms          rms(c)
DAV:   1    -0.149374547181E+03    0.35691E-03   -0.46982E-02  8288   0.439E-01    0.137E-01
DAV:   2    -0.149374830000E+03   -0.28282E-03   -0.30314E-03 11536   0.187E-01    0.693E-02
DAV:   3    -0.149374892827E+03   -0.62828E-04   -0.10563E-04 11200   0.709E-02    0.443E-02
DAV:   4    -0.149374881155E+03    0.11672E-04   -0.18056E-05 11172   0.314E-02    0.303E-02
DAV:   5    -0.149374867722E+03    0.13433E-04   -0.71969E-06 10220   0.131E-02    0.241E-02
DAV:   6    -0.149374844421E+03    0.23301E-04   -0.15110E-05 12068   0.127E-02    0.953E-03
DAV:   7    -0.149374852022E+03   -0.76011E-05   -0.18066E-06  6426   0.623E-03    0.414E-03
DAV:   8    -0.149374864591E+03   -0.12569E-04   -0.46773E-07  5572   0.449E-03    0.293E-03
DAV:   9    -0.149374874802E+03   -0.10212E-04   -0.38256E-07  5012   0.207E-03    0.212E-03
DAV:  10    -0.149374881032E+03   -0.62293E-05   -0.16725E-07  5110   0.198E-03    0.159E-03
DAV:  11    -0.149374887856E+03   -0.68241E-05   -0.97595E-08  4956   0.117E-03    0.118E-03
DAV:  12    -0.149374895593E+03   -0.77372E-05   -0.92675E-08  5600   0.104E-03    0.882E-04
DAV:  13    -0.149374906440E+03   -0.10847E-04   -0.16148E-07  5656   0.110E-03    0.740E-04
DAV:  14    -0.149374911604E+03   -0.51648E-05   -0.10703E-07  5110   0.102E-03    0.451E-04
DAV:  15    -0.149374913805E+03   -0.22010E-05   -0.59692E-08  5096   0.736E-04    0.376E-04
DAV:  16    -0.149374915445E+03   -0.16397E-05   -0.39515E-08  5096   0.573E-04    0.237E-04
DAV:  17    -0.149374917604E+03   -0.21593E-05   -0.40416E-08  5460   0.492E-04    0.269E-04
DAV:  18    -0.149374919446E+03   -0.18418E-05   -0.40143E-08  5096   0.516E-04    0.159E-04
DAV:  19    -0.149374920040E+03   -0.59345E-06   -0.24329E-08  5096   0.447E-04
  30 F= -.15546232E+03 E0= -.15546232E+03  d E =-.138464E-02  mag=    22.0000
       N       E                     dE             d eps       ncg     rms          rms(c)
DAV:   1    -0.149373473514E+03    0.14459E-02   -0.21418E-01  8008   0.940E-01    0.305E-01
DAV:   2    -0.149374920694E+03   -0.14472E-02   -0.14538E-02 11564   0.403E-01    0.147E-01
DAV:   3    -0.149375165186E+03   -0.24449E-03   -0.36982E-04 11284   0.988E-02    0.889E-02
DAV:   4    -0.149375127591E+03    0.37595E-04   -0.64561E-05 11312   0.458E-02    0.668E-02
DAV:   5    -0.149375085977E+03    0.41614E-04   -0.40504E-05 12418   0.383E-02    0.530E-02
DAV:   6    -0.149375019709E+03    0.66267E-04   -0.68474E-05 11998   0.345E-02    0.217E-02
DAV:   7    -0.149375025857E+03   -0.61479E-05   -0.10385E-05 10234   0.137E-02    0.881E-03
DAV:   8    -0.149375050052E+03   -0.24195E-04   -0.12563E-06  6062   0.612E-03    0.636E-03
DAV:   9    -0.149375082836E+03   -0.32784E-04   -0.13108E-06  6146   0.388E-03    0.370E-03
DAV:  10    -0.149375110629E+03   -0.27793E-04   -0.81459E-07  5544   0.427E-03    0.228E-03
DAV:  11    -0.149375128593E+03   -0.17964E-04   -0.61223E-07  5166   0.285E-03    0.178E-03
DAV:  12    -0.149375144823E+03   -0.16230E-04   -0.33114E-07  5698   0.254E-03    0.136E-03
DAV:  13    -0.149375163565E+03   -0.18742E-04   -0.28396E-07  5642   0.184E-03    0.111E-03
DAV:  14    -0.149375179760E+03   -0.16195E-04   -0.24674E-07  5642   0.151E-03    0.744E-04
DAV:  15    -0.149375194640E+03   -0.14880E-04   -0.24787E-07  5600   0.128E-03    0.738E-04
DAV:  16    -0.149375202807E+03   -0.81670E-05   -0.15856E-07  5208   0.122E-03    0.490E-04
DAV:  17    -0.149375208830E+03   -0.60235E-05   -0.14491E-07  5516   0.905E-04    0.388E-04
DAV:  18    -0.149375212548E+03   -0.37178E-05   -0.95509E-08  5264   0.892E-04    0.269E-04
DAV:  19    -0.149375215855E+03   -0.33068E-05   -0.94500E-08  5418   0.691E-04    0.228E-04
DAV:  20    -0.149375217353E+03   -0.14984E-05   -0.55914E-08  5096   0.710E-04    0.192E-04
DAV:  21    -0.149375217886E+03   -0.53263E-06   -0.32635E-08  5110   0.469E-04
  31 F= -.15546296E+03 E0= -.15546296E+03  d E =-.641126E-03  mag=    22.0000
