Cr Cl Co H 
 1.0000000000000000
    12.0925489970493256    0.0000000000000000    0.0000000000000000
    -6.0462744985246628   10.4724546279527502    0.0000000000000000
     0.0000000000000000    0.0000000000000000   20.0000000000000000
 Cr  Cl  Co  H  
   8  24   1   1
Cartesian
  0.0057608359540157  3.4922961540740398 10.0305483952692818
  2.9826050101301695  1.7075748556985728 10.0035989330972761
  6.0462744985247481  3.4908182093175339  9.6786449899117084
  9.1224432880856874  1.7292242803782578 10.0035989330972761
 -3.0247377295346860  8.7213175206325175 10.0305483952692818
 -0.0000000000000855  6.9816364186352162 10.0192975314884301
  3.0189768935809291  8.7312955811987933 10.0305483952692818
  6.0337751973580023  7.0356554918759935 10.0035989330972761
 -0.8717115393890326  5.2326552141337226  8.6720219141098482
  4.8589365314144217  1.7719904294284310  8.5502412205152307
  1.9483571018455130  3.3878087933732410  8.6835588455555026
  0.8770236473321351  5.2421360548734164 11.3825680329129035
 10.1376308743472290  3.3813705599694632 11.3772107406710870
  1.0540170514221889  1.8575881420988145 11.3964483735983269
  5.1513949599653710  5.3784969416574002  8.5502412205152307
 -1.0011294776119233  1.8359124648896101  8.6727323627612964
  8.1284920041941948  3.3219672568669192  8.5502412205152307
  7.0568153168890193  5.2771280852050761 11.4128897978018742
  3.9940143577928855  3.4728172916384850 11.4128897978018742
  7.0879938208920850  1.7225092511091882 11.4128897978018742
 -3.9557629259997937 10.4215019555973161  8.6727323627612964
  1.9505179235342751  7.1012026830029491  8.6720219141098482
 -1.0788063841452427  8.6110513587688313  8.6720219141098482
  3.9058118658935030  0.0023234765938676 11.3772107406710870
 -4.9645645034093606  8.6308550143497573 11.3964483735983269
 -1.9449633285760153  7.0918618422067317 11.3825680329129035
  2.1381674693763739 10.4658769771081719  8.6835588455555026
 -4.0865245712218883  7.0912234854240914  8.6835588455555026
  4.9568924036117155  8.6874948354185761  8.6727323627612964
  3.9105474519873007 10.4564660994568523 11.3964483735983269
  1.0679396812438797  8.6109113588253532 11.3825680329129035
  4.0953807553333021  7.0887605913893443 11.3772107406710870
  6.0462744985247481  3.4908182093175339 12.2566016297225211
  6.0762744985247483  3.4908182093175339 13.6966016297225206
Cartesian
  0.0000000000000000  0.0000000000000000  0.0000000000000000
  0.0000000000000000  0.0000000000000000  0.0000000000000000
  0.0000000000000000  0.0000000000000000  0.0000000000000000
  0.0000000000000000  0.0000000000000000  0.0000000000000000
  0.0000000000000000  0.0000000000000000  0.0000000000000000
  0.0000000000000000  0.0000000000000000  0.0000000000000000
  0.0000000000000000  0.0000000000000000  0.0000000000000000
  0.0000000000000000  0.0000000000000000  0.0000000000000000
  0.0000000000000000  0.0000000000000000  0.0000000000000000
  0.0000000000000000  0.0000000000000000  0.0000000000000000
  0.0000000000000000  0.0000000000000000  0.0000000000000000
  0.0000000000000000  0.0000000000000000  0.0000000000000000
  0.0000000000000000  0.0000000000000000  0.0000000000000000
  0.0000000000000000  0.0000000000000000  0.0000000000000000
  0.0000000000000000  0.0000000000000000  0.0000000000000000
  0.0000000000000000  0.0000000000000000  0.0000000000000000
  0.0000000000000000  0.0000000000000000  0.0000000000000000
  0.0000000000000000  0.0000000000000000  0.0000000000000000
  0.0000000000000000  0.0000000000000000  0.0000000000000000
  0.0000000000000000  0.0000000000000000  0.0000000000000000
  0.0000000000000000  0.0000000000000000  0.0000000000000000
  0.0000000000000000  0.0000000000000000  0.0000000000000000
  0.0000000000000000  0.0000000000000000  0.0000000000000000
  0.0000000000000000  0.0000000000000000  0.0000000000000000
  0.0000000000000000  0.0000000000000000  0.0000000000000000
  0.0000000000000000  0.0000000000000000  0.0000000000000000
  0.0000000000000000  0.0000000000000000  0.0000000000000000
  0.0000000000000000  0.0000000000000000  0.0000000000000000
  0.0000000000000000  0.0000000000000000  0.0000000000000000
  0.0000000000000000  0.0000000000000000  0.0000000000000000
  0.0000000000000000  0.0000000000000000  0.0000000000000000
  0.0000000000000000  0.0000000000000000  0.0000000000000000
  0.0000000000000000  0.0000000000000000  0.0000000000000000
  0.0000000000000000  0.0000000000000000  0.0000000000000000
