CrCl3 2x2 Clean Substrate (D3, U=0) (a_2
   1.0000000000000000     
    12.0925489970493256    0.0000000000000000    0.0000000000000000
    -6.0462744985246628   10.4724546279527502    0.0000000000000000
     0.0000000000000000    0.0000000000000000   20.0000000000000000
   Cr   Cl
     8    24
Direct
  0.1666666666666714  0.3333333333333286  0.5000000000000000
  0.3333333333333286  0.1666666666666714  0.5000000000000000
  0.6666666666666714  0.3333333333333286  0.5000000000000000
  0.8333333333333286  0.1666666666666714  0.5000000000000000
  0.1666666666666714  0.8333333333333286  0.5000000000000000
  0.3333333333333286  0.6666666666666714  0.5000000000000000
  0.6666666666666714  0.8333333333333286  0.5000000000000000
  0.8333333333333286  0.6666666666666714  0.5000000000000000
  0.1794202646739138  0.5000000000000000  0.4336354730421273
  0.5000000000000000  0.1794202646739138  0.4336354730421273
  0.3205797353260862  0.3205797353260862  0.4336354730421273
  0.3205797353260862  0.5000000000000000  0.5663645269578726
 -0.0000000000000000  0.3205797353260862  0.5663645269578726
  0.1794202646739138  0.1794202646739138  0.5663645269578726
  0.6794202646739139  0.5000000000000000  0.4336354730421273
 -0.0000000000000000  0.1794202646739138  0.4336354730421273
  0.8205797353260861  0.3205797353260862  0.4336354730421273
  0.8205797353260861  0.5000000000000000  0.5663645269578726
  0.5000000000000000  0.3205797353260862  0.5663645269578726
  0.6794202646739139  0.1794202646739138  0.5663645269578726
  0.1794202646739138  0.0000000000000000  0.4336354730421273
  0.5000000000000000  0.6794202646739139  0.4336354730421273
  0.3205797353260862  0.8205797353260861  0.4336354730421273
  0.3205797353260862  0.0000000000000000  0.5663645269578726
  0.0000000000000000  0.8205797353260861  0.5663645269578726
  0.1794202646739138  0.6794202646739139  0.5663645269578726
  0.6794202646739139  0.0000000000000000  0.4336354730421273
 -0.0000000000000000  0.6794202646739139  0.4336354730421273
  0.8205797353260861  0.8205797353260861  0.4336354730421273
  0.8205797353260861  0.0000000000000000  0.5663645269578726
  0.5000000000000000  0.8205797353260861  0.5663645269578726
  0.6794202646739139  0.6794202646739139  0.5663645269578726

  0.00000000E+00  0.00000000E+00  0.00000000E+00
  0.00000000E+00  0.00000000E+00  0.00000000E+00
  0.00000000E+00  0.00000000E+00  0.00000000E+00
  0.00000000E+00  0.00000000E+00  0.00000000E+00
  0.00000000E+00  0.00000000E+00  0.00000000E+00
  0.00000000E+00  0.00000000E+00  0.00000000E+00
  0.00000000E+00  0.00000000E+00  0.00000000E+00
  0.00000000E+00  0.00000000E+00  0.00000000E+00
  0.00000000E+00  0.00000000E+00  0.00000000E+00
  0.00000000E+00  0.00000000E+00  0.00000000E+00
  0.00000000E+00  0.00000000E+00  0.00000000E+00
  0.00000000E+00  0.00000000E+00  0.00000000E+00
  0.00000000E+00  0.00000000E+00  0.00000000E+00
  0.00000000E+00  0.00000000E+00  0.00000000E+00
  0.00000000E+00  0.00000000E+00  0.00000000E+00
  0.00000000E+00  0.00000000E+00  0.00000000E+00
  0.00000000E+00  0.00000000E+00  0.00000000E+00
  0.00000000E+00  0.00000000E+00  0.00000000E+00
  0.00000000E+00  0.00000000E+00  0.00000000E+00
  0.00000000E+00  0.00000000E+00  0.00000000E+00
  0.00000000E+00  0.00000000E+00  0.00000000E+00
  0.00000000E+00  0.00000000E+00  0.00000000E+00
  0.00000000E+00  0.00000000E+00  0.00000000E+00
  0.00000000E+00  0.00000000E+00  0.00000000E+00
  0.00000000E+00  0.00000000E+00  0.00000000E+00
  0.00000000E+00  0.00000000E+00  0.00000000E+00
  0.00000000E+00  0.00000000E+00  0.00000000E+00
  0.00000000E+00  0.00000000E+00  0.00000000E+00
  0.00000000E+00  0.00000000E+00  0.00000000E+00
  0.00000000E+00  0.00000000E+00  0.00000000E+00
  0.00000000E+00  0.00000000E+00  0.00000000E+00
  0.00000000E+00  0.00000000E+00  0.00000000E+00
