 running on   64 total cores
 distrk:  each k-point on   64 cores,    1 groups
 distr:  one band on    8 cores,    8 groups
 vasp.6.2.0 18Jan21 (build Jul 28 2023 11:58:00) complex                         
 POSCAR found type information on POSCAR CrCl
 POSCAR found :  2 types and      32 ions
 scaLAPACK will be used
 LDA part: xc-table for Pade appr. of Perdew
 POSCAR, INCAR and KPOINTS ok, starting setup
 FFT: planning ...
 WAVECAR not read
 entering main loop
       N       E                     dE             d eps       ncg     rms          rms(c)
DAV:   1     0.207344803899E+04    0.20734E+04   -0.61385E+04  2952   0.915E+02
DAV:   2     0.407405778592E+03   -0.16660E+04   -0.15471E+04  3520   0.246E+02
DAV:   3    -0.127803507712E+03   -0.53521E+03   -0.51951E+03  4112   0.139E+02
DAV:   4    -0.172106503537E+03   -0.44303E+02   -0.43626E+02  4432   0.570E+01
DAV:   5    -0.172975832332E+03   -0.86933E+00   -0.85045E+00  4408   0.100E+01    0.408E+01
DAV:   6    -0.162500532156E+03    0.10475E+02   -0.14714E+02  4288   0.622E+01    0.419E+01
DAV:   7    -0.155983295998E+03    0.65172E+01   -0.23097E+01  4200   0.556E+01    0.199E+01
DAV:   8    -0.156470788796E+03   -0.48749E+00   -0.55312E+00  3744   0.559E+00    0.921E+00
DAV:   9    -0.156205378990E+03    0.26541E+00   -0.11208E+00  4304   0.835E+00    0.282E+00
DAV:  10    -0.156211952463E+03   -0.65735E-02   -0.24091E-01  4248   0.243E+00    0.131E+00
DAV:  11    -0.156225257386E+03   -0.13305E-01   -0.15793E-02  4112   0.834E-01    0.538E-01
DAV:  12    -0.156248009149E+03   -0.22752E-01   -0.73787E-03  4080   0.304E-01    0.285E-01
DAV:  13    -0.156260292288E+03   -0.12283E-01   -0.81358E-04  3800   0.110E-01    0.116E-01
DAV:  14    -0.156268223817E+03   -0.79315E-02   -0.24849E-04  3928   0.485E-02    0.791E-02
DAV:  15    -0.156275801001E+03   -0.75772E-02   -0.14860E-04  3272   0.265E-02    0.366E-02
DAV:  16    -0.156281121666E+03   -0.53207E-02   -0.11553E-04  4088   0.448E-02    0.319E-02
DAV:  17    -0.156282615456E+03   -0.14938E-02   -0.18389E-05  3624   0.147E-02    0.207E-02
DAV:  18    -0.156286030275E+03   -0.34148E-02   -0.10946E-04  3024   0.194E-02    0.216E-02
DAV:  19    -0.156286433890E+03   -0.40361E-03   -0.14986E-05  3456   0.116E-02    0.853E-03
DAV:  20    -0.156286498906E+03   -0.65016E-04   -0.50700E-06  2848   0.597E-03    0.454E-03
DAV:  21    -0.156286603282E+03   -0.10438E-03   -0.15623E-06  2176   0.359E-03    0.370E-03
DAV:  22    -0.156286675993E+03   -0.72711E-04   -0.13040E-06  2176   0.224E-03    0.154E-03
DAV:  23    -0.156286708935E+03   -0.32942E-04   -0.46612E-07  1944   0.168E-03    0.129E-03
DAV:  24    -0.156286744333E+03   -0.35399E-04   -0.12870E-06  2144   0.220E-03    0.195E-03
DAV:  25    -0.156286753545E+03   -0.92115E-05   -0.17719E-07  1816   0.200E-03    0.105E-03
DAV:  26    -0.156286759367E+03   -0.58226E-05   -0.86107E-08  1616   0.675E-04    0.397E-04
DAV:  27    -0.156286769315E+03   -0.99472E-05   -0.99159E-08  1696   0.714E-04    0.742E-04
DAV:  28    -0.156286776089E+03   -0.67740E-05   -0.11811E-07  1768   0.685E-04    0.545E-04
DAV:  29    -0.156286779657E+03   -0.35684E-05   -0.83757E-08  1592   0.789E-04    0.462E-04
DAV:  30    -0.156286780717E+03   -0.10599E-05   -0.54110E-08  1608   0.627E-04    0.198E-04
DAV:  31    -0.156286781247E+03   -0.52992E-06   -0.33359E-08  1568   0.504E-04
   1 F= -.16209994E+03 E0= -.16209994E+03  d E =-.162100E+03  mag=    24.0000
 curvature:   0.00 expect dE= 0.000E+00 dE for cont linesearch  0.000E+00
 trial: gam= 0.00000 g(F)=  0.419E-02 g(S)=  0.000E+00 ort = 0.000E+00 (trialstep = 0.100E+01)
 search vector abs. value=  0.419E-02
 bond charge predicted
       N       E                     dE             d eps       ncg     rms          rms(c)
DAV:   1    -0.156283832705E+03    0.29480E-02   -0.38962E-01  2880   0.124E+00    0.419E-01
DAV:   2    -0.156286354861E+03   -0.25222E-02   -0.29764E-02  4008   0.677E-01    0.262E-01
DAV:   3    -0.156286213880E+03    0.14098E-03   -0.75804E-04  3880   0.194E-01    0.157E-01
DAV:   4    -0.156286174863E+03    0.39017E-04   -0.82671E-05  4160   0.516E-02    0.129E-01
DAV:   5    -0.156286145257E+03    0.29606E-04   -0.17970E-04  3296   0.306E-02    0.710E-02
DAV:   6    -0.156286153414E+03   -0.81571E-05   -0.56983E-05  4080   0.461E-02    0.150E-02
DAV:   7    -0.156286159267E+03   -0.58533E-05   -0.51807E-06  2560   0.684E-03    0.128E-02
DAV:   8    -0.156286163216E+03   -0.39480E-05   -0.60266E-07  1592   0.357E-03    0.121E-02
DAV:   9    -0.156286168607E+03   -0.53914E-05   -0.95725E-07  1592   0.324E-03    0.439E-03
DAV:  10    -0.156286171739E+03   -0.31321E-05   -0.50380E-07  1624   0.291E-03    0.390E-03
DAV:  11    -0.156286173328E+03   -0.15887E-05   -0.33584E-07  1680   0.270E-03    0.158E-03
DAV:  12    -0.156286175911E+03   -0.25829E-05   -0.17750E-07  1632   0.140E-03    0.953E-04
DAV:  13    -0.156286176579E+03   -0.66800E-06   -0.58798E-08  1664   0.118E-03
   2 F= -.16210338E+03 E0= -.16210338E+03  d E =-.344015E-02  mag=    24.0000
 trial-energy change:   -0.003440  1 .order   -0.003406   -0.004186   -0.002625
 step:   2.2917(harm=  2.6818)  dis= 0.00661  next Energy=  -162.105154 (dE=-0.521E-02)
 bond charge predicted
       N       E                     dE             d eps       ncg     rms          rms(c)
DAV:   1    -0.156279204560E+03    0.69714E-02   -0.65013E-01  2944   0.160E+00    0.542E-01
DAV:   2    -0.156283419509E+03   -0.42149E-02   -0.49673E-02  4056   0.874E-01    0.339E-01
DAV:   3    -0.156283176609E+03    0.24290E-03   -0.12677E-03  3840   0.251E-01    0.203E-01
DAV:   4    -0.156283110422E+03    0.66187E-04   -0.13827E-04  4176   0.670E-02    0.167E-01
DAV:   5    -0.156283058655E+03    0.51767E-04   -0.29966E-04  3256   0.395E-02    0.921E-02
DAV:   6    -0.156283069861E+03   -0.11206E-04   -0.96422E-05  4072   0.601E-02    0.195E-02
DAV:   7    -0.156283080125E+03   -0.10264E-04   -0.90895E-06  2944   0.876E-03    0.165E-02
DAV:   8    -0.156283086517E+03   -0.63921E-05   -0.84806E-07  1600   0.392E-03    0.156E-02
DAV:   9    -0.156283095366E+03   -0.88493E-05   -0.21249E-06  1720   0.419E-03    0.631E-03
DAV:  10    -0.156283099780E+03   -0.44134E-05   -0.67633E-07  1624   0.345E-03    0.551E-03
DAV:  11    -0.156283102678E+03   -0.28982E-05   -0.40730E-07  1672   0.302E-03    0.221E-03
DAV:  12    -0.156283106793E+03   -0.41156E-05   -0.26231E-07  1616   0.168E-03    0.124E-03
DAV:  13    -0.156283108029E+03   -0.12359E-05   -0.88692E-08  1664   0.147E-03    0.578E-04
DAV:  14    -0.156283111545E+03   -0.35153E-05   -0.39612E-08  1616   0.704E-04    0.228E-04
DAV:  15    -0.156283113041E+03   -0.14959E-05   -0.16304E-08  1640   0.524E-04    0.261E-04
DAV:  16    -0.156283114002E+03   -0.96123E-06   -0.77903E-09  1616   0.320E-04
   3 F= -.16210554E+03 E0= -.16210554E+03  d E =-.559246E-02  mag=    24.0000
 curvature:  -1.27 expect dE=-0.974E-03 dE for cont linesearch -0.119E-03
 ZBRENT: extrapolating
 opt :   2.6960  next Energy=  -162.105664 (dE=-0.572E-02)
 bond charge predicted
       N       E                     dE             d eps       ncg     rms          rms(c)
DAV:   1    -0.156281231188E+03    0.18819E-02   -0.63636E-02  2920   0.501E-01    0.168E-01
DAV:   2    -0.156281643694E+03   -0.41251E-03   -0.48915E-03  4008   0.275E-01    0.106E-01
DAV:   3    -0.156281624924E+03    0.18769E-04   -0.12323E-04  3840   0.778E-02    0.632E-02
DAV:   4    -0.156281617646E+03    0.72784E-05   -0.13565E-05  3976   0.207E-02    0.521E-02
DAV:   5    -0.156281612518E+03    0.51282E-05   -0.29480E-05  3064   0.124E-02    0.284E-02
DAV:   6    -0.156281614932E+03   -0.24139E-05   -0.90687E-06  3744   0.185E-02    0.630E-03
DAV:   7    -0.156281616912E+03   -0.19803E-05   -0.86974E-07  1632   0.310E-03    0.522E-03
DAV:   8    -0.156281618191E+03   -0.12789E-05   -0.25357E-07  1640   0.222E-03    0.589E-03
DAV:   9    -0.156281619836E+03   -0.16453E-05   -0.76268E-08  1576   0.178E-03    0.189E-03
DAV:  10    -0.156281621417E+03   -0.15807E-05   -0.13752E-07  1592   0.978E-04    0.986E-04
DAV:  11    -0.156281621837E+03   -0.42049E-06   -0.44157E-08  1672   0.106E-03
   4 F= -.16210567E+03 E0= -.16210567E+03  d E =-.573013E-02  mag=    24.0000
 curvature:  -1.35 expect dE=-0.126E-02 dE for cont linesearch -0.104E-06
 trial: gam= 0.22744 g(F)=  0.934E-03 g(S)=  0.000E+00 ort =-0.180E-04 (trialstep = 0.134E+01)
 search vector abs. value=  0.114E-02
 bond charge predicted
       N       E                     dE             d eps       ncg     rms          rms(c)
DAV:   1    -0.156280163395E+03    0.14580E-02   -0.19311E-01  2976   0.866E-01    0.206E-01
DAV:   2    -0.156281215851E+03   -0.10525E-02   -0.12570E-02  4016   0.360E-01    0.112E-01
DAV:   3    -0.156281175318E+03    0.40534E-04   -0.18914E-04  3848   0.770E-02    0.772E-02
DAV:   4    -0.156281165845E+03    0.94726E-05   -0.23377E-05  4224   0.221E-02    0.613E-02
DAV:   5    -0.156281153713E+03    0.12132E-04   -0.41936E-05  3064   0.145E-02    0.359E-02
DAV:   6    -0.156281154646E+03   -0.93288E-06   -0.15726E-05  3976   0.148E-02    0.129E-02
DAV:   7    -0.156281155102E+03   -0.45597E-06   -0.10498E-06  1576   0.351E-03
   5 F= -.16210676E+03 E0= -.16210676E+03  d E =-.108479E-02  mag=    24.0000
 ZBRENT: can't locate minimum, use default step
 trial-energy change:   -0.001085  1 .order   -0.001101   -0.001246   -0.000957
 step:   5.3568(harm=  5.7841)  dis= 0.00768  next Energy=  -162.108364 (dE=-0.269E-02)
 reached required accuracy - stopping structural energy minimisation
Note: The following floating-point exceptions are signalling: IEEE_OVERFLOW_FLAG IEEE_UNDERFLOW_FLAG IEEE_DENORMAL
Note: The following floating-point exceptions are signalling: IEEE_OVERFLOW_FLAG IEEE_UNDERFLOW_FLAG IEEE_DENORMAL
Note: The following floating-point exceptions are signalling: IEEE_OVERFLOW_FLAG IEEE_UNDERFLOW_FLAG IEEE_DENORMAL
Note: The following floating-point exceptions are signalling: IEEE_OVERFLOW_FLAG IEEE_UNDERFLOW_FLAG IEEE_DENORMAL
Note: The following floating-point exceptions are signalling: IEEE_OVERFLOW_FLAG IEEE_UNDERFLOW_FLAG IEEE_DENORMAL
Note: The following floating-point exceptions are signalling: IEEE_OVERFLOW_FLAG IEEE_UNDERFLOW_FLAG IEEE_DENORMAL
Note: The following floating-point exceptions are signalling: IEEE_OVERFLOW_FLAG IEEE_UNDERFLOW_FLAG IEEE_DENORMAL
Note: The following floating-point exceptions are signalling: IEEE_OVERFLOW_FLAG IEEE_UNDERFLOW_FLAG IEEE_DENORMAL
Note: The following floating-point exceptions are signalling: IEEE_OVERFLOW_FLAG IEEE_UNDERFLOW_FLAG IEEE_DENORMAL
Note: The following floating-point exceptions are signalling: IEEE_OVERFLOW_FLAG IEEE_UNDERFLOW_FLAG IEEE_DENORMAL
Note: The following floating-point exceptions are signalling: IEEE_OVERFLOW_FLAG IEEE_UNDERFLOW_FLAG IEEE_DENORMAL
Note: The following floating-point exceptions are signalling: IEEE_OVERFLOW_FLAG IEEE_UNDERFLOW_FLAG IEEE_DENORMAL
Note: The following floating-point exceptions are signalling: IEEE_OVERFLOW_FLAG IEEE_UNDERFLOW_FLAG IEEE_DENORMAL
Note: The following floating-point exceptions are signalling: IEEE_OVERFLOW_FLAG IEEE_UNDERFLOW_FLAG IEEE_DENORMAL
Note: The following floating-point exceptions are signalling: IEEE_OVERFLOW_FLAG IEEE_UNDERFLOW_FLAG IEEE_DENORMAL
Note: The following floating-point exceptions are signalling: IEEE_OVERFLOW_FLAG IEEE_UNDERFLOW_FLAG IEEE_DENORMAL
Note: The following floating-point exceptions are signalling: IEEE_OVERFLOW_FLAG IEEE_UNDERFLOW_FLAG IEEE_DENORMAL
Note: The following floating-point exceptions are signalling: IEEE_OVERFLOW_FLAG IEEE_UNDERFLOW_FLAG IEEE_DENORMAL
Note: The following floating-point exceptions are signalling: IEEE_OVERFLOW_FLAG IEEE_UNDERFLOW_FLAG IEEE_DENORMAL
Note: The following floating-point exceptions are signalling: IEEE_OVERFLOW_FLAG IEEE_UNDERFLOW_FLAG IEEE_DENORMAL
Note: The following floating-point exceptions are signalling: IEEE_OVERFLOW_FLAG IEEE_UNDERFLOW_FLAG IEEE_DENORMAL
Note: The following floating-point exceptions are signalling: IEEE_OVERFLOW_FLAG IEEE_UNDERFLOW_FLAG IEEE_DENORMAL
Note: The following floating-point exceptions are signalling: IEEE_OVERFLOW_FLAG IEEE_UNDERFLOW_FLAG IEEE_DENORMAL
Note: The following floating-point exceptions are signalling: IEEE_OVERFLOW_FLAG IEEE_UNDERFLOW_FLAG IEEE_DENORMAL
Note: The following floating-point exceptions are signalling: IEEE_OVERFLOW_FLAG IEEE_UNDERFLOW_FLAG IEEE_DENORMAL
Note: The following floating-point exceptions are signalling: IEEE_OVERFLOW_FLAG IEEE_UNDERFLOW_FLAG IEEE_DENORMAL
Note: The following floating-point exceptions are signalling: IEEE_OVERFLOW_FLAG IEEE_UNDERFLOW_FLAG IEEE_DENORMAL
Note: The following floating-point exceptions are signalling: IEEE_OVERFLOW_FLAG IEEE_UNDERFLOW_FLAG IEEE_DENORMAL
Note: The following floating-point exceptions are signalling: IEEE_OVERFLOW_FLAG IEEE_UNDERFLOW_FLAG IEEE_DENORMAL
Note: The following floating-point exceptions are signalling: IEEE_OVERFLOW_FLAG IEEE_UNDERFLOW_FLAG IEEE_DENORMAL
Note: The following floating-point exceptions are signalling: IEEE_OVERFLOW_FLAG IEEE_UNDERFLOW_FLAG IEEE_DENORMAL
Note: The following floating-point exceptions are signalling: IEEE_OVERFLOW_FLAG IEEE_UNDERFLOW_FLAG IEEE_DENORMAL
Note: The following floating-point exceptions are signalling: IEEE_OVERFLOW_FLAG IEEE_UNDERFLOW_FLAG IEEE_DENORMAL
Note: The following floating-point exceptions are signalling: IEEE_OVERFLOW_FLAG IEEE_UNDERFLOW_FLAG IEEE_DENORMAL
Note: The following floating-point exceptions are signalling: IEEE_OVERFLOW_FLAG IEEE_UNDERFLOW_FLAG IEEE_DENORMAL
Note: The following floating-point exceptions are signalling: IEEE_OVERFLOW_FLAG IEEE_UNDERFLOW_FLAG IEEE_DENORMAL
Note: The following floating-point exceptions are signalling: IEEE_OVERFLOW_FLAG IEEE_UNDERFLOW_FLAG IEEE_DENORMAL
Note: The following floating-point exceptions are signalling: IEEE_OVERFLOW_FLAG IEEE_UNDERFLOW_FLAG IEEE_DENORMAL
Note: The following floating-point exceptions are signalling: IEEE_OVERFLOW_FLAG IEEE_UNDERFLOW_FLAG IEEE_DENORMAL
Note: The following floating-point exceptions are signalling: IEEE_OVERFLOW_FLAG IEEE_UNDERFLOW_FLAG IEEE_DENORMAL
Note: The following floating-point exceptions are signalling: IEEE_OVERFLOW_FLAG IEEE_UNDERFLOW_FLAG IEEE_DENORMAL
Note: The following floating-point exceptions are signalling: IEEE_OVERFLOW_FLAG IEEE_UNDERFLOW_FLAG IEEE_DENORMAL
Note: The following floating-point exceptions are signalling: IEEE_OVERFLOW_FLAG IEEE_UNDERFLOW_FLAG IEEE_DENORMAL
Note: The following floating-point exceptions are signalling: IEEE_OVERFLOW_FLAG IEEE_UNDERFLOW_FLAG IEEE_DENORMAL
Note: The following floating-point exceptions are signalling: IEEE_OVERFLOW_FLAG IEEE_UNDERFLOW_FLAG IEEE_DENORMAL
Note: The following floating-point exceptions are signalling: IEEE_OVERFLOW_FLAG IEEE_UNDERFLOW_FLAG IEEE_DENORMAL
Note: The following floating-point exceptions are signalling: IEEE_OVERFLOW_FLAG IEEE_UNDERFLOW_FLAG IEEE_DENORMAL
Note: The following floating-point exceptions are signalling: IEEE_OVERFLOW_FLAG IEEE_UNDERFLOW_FLAG IEEE_DENORMAL
Note: The following floating-point exceptions are signalling: IEEE_OVERFLOW_FLAG IEEE_UNDERFLOW_FLAG IEEE_DENORMAL
Note: The following floating-point exceptions are signalling: IEEE_OVERFLOW_FLAG IEEE_UNDERFLOW_FLAG IEEE_DENORMAL
Note: The following floating-point exceptions are signalling: IEEE_OVERFLOW_FLAG IEEE_UNDERFLOW_FLAG IEEE_DENORMAL
Note: The following floating-point exceptions are signalling: IEEE_OVERFLOW_FLAG IEEE_UNDERFLOW_FLAG IEEE_DENORMAL
Note: The following floating-point exceptions are signalling: IEEE_OVERFLOW_FLAG IEEE_UNDERFLOW_FLAG IEEE_DENORMAL
Note: The following floating-point exceptions are signalling: IEEE_OVERFLOW_FLAG IEEE_UNDERFLOW_FLAG IEEE_DENORMAL
Note: The following floating-point exceptions are signalling: IEEE_OVERFLOW_FLAG IEEE_UNDERFLOW_FLAG IEEE_DENORMAL
Note: The following floating-point exceptions are signalling: IEEE_OVERFLOW_FLAG IEEE_UNDERFLOW_FLAG IEEE_DENORMAL
Note: The following floating-point exceptions are signalling: IEEE_OVERFLOW_FLAG IEEE_UNDERFLOW_FLAG IEEE_DENORMAL
Note: The following floating-point exceptions are signalling: IEEE_OVERFLOW_FLAG IEEE_UNDERFLOW_FLAG IEEE_DENORMAL
Note: The following floating-point exceptions are signalling: IEEE_OVERFLOW_FLAG IEEE_UNDERFLOW_FLAG IEEE_DENORMAL
Note: The following floating-point exceptions are signalling: IEEE_OVERFLOW_FLAG IEEE_UNDERFLOW_FLAG IEEE_DENORMAL
Note: The following floating-point exceptions are signalling: IEEE_OVERFLOW_FLAG IEEE_UNDERFLOW_FLAG IEEE_DENORMAL
Note: The following floating-point exceptions are signalling: IEEE_OVERFLOW_FLAG IEEE_UNDERFLOW_FLAG IEEE_DENORMAL
Note: The following floating-point exceptions are signalling: IEEE_OVERFLOW_FLAG IEEE_UNDERFLOW_FLAG IEEE_DENORMAL
Note: The following floating-point exceptions are signalling: IEEE_OVERFLOW_FLAG IEEE_UNDERFLOW_FLAG IEEE_DENORMAL
