Cr Cl Co                                
   1.00000000000000     
    12.0925489970493256    0.0000000000000000    0.0000000000000000
    -6.0462744985246628   10.4724546279527502    0.0000000000000000
     0.0000000000000000    0.0000000000000000   20.0000000000000000
   Cr   Cl   Co
     8    24     1
Direct
     0.1672136256046554    0.3334744602046316    0.5015274197634640
     0.3281751278161052    0.1630539273133509    0.5001799466548638
     0.6666666666666714    0.3333333333333286    0.4839322494955854
     0.8369460726866492    0.1651212005027614    0.5001799466548638
     0.1662608345999904    0.8327863743953445    0.5015274197634640
     0.3333333333333286    0.6666666666666714    0.5009648765744215
     0.6665255397953684    0.8337391654000095    0.5015274197634640
     0.8348787994972385    0.6718248721838948    0.5001799466548638
     0.1777427867021281    0.4996589051975343    0.4336010957054924
     0.4864148728511763    0.1692048800764139    0.4275120610257615
     0.3228690180718074    0.3234971087227828    0.4341779422777752
     0.3228080622782216    0.5005642173785380    0.5691284016456452
     0.9997781344797936    0.3228823308476328    0.5688605370335543
     0.1758517634144197    0.1773784855692378    0.5698224186799163
     0.6827900072252376    0.5135851271488237    0.4275120610257615
     0.0048653991987164    0.1753087055626147    0.4336366181380648
     0.8307951199235860    0.3172099927747624    0.4275120610257615
     0.8355200082212321    0.5039055572625285    0.5706444898900938
     0.4960944427374713    0.3316144509587035    0.5706444898900938
     0.6683855490412968    0.1644799917787679    0.5706444898900938
     0.1704433063638982    0.9951346008012837    0.4336366181380648
     0.5003410948024659    0.6780838815045940    0.4336010957054924
     0.3219161184954061    0.8222572132978719    0.4336010957054924
     0.3231041963678463    0.0002218655202063    0.5688605370335543
     0.0015267221548251    0.8241482365855801    0.5698224186799163
     0.1777561551003165    0.6771919377217787    0.5691284016456452
     0.6765028912772174    0.9993719093490249    0.4341779422777752
     0.0006280906509753    0.6771309819281927    0.4341779422777752
     0.8246912944373854    0.8295566936361018    0.4336366181380648
     0.8226215144307623    0.9984732778451748    0.5698224186799163
     0.4994357826214619    0.8222438448996834    0.5691284016456452
     0.6771176691523602    0.6768958036321537    0.5688605370335543
     0.6666666666666714    0.3333333333333286    0.6128300814861261
 
  0.00000000E+00  0.00000000E+00  0.00000000E+00
  0.00000000E+00  0.00000000E+00  0.00000000E+00
  0.00000000E+00  0.00000000E+00  0.00000000E+00
  0.00000000E+00  0.00000000E+00  0.00000000E+00
  0.00000000E+00  0.00000000E+00  0.00000000E+00
  0.00000000E+00  0.00000000E+00  0.00000000E+00
  0.00000000E+00  0.00000000E+00  0.00000000E+00
  0.00000000E+00  0.00000000E+00  0.00000000E+00
  0.00000000E+00  0.00000000E+00  0.00000000E+00
  0.00000000E+00  0.00000000E+00  0.00000000E+00
  0.00000000E+00  0.00000000E+00  0.00000000E+00
  0.00000000E+00  0.00000000E+00  0.00000000E+00
  0.00000000E+00  0.00000000E+00  0.00000000E+00
  0.00000000E+00  0.00000000E+00  0.00000000E+00
  0.00000000E+00  0.00000000E+00  0.00000000E+00
  0.00000000E+00  0.00000000E+00  0.00000000E+00
  0.00000000E+00  0.00000000E+00  0.00000000E+00
  0.00000000E+00  0.00000000E+00  0.00000000E+00
  0.00000000E+00  0.00000000E+00  0.00000000E+00
  0.00000000E+00  0.00000000E+00  0.00000000E+00
  0.00000000E+00  0.00000000E+00  0.00000000E+00
  0.00000000E+00  0.00000000E+00  0.00000000E+00
  0.00000000E+00  0.00000000E+00  0.00000000E+00
  0.00000000E+00  0.00000000E+00  0.00000000E+00
  0.00000000E+00  0.00000000E+00  0.00000000E+00
  0.00000000E+00  0.00000000E+00  0.00000000E+00
  0.00000000E+00  0.00000000E+00  0.00000000E+00
  0.00000000E+00  0.00000000E+00  0.00000000E+00
  0.00000000E+00  0.00000000E+00  0.00000000E+00
  0.00000000E+00  0.00000000E+00  0.00000000E+00
  0.00000000E+00  0.00000000E+00  0.00000000E+00
  0.00000000E+00  0.00000000E+00  0.00000000E+00
  0.00000000E+00  0.00000000E+00  0.00000000E+00
