CrCl3 2x2 yes_vdw S2 (hollow) - OPTIMIZED
    1.000000000000000     
    12.0925489970493256    0.0000000000000000    0.0000000000000000
    -6.0462744985246628   10.4724546279527502    0.0000000000000000
     0.0000000000000000    0.0000000000000000   20.0000000000000000
   Cr   Cl   H 
     8    24     1
Direct
     0.1667366248848384    0.3334421209456724    0.5005758296150896
     0.3334421209456724    0.1667366248848384    0.5005758296150896
     0.6665578790543273    0.3332945039391517    0.5005758296150896
     0.8333333333333286    0.1666666666666714    0.4997897589330224
     0.1666666666666714    0.8333333333333286    0.4997897589330224
     0.3332945039391517    0.6665578790543273    0.5005758296150896
     0.6667054960608484    0.8332633751151616    0.5005758296150896
     0.8332633751151616    0.6667054960608484    0.5005758296150896
     0.1799528896365047    0.5000000000000000    0.4336755698393345
     0.5000000000000000    0.1799528896365047    0.4336755698393345
     0.3238418294007413    0.3238418294007413    0.4350044660590172
     0.3224152659397521    0.5000000000000000    0.5674051150751575
     0.9996961608132496    0.3217482230079917    0.5665906179184533
     0.1785942627649757    0.1785942627649757    0.5671806570106930
     0.6761581705992584    0.5000000000000000    0.4350044660590172
     0.0009510627383227    0.1797111453000214    0.4336912190616423
     0.8202888546999788    0.3212399174383013    0.4336912190616423
     0.8214057372350243    0.5000000000000000    0.5671806570106930
     0.5000000000000000    0.3224152659397521    0.5674051150751575
     0.6782517769920083    0.1779479378052581    0.5665906179184533
     0.1797111453000214    0.0009510627383227    0.4336912190616423
     0.5000000000000000    0.6761581705992584    0.4350044660590172
     0.3212399174383013    0.8202888546999788    0.4336912190616423
     0.3217482230079917    0.9996961608132496    0.5665906179184533
     0.0003038391867503    0.8220520621947420    0.5665906179184533
     0.1779479378052581    0.6782517769920083    0.5665906179184534
     0.6787600825616987    0.9990489372616774    0.4336912190616423
     0.9990489372616774    0.6787600825616987    0.4336912190616423
     0.8200471103634953    0.8200471103634953    0.4336755698393345
     0.8220520621947420    0.0003038391867503    0.5665906179184533
     0.5000000000000000    0.8214057372350243    0.5671806570106930
     0.6775847340602478    0.6775847340602478    0.5674051150751575
     0.5000000000000000    0.5000000000000000    0.5654770586102350
 
  0.00000000E+00  0.00000000E+00  0.00000000E+00
  0.00000000E+00  0.00000000E+00  0.00000000E+00
  0.00000000E+00  0.00000000E+00  0.00000000E+00
  0.00000000E+00  0.00000000E+00  0.00000000E+00
  0.00000000E+00  0.00000000E+00  0.00000000E+00
  0.00000000E+00  0.00000000E+00  0.00000000E+00
  0.00000000E+00  0.00000000E+00  0.00000000E+00
  0.00000000E+00  0.00000000E+00  0.00000000E+00
  0.00000000E+00  0.00000000E+00  0.00000000E+00
  0.00000000E+00  0.00000000E+00  0.00000000E+00
  0.00000000E+00  0.00000000E+00  0.00000000E+00
  0.00000000E+00  0.00000000E+00  0.00000000E+00
  0.00000000E+00  0.00000000E+00  0.00000000E+00
  0.00000000E+00  0.00000000E+00  0.00000000E+00
  0.00000000E+00  0.00000000E+00  0.00000000E+00
  0.00000000E+00  0.00000000E+00  0.00000000E+00
  0.00000000E+00  0.00000000E+00  0.00000000E+00
  0.00000000E+00  0.00000000E+00  0.00000000E+00
  0.00000000E+00  0.00000000E+00  0.00000000E+00
  0.00000000E+00  0.00000000E+00  0.00000000E+00
  0.00000000E+00  0.00000000E+00  0.00000000E+00
  0.00000000E+00  0.00000000E+00  0.00000000E+00
  0.00000000E+00  0.00000000E+00  0.00000000E+00
  0.00000000E+00  0.00000000E+00  0.00000000E+00
  0.00000000E+00  0.00000000E+00  0.00000000E+00
  0.00000000E+00  0.00000000E+00  0.00000000E+00
  0.00000000E+00  0.00000000E+00  0.00000000E+00
  0.00000000E+00  0.00000000E+00  0.00000000E+00
  0.00000000E+00  0.00000000E+00  0.00000000E+00
  0.00000000E+00  0.00000000E+00  0.00000000E+00
  0.00000000E+00  0.00000000E+00  0.00000000E+00
  0.00000000E+00  0.00000000E+00  0.00000000E+00
  0.00000000E+00  0.00000000E+00  0.00000000E+00
