CrCl3 2x2 yes_vdw S1 (top_Cl) - OPTIMIZED
    1.000000000000000     
    12.0925489970493256    0.0000000000000000    0.0000000000000000
    -6.0462744985246628   10.4724546279527502    0.0000000000000000
     0.0000000000000000    0.0000000000000000   20.0000000000000000
   Cr   Cl   H 
     8    24     1
Direct
     0.1661274400893560    0.3333411903161099    0.5000612721848463
     0.3180600297538718    0.1551023930306537    0.4951707960429333
     0.6819399702461283    0.3370423632767678    0.4951707960429333
     0.8335510443979414    0.1663665744600968    0.5000169462991463
     0.1664489556020587    0.8328155300621414    0.5000169462991463
     0.3331638648828957    0.6671490540103980    0.4999371256820981
     0.6668361351171044    0.8339851891274881    0.4999371256820981
     0.8338725599106441    0.6672137502267681    0.5000612721848463
     0.1789367254784182    0.5000256643599607    0.4332585922358688
     0.5000000000000000    0.1818667524836940    0.4351496815993259
     0.3216541772212805    0.3226781338809708    0.4332093050014690
     0.3210847244672570    0.4998411460102706    0.5670389682097839
     0.0001050968477669    0.3212188516981508    0.5667606660498979
     0.1762046413382372    0.1796107180173853    0.5684006060061730
     0.6783458227787197    0.5010239566596902    0.4332093050014690
     0.0004846065982143    0.1788492458868132    0.4331882058331682
     0.8298283024082727    0.3192177625183251    0.4293418788571790
     0.8237953586617629    0.5034060766791479    0.5684006060061730
     0.5000000000000000    0.3343166993768882    0.5734685928569235
     0.6791533321913911    0.1781335188569433    0.5674878987685612
     0.1701716975917274    0.9893894601100525    0.4293418788571790
     0.5000000000000000    0.6789774100621871    0.4331761918026755
     0.3210947742759083    0.8208561812398762    0.4331595289497875
     0.3208466678086088    0.9989801866655522    0.5674878987685612
     0.9998949031522331    0.8211137548503840    0.5667606660498979
     0.1791047710918090    0.6788053419846232    0.5667526159754841
     0.6789052257240916    0.9997614069639679    0.4331595289497875
     0.9995153934017856    0.6783646392885988    0.4331882058331682
     0.8210632745215818    0.8210889388815424    0.4332585922358688
     0.8208952289081909    0.9997005708928142    0.5667526159754841
     0.5000000000000000    0.8210650196631896    0.5667861965866042
     0.6789152755327430    0.6787564215430136    0.5670389682097839
     0.5000000000000000    0.3202859984837273    0.6356367182216044
 
  0.00000000E+00  0.00000000E+00  0.00000000E+00
  0.00000000E+00  0.00000000E+00  0.00000000E+00
  0.00000000E+00  0.00000000E+00  0.00000000E+00
  0.00000000E+00  0.00000000E+00  0.00000000E+00
  0.00000000E+00  0.00000000E+00  0.00000000E+00
  0.00000000E+00  0.00000000E+00  0.00000000E+00
  0.00000000E+00  0.00000000E+00  0.00000000E+00
  0.00000000E+00  0.00000000E+00  0.00000000E+00
  0.00000000E+00  0.00000000E+00  0.00000000E+00
  0.00000000E+00  0.00000000E+00  0.00000000E+00
  0.00000000E+00  0.00000000E+00  0.00000000E+00
  0.00000000E+00  0.00000000E+00  0.00000000E+00
  0.00000000E+00  0.00000000E+00  0.00000000E+00
  0.00000000E+00  0.00000000E+00  0.00000000E+00
  0.00000000E+00  0.00000000E+00  0.00000000E+00
  0.00000000E+00  0.00000000E+00  0.00000000E+00
  0.00000000E+00  0.00000000E+00  0.00000000E+00
  0.00000000E+00  0.00000000E+00  0.00000000E+00
  0.00000000E+00  0.00000000E+00  0.00000000E+00
  0.00000000E+00  0.00000000E+00  0.00000000E+00
  0.00000000E+00  0.00000000E+00  0.00000000E+00
  0.00000000E+00  0.00000000E+00  0.00000000E+00
  0.00000000E+00  0.00000000E+00  0.00000000E+00
  0.00000000E+00  0.00000000E+00  0.00000000E+00
  0.00000000E+00  0.00000000E+00  0.00000000E+00
  0.00000000E+00  0.00000000E+00  0.00000000E+00
  0.00000000E+00  0.00000000E+00  0.00000000E+00
  0.00000000E+00  0.00000000E+00  0.00000000E+00
  0.00000000E+00  0.00000000E+00  0.00000000E+00
  0.00000000E+00  0.00000000E+00  0.00000000E+00
  0.00000000E+00  0.00000000E+00  0.00000000E+00
  0.00000000E+00  0.00000000E+00  0.00000000E+00
  0.00000000E+00  0.00000000E+00  0.00000000E+00
