Cr2Cl6 Monolayer 1x1 Primitive Cell
1.0
     6.04849800000000    0.00000000000000    0.00000000000000
   -3.02424900000000     5.23815292273937    0.00000000000000
    0.00000000000000    0.00000000000000    17.67000000000000
Cr  Cl
 2   6
Direct
  0.3333333333333333  0.6666666666666666  0.5000000000000000
  0.6666666666666666  0.3333333333333333  0.5000000000000000
  0.3550000000000000  0.0000000000000000  0.4236000000000000
  0.0000000000000000  0.3550000000000000  0.4236000000000000
  0.6450000000000000  0.6450000000000000  0.4236000000000000
  0.6450000000000000  0.0000000000000000  0.5764000000000000
  0.0000000000000000  0.6450000000000000  0.5764000000000000
  0.3550000000000000  0.3550000000000000  0.5764000000000000
