CrCl3 2x2 + Fe S3 top-Cr (D3, U=0) (a_2x
   1.0000000000000000     
    12.0925489970493256    0.0000000000000000    0.0000000000000000
    -6.0462744985246628   10.4724546279527502    0.0000000000000000
     0.0000000000000000    0.0000000000000000   20.0000000000000000
   Cr   Cl   Fe
     8    24     1
Direct
  0.1650573075460528  0.3354397203810330  0.5009665293349662
  0.3291030338746777  0.1666406481013869  0.4998599944196680
  0.6666666666666714  0.3333333333333286  0.4926816909046153
  0.8333593518986131  0.1624623857733050  0.4998599944196680
  0.1703824128349943  0.8349426924539474  0.5009665293349662
  0.3333333333333286  0.6666666666666714  0.5015578895668426
  0.6645602796189671  0.8296175871650057  0.5009665293349662
  0.8375376142266951  0.6708969661253225  0.4998599944196680
  0.1764925321971464  0.5013235074101183  0.4360095229309681
  0.4960198352720125  0.1810866195139174  0.4322316656833440
  0.3191289453858350  0.3222140331997851  0.4340895748026202
  0.3175507224843785  0.4990182538039550  0.5680372182805495
 -0.0057071300999929  0.3183422711936368  0.5677457318087645
  0.1752617952579023  0.1776446228778673  0.5666338154538355
  0.6850667842419053  0.5039801647279877  0.4322316656833440
 -0.0007575355328448  0.1784692496438262  0.4339795188542098
  0.8189133804860826  0.3149332157580950  0.4322316656833440
  0.8405011769067315  0.5049927343813250  0.5671242310672355
  0.4950072656186751  0.3355084425254064  0.5671242310672355
  0.6644915574745933  0.1594988230932686  0.5671242310672355
  0.1792267851766710  0.0007575355328448  0.4339795188542098
  0.4986764925898816  0.6751690247870279  0.4360095229309681
  0.3248309752129721  0.8235074678028533  0.4360095229309681
  0.3240494012936299  0.0057071300999929  0.5677457318087645
  0.0023828276199648  0.8247382047420975  0.5666338154538355
  0.1814675313195763  0.6824492775156215  0.5680372182805495
  0.6777859668002151 -0.0030850878139500  0.4340895748026202
  0.0030850878139500  0.6808710546141650  0.4340895748026202
  0.8215307503561735  0.8207732148233287  0.4339795188542098
  0.8223553771221329 -0.0023828276199648  0.5666338154538355
  0.5009817461960452  0.8185324686804236  0.5680372182805495
  0.6816577288063633  0.6759505987063702  0.5677457318087645
  0.6666666666666714  0.3333333333333286  0.6107270116200569

  0.00000000E+00  0.00000000E+00  0.00000000E+00
  0.00000000E+00  0.00000000E+00  0.00000000E+00
  0.00000000E+00  0.00000000E+00  0.00000000E+00
  0.00000000E+00  0.00000000E+00  0.00000000E+00
  0.00000000E+00  0.00000000E+00  0.00000000E+00
  0.00000000E+00  0.00000000E+00  0.00000000E+00
  0.00000000E+00  0.00000000E+00  0.00000000E+00
  0.00000000E+00  0.00000000E+00  0.00000000E+00
  0.00000000E+00  0.00000000E+00  0.00000000E+00
  0.00000000E+00  0.00000000E+00  0.00000000E+00
  0.00000000E+00  0.00000000E+00  0.00000000E+00
  0.00000000E+00  0.00000000E+00  0.00000000E+00
  0.00000000E+00  0.00000000E+00  0.00000000E+00
  0.00000000E+00  0.00000000E+00  0.00000000E+00
  0.00000000E+00  0.00000000E+00  0.00000000E+00
  0.00000000E+00  0.00000000E+00  0.00000000E+00
  0.00000000E+00  0.00000000E+00  0.00000000E+00
  0.00000000E+00  0.00000000E+00  0.00000000E+00
  0.00000000E+00  0.00000000E+00  0.00000000E+00
  0.00000000E+00  0.00000000E+00  0.00000000E+00
  0.00000000E+00  0.00000000E+00  0.00000000E+00
  0.00000000E+00  0.00000000E+00  0.00000000E+00
  0.00000000E+00  0.00000000E+00  0.00000000E+00
  0.00000000E+00  0.00000000E+00  0.00000000E+00
  0.00000000E+00  0.00000000E+00  0.00000000E+00
  0.00000000E+00  0.00000000E+00  0.00000000E+00
  0.00000000E+00  0.00000000E+00  0.00000000E+00
  0.00000000E+00  0.00000000E+00  0.00000000E+00
  0.00000000E+00  0.00000000E+00  0.00000000E+00
  0.00000000E+00  0.00000000E+00  0.00000000E+00
  0.00000000E+00  0.00000000E+00  0.00000000E+00
  0.00000000E+00  0.00000000E+00  0.00000000E+00
  0.00000000E+00  0.00000000E+00  0.00000000E+00
