Cr Cl Co H                              
   1.0000000000000000     
    12.0925489970493256    0.0000000000000000    0.0000000000000000
    -6.0462744985246628   10.4724546279527502    0.0000000000000000
     0.0000000000000000    0.0000000000000000   20.0000000000000000
   Cr   Cl   Co   H 
     8    24     1     1
Direct
  0.1673058892573822  0.3335348117986977  0.5020982915401194
  0.3303310527434045  0.1662445685610856  0.5025934455646042
  0.6754436218124968  0.3367532171857723  0.4797231200494959
  0.8393085133069018  0.1660179556713353  0.4947966261920829
  0.1663818473382242  0.8337236591835723  0.5014837847884885
  0.3329924307769785  0.6668981239239903  0.5014099000969658
  0.6663819395213546  0.8337638874853648  0.5004154030706095
  0.8333125682469891  0.6698812667993939  0.4978588124698362
  0.1783772822956500  0.5000409195824740  0.4338963784449229
  0.4853934885401751  0.1751777156708146  0.4275178548722606
  0.3251826137935290  0.3260883856749036  0.4363176290859881
  0.3204253724397089  0.5009956279359907  0.5702131312040295
  0.9964618033880419  0.3215009136798100  0.5663095023577506
  0.1733988621575824  0.1763397058445128  0.5704198784411005
  0.6825360533741138  0.5142051331480857  0.4244703929668385
  0.0080154331814649  0.1705563386180263  0.4341893904590037
  0.8441963229029185  0.3138521102355470  0.4185081304815155
  0.8275113507328618  0.4979961773048147  0.5639394315282978
  0.4872465885955227  0.3262021960498460  0.5761581101673967
  0.6697721551586530  0.1734219116995201  0.5590037664817358
  0.1737840626483837  0.9998258627588871  0.4353016627607770
  0.4992170203575365  0.6768680468225129  0.4336506572657899
  0.3228872435703363  0.8236770699676427  0.4340911329689614
  0.3219255924508107  0.0001577173039057  0.5695273187838720
  0.9981730167051943  0.8207969881658860  0.5686168130363041
  0.1770221859047638  0.6778869043845178  0.5689109317662290
  0.6786834531581472  0.9975218521088299  0.4304184762173321
  0.0013693810912984  0.6790950350071415  0.4326507684554861
  0.8258698365713246  0.8283029808044007  0.4332445179773845
  0.8205118738038119  0.0007692840812153  0.5678834601896133
  0.5006685272040979  0.8234248314483172  0.5684132257651634
  0.6773309678362983  0.6760639576168105  0.5670182210592910
  0.6606087278679562  0.3304927986504501  0.6307047411172528
  0.6677871211237092  0.3285887114925682  0.7080751738596409

  0.00000000E+00  0.00000000E+00  0.00000000E+00
  0.00000000E+00  0.00000000E+00  0.00000000E+00
  0.00000000E+00  0.00000000E+00  0.00000000E+00
  0.00000000E+00  0.00000000E+00  0.00000000E+00
  0.00000000E+00  0.00000000E+00  0.00000000E+00
  0.00000000E+00  0.00000000E+00  0.00000000E+00
  0.00000000E+00  0.00000000E+00  0.00000000E+00
  0.00000000E+00  0.00000000E+00  0.00000000E+00
  0.00000000E+00  0.00000000E+00  0.00000000E+00
  0.00000000E+00  0.00000000E+00  0.00000000E+00
  0.00000000E+00  0.00000000E+00  0.00000000E+00
  0.00000000E+00  0.00000000E+00  0.00000000E+00
  0.00000000E+00  0.00000000E+00  0.00000000E+00
  0.00000000E+00  0.00000000E+00  0.00000000E+00
  0.00000000E+00  0.00000000E+00  0.00000000E+00
  0.00000000E+00  0.00000000E+00  0.00000000E+00
  0.00000000E+00  0.00000000E+00  0.00000000E+00
  0.00000000E+00  0.00000000E+00  0.00000000E+00
  0.00000000E+00  0.00000000E+00  0.00000000E+00
  0.00000000E+00  0.00000000E+00  0.00000000E+00
  0.00000000E+00  0.00000000E+00  0.00000000E+00
  0.00000000E+00  0.00000000E+00  0.00000000E+00
  0.00000000E+00  0.00000000E+00  0.00000000E+00
  0.00000000E+00  0.00000000E+00  0.00000000E+00
  0.00000000E+00  0.00000000E+00  0.00000000E+00
  0.00000000E+00  0.00000000E+00  0.00000000E+00
  0.00000000E+00  0.00000000E+00  0.00000000E+00
  0.00000000E+00  0.00000000E+00  0.00000000E+00
  0.00000000E+00  0.00000000E+00  0.00000000E+00
  0.00000000E+00  0.00000000E+00  0.00000000E+00
  0.00000000E+00  0.00000000E+00  0.00000000E+00
  0.00000000E+00  0.00000000E+00  0.00000000E+00
  0.00000000E+00  0.00000000E+00  0.00000000E+00
  0.00000000E+00  0.00000000E+00  0.00000000E+00
