 running on   32 total cores
 distrk:  each k-point on   32 cores,    1 groups
 distr:  one band on    4 cores,    8 groups
 vasp.6.2.0 18Jan21 (build Jul 28 2023 11:58:00) complex                         
 POSCAR found type information on POSCAR CrClCoH 
 POSCAR found :  4 types and      34 ions
 scaLAPACK will be used
 LDA part: xc-table for Pade appr. of Perdew
 POSCAR, INCAR and KPOINTS ok, starting setup
 FFT: planning ...
 WAVECAR not read
 entering main loop
       N       E                     dE             d eps       ncg     rms          rms(c)
DAV:   1     0.213083452247E+04    0.21308E+04   -0.64828E+04  8072   0.913E+02
DAV:   2     0.412313919566E+03   -0.17185E+04   -0.16067E+04  9688   0.243E+02
DAV:   3    -0.118432527645E+03   -0.53075E+03   -0.51751E+03 11864   0.138E+02
DAV:   4    -0.155788039590E+03   -0.37356E+02   -0.36733E+02 11832   0.500E+01
DAV:   5    -0.156614903757E+03   -0.82686E+00   -0.82276E+00 12112   0.928E+00    0.405E+01
DAV:   6    -0.147850035013E+03    0.87649E+01   -0.16579E+02 12920   0.661E+01    0.392E+01
DAV:   7    -0.146880646545E+03    0.96939E+00   -0.20964E+01 11752   0.405E+01    0.201E+01
DAV:   8    -0.147608475285E+03   -0.72783E+00   -0.54034E+00 12552   0.121E+01    0.104E+01
DAV:   9    -0.147695002067E+03   -0.86527E-01   -0.14609E+00 12224   0.913E+00    0.425E+00
DAV:  10    -0.147787939174E+03   -0.92937E-01   -0.31662E-01 11408   0.291E+00    0.165E+00
DAV:  11    -0.147829459871E+03   -0.41521E-01   -0.41422E-02 10352   0.150E+00    0.869E-01
DAV:  12    -0.147870146109E+03   -0.40686E-01   -0.25684E-02 10608   0.690E-01    0.566E-01
DAV:  13    -0.147892593148E+03   -0.22447E-01   -0.44757E-03 10928   0.259E-01    0.291E-01
DAV:  14    -0.147917158648E+03   -0.24566E-01   -0.23393E-03  9920   0.174E-01    0.167E-01
DAV:  15    -0.147941350556E+03   -0.24192E-01   -0.17044E-03 10056   0.255E-01    0.113E-01
DAV:  16    -0.147962005882E+03   -0.20655E-01   -0.92458E-04 10832   0.861E-02    0.807E-02
DAV:  17    -0.147989542697E+03   -0.27537E-01   -0.11151E-03 12248   0.916E-02    0.464E-02
DAV:  18    -0.148004162865E+03   -0.14620E-01   -0.55497E-04 10744   0.745E-02    0.351E-02
DAV:  19    -0.148008245996E+03   -0.40831E-02   -0.19208E-04  9864   0.464E-02    0.249E-02
DAV:  20    -0.148009651987E+03   -0.14060E-02   -0.78636E-05 10064   0.252E-02    0.162E-02
DAV:  21    -0.148010708511E+03   -0.10565E-02   -0.85900E-05  9552   0.216E-02    0.111E-02
DAV:  22    -0.148011136750E+03   -0.42824E-03   -0.44999E-05  8992   0.136E-02    0.818E-03
DAV:  23    -0.148011242678E+03   -0.10593E-03   -0.44096E-05  7736   0.133E-02    0.628E-03
DAV:  24    -0.148011226474E+03    0.16204E-04   -0.35368E-05  8216   0.111E-02    0.463E-03
DAV:  25    -0.148011215092E+03    0.11382E-04   -0.81869E-06  6368   0.630E-03    0.416E-03
DAV:  26    -0.148011227604E+03   -0.12511E-04   -0.70366E-06  5592   0.461E-03    0.329E-03
DAV:  27    -0.148011257191E+03   -0.29588E-04   -0.15781E-05  6312   0.702E-03    0.286E-03
DAV:  28    -0.148011276930E+03   -0.19739E-04   -0.68615E-06  6392   0.482E-03    0.257E-03
DAV:  29    -0.148011291913E+03   -0.14983E-04   -0.50552E-06  5520   0.401E-03    0.193E-03
DAV:  30    -0.148011313179E+03   -0.21266E-04   -0.96504E-06  5984   0.580E-03    0.138E-03
DAV:  31    -0.148011319492E+03   -0.63123E-05   -0.75372E-06  6336   0.484E-03    0.137E-03
DAV:  32    -0.148011319269E+03    0.22215E-06   -0.14731E-06  5616   0.264E-03
   1 F= -.15409907E+03 E0= -.15409907E+03  d E =-.154099E+03  mag=    27.9999
 curvature:   0.00 expect dE= 0.000E+00 dE for cont linesearch  0.000E+00
 trial: gam= 0.00000 g(F)=  0.428E-01 g(S)=  0.000E+00 ort = 0.000E+00 (trialstep = 0.100E+01)
 search vector abs. value=  0.428E-01
 bond charge predicted
       N       E                     dE             d eps       ncg     rms          rms(c)
DAV:   1    -0.147988592180E+03    0.22727E-01   -0.62237E+00  7936   0.489E+00    0.175E+00
DAV:   2    -0.148030196731E+03   -0.41605E-01   -0.23065E-01 11648   0.238E+00    0.971E-01
DAV:   3    -0.148037948282E+03   -0.77516E-02   -0.18162E-02  9976   0.951E-01    0.484E-01
DAV:   4    -0.148037869620E+03    0.78662E-04   -0.24879E-03 10816   0.180E-01    0.293E-01
DAV:   5    -0.148038056193E+03   -0.18657E-03   -0.11536E-03  9808   0.854E-02    0.170E-01
DAV:   6    -0.148038435742E+03   -0.37955E-03   -0.48295E-04 11704   0.737E-02    0.487E-02
DAV:   7    -0.148038622214E+03   -0.18647E-03   -0.96196E-05  9224   0.621E-02    0.418E-02
DAV:   8    -0.148038750695E+03   -0.12848E-03   -0.16823E-05 10224   0.275E-02    0.270E-02
DAV:   9    -0.148038946169E+03   -0.19547E-03   -0.12841E-05 10176   0.101E-02    0.136E-02
DAV:  10    -0.148039119352E+03   -0.17318E-03   -0.36427E-06  6208   0.648E-03    0.569E-03
DAV:  11    -0.148039230379E+03   -0.11103E-03   -0.22024E-06  5752   0.850E-03    0.411E-03
DAV:  12    -0.148039307361E+03   -0.76982E-04   -0.14047E-06  5808   0.442E-03    0.385E-03
DAV:  13    -0.148039370628E+03   -0.63267E-04   -0.10880E-06  5304   0.341E-03    0.291E-03
DAV:  14    -0.148039477044E+03   -0.10642E-03   -0.26035E-06  6160   0.494E-03    0.195E-03
DAV:  15    -0.148039552823E+03   -0.75778E-04   -0.27515E-06  5952   0.398E-03    0.170E-03
DAV:  16    -0.148039573374E+03   -0.20551E-04   -0.88961E-07  5328   0.252E-03    0.149E-03
DAV:  17    -0.148039583280E+03   -0.99058E-05   -0.39514E-07  5208   0.182E-03    0.121E-03
DAV:  18    -0.148039588647E+03   -0.53673E-05   -0.53490E-07  5376   0.167E-03    0.930E-04
DAV:  19    -0.148039592053E+03   -0.34060E-05   -0.91226E-07  5872   0.187E-03    0.911E-04
DAV:  20    -0.148039590999E+03    0.10540E-05   -0.68125E-07  5488   0.159E-03    0.744E-04
DAV:  21    -0.148039590556E+03    0.44283E-06   -0.26380E-07  5248   0.114E-03
   2 F= -.15412537E+03 E0= -.15412537E+03  d E =-.263013E-01  mag=    28.0000
 trial-energy change:   -0.026301  1 .order   -0.026333   -0.042823   -0.009843
 step:   1.2985(harm=  1.2985)  dis= 0.04091  next Energy=  -154.126868 (dE=-0.278E-01)
 bond charge predicted
       N       E                     dE             d eps       ncg     rms          rms(c)
DAV:   1    -0.148037228109E+03    0.23629E-02   -0.55255E-01  8128   0.147E+00    0.517E-01
DAV:   2    -0.148040612041E+03   -0.33839E-02   -0.18602E-02 11728   0.614E-01    0.265E-01
DAV:   3    -0.148041451293E+03   -0.83925E-03   -0.14500E-03  9624   0.233E-01    0.145E-01
DAV:   4    -0.148041425861E+03    0.25432E-04   -0.15845E-04 11264   0.553E-02    0.874E-02
DAV:   5    -0.148041413630E+03    0.12231E-04   -0.11794E-04  9752   0.358E-02    0.587E-02
DAV:   6    -0.148041443140E+03   -0.29510E-04   -0.54242E-05 13592   0.407E-02    0.147E-02
DAV:   7    -0.148041481192E+03   -0.38052E-04   -0.73683E-06  8768   0.161E-02    0.118E-02
DAV:   8    -0.148041511089E+03   -0.29897E-04   -0.17161E-06  5632   0.463E-03    0.793E-03
DAV:   9    -0.148041555591E+03   -0.44502E-04   -0.14251E-06  5528   0.496E-03    0.383E-03
DAV:  10    -0.148041584655E+03   -0.29064E-04   -0.83002E-07  5224   0.416E-03    0.245E-03
DAV:  11    -0.148041600167E+03   -0.15512E-04   -0.50989E-07  5096   0.306E-03    0.167E-03
DAV:  12    -0.148041619926E+03   -0.19760E-04   -0.32473E-07  5160   0.249E-03    0.127E-03
DAV:  13    -0.148041642859E+03   -0.22933E-04   -0.38065E-07  5344   0.186E-03    0.968E-04
DAV:  14    -0.148041652706E+03   -0.98470E-05   -0.20256E-07  5192   0.137E-03    0.856E-04
DAV:  15    -0.148041661382E+03   -0.86759E-05   -0.13910E-07  5128   0.140E-03    0.710E-04
DAV:  16    -0.148041668651E+03   -0.72690E-05   -0.16819E-07  5216   0.957E-04    0.592E-04
DAV:  17    -0.148041675957E+03   -0.73056E-05   -0.24496E-07  5248   0.104E-03    0.474E-04
DAV:  18    -0.148041679178E+03   -0.32217E-05   -0.19584E-07  5296   0.919E-04    0.448E-04
DAV:  19    -0.148041679470E+03   -0.29142E-06   -0.89549E-08  5088   0.714E-04
   3 F= -.15412687E+03 E0= -.15412687E+03  d E =-.278039E-01  mag=    28.0000
 curvature:  -0.65 expect dE=-0.109E-01 dE for cont linesearch -0.604E-06
 trial: gam= 0.38725 g(F)=  0.168E-01 g(S)=  0.000E+00 ort = 0.200E-03 (trialstep = 0.106E+01)
 search vector abs. value=  0.234E-01
 bond charge predicted
       N       E                     dE             d eps       ncg     rms          rms(c)
DAV:   1    -0.148045288761E+03   -0.36096E-02   -0.12355E+00  7952   0.219E+00    0.712E-01
DAV:   2    -0.148053549824E+03   -0.82611E-02   -0.74417E-02 11792   0.140E+00    0.428E-01
DAV:   3    -0.148054718512E+03   -0.11687E-02   -0.44737E-03  9640   0.422E-01    0.239E-01
DAV:   4    -0.148054590973E+03    0.12754E-03   -0.60116E-04 11032   0.113E-01    0.157E-01
DAV:   5    -0.148054452408E+03    0.13857E-03   -0.45731E-04 10104   0.637E-02    0.104E-01
DAV:   6    -0.148054434996E+03    0.17412E-04   -0.19742E-04 13752   0.836E-02    0.303E-02
DAV:   7    -0.148054467084E+03   -0.32088E-04   -0.35069E-05 10632   0.361E-02    0.229E-02
DAV:   8    -0.148054502217E+03   -0.35134E-04   -0.44432E-06  7616   0.124E-02    0.175E-02
DAV:   9    -0.148054556428E+03   -0.54210E-04   -0.62939E-06  8696   0.858E-03    0.840E-03
DAV:  10    -0.148054595454E+03   -0.39026E-04   -0.20964E-06  6144   0.644E-03    0.396E-03
DAV:  11    -0.148054620080E+03   -0.24626E-04   -0.97446E-07  5880   0.470E-03    0.342E-03
DAV:  12    -0.148054647220E+03   -0.27140E-04   -0.10869E-06  5712   0.341E-03    0.291E-03
DAV:  13    -0.148054670399E+03   -0.23179E-04   -0.90854E-07  5848   0.311E-03    0.220E-03
DAV:  14    -0.148054684936E+03   -0.14537E-04   -0.59604E-07  5336   0.234E-03    0.161E-03
DAV:  15    -0.148054699086E+03   -0.14150E-04   -0.65851E-07  5752   0.219E-03    0.126E-03
DAV:  16    -0.148054709387E+03   -0.10300E-04   -0.65274E-07  5496   0.196E-03    0.981E-04
DAV:  17    -0.148054715421E+03   -0.60342E-05   -0.49060E-07  5424   0.181E-03    0.861E-04
DAV:  18    -0.148054718618E+03   -0.31976E-05   -0.43421E-07  5416   0.150E-03    0.619E-04
DAV:  19    -0.148054719929E+03   -0.13102E-05   -0.28641E-07  5184   0.122E-03    0.601E-04
DAV:  20    -0.148054720564E+03   -0.63501E-06   -0.24213E-07  5256   0.104E-03
   4 F= -.15413904E+03 E0= -.15413904E+03  d E =-.121746E-01  mag=    28.0000
 trial-energy change:   -0.012175  1 .order   -0.012255   -0.017867   -0.006644
 step:   1.7346(harm=  1.6870)  dis= 0.04562  next Energy=  -154.141139 (dE=-0.143E-01)
 bond charge predicted
       N       E                     dE             d eps       ncg     rms          rms(c)
DAV:   1    -0.148053536474E+03    0.11835E-02   -0.50135E-01  8072   0.139E+00    0.452E-01
DAV:   2    -0.148056789548E+03   -0.32531E-02   -0.29540E-02 11776   0.877E-01    0.266E-01
DAV:   3    -0.148057297427E+03   -0.50788E-03   -0.17265E-03  9616   0.260E-01    0.150E-01
DAV:   4    -0.148057243212E+03    0.54214E-04   -0.23555E-04 11072   0.707E-02    0.987E-02
DAV:   5    -0.148057180877E+03    0.62335E-04   -0.18098E-04 10160   0.399E-02    0.653E-02
DAV:   6    -0.148057169132E+03    0.11745E-04   -0.78282E-05 13552   0.531E-02    0.194E-02
DAV:   7    -0.148057183273E+03   -0.14140E-04   -0.14627E-05  9600   0.216E-02    0.149E-02
DAV:   8    -0.148057200071E+03   -0.16798E-04   -0.17510E-06  5664   0.807E-03    0.110E-02
DAV:   9    -0.148057229841E+03   -0.29770E-04   -0.26897E-06  6752   0.509E-03    0.577E-03
DAV:  10    -0.148057250523E+03   -0.20682E-04   -0.14125E-06  5280   0.683E-03    0.310E-03
DAV:  11    -0.148057261583E+03   -0.11060E-04   -0.71021E-07  5392   0.426E-03    0.226E-03
DAV:  12    -0.148057273336E+03   -0.11753E-04   -0.52973E-07  5376   0.237E-03    0.195E-03
DAV:  13    -0.148057283432E+03   -0.10096E-04   -0.35157E-07  5288   0.212E-03    0.148E-03
DAV:  14    -0.148057293606E+03   -0.10174E-04   -0.36601E-07  5368   0.168E-03    0.108E-03
DAV:  15    -0.148057302483E+03   -0.88766E-05   -0.39118E-07  5512   0.157E-03    0.962E-04
DAV:  16    -0.148057307232E+03   -0.47492E-05   -0.26931E-07  5216   0.138E-03    0.699E-04
DAV:  17    -0.148057310724E+03   -0.34920E-05   -0.23236E-07  5248   0.114E-03    0.627E-04
DAV:  18    -0.148057313196E+03   -0.24724E-05   -0.24025E-07  5240   0.109E-03    0.508E-04
DAV:  19    -0.148057314376E+03   -0.11804E-05   -0.22219E-07  5320   0.997E-04    0.444E-04
DAV:  20    -0.148057314722E+03   -0.34515E-06   -0.14128E-07  5088   0.833E-04
   5 F= -.15414110E+03 E0= -.15414110E+03  d E =-.142345E-01  mag=    28.0000
 curvature:  -1.16 expect dE=-0.535E-02 dE for cont linesearch -0.401E-06
 trial: gam= 0.31800 g(F)=  0.461E-02 g(S)=  0.000E+00 ort =-0.898E-04 (trialstep = 0.119E+01)
 search vector abs. value=  0.691E-02
 bond charge predicted
       N       E                     dE             d eps       ncg     rms          rms(c)
DAV:   1    -0.148056179208E+03    0.11352E-02   -0.10546E+00  7976   0.206E+00    0.666E-01
DAV:   2    -0.148062429548E+03   -0.62503E-02   -0.36913E-02 11712   0.846E-01    0.357E-01
DAV:   3    -0.148063670600E+03   -0.12411E-02   -0.26392E-03  9376   0.319E-01    0.179E-01
DAV:   4    -0.148063647980E+03    0.22620E-04   -0.32701E-04 10424   0.751E-02    0.118E-01
DAV:   5    -0.148063657504E+03   -0.95236E-05   -0.18396E-04 10320   0.396E-02    0.783E-02
DAV:   6    -0.148063735717E+03   -0.78213E-04   -0.10418E-04 13224   0.525E-02    0.184E-02
DAV:   7    -0.148063787639E+03   -0.51923E-04   -0.16394E-05 10512   0.286E-02    0.147E-02
DAV:   8    -0.148063824570E+03   -0.36931E-04   -0.27178E-06  6080   0.681E-03    0.111E-02
DAV:   9    -0.148063864645E+03   -0.40075E-04   -0.16581E-06  5584   0.875E-03    0.618E-03
DAV:  10    -0.148063922623E+03   -0.57978E-04   -0.24939E-06  6000   0.569E-03    0.386E-03
DAV:  11    -0.148063940496E+03   -0.17872E-04   -0.94405E-07  5272   0.513E-03    0.257E-03
DAV:  12    -0.148063968422E+03   -0.27927E-04   -0.77357E-07  5152   0.322E-03    0.218E-03
DAV:  13    -0.148063996311E+03   -0.27889E-04   -0.95651E-07  5536   0.270E-03    0.154E-03
DAV:  14    -0.148064011593E+03   -0.15282E-04   -0.61725E-07  5296   0.220E-03    0.148E-03
DAV:  15    -0.148064019958E+03   -0.83650E-05   -0.34748E-07  5144   0.162E-03    0.991E-04
DAV:  16    -0.148064029966E+03   -0.10008E-04   -0.66465E-07  5408   0.183E-03    0.850E-04
DAV:  17    -0.148064033717E+03   -0.37514E-05   -0.41579E-07  5112   0.147E-03    0.699E-04
DAV:  18    -0.148064034859E+03   -0.11418E-05   -0.23667E-07  5152   0.106E-03    0.565E-04
DAV:  19    -0.148064034918E+03   -0.59326E-07   -0.15657E-07  5032   0.895E-04
   6 F= -.15414580E+03 E0= -.15414580E+03  d E =-.469633E-02  mag=    28.0000
 trial-energy change:   -0.004696  1 .order   -0.004699   -0.005472   -0.003926
 step:   4.2300(harm=  4.2300)  dis= 0.04705  next Energy=  -154.150791 (dE=-0.969E-02)
 bond charge predicted
       N       E                     dE             d eps       ncg     rms          rms(c)
DAV:   1    -0.148022632954E+03    0.41402E-01   -0.68242E+00  7904   0.524E+00    0.170E+00
DAV:   2    -0.148065405667E+03   -0.42773E-01   -0.25151E-01 11576   0.241E+00    0.966E-01
DAV:   3    -0.148072463540E+03   -0.70579E-02   -0.20806E-02  9808   0.993E-01    0.468E-01
DAV:   4    -0.148072500190E+03   -0.36650E-04   -0.29477E-03 10496   0.195E-01    0.306E-01
DAV:   5    -0.148072683604E+03   -0.18341E-03   -0.89552E-04 10552   0.781E-02    0.196E-01
DAV:   6    -0.148073166184E+03   -0.48258E-03   -0.67991E-04 11400   0.806E-02    0.473E-02
DAV:   7    -0.148073368426E+03   -0.20224E-03   -0.15114E-04  9392   0.742E-02    0.431E-02
DAV:   8    -0.148073478850E+03   -0.11042E-03   -0.17168E-05  8864   0.243E-02    0.278E-02
DAV:   9    -0.148073656060E+03   -0.17721E-03   -0.11670E-05  9552   0.154E-02    0.196E-02
DAV:  10    -0.148073838643E+03   -0.18258E-03   -0.86050E-06  8304   0.157E-02    0.710E-03
DAV:  11    -0.148073952276E+03   -0.11363E-03   -0.46608E-06  7024   0.865E-03    0.626E-03
DAV:  12    -0.148074015610E+03   -0.63334E-04   -0.24158E-06  5696   0.553E-03    0.515E-03
DAV:  13    -0.148074129819E+03   -0.11421E-03   -0.62165E-06  6456   0.801E-03    0.361E-03
DAV:  14    -0.148074186456E+03   -0.56637E-04   -0.45862E-06  6808   0.538E-03    0.275E-03
DAV:  15    -0.148074205216E+03   -0.18760E-04   -0.12036E-06  5320   0.315E-03    0.214E-03
DAV:  16    -0.148074219856E+03   -0.14641E-04   -0.13847E-06  5304   0.293E-03    0.185E-03
DAV:  17    -0.148074233794E+03   -0.13938E-04   -0.24381E-06  6072   0.322E-03    0.140E-03
DAV:  18    -0.148074236905E+03   -0.31111E-05   -0.10866E-06  5232   0.240E-03    0.130E-03
DAV:  19    -0.148074236793E+03    0.11211E-06   -0.27523E-07  5200   0.150E-03
   7 F= -.15415087E+03 E0= -.15415087E+03  d E =-.976298E-02  mag=    28.0000
 curvature:  -3.19 expect dE=-0.133E-01 dE for cont linesearch -0.264E-05
 trial: gam= 0.87266 g(F)=  0.417E-02 g(S)=  0.000E+00 ort = 0.757E-04 (trialstep = 0.130E+01)
 search vector abs. value=  0.957E-02
 bond charge predicted
       N       E                     dE             d eps       ncg     rms          rms(c)
DAV:   1    -0.148070838491E+03    0.33984E-02   -0.11752E+00  7920   0.223E+00    0.700E-01
DAV:   2    -0.148078312326E+03   -0.74738E-02   -0.61744E-02 11312   0.914E-01    0.363E-01
DAV:   3    -0.148079708632E+03   -0.13963E-02   -0.28046E-03  9808   0.326E-01    0.201E-01
DAV:   4    -0.148079604633E+03    0.10400E-03   -0.37629E-04 10528   0.901E-02    0.143E-01
DAV:   5    -0.148079488934E+03    0.11570E-03   -0.27568E-04  9976   0.418E-02    0.954E-02
DAV:   6    -0.148079431864E+03    0.57069E-04   -0.17194E-04 11200   0.389E-02    0.248E-02
DAV:   7    -0.148079487297E+03   -0.55433E-04   -0.22707E-05 10384   0.291E-02    0.165E-02
DAV:   8    -0.148079548887E+03   -0.61590E-04   -0.47083E-06  6672   0.994E-03    0.100E-02
DAV:   9    -0.148079610981E+03   -0.62094E-04   -0.21083E-06  5600   0.505E-03    0.606E-03
DAV:  10    -0.148079686162E+03   -0.75182E-04   -0.29468E-06  5976   0.485E-03    0.436E-03
DAV:  11    -0.148079734926E+03   -0.48764E-04   -0.19635E-06  5840   0.422E-03    0.315E-03
DAV:  12    -0.148079803182E+03   -0.68256E-04   -0.30904E-06  6144   0.439E-03    0.251E-03
DAV:  13    -0.148079840018E+03   -0.36836E-04   -0.15956E-06  5648   0.351E-03    0.223E-03
DAV:  14    -0.148079876568E+03   -0.36550E-04   -0.20152E-06  5624   0.323E-03    0.181E-03
DAV:  15    -0.148079907617E+03   -0.31049E-04   -0.25898E-06  6016   0.322E-03    0.164E-03
DAV:  16    -0.148079936772E+03   -0.29155E-04   -0.79732E-06  6440   0.524E-03    0.129E-03
DAV:  17    -0.148079935541E+03    0.12310E-05   -0.10898E-06  6024   0.298E-03    0.109E-03
DAV:  18    -0.148079932548E+03    0.29930E-05   -0.81408E-07  5160   0.202E-03    0.973E-04
DAV:  19    -0.148079926395E+03    0.61531E-05   -0.25833E-06  5792   0.315E-03    0.832E-04
DAV:  20    -0.148079922754E+03    0.36410E-05   -0.25576E-06  5352   0.303E-03    0.787E-04
DAV:  21    -0.148079921320E+03    0.14340E-05   -0.14277E-06  5136   0.230E-03    0.538E-04
DAV:  22    -0.148079926053E+03   -0.47326E-05   -0.10709E-06  5200   0.193E-03    0.489E-04
DAV:  23    -0.148079929414E+03   -0.33617E-05   -0.65241E-07  5056   0.154E-03    0.341E-04
DAV:  24    -0.148079934539E+03   -0.51245E-05   -0.67098E-07  5072   0.144E-03    0.350E-04
DAV:  25    -0.148079936380E+03   -0.18407E-05   -0.19032E-07  5224   0.107E-03    0.372E-04
DAV:  26    -0.148079936621E+03   -0.24101E-06   -0.29425E-08  5192   0.541E-04
   8 F= -.15415473E+03 E0= -.15415473E+03  d E =-.386046E-02  mag=    28.0000
 trial-energy change:   -0.003860  1 .order   -0.003867   -0.005518   -0.002216
 step:   2.1748(harm=  2.1748)  dis= 0.02808  next Energy=  -154.155478 (dE=-0.461E-02)
 bond charge predicted
       N       E                     dE             d eps       ncg     rms          rms(c)
DAV:   1    -0.148077825866E+03    0.21105E-02   -0.52912E-01  7920   0.149E+00    0.469E-01
DAV:   2    -0.148081101603E+03   -0.32757E-02   -0.27655E-02 11360   0.606E-01    0.242E-01
DAV:   3    -0.148081788193E+03   -0.68659E-03   -0.12408E-03  9816   0.213E-01    0.134E-01
DAV:   4    -0.148081733298E+03    0.54895E-04   -0.16535E-04 10568   0.604E-02    0.951E-02
DAV:   5    -0.148081673252E+03    0.60046E-04   -0.12430E-04 10008   0.282E-02    0.636E-02
DAV:   6    -0.148081636830E+03    0.36422E-04   -0.76844E-05 11176   0.257E-02    0.166E-02
DAV:   7    -0.148081665186E+03   -0.28356E-04   -0.93361E-06  9264   0.184E-02    0.108E-02
DAV:   8    -0.148081699822E+03   -0.34636E-04   -0.19557E-06  5328   0.738E-03    0.648E-03
DAV:   9    -0.148081735934E+03   -0.36112E-04   -0.11547E-06  5480   0.356E-03    0.403E-03
DAV:  10    -0.148081771468E+03   -0.35534E-04   -0.89133E-07  5376   0.333E-03    0.317E-03
DAV:  11    -0.148081796973E+03   -0.25505E-04   -0.66032E-07  5216   0.273E-03    0.193E-03
DAV:  12    -0.148081840092E+03   -0.43119E-04   -0.13068E-06  6016   0.294E-03    0.169E-03
DAV:  13    -0.148081857431E+03   -0.17339E-04   -0.53390E-07  5256   0.239E-03    0.119E-03
DAV:  14    -0.148081871148E+03   -0.13717E-04   -0.38040E-07  5224   0.162E-03    0.110E-03
DAV:  15    -0.148081885676E+03   -0.14529E-04   -0.45547E-07  5488   0.163E-03    0.919E-04
DAV:  16    -0.148081906108E+03   -0.20432E-04   -0.12591E-06  5776   0.225E-03    0.799E-04
DAV:  17    -0.148081913549E+03   -0.74407E-05   -0.97706E-07  5864   0.214E-03    0.687E-04
DAV:  18    -0.148081913666E+03   -0.11683E-06   -0.29346E-07  5136   0.153E-03
   9 F= -.15415547E+03 E0= -.15415547E+03  d E =-.460178E-02  mag=    28.0000
 curvature:  -2.45 expect dE=-0.443E-02 dE for cont linesearch -0.961E-09
 trial: gam= 0.46034 g(F)=  0.180E-02 g(S)=  0.000E+00 ort =-0.194E-05 (trialstep = 0.148E+01)
 search vector abs. value=  0.383E-02
 bond charge predicted
       N       E                     dE             d eps       ncg     rms          rms(c)
DAV:   1    -0.148077083960E+03    0.48296E-02   -0.97807E-01  7960   0.201E+00    0.662E-01
DAV:   2    -0.148083295497E+03   -0.62115E-02   -0.39883E-02 11416   0.721E-01    0.331E-01
DAV:   3    -0.148084297209E+03   -0.10017E-02   -0.20849E-03  9200   0.282E-01    0.177E-01
DAV:   4    -0.148084233937E+03    0.63273E-04   -0.26422E-04 10528   0.812E-02    0.125E-01
DAV:   5    -0.148084157011E+03    0.76926E-04   -0.16621E-04 10512   0.361E-02    0.904E-02
DAV:   6    -0.148084146048E+03    0.10963E-04   -0.12920E-04 11240   0.326E-02    0.215E-02
DAV:   7    -0.148084223965E+03   -0.77917E-04   -0.16984E-05  9760   0.210E-02    0.152E-02
DAV:   8    -0.148084297733E+03   -0.73768E-04   -0.34573E-06  6776   0.111E-02    0.825E-03
DAV:   9    -0.148084389176E+03   -0.91443E-04   -0.32263E-06  6368   0.577E-03    0.547E-03
DAV:  10    -0.148084454480E+03   -0.65304E-04   -0.22115E-06  6024   0.456E-03    0.361E-03
DAV:  11    -0.148084485631E+03   -0.31151E-04   -0.87708E-07  5144   0.371E-03    0.264E-03
DAV:  12    -0.148084543753E+03   -0.58123E-04   -0.19844E-06  6136   0.354E-03    0.215E-03
DAV:  13    -0.148084585553E+03   -0.41799E-04   -0.16697E-06  5808   0.318E-03    0.179E-03
DAV:  14    -0.148084620117E+03   -0.34564E-04   -0.16991E-06  5792   0.293E-03    0.162E-03
DAV:  15    -0.148084646019E+03   -0.25903E-04   -0.16802E-06  5864   0.274E-03    0.144E-03
DAV:  16    -0.148084673650E+03   -0.27631E-04   -0.44708E-06  6352   0.409E-03    0.121E-03
DAV:  17    -0.148084669363E+03    0.42876E-05   -0.42921E-06  6104   0.412E-03    0.113E-03
DAV:  18    -0.148084659878E+03    0.94841E-05   -0.23678E-06  5968   0.314E-03    0.888E-04
DAV:  19    -0.148084656030E+03    0.38482E-05   -0.99748E-07  5272   0.216E-03    0.808E-04
DAV:  20    -0.148084655124E+03    0.90664E-06   -0.79464E-07  4936   0.184E-03
  10 F= -.15415708E+03 E0= -.15415708E+03  d E =-.161140E-02  mag=    28.0000
 trial-energy change:   -0.001611  1 .order   -0.001626   -0.002661   -0.000591
 step:   1.9222(harm=  1.8978)  dis= 0.01467  next Energy=  -154.157169 (dE=-0.170E-02)
 bond charge predicted
       N       E                     dE             d eps       ncg     rms          rms(c)
DAV:   1    -0.148084389794E+03    0.26624E-03   -0.89282E-02  8232   0.609E-01    0.199E-01
DAV:   2    -0.148084938656E+03   -0.54886E-03   -0.36427E-03 11344   0.212E-01    0.994E-02
DAV:   3    -0.148085064605E+03   -0.12595E-03   -0.18424E-04  9272   0.794E-02    0.530E-02
DAV:   4    -0.148085057947E+03    0.66576E-05   -0.22579E-05 10600   0.248E-02    0.375E-02
DAV:   5    -0.148085045274E+03    0.12673E-04   -0.15205E-05  9824   0.112E-02    0.272E-02
DAV:   6    -0.148085028574E+03    0.16699E-04   -0.12099E-05  9896   0.892E-03    0.660E-03
DAV:   7    -0.148085038072E+03   -0.94978E-05   -0.14930E-06  5464   0.533E-03    0.417E-03
DAV:   8    -0.148085050214E+03   -0.12142E-04   -0.48511E-07  4912   0.439E-03    0.255E-03
DAV:   9    -0.148085061932E+03   -0.11718E-04   -0.47221E-07  5152   0.213E-03    0.214E-03
DAV:  10    -0.148085070341E+03   -0.84095E-05   -0.23599E-07  5088   0.194E-03    0.147E-03
DAV:  11    -0.148085074743E+03   -0.44020E-05   -0.12182E-07  5072   0.123E-03    0.113E-03
DAV:  12    -0.148085083977E+03   -0.92341E-05   -0.28208E-07  5168   0.131E-03    0.813E-04
DAV:  13    -0.148085090223E+03   -0.62458E-05   -0.21099E-07  5040   0.113E-03    0.660E-04
DAV:  14    -0.148085095315E+03   -0.50919E-05   -0.21988E-07  5112   0.989E-04    0.584E-04
DAV:  15    -0.148085098035E+03   -0.27197E-05   -0.11646E-07  5088   0.818E-04    0.536E-04
DAV:  16    -0.148085102534E+03   -0.44993E-05   -0.40151E-07  5400   0.133E-03    0.512E-04
DAV:  17    -0.148085104440E+03   -0.19053E-05   -0.81385E-07  5664   0.186E-03    0.479E-04
DAV:  18    -0.148085103334E+03    0.11057E-05   -0.32789E-07  5320   0.125E-03    0.389E-04
DAV:  19    -0.148085101690E+03    0.16442E-05   -0.28482E-07  5032   0.115E-03    0.312E-04
DAV:  20    -0.148085101150E+03    0.53974E-06   -0.16868E-07  5256   0.890E-04
  11 F= -.15415718E+03 E0= -.15415718E+03  d E =-.171586E-02  mag=    28.0000
 curvature:  -2.01 expect dE=-0.153E-02 dE for cont linesearch -0.361E-06
 trial: gam= 0.42373 g(F)=  0.760E-03 g(S)=  0.000E+00 ort =-0.262E-04 (trialstep = 0.157E+01)
 search vector abs. value=  0.143E-02
 bond charge predicted
       N       E                     dE             d eps       ncg     rms          rms(c)
DAV:   1    -0.148083877194E+03    0.12245E-02   -0.28910E-01  7968   0.111E+00    0.347E-01
DAV:   2    -0.148085773910E+03   -0.18967E-02   -0.16163E-02 11192   0.464E-01    0.178E-01
DAV:   3    -0.148086243496E+03   -0.46959E-03   -0.65512E-04  9720   0.160E-01    0.102E-01
DAV:   4    -0.148086228002E+03    0.15493E-04   -0.73966E-05 10808   0.488E-02    0.723E-02
DAV:   5    -0.148086229037E+03   -0.10344E-05   -0.63013E-05 10576   0.203E-02    0.506E-02
DAV:   6    -0.148086258732E+03   -0.29696E-04   -0.51654E-05 10904   0.195E-02    0.145E-02
DAV:   7    -0.148086269364E+03   -0.10632E-04   -0.58416E-06  8760   0.917E-03    0.643E-03
DAV:   8    -0.148086274117E+03   -0.47528E-05   -0.10239E-06  5176   0.431E-03    0.501E-03
DAV:   9    -0.148086277800E+03   -0.36830E-05   -0.54436E-07  5096   0.291E-03    0.342E-03
DAV:  10    -0.148086283059E+03   -0.52591E-05   -0.68979E-07  4960   0.250E-03    0.191E-03
DAV:  11    -0.148086288079E+03   -0.50201E-05   -0.80484E-07  5336   0.246E-03    0.159E-03
DAV:  12    -0.148086290844E+03   -0.27652E-05   -0.39512E-07  5200   0.197E-03    0.122E-03
DAV:  13    -0.148086293336E+03   -0.24922E-05   -0.32288E-07  4992   0.156E-03    0.106E-03
DAV:  14    -0.148086296201E+03   -0.28650E-05   -0.55242E-07  5120   0.156E-03    0.865E-04
DAV:  15    -0.148086299074E+03   -0.28729E-05   -0.11874E-06  5576   0.201E-03    0.838E-04
DAV:  16    -0.148086300205E+03   -0.11310E-05   -0.84508E-07  5088   0.179E-03    0.692E-04
DAV:  17    -0.148086300478E+03   -0.27236E-06   -0.58110E-07  5248   0.146E-03
  12 F= -.15415807E+03 E0= -.15415807E+03  d E =-.882066E-03  mag=    28.0000
 trial-energy change:   -0.000882  1 .order   -0.000875   -0.001172   -0.000578
 step:   2.9091(harm=  3.0892)  dis= 0.01029  next Energy=  -154.158320 (dE=-0.113E-02)
 bond charge predicted
       N       E                     dE             d eps       ncg     rms          rms(c)
DAV:   1    -0.148085068683E+03    0.12315E-02   -0.21302E-01  8184   0.950E-01    0.298E-01
DAV:   2    -0.148086446857E+03   -0.13782E-02   -0.11916E-02 11104   0.398E-01    0.153E-01
DAV:   3    -0.148086810836E+03   -0.36398E-03   -0.48113E-04  9728   0.137E-01    0.874E-02
DAV:   4    -0.148086799659E+03    0.11177E-04   -0.54272E-05 10824   0.418E-02    0.620E-02
DAV:   5    -0.148086800089E+03   -0.43027E-06   -0.46757E-05 10448   0.175E-02    0.433E-02
DAV:   6    -0.148086822807E+03   -0.22717E-04   -0.38715E-05 10920   0.168E-02    0.124E-02
DAV:   7    -0.148086830934E+03   -0.81270E-05   -0.41796E-06  7600   0.788E-03    0.543E-03
DAV:   8    -0.148086834654E+03   -0.37206E-05   -0.11169E-06  5216   0.461E-03    0.442E-03
DAV:   9    -0.148086837296E+03   -0.26420E-05   -0.59863E-07  5120   0.294E-03    0.311E-03
DAV:  10    -0.148086840536E+03   -0.32393E-05   -0.52019E-07  5032   0.232E-03    0.204E-03
DAV:  11    -0.148086844623E+03   -0.40869E-05   -0.79664E-07  4984   0.233E-03    0.145E-03
DAV:  12    -0.148086847354E+03   -0.27312E-05   -0.66349E-07  5192   0.191E-03    0.117E-03
DAV:  13    -0.148086848902E+03   -0.15485E-05   -0.29608E-07  5112   0.143E-03    0.108E-03
DAV:  14    -0.148086850301E+03   -0.13987E-05   -0.30721E-07  5032   0.121E-03    0.918E-04
DAV:  15    -0.148086852565E+03   -0.22637E-05   -0.12143E-06  5008   0.216E-03    0.793E-04
DAV:  16    -0.148086853673E+03   -0.11082E-05   -0.24706E-06  5824   0.293E-03    0.719E-04
DAV:  17    -0.148086853588E+03    0.84767E-07   -0.62668E-07  5176   0.176E-03
  13 F= -.15415835E+03 E0= -.15415835E+03  d E =-.116172E-02  mag=    28.0000
 curvature:  -2.90 expect dE=-0.180E-02 dE for cont linesearch -0.342E-05
 trial: gam= 0.74091 g(F)=  0.621E-03 g(S)=  0.000E+00 ort = 0.410E-04 (trialstep = 0.178E+01)
 search vector abs. value=  0.146E-02
 bond charge predicted
       N       E                     dE             d eps       ncg     rms          rms(c)
DAV:   1    -0.148084415491E+03    0.24382E-02   -0.48061E-01  8016   0.143E+00    0.442E-01
DAV:   2    -0.148087646540E+03   -0.32310E-02   -0.24109E-02 11288   0.537E-01    0.218E-01
DAV:   3    -0.148088426369E+03   -0.77983E-03   -0.94244E-04  9640   0.169E-01    0.115E-01
DAV:   4    -0.148088406458E+03    0.19911E-04   -0.10211E-04 10952   0.494E-02    0.823E-02
DAV:   5    -0.148088409880E+03   -0.34219E-05   -0.89909E-05 10424   0.261E-02    0.586E-02
DAV:   6    -0.148088435269E+03   -0.25389E-04   -0.69247E-05 10872   0.220E-02    0.140E-02
DAV:   7    -0.148088454535E+03   -0.19266E-04   -0.81671E-06  9048   0.100E-02    0.905E-03
DAV:   8    -0.148088469466E+03   -0.14931E-04   -0.11828E-06  5328   0.658E-03    0.578E-03
DAV:   9    -0.148088484037E+03   -0.14571E-04   -0.10238E-06  5232   0.370E-03    0.374E-03
DAV:  10    -0.148088499553E+03   -0.15517E-04   -0.10932E-06  5360   0.330E-03    0.254E-03
DAV:  11    -0.148088508668E+03   -0.91151E-05   -0.68036E-07  5120   0.304E-03    0.175E-03
DAV:  12    -0.148088517049E+03   -0.83803E-05   -0.57805E-07  5128   0.243E-03    0.148E-03
DAV:  13    -0.148088521741E+03   -0.46928E-05   -0.32239E-07  5128   0.174E-03    0.120E-03
DAV:  14    -0.148088527600E+03   -0.58588E-05   -0.40812E-07  4968   0.153E-03    0.102E-03
DAV:  15    -0.148088535983E+03   -0.83830E-05   -0.12145E-06  5784   0.215E-03    0.903E-04
DAV:  16    -0.148088539834E+03   -0.38511E-05   -0.69894E-07  5208   0.184E-03    0.832E-04
DAV:  17    -0.148088541319E+03   -0.14850E-05   -0.55686E-07  5040   0.157E-03    0.715E-04
DAV:  18    -0.148088540961E+03    0.35823E-06   -0.13636E-06  5680   0.226E-03
  14 F= -.15415914E+03 E0= -.15415914E+03  d E =-.793188E-03  mag=    28.0000
 trial-energy change:   -0.000793  1 .order   -0.000792   -0.001163   -0.000421
 step:   2.7982(harm=  2.7982)  dis= 0.00876  next Energy=  -154.159259 (dE=-0.912E-03)
 bond charge predicted
       N       E                     dE             d eps       ncg     rms          rms(c)
DAV:   1    -0.148087839956E+03    0.70136E-03   -0.15500E-01  8296   0.813E-01    0.251E-01
DAV:   2    -0.148088829611E+03   -0.98966E-03   -0.77699E-03 11336   0.303E-01    0.123E-01
DAV:   3    -0.148089127554E+03   -0.29794E-03   -0.30149E-04  9616   0.944E-02    0.650E-02
DAV:   4    -0.148089121470E+03    0.60845E-05   -0.32231E-05 10984   0.281E-02    0.467E-02
DAV:   5    -0.148089123778E+03   -0.23078E-05   -0.29114E-05 10248   0.148E-02    0.333E-02
DAV:   6    -0.148089130460E+03   -0.66819E-05   -0.22404E-05 10480   0.123E-02    0.807E-03
DAV:   7    -0.148089138167E+03   -0.77079E-05   -0.24186E-06  6184   0.571E-03    0.466E-03
DAV:   8    -0.148089144885E+03   -0.67179E-05   -0.65185E-07  5088   0.455E-03    0.341E-03
DAV:   9    -0.148089150372E+03   -0.54866E-05   -0.54195E-07  5040   0.268E-03    0.241E-03
DAV:  10    -0.148089154728E+03   -0.43564E-05   -0.29170E-07  4992   0.204E-03    0.174E-03
DAV:  11    -0.148089158404E+03   -0.36753E-05   -0.21461E-07  5000   0.157E-03    0.122E-03
DAV:  12    -0.148089163530E+03   -0.51269E-05   -0.37001E-07  4912   0.166E-03    0.835E-04
DAV:  13    -0.148089165776E+03   -0.22452E-05   -0.17233E-07  5104   0.115E-03    0.770E-04
DAV:  14    -0.148089167309E+03   -0.15334E-05   -0.97449E-08  5016   0.878E-04    0.629E-04
DAV:  15    -0.148089170258E+03   -0.29485E-05   -0.33390E-07  4976   0.125E-03    0.560E-04
DAV:  16    -0.148089172692E+03   -0.24348E-05   -0.59178E-07  5400   0.158E-03    0.552E-04
DAV:  17    -0.148089173158E+03   -0.46566E-06   -0.37294E-07  5000   0.126E-03
  15 F= -.15415926E+03 E0= -.15415926E+03  d E =-.916793E-03  mag=    28.0000
 curvature:  -3.14 expect dE=-0.159E-02 dE for cont linesearch -0.324E-07
 trial: gam= 0.89923 g(F)=  0.507E-03 g(S)=  0.000E+00 ort = 0.389E-05 (trialstep = 0.171E+01)
 search vector abs. value=  0.170E-02
 bond charge predicted
       N       E                     dE             d eps       ncg     rms          rms(c)
DAV:   1    -0.148087368198E+03    0.18045E-02   -0.40837E-01  8120   0.129E+00    0.387E-01
DAV:   2    -0.148090328517E+03   -0.29603E-02   -0.27757E-02 11272   0.571E-01    0.197E-01
DAV:   3    -0.148090641110E+03   -0.31259E-03   -0.63916E-04 10632   0.132E-01    0.115E-01
DAV:   4    -0.148090611505E+03    0.29605E-04   -0.79895E-05 11728   0.376E-02    0.860E-02
DAV:   5    -0.148090596748E+03    0.14756E-04   -0.90273E-05  9248   0.232E-02    0.558E-02
DAV:   6    -0.148090615519E+03   -0.18771E-04   -0.69641E-05 11200   0.218E-02    0.155E-02
DAV:   7    -0.148090621135E+03   -0.56154E-05   -0.50598E-06  8664   0.103E-02    0.738E-03
DAV:   8    -0.148090624670E+03   -0.35356E-05   -0.11802E-06  5336   0.609E-03    0.473E-03
DAV:   9    -0.148090628065E+03   -0.33946E-05   -0.60092E-07  4928   0.300E-03    0.314E-03
DAV:  10    -0.148090630853E+03   -0.27881E-05   -0.35113E-07  4960   0.221E-03    0.214E-03
DAV:  11    -0.148090633267E+03   -0.24144E-05   -0.34304E-07  4968   0.184E-03    0.145E-03
DAV:  12    -0.148090635581E+03   -0.23135E-05   -0.40203E-07  4992   0.184E-03    0.105E-03
DAV:  13    -0.148090637291E+03   -0.17101E-05   -0.36632E-07  5144   0.155E-03    0.899E-04
DAV:  14    -0.148090638020E+03   -0.72894E-06   -0.12111E-07  5080   0.112E-03
  16 F= -.15415985E+03 E0= -.15415985E+03  d E =-.590705E-03  mag=    28.0000
 trial-energy change:   -0.000591  1 .order   -0.000595   -0.000874   -0.000315
 step:   2.6795(harm=  2.6795)  dis= 0.00754  next Energy=  -154.159947 (dE=-0.683E-03)
 reached required accuracy - stopping structural energy minimisation
Note: The following floating-point exceptions are signalling: IEEE_OVERFLOW_FLAG IEEE_UNDERFLOW_FLAG IEEE_DENORMAL
Note: The following floating-point exceptions are signalling: IEEE_OVERFLOW_FLAG IEEE_UNDERFLOW_FLAG IEEE_DENORMAL
Note: The following floating-point exceptions are signalling: IEEE_OVERFLOW_FLAG IEEE_UNDERFLOW_FLAG IEEE_DENORMAL
Note: The following floating-point exceptions are signalling: IEEE_OVERFLOW_FLAG IEEE_UNDERFLOW_FLAG IEEE_DENORMAL
Note: The following floating-point exceptions are signalling: IEEE_OVERFLOW_FLAG IEEE_UNDERFLOW_FLAG IEEE_DENORMAL
Note: The following floating-point exceptions are signalling: IEEE_OVERFLOW_FLAG IEEE_UNDERFLOW_FLAG IEEE_DENORMAL
Note: The following floating-point exceptions are signalling: IEEE_OVERFLOW_FLAG IEEE_UNDERFLOW_FLAG IEEE_DENORMAL
Note: The following floating-point exceptions are signalling: IEEE_OVERFLOW_FLAG IEEE_UNDERFLOW_FLAG IEEE_DENORMAL
Note: The following floating-point exceptions are signalling: IEEE_OVERFLOW_FLAG IEEE_UNDERFLOW_FLAG IEEE_DENORMAL
Note: The following floating-point exceptions are signalling: IEEE_OVERFLOW_FLAG IEEE_UNDERFLOW_FLAG IEEE_DENORMAL
Note: The following floating-point exceptions are signalling: IEEE_OVERFLOW_FLAG IEEE_UNDERFLOW_FLAG IEEE_DENORMAL
Note: The following floating-point exceptions are signalling: IEEE_OVERFLOW_FLAG IEEE_UNDERFLOW_FLAG IEEE_DENORMAL
Note: The following floating-point exceptions are signalling: IEEE_OVERFLOW_FLAG IEEE_UNDERFLOW_FLAG IEEE_DENORMAL
Note: The following floating-point exceptions are signalling: IEEE_OVERFLOW_FLAG IEEE_UNDERFLOW_FLAG IEEE_DENORMAL
Note: The following floating-point exceptions are signalling: IEEE_OVERFLOW_FLAG IEEE_UNDERFLOW_FLAG IEEE_DENORMAL
Note: The following floating-point exceptions are signalling: IEEE_OVERFLOW_FLAG IEEE_UNDERFLOW_FLAG IEEE_DENORMAL
Note: The following floating-point exceptions are signalling: IEEE_OVERFLOW_FLAG IEEE_UNDERFLOW_FLAG IEEE_DENORMAL
Note: The following floating-point exceptions are signalling: IEEE_OVERFLOW_FLAG IEEE_UNDERFLOW_FLAG IEEE_DENORMAL
Note: The following floating-point exceptions are signalling: IEEE_OVERFLOW_FLAG IEEE_UNDERFLOW_FLAG IEEE_DENORMAL
Note: The following floating-point exceptions are signalling: IEEE_OVERFLOW_FLAG IEEE_UNDERFLOW_FLAG IEEE_DENORMAL
Note: The following floating-point exceptions are signalling: IEEE_OVERFLOW_FLAG IEEE_UNDERFLOW_FLAG IEEE_DENORMAL
Note: The following floating-point exceptions are signalling: IEEE_OVERFLOW_FLAG IEEE_UNDERFLOW_FLAG IEEE_DENORMAL
Note: The following floating-point exceptions are signalling: IEEE_OVERFLOW_FLAG IEEE_UNDERFLOW_FLAG IEEE_DENORMAL
Note: The following floating-point exceptions are signalling: IEEE_OVERFLOW_FLAG IEEE_UNDERFLOW_FLAG IEEE_DENORMAL
Note: The following floating-point exceptions are signalling: IEEE_OVERFLOW_FLAG IEEE_UNDERFLOW_FLAG IEEE_DENORMAL
Note: The following floating-point exceptions are signalling: IEEE_OVERFLOW_FLAG IEEE_UNDERFLOW_FLAG IEEE_DENORMAL
Note: The following floating-point exceptions are signalling: IEEE_OVERFLOW_FLAG IEEE_UNDERFLOW_FLAG IEEE_DENORMAL
Note: The following floating-point exceptions are signalling: IEEE_OVERFLOW_FLAG IEEE_UNDERFLOW_FLAG IEEE_DENORMAL
Note: The following floating-point exceptions are signalling: IEEE_OVERFLOW_FLAG IEEE_UNDERFLOW_FLAG IEEE_DENORMAL
Note: The following floating-point exceptions are signalling: IEEE_OVERFLOW_FLAG IEEE_UNDERFLOW_FLAG IEEE_DENORMAL
Note: The following floating-point exceptions are signalling: IEEE_OVERFLOW_FLAG IEEE_UNDERFLOW_FLAG IEEE_DENORMAL
Note: The following floating-point exceptions are signalling: IEEE_OVERFLOW_FLAG IEEE_UNDERFLOW_FLAG IEEE_DENORMAL
