Isolated H2 molecule in 15A cubic box   
   1.00000000000000     
    15.0000000000000000    0.0000000000000000    0.0000000000000000
     0.0000000000000000   15.0000000000000000    0.0000000000000000
     0.0000000000000000    0.0000000000000000   15.0000000000000000
   H 
     2
Direct
     0.5000000000000000    0.5000000000000000    0.4749679029539623
     0.5000000000000000    0.5000000000000000    0.5250320970460377
 
  0.00000000E+00  0.00000000E+00  0.00000000E+00
  0.00000000E+00  0.00000000E+00  0.00000000E+00
