CrCl3 3x3 Clean Substrate (D3, U=0) (a=1
   1.0000000000000000     
    18.1388234955739875    0.0000000000000000    0.0000000000000000
    -9.0694117477869938   15.7086819419291253    0.0000000000000000
     0.0000000000000000    0.0000000000000000   20.0000000000000000
   Cr   Cl
    18    54
Direct
  0.1111111111111143  0.2222222222222214  0.5000000000000000
  0.2222222222222214  0.1111111111111143  0.5000000000000000
  0.1111111111111143  0.5555555555555571  0.5000000000000000
  0.2222222222222214  0.4444444444444429  0.5000000000000000
  0.1111111111111143  0.8888888888888857  0.5000000000000000
  0.2222222222222214  0.7777777777777786  0.5000000000000000
  0.4444444444444429  0.2222222222222214  0.5000000000000000
  0.5555555555555571  0.1111111111111143  0.5000000000000000
  0.4444444444444429  0.5555555555555571  0.5000000000000000
  0.5555555555555571  0.4444444444444429  0.5000000000000000
  0.4444444444444429  0.8888888888888857  0.5000000000000000
  0.5555555555555571  0.7777777777777786  0.5000000000000000
  0.7777777777777786  0.2222222222222214  0.5000000000000000
  0.8888888888888857  0.1111111111111143  0.5000000000000000
  0.7777777777777786  0.5555555555555571  0.5000000000000000
  0.8888888888888857  0.4444444444444429  0.5000000000000000
  0.7777777777777786  0.8888888888888857  0.5000000000000000
  0.8888888888888857  0.7777777777777786  0.5000000000000000
  0.1196137233743254  0.3333333333333357  0.4336352363692026
  0.3333333333333357  0.1196137233743254  0.4336352363692026
  0.2137196099590103  0.2137196099590103  0.4336352363692026
  0.2137196099590103  0.3333333333333357  0.5663647636307974
 -0.0000000000000000  0.2137196099590103  0.5663647636307974
  0.1196137233743254  0.1196137233743254  0.5663647636307974
  0.1196137233743254  0.6666666666666643  0.4336352363692026
  0.3333333333333357  0.4529470567076611  0.4336352363692026
  0.2137196099590103  0.5470529432923390  0.4336352363692026
  0.2137196099590103  0.6666666666666643  0.5663647636307974
 -0.0000000000000000  0.5470529432923390  0.5663647636307974
  0.1196137233743254  0.4529470567076611  0.5663647636307974
  0.1196137233743254  0.0000000000000000  0.4336352363692026
  0.3333333333333357  0.7862803900409896  0.4336352363692026
  0.2137196099590103  0.8803862766256747  0.4336352363692026
  0.2137196099590103  0.0000000000000000  0.5663647636307974
 -0.0000000000000000  0.8803862766256747  0.5663647636307974
  0.1196137233743254  0.7862803900409896  0.5663647636307974
  0.4529470567076611  0.3333333333333357  0.4336352363692026
  0.6666666666666643  0.1196137233743254  0.4336352363692026
  0.5470529432923390  0.2137196099590103  0.4336352363692026
  0.5470529432923390  0.3333333333333357  0.5663647636307974
  0.3333333333333357  0.2137196099590103  0.5663647636307974
  0.4529470567076611  0.1196137233743254  0.5663647636307974
  0.4529470567076611  0.6666666666666643  0.4336352363692026
  0.6666666666666643  0.4529470567076611  0.4336352363692026
  0.5470529432923390  0.5470529432923390  0.4336352363692026
  0.5470529432923390  0.6666666666666643  0.5663647636307974
  0.3333333333333357  0.5470529432923390  0.5663647636307974
  0.4529470567076611  0.4529470567076611  0.5663647636307974
  0.4529470567076611  0.0000000000000000  0.4336352363692026
  0.6666666666666643  0.7862803900409896  0.4336352363692026
  0.5470529432923390  0.8803862766256747  0.4336352363692026
  0.5470529432923390  0.0000000000000000  0.5663647636307974
  0.3333333333333357  0.8803862766256747  0.5663647636307974
  0.4529470567076611  0.7862803900409896  0.5663647636307974
  0.7862803900409896  0.3333333333333357  0.4336352363692026
  0.0000000000000000  0.1196137233743254  0.4336352363692026
  0.8803862766256747  0.2137196099590103  0.4336352363692026
  0.8803862766256747  0.3333333333333357  0.5663647636307974
  0.6666666666666643  0.2137196099590103  0.5663647636307974
  0.7862803900409896  0.1196137233743254  0.5663647636307974
  0.7862803900409896  0.6666666666666643  0.4336352363692026
  0.0000000000000000  0.4529470567076611  0.4336352363692026
  0.8803862766256747  0.5470529432923390  0.4336352363692026
  0.8803862766256747  0.6666666666666643  0.5663647636307974
  0.6666666666666643  0.5470529432923390  0.5663647636307974
  0.7862803900409896  0.4529470567076611  0.5663647636307974
  0.7862803900409896  0.0000000000000000  0.4336352363692026
  0.0000000000000000  0.7862803900409896  0.4336352363692026
  0.8803862766256747  0.8803862766256747  0.4336352363692026
  0.8803862766256747  0.0000000000000000  0.5663647636307974
  0.6666666666666643  0.8803862766256747  0.5663647636307974
  0.7862803900409896  0.7862803900409896  0.5663647636307974

  0.00000000E+00  0.00000000E+00  0.00000000E+00
  0.00000000E+00  0.00000000E+00  0.00000000E+00
  0.00000000E+00  0.00000000E+00  0.00000000E+00
  0.00000000E+00  0.00000000E+00  0.00000000E+00
  0.00000000E+00  0.00000000E+00  0.00000000E+00
  0.00000000E+00  0.00000000E+00  0.00000000E+00
  0.00000000E+00  0.00000000E+00  0.00000000E+00
  0.00000000E+00  0.00000000E+00  0.00000000E+00
  0.00000000E+00  0.00000000E+00  0.00000000E+00
  0.00000000E+00  0.00000000E+00  0.00000000E+00
  0.00000000E+00  0.00000000E+00  0.00000000E+00
  0.00000000E+00  0.00000000E+00  0.00000000E+00
  0.00000000E+00  0.00000000E+00  0.00000000E+00
  0.00000000E+00  0.00000000E+00  0.00000000E+00
  0.00000000E+00  0.00000000E+00  0.00000000E+00
  0.00000000E+00  0.00000000E+00  0.00000000E+00
  0.00000000E+00  0.00000000E+00  0.00000000E+00
  0.00000000E+00  0.00000000E+00  0.00000000E+00
  0.00000000E+00  0.00000000E+00  0.00000000E+00
  0.00000000E+00  0.00000000E+00  0.00000000E+00
  0.00000000E+00  0.00000000E+00  0.00000000E+00
  0.00000000E+00  0.00000000E+00  0.00000000E+00
  0.00000000E+00  0.00000000E+00  0.00000000E+00
  0.00000000E+00  0.00000000E+00  0.00000000E+00
  0.00000000E+00  0.00000000E+00  0.00000000E+00
  0.00000000E+00  0.00000000E+00  0.00000000E+00
  0.00000000E+00  0.00000000E+00  0.00000000E+00
  0.00000000E+00  0.00000000E+00  0.00000000E+00
  0.00000000E+00  0.00000000E+00  0.00000000E+00
  0.00000000E+00  0.00000000E+00  0.00000000E+00
  0.00000000E+00  0.00000000E+00  0.00000000E+00
  0.00000000E+00  0.00000000E+00  0.00000000E+00
  0.00000000E+00  0.00000000E+00  0.00000000E+00
  0.00000000E+00  0.00000000E+00  0.00000000E+00
  0.00000000E+00  0.00000000E+00  0.00000000E+00
  0.00000000E+00  0.00000000E+00  0.00000000E+00
  0.00000000E+00  0.00000000E+00  0.00000000E+00
  0.00000000E+00  0.00000000E+00  0.00000000E+00
  0.00000000E+00  0.00000000E+00  0.00000000E+00
  0.00000000E+00  0.00000000E+00  0.00000000E+00
  0.00000000E+00  0.00000000E+00  0.00000000E+00
  0.00000000E+00  0.00000000E+00  0.00000000E+00
  0.00000000E+00  0.00000000E+00  0.00000000E+00
  0.00000000E+00  0.00000000E+00  0.00000000E+00
  0.00000000E+00  0.00000000E+00  0.00000000E+00
  0.00000000E+00  0.00000000E+00  0.00000000E+00
  0.00000000E+00  0.00000000E+00  0.00000000E+00
  0.00000000E+00  0.00000000E+00  0.00000000E+00
  0.00000000E+00  0.00000000E+00  0.00000000E+00
  0.00000000E+00  0.00000000E+00  0.00000000E+00
  0.00000000E+00  0.00000000E+00  0.00000000E+00
  0.00000000E+00  0.00000000E+00  0.00000000E+00
  0.00000000E+00  0.00000000E+00  0.00000000E+00
  0.00000000E+00  0.00000000E+00  0.00000000E+00
  0.00000000E+00  0.00000000E+00  0.00000000E+00
  0.00000000E+00  0.00000000E+00  0.00000000E+00
  0.00000000E+00  0.00000000E+00  0.00000000E+00
  0.00000000E+00  0.00000000E+00  0.00000000E+00
  0.00000000E+00  0.00000000E+00  0.00000000E+00
  0.00000000E+00  0.00000000E+00  0.00000000E+00
  0.00000000E+00  0.00000000E+00  0.00000000E+00
  0.00000000E+00  0.00000000E+00  0.00000000E+00
  0.00000000E+00  0.00000000E+00  0.00000000E+00
  0.00000000E+00  0.00000000E+00  0.00000000E+00
  0.00000000E+00  0.00000000E+00  0.00000000E+00
  0.00000000E+00  0.00000000E+00  0.00000000E+00
  0.00000000E+00  0.00000000E+00  0.00000000E+00
  0.00000000E+00  0.00000000E+00  0.00000000E+00
  0.00000000E+00  0.00000000E+00  0.00000000E+00
  0.00000000E+00  0.00000000E+00  0.00000000E+00
  0.00000000E+00  0.00000000E+00  0.00000000E+00
  0.00000000E+00  0.00000000E+00  0.00000000E+00
