       N       E                     dE             d eps       ncg     rms          rms(c)
DAV:   1     0.465429895117E+04    0.46543E+04   -0.13848E+05  6584   0.928E+02
DAV:   2     0.948389173763E+03   -0.37059E+04   -0.34368E+04  7640   0.250E+02
DAV:   3    -0.274462719448E+03   -0.12229E+04   -0.11793E+04  9336   0.141E+02
DAV:   4    -0.386863368186E+03   -0.11240E+03   -0.11062E+03  9872   0.596E+01
DAV:   5    -0.389195025470E+03   -0.23317E+01   -0.22737E+01 10000   0.119E+01    0.612E+01
DAV:   6    -0.365469701539E+03    0.23725E+02   -0.33157E+02  9384   0.630E+01    0.626E+01
DAV:   7    -0.350937938359E+03    0.14532E+02   -0.52721E+01  9344   0.564E+01    0.299E+01
DAV:   8    -0.352056361225E+03   -0.11184E+01   -0.12770E+01  8232   0.576E+00    0.138E+01
DAV:   9    -0.351463906928E+03    0.59245E+00   -0.26035E+00  9424   0.851E+00    0.425E+00
DAV:  10    -0.351478816630E+03   -0.14910E-01   -0.56211E-01  9368   0.250E+00    0.199E+00
DAV:  11    -0.351508482112E+03   -0.29665E-01   -0.35916E-02  9128   0.832E-01    0.816E-01
DAV:  12    -0.351559430084E+03   -0.50948E-01   -0.17103E-02  8984   0.320E-01    0.434E-01
DAV:  13    -0.351587560470E+03   -0.28130E-01   -0.19437E-03  8680   0.115E-01    0.173E-01
DAV:  14    -0.351605011759E+03   -0.17451E-01   -0.55073E-04  8584   0.491E-02    0.119E-01
DAV:  15    -0.351622120021E+03   -0.17108E-01   -0.34332E-04  8072   0.292E-02    0.569E-02
DAV:  16    -0.351633884621E+03   -0.11765E-01   -0.26054E-04  9192   0.498E-02    0.479E-02
DAV:  17    -0.351637266181E+03   -0.33816E-02   -0.44810E-05  8072   0.150E-02    0.314E-02
DAV:  18    -0.351644977241E+03   -0.77111E-02   -0.24524E-04  6664   0.196E-02    0.311E-02
DAV:  19    -0.351646009488E+03   -0.10322E-02   -0.35760E-05  8024   0.120E-02    0.128E-02
DAV:  20    -0.351646160574E+03   -0.15109E-03   -0.11684E-05  7704   0.654E-03    0.688E-03
DAV:  21    -0.351646390213E+03   -0.22964E-03   -0.34543E-06  5528   0.403E-03    0.507E-03
DAV:  22    -0.351646554587E+03   -0.16437E-03   -0.29184E-06  5432   0.218E-03    0.247E-03
DAV:  23    -0.351646636846E+03   -0.82259E-04   -0.10675E-06  4944   0.172E-03    0.203E-03
DAV:  24    -0.351646708021E+03   -0.71175E-04   -0.19103E-06  5136   0.193E-03    0.242E-03
DAV:  25    -0.351646734821E+03   -0.26800E-04   -0.50955E-07  4408   0.204E-03    0.112E-03
DAV:  26    -0.351646749838E+03   -0.15016E-04   -0.22660E-07  3736   0.877E-04    0.107E-03
DAV:  27    -0.351646777627E+03   -0.27790E-04   -0.38079E-07  4160   0.987E-04    0.892E-04
DAV:  28    -0.351646790889E+03   -0.13262E-04   -0.35444E-07  3944   0.781E-04    0.768E-04
DAV:  29    -0.351646795288E+03   -0.43987E-05   -0.14997E-07  3536   0.661E-04    0.448E-04
DAV:  30    -0.351646797740E+03   -0.24523E-05   -0.11524E-07  3520   0.549E-04    0.538E-04
DAV:  31    -0.351646799319E+03   -0.15785E-05   -0.74727E-08  3456   0.429E-04    0.220E-04
DAV:  32    -0.351646800419E+03   -0.11002E-05   -0.32390E-08  3552   0.321E-04    0.241E-04
DAV:  33    -0.351646801878E+03   -0.14593E-05   -0.23331E-08  3544   0.226E-04    0.115E-04
DAV:  34    -0.351646802807E+03   -0.92860E-06   -0.12205E-08  3496   0.202E-04
   1 F= -.36472642E+03 E0= -.36472642E+03  d E =-.364726E+03  mag=    54.0000
       N       E                     dE             d eps       ncg     rms          rms(c)
DAV:   1    -0.351640099813E+03    0.67021E-02   -0.87805E-01  6496   0.125E+00    0.639E-01
DAV:   2    -0.351645848055E+03   -0.57482E-02   -0.67957E-02  8992   0.691E-01    0.398E-01
DAV:   3    -0.351645521318E+03    0.32674E-03   -0.17357E-03  8560   0.197E-01    0.239E-01
DAV:   4    -0.351645431732E+03    0.89586E-04   -0.19016E-04  9368   0.528E-02    0.197E-01
DAV:   5    -0.351645361171E+03    0.70561E-04   -0.42028E-04  7240   0.316E-02    0.108E-01
DAV:   6    -0.351645380940E+03   -0.19768E-04   -0.13102E-04  8928   0.472E-02    0.230E-02
DAV:   7    -0.351645394666E+03   -0.13727E-04   -0.12755E-05  7112   0.718E-03    0.185E-02
DAV:   8    -0.351645403648E+03   -0.89818E-05   -0.11936E-06  3512   0.314E-03    0.179E-02
DAV:   9    -0.351645416534E+03   -0.12886E-04   -0.25169E-06  3928   0.302E-03    0.790E-03
DAV:  10    -0.351645422901E+03   -0.63666E-05   -0.73450E-07  3544   0.227E-03    0.659E-03
DAV:  11    -0.351645427575E+03   -0.46740E-05   -0.47695E-07  3632   0.218E-03    0.268E-03
DAV:  12    -0.351645433883E+03   -0.63080E-05   -0.33072E-07  3552   0.125E-03    0.153E-03
DAV:  13    -0.351645435567E+03   -0.16849E-05   -0.11212E-07  3640   0.113E-03    0.628E-04
DAV:  14    -0.351645440459E+03   -0.48913E-05   -0.51421E-08  3544   0.533E-04    0.270E-04
DAV:  15    -0.351645442749E+03   -0.22905E-05   -0.20488E-08  3552   0.423E-04    0.314E-04
DAV:  16    -0.351645444023E+03   -0.12741E-05   -0.84609E-09  3584   0.237E-04    0.215E-04
DAV:  17    -0.351645447109E+03   -0.30855E-05   -0.11613E-08  3520   0.214E-04    0.125E-04
DAV:  18    -0.351645448470E+03   -0.13609E-05   -0.10137E-08  3536   0.195E-04    0.118E-04
DAV:  19    -0.351645448474E+03   -0.42419E-08   -0.23535E-09  3544   0.151E-04
   2 F= -.36473417E+03 E0= -.36473417E+03  d E =-.774965E-02  mag=    54.0000
       N       E                     dE             d eps       ncg     rms          rms(c)
DAV:   1    -0.351628056329E+03    0.17392E-01   -0.16337E+00  6480   0.171E+00    0.875E-01
DAV:   2    -0.351638768180E+03   -0.10712E-01   -0.12656E-01  8968   0.942E-01    0.542E-01
DAV:   3    -0.351638147660E+03    0.62052E-03   -0.32448E-03  8560   0.269E-01    0.328E-01
DAV:   4    -0.351637986125E+03    0.16154E-03   -0.35474E-04  9360   0.725E-02    0.269E-01
DAV:   5    -0.351637852267E+03    0.13386E-03   -0.78184E-04  7208   0.431E-02    0.148E-01
DAV:   6    -0.351637881232E+03   -0.28965E-04   -0.24767E-04  8976   0.651E-02    0.313E-02
DAV:   7    -0.351637902822E+03   -0.21590E-04   -0.23606E-05  7640   0.973E-03    0.252E-02
DAV:   8    -0.351637916569E+03   -0.13748E-04   -0.21327E-06  3608   0.407E-03    0.245E-02
DAV:   9    -0.351637936600E+03   -0.20031E-04   -0.58199E-06  5216   0.425E-03    0.116E-02
DAV:  10    -0.351637944035E+03   -0.74350E-05   -0.93568E-07  3544   0.210E-03    0.820E-03
DAV:  11    -0.351637955488E+03   -0.11453E-04   -0.46559E-07  3552   0.225E-03    0.331E-03
DAV:  12    -0.351637963960E+03   -0.84713E-05   -0.44762E-07  3552   0.132E-03    0.143E-03
DAV:  13    -0.351637965738E+03   -0.17778E-05   -0.11882E-07  3664   0.120E-03    0.678E-04
DAV:  14    -0.351637970278E+03   -0.45403E-05   -0.48151E-08  3536   0.507E-04    0.219E-04
DAV:  15    -0.351637975715E+03   -0.54373E-05   -0.24291E-08  3528   0.476E-04    0.367E-04
DAV:  16    -0.351637979984E+03   -0.42692E-05   -0.15531E-08  3528   0.251E-04    0.242E-04
DAV:  17    -0.351637983236E+03   -0.32518E-05   -0.11508E-08  3536   0.215E-04    0.186E-04
DAV:  18    -0.351637984934E+03   -0.16976E-05   -0.93692E-09  3520   0.189E-04    0.785E-05
DAV:  19    -0.351637985793E+03   -0.85885E-06   -0.11198E-08  3592   0.179E-04
   3 F= -.36473910E+03 E0= -.36473910E+03  d E =-.126807E-01  mag=    54.0000
       N       E                     dE             d eps       ncg     rms          rms(c)
DAV:   1    -0.351634633985E+03    0.33509E-02   -0.95224E-02  6504   0.413E-01    0.209E-01
DAV:   2    -0.351635255794E+03   -0.62181E-03   -0.74120E-03  9000   0.228E-01    0.131E-01
DAV:   3    -0.351635230932E+03    0.24862E-04   -0.18715E-04  8544   0.644E-02    0.785E-02
DAV:   4    -0.351635220419E+03    0.10513E-04   -0.20726E-05  9080   0.172E-02    0.647E-02
DAV:   5    -0.351635213136E+03    0.72825E-05   -0.46106E-05  7016   0.105E-02    0.350E-02
DAV:   6    -0.351635217140E+03   -0.40032E-05   -0.14027E-05  8800   0.153E-02    0.751E-03
DAV:   7    -0.351635220106E+03   -0.29665E-05   -0.10744E-06  3640   0.245E-03    0.626E-03
DAV:   8    -0.351635222131E+03   -0.20252E-05   -0.36848E-07  3568   0.188E-03    0.672E-03
DAV:   9    -0.351635224828E+03   -0.26972E-05   -0.12789E-07  3488   0.155E-03    0.164E-03
DAV:  10    -0.351635226883E+03   -0.20541E-05   -0.19070E-07  3472   0.851E-04    0.872E-04
DAV:  11    -0.351635227346E+03   -0.46346E-06   -0.65553E-08  3640   0.885E-04
   4 F= -.36473933E+03 E0= -.36473933E+03  d E =-.129105E-01  mag=    54.0000
       N       E                     dE             d eps       ncg     rms          rms(c)
DAV:   1    -0.351631936320E+03    0.32906E-02   -0.43422E-01  6608   0.876E-01    0.312E-01
DAV:   2    -0.351634316211E+03   -0.23799E-02   -0.28473E-02  8992   0.365E-01    0.169E-01
DAV:   3    -0.351634221790E+03    0.94422E-04   -0.42050E-04  8712   0.786E-02    0.117E-01
DAV:   4    -0.351634200288E+03    0.21501E-04   -0.53339E-05  9392   0.226E-02    0.925E-02
DAV:   5    -0.351634172422E+03    0.27867E-04   -0.93887E-05  6864   0.147E-02    0.548E-02
DAV:   6    -0.351634174356E+03   -0.19340E-05   -0.35955E-05  9032   0.152E-02    0.198E-02
DAV:   7    -0.351634175635E+03   -0.12796E-05   -0.24009E-06  3928   0.358E-03    0.333E-03
DAV:   8    -0.351634176579E+03   -0.94380E-06   -0.74555E-07  3512   0.240E-03
   5 F= -.36474177E+03 E0= -.36474177E+03  d E =-.243822E-02  mag=    54.0000
