CrCl3 2x2 Clean Substrate (D3, U=0) (a_2
   1.00000000000000     
    12.0925489970493256    0.0000000000000000    0.0000000000000000
    -6.0462744985246628   10.4724546279527502    0.0000000000000000
     0.0000000000000000    0.0000000000000000   20.0000000000000000
   Cr   Cl
     8    24
Direct
     0.1666666666666714    0.3333333333333286    0.5000000000000000
     0.3333333333333286    0.1666666666666714    0.5000000000000000
     0.6666666666666714    0.3333333333333286    0.5000000000000000
     0.8333333333333286    0.1666666666666714    0.5000000000000000
     0.1666666666666714    0.8333333333333286    0.5000000000000000
     0.3333333333333286    0.6666666666666714    0.5000000000000000
     0.6666666666666714    0.8333333333333286    0.5000000000000000
     0.8333333333333286    0.6666666666666714    0.5000000000000000
     0.1792485984046449    0.5000000000000000    0.4336068343679736
     0.5000000000000000    0.1792485984046449    0.4336068343679736
     0.3207514015953551    0.3207514015953551    0.4336068343679736
     0.3207514015953551    0.5000000000000000    0.5663931656320264
     0.0000000000000000    0.3207514015953551    0.5663931656320264
     0.1792485984046449    0.1792485984046449    0.5663931656320264
     0.6792485984046449    0.5000000000000000    0.4336068343679736
     0.0000000000000000    0.1792485984046449    0.4336068343679736
     0.8207514015953551    0.3207514015953551    0.4336068343679736
     0.8207514015953551    0.5000000000000000    0.5663931656320264
     0.5000000000000000    0.3207514015953551    0.5663931656320264
     0.6792485984046449    0.1792485984046449    0.5663931656320264
     0.1792485984046449    0.0000000000000000    0.4336068343679736
     0.5000000000000000    0.6792485984046449    0.4336068343679736
     0.3207514015953551    0.8207514015953551    0.4336068343679736
     0.3207514015953551    0.0000000000000000    0.5663931656320264
     0.0000000000000000    0.8207514015953551    0.5663931656320264
     0.1792485984046449    0.6792485984046449    0.5663931656320264
     0.6792485984046449    0.0000000000000000    0.4336068343679736
     0.0000000000000000    0.6792485984046449    0.4336068343679736
     0.8207514015953551    0.8207514015953551    0.4336068343679736
     0.8207514015953551    0.0000000000000000    0.5663931656320264
     0.5000000000000000    0.8207514015953551    0.5663931656320264
     0.6792485984046449    0.6792485984046449    0.5663931656320264
 
  0.00000000E+00  0.00000000E+00  0.00000000E+00
  0.00000000E+00  0.00000000E+00  0.00000000E+00
  0.00000000E+00  0.00000000E+00  0.00000000E+00
  0.00000000E+00  0.00000000E+00  0.00000000E+00
  0.00000000E+00  0.00000000E+00  0.00000000E+00
  0.00000000E+00  0.00000000E+00  0.00000000E+00
  0.00000000E+00  0.00000000E+00  0.00000000E+00
  0.00000000E+00  0.00000000E+00  0.00000000E+00
  0.00000000E+00  0.00000000E+00  0.00000000E+00
  0.00000000E+00  0.00000000E+00  0.00000000E+00
  0.00000000E+00  0.00000000E+00  0.00000000E+00
  0.00000000E+00  0.00000000E+00  0.00000000E+00
  0.00000000E+00  0.00000000E+00  0.00000000E+00
  0.00000000E+00  0.00000000E+00  0.00000000E+00
  0.00000000E+00  0.00000000E+00  0.00000000E+00
  0.00000000E+00  0.00000000E+00  0.00000000E+00
  0.00000000E+00  0.00000000E+00  0.00000000E+00
  0.00000000E+00  0.00000000E+00  0.00000000E+00
  0.00000000E+00  0.00000000E+00  0.00000000E+00
  0.00000000E+00  0.00000000E+00  0.00000000E+00
  0.00000000E+00  0.00000000E+00  0.00000000E+00
  0.00000000E+00  0.00000000E+00  0.00000000E+00
  0.00000000E+00  0.00000000E+00  0.00000000E+00
  0.00000000E+00  0.00000000E+00  0.00000000E+00
  0.00000000E+00  0.00000000E+00  0.00000000E+00
  0.00000000E+00  0.00000000E+00  0.00000000E+00
  0.00000000E+00  0.00000000E+00  0.00000000E+00
  0.00000000E+00  0.00000000E+00  0.00000000E+00
  0.00000000E+00  0.00000000E+00  0.00000000E+00
  0.00000000E+00  0.00000000E+00  0.00000000E+00
  0.00000000E+00  0.00000000E+00  0.00000000E+00
  0.00000000E+00  0.00000000E+00  0.00000000E+00
