33
Lattice="12.092548997049326 0.0 0.0 -6.046274498524663 10.47245462795275 0.0 0.0 0.0 20.0" Properties=species:S:1:pos:R:3:momenta:R:3 pbc="T T T"
Cr      -0.03272503       3.51196244       9.99722274       0.00000000       0.00000000       0.00000000
Cr       2.88970573       1.67732363       9.91965909       0.00000000       0.00000000       0.00000000
Cr       6.17195400       3.57233056       9.91965909       0.00000000       0.00000000       0.00000000
Cr       9.08128167       1.75405347       9.95461383       0.00000000       0.00000000       0.00000000
Cr      -3.03655845       8.72108805       9.95461383       0.00000000       0.00000000       0.00000000
Cr      -0.01033220       7.00003776       9.99501363       0.00000000       0.00000000       0.00000000
Cr       3.01236732       8.74519414       9.99501363       0.00000000       0.00000000       0.00000000
Cr       6.04432557       7.02054924       9.99722274       0.00000000       0.00000000       0.00000000
Cl      -0.89254153       5.26348025       8.64060521       0.00000000       0.00000000       0.00000000
Cl       4.92080421       1.94937173       8.73400184       0.00000000       0.00000000       0.00000000
Cl       1.92404839       3.43902774       8.66901248       0.00000000       0.00000000       0.00000000
Cl       0.84600200       5.25125631      11.36609104       0.00000000       0.00000000       0.00000000
Cl      10.09976049       3.40692739      11.31773550       0.00000000       0.00000000       0.00000000
Cl       0.97085069       1.85864057      11.35557562       0.00000000       0.00000000       0.00000000
Cl       5.12910217       5.28946640       8.66901248       0.00000000       0.00000000       0.00000000
Cl      -1.04884073       1.85462906       8.63051334       0.00000000       0.00000000       0.00000000
Cl       8.10513043       3.35503298       8.51690052       0.00000000       0.00000000       0.00000000
Cl       6.97435645       5.32476624      11.35557562       0.00000000       0.00000000       0.00000000
Cl       3.98085402       3.57741320      11.98938181       0.00000000       0.00000000       0.00000000
Cl       7.12999642       1.90239545      11.32978505       0.00000000       0.00000000       0.00000000
Cl      -3.93497175      10.36694958       8.51690052       0.00000000       0.00000000       0.00000000
Cl       1.94852738       7.09750621       8.65604239       0.00000000       0.00000000       0.00000000
Cl      -1.07012319       8.62271050       8.62965923       0.00000000       0.00000000       0.00000000
Cl       3.85689075       0.01266701      11.32978505       0.00000000       0.00000000       0.00000000
Cl      -4.97722866       8.66549648      11.31773550       0.00000000       0.00000000       0.00000000
Cl      -1.96008430       7.11765109      11.33965596       0.00000000       0.00000000       0.00000000
Cl       8.18326150       0.00188181       8.62965923       0.00000000       0.00000000       0.00000000
Cl       7.98767624       7.07186456       8.63051334       0.00000000       0.00000000       0.00000000
Cl       4.95737491       8.64093108       8.64060521       0.00000000       0.00000000       0.00000000
Cl       9.93166174       0.02008102      11.33965596       0.00000000       0.00000000       0.00000000
Cl       1.06028986       8.63597872      11.34494984       0.00000000       0.00000000       0.00000000
Cl       4.09868938       7.12919625      11.36609104       0.00000000       0.00000000       0.00000000
H        4.55451207       2.58380831      12.58726154       0.00000000       0.00000000       0.00000000
