Cr8Cl24Co1
1.0
     12.1343886       0.0033723       0.0000000
     -6.0642739      10.5103974       0.0000000
      0.0000000       0.0000000      17.6887665
  Cr    Cl    Co  
  8     24    1   
Direct
      0.1571059       0.3407916       0.3373691
      0.1584087       0.8415898       0.3373797
      0.6592663       0.3407359       0.3373693
      0.6592061       0.8428964       0.3373703
      0.8250755       0.1749309       0.3373807
      0.8267044       0.6754653       0.3373211
      0.3245305       0.1732936       0.3374186
      0.3245477       0.6754586       0.3373705
      0.1702169       0.5082042       0.2637560
      0.1716471       0.0074956       0.2610930
      0.6629495       0.5076521       0.2603997
      0.6725402       0.0092754       0.2610351
      0.3218730       0.3375189       0.2606588
      0.3109557       0.8283264       0.2610554
      0.8118269       0.3276739       0.2611061
      0.8134277       0.8297017       0.2636769
      0.9906657       0.1881435       0.2609843
      0.9928803       0.6891373       0.2609782
      0.4919279       0.1863372       0.2637207
      0.4919869       0.6777819       0.2607772
      0.9907411       0.3274467       0.4137258
      0.9925021       0.8283294       0.4136674
      0.4923320       0.3370461       0.4143217
      0.4917966       0.8297648       0.4109978
      0.3222662       0.5080158       0.4139306
      0.3108489       0.0071466       0.4137754
      0.8136337       0.5080723       0.4110331
      0.8118218       0.0093147       0.4137732
      0.1703209       0.1865982       0.4110761
      0.1717069       0.6890646       0.4137034
      0.6723440       0.1882061       0.4136484
      0.6624327       0.6781023       0.4140572
      0.4928404       0.5071464       0.3373097
