Cr8Cl24                                 
   1.00000000000000     
    12.1343886061900470    0.0033722835295982    0.0000000000000000
    -6.0642738577024948   10.5103973726591580    0.0000000000000000
     0.0000000000000000    0.0000000000000000   17.6887664794999999
   Cr   Cl   Co
     8    24     1
Direct
     0.1571059016348570    0.3407915782926239    0.3373691134520556
     0.1584086654638881    0.8415898344916215    0.3373797000992482
     0.6592662605210791    0.3407358526830180    0.3373692625675133
     0.6592060692805148    0.8428963881119103    0.3373702772993639
     0.8250754955214958    0.1749309390964200    0.3373807308904944
     0.8267043851254456    0.6754653085523969    0.3373210525330066
     0.3245304799427799    0.1732935559348405    0.3374185928542701
     0.3245477355093342    0.6754585868358163    0.3373704675438702
     0.1702168607099566    0.5082042056048337    0.2637560282860250
     0.1716470920194269    0.0074956297963240    0.2610929522914915
     0.6629494941121337    0.5076521079592453    0.2603996988933943
     0.6725402259419369    0.0092754487681574    0.2610351054763242
     0.3218730403956513    0.3375188581006583    0.2606587785376533
     0.3109556909312943    0.8283264489472302    0.2610553783311431
     0.8118268913442321    0.3276739231574126    0.2611060627242523
     0.8134276893864794    0.8297016731346929    0.2636768543576409
     0.9906657209373861    0.1881435127329141    0.2609843147242117
     0.9928803148342951    0.6891372583488646    0.2609782183523350
     0.4919279258204838    0.1863372429420096    0.2637206587123444
     0.4919869386007392    0.6777819213432892    0.2607771804001331
     0.9907411351447095    0.3274467266709848    0.4137258260585668
     0.9925020895438408    0.8283294367346343    0.4136673793633392
     0.4923320371691204    0.3370461414984121    0.4143217203312943
     0.4917966337011705    0.8297648341708452    0.4109977532351650
     0.3222662206526792    0.5080158138606947    0.4139306077244029
     0.3108488963976299    0.0071465630269785    0.4137753716769055
     0.8136336771217501    0.5080723375327594    0.4110330594388145
     0.8118218460710196    0.0093146959151866    0.4137732388849145
     0.1703208595381014    0.1865982125736423    0.4110761043769671
     0.1717068704869646    0.6890645892969047    0.4137033591984007
     0.6723439899381773    0.1882060601730657    0.4136483958710855
     0.6624326588470382    0.6781022660331999    0.4140571508300752
     0.4928403663544074    0.5071463796783462    0.3373096516833058
 
  0.00000000E+00  0.00000000E+00  0.00000000E+00
  0.00000000E+00  0.00000000E+00  0.00000000E+00
  0.00000000E+00  0.00000000E+00  0.00000000E+00
  0.00000000E+00  0.00000000E+00  0.00000000E+00
  0.00000000E+00  0.00000000E+00  0.00000000E+00
  0.00000000E+00  0.00000000E+00  0.00000000E+00
  0.00000000E+00  0.00000000E+00  0.00000000E+00
  0.00000000E+00  0.00000000E+00  0.00000000E+00
  0.00000000E+00  0.00000000E+00  0.00000000E+00
  0.00000000E+00  0.00000000E+00  0.00000000E+00
  0.00000000E+00  0.00000000E+00  0.00000000E+00
  0.00000000E+00  0.00000000E+00  0.00000000E+00
  0.00000000E+00  0.00000000E+00  0.00000000E+00
  0.00000000E+00  0.00000000E+00  0.00000000E+00
  0.00000000E+00  0.00000000E+00  0.00000000E+00
  0.00000000E+00  0.00000000E+00  0.00000000E+00
  0.00000000E+00  0.00000000E+00  0.00000000E+00
  0.00000000E+00  0.00000000E+00  0.00000000E+00
  0.00000000E+00  0.00000000E+00  0.00000000E+00
  0.00000000E+00  0.00000000E+00  0.00000000E+00
  0.00000000E+00  0.00000000E+00  0.00000000E+00
  0.00000000E+00  0.00000000E+00  0.00000000E+00
  0.00000000E+00  0.00000000E+00  0.00000000E+00
  0.00000000E+00  0.00000000E+00  0.00000000E+00
  0.00000000E+00  0.00000000E+00  0.00000000E+00
  0.00000000E+00  0.00000000E+00  0.00000000E+00
  0.00000000E+00  0.00000000E+00  0.00000000E+00
  0.00000000E+00  0.00000000E+00  0.00000000E+00
  0.00000000E+00  0.00000000E+00  0.00000000E+00
  0.00000000E+00  0.00000000E+00  0.00000000E+00
  0.00000000E+00  0.00000000E+00  0.00000000E+00
  0.00000000E+00  0.00000000E+00  0.00000000E+00
  0.00000000E+00  0.00000000E+00  0.00000000E+00
