CrCl3 2x2 + H S3 top-Cr (no_vdw, U=0) (a
    1.000000000000000     
    12.0925489970493256    0.0000000000000000    0.0000000000000000
    -6.0462744985246628   10.4724546279527502    0.0000000000000000
     0.0000000000000000    0.0000000000000000   20.0000000000000000
   Cr   Cl   H 
     8    24     1
Direct
     0.1666598619082133    0.3331733817012317    0.4999440562370048
     0.3325613516044040    0.1657408461664470    0.4991979458755263
     0.6666666666666714    0.3333333333333286    0.5019930529035908
     0.8342591538335530    0.1668205054379712    0.4991979458755263
     0.1665135197930326    0.8333401380917866    0.4999440562370048
     0.3333333333333286    0.6666666666666714    0.4999341996195036
     0.6668266182987682    0.8334864802069674    0.4999440562370048
     0.8331794945620289    0.6674386483955959    0.4991979458755263
     0.1797763506620803    0.5000320614380243    0.4332349221503718
     0.4999466383051339    0.1798763119849225    0.4334340280620362
     0.3201996785696153    0.3202980306347435    0.4331949888351637
     0.3202785455114203    0.5000055937797732    0.5667966819227900
     0.0000254488618231    0.3203592737068530    0.5668485366351911
     0.1793571036556763    0.1795986242583063    0.5667824224606886
     0.6799296736797886    0.5000533616948662    0.4334340280620362
     0.0002845412779725    0.1796867245752769    0.4331825506422307
     0.8201236880150775    0.3200703263202113    0.4334340280620362
     0.8303319998971798    0.5095430687002425    0.5661139599066406
     0.4904569312997574    0.3207889311969373    0.5661139599066406
     0.6792110688030628    0.1696680001028202    0.5661139599066406
     0.1794021832973044    0.9997154587220275    0.4331825506422307
     0.4999679385619759    0.6797442892240562    0.4332349221503718
     0.3202557107759438    0.8202236493379197    0.4332349221503718
     0.3203338248450299    0.9999745511381769    0.5668485366351911
     0.0002415206026300    0.8206428963443239    0.5667824224606886
     0.1797270482683528    0.6797214544885798    0.5667966819227900
     0.6797019693652564    0.9999016479348719    0.4331949888351637
     0.0000983520651282    0.6798003214303848    0.4331949888351637
     0.8203132754247231    0.8205978167026956    0.4331825506422307
     0.8204013757416937    0.9997584793973701    0.5667824224606886
     0.4999944062202268    0.8202729517316473    0.5667966819227900
     0.6796407262931471    0.6796661751549701    0.5668485366351911
     0.6666666666666714    0.3333333333333286    0.5793824692939753
 
  0.00000000E+00  0.00000000E+00  0.00000000E+00
  0.00000000E+00  0.00000000E+00  0.00000000E+00
  0.00000000E+00  0.00000000E+00  0.00000000E+00
  0.00000000E+00  0.00000000E+00  0.00000000E+00
  0.00000000E+00  0.00000000E+00  0.00000000E+00
  0.00000000E+00  0.00000000E+00  0.00000000E+00
  0.00000000E+00  0.00000000E+00  0.00000000E+00
  0.00000000E+00  0.00000000E+00  0.00000000E+00
  0.00000000E+00  0.00000000E+00  0.00000000E+00
  0.00000000E+00  0.00000000E+00  0.00000000E+00
  0.00000000E+00  0.00000000E+00  0.00000000E+00
  0.00000000E+00  0.00000000E+00  0.00000000E+00
  0.00000000E+00  0.00000000E+00  0.00000000E+00
  0.00000000E+00  0.00000000E+00  0.00000000E+00
  0.00000000E+00  0.00000000E+00  0.00000000E+00
  0.00000000E+00  0.00000000E+00  0.00000000E+00
  0.00000000E+00  0.00000000E+00  0.00000000E+00
  0.00000000E+00  0.00000000E+00  0.00000000E+00
  0.00000000E+00  0.00000000E+00  0.00000000E+00
  0.00000000E+00  0.00000000E+00  0.00000000E+00
  0.00000000E+00  0.00000000E+00  0.00000000E+00
  0.00000000E+00  0.00000000E+00  0.00000000E+00
  0.00000000E+00  0.00000000E+00  0.00000000E+00
  0.00000000E+00  0.00000000E+00  0.00000000E+00
  0.00000000E+00  0.00000000E+00  0.00000000E+00
  0.00000000E+00  0.00000000E+00  0.00000000E+00
  0.00000000E+00  0.00000000E+00  0.00000000E+00
  0.00000000E+00  0.00000000E+00  0.00000000E+00
  0.00000000E+00  0.00000000E+00  0.00000000E+00
  0.00000000E+00  0.00000000E+00  0.00000000E+00
  0.00000000E+00  0.00000000E+00  0.00000000E+00
  0.00000000E+00  0.00000000E+00  0.00000000E+00
  0.00000000E+00  0.00000000E+00  0.00000000E+00
