       N       E                     dE             d eps       ncg     rms          rms(c)
DAV:   1     0.207120707114E+04    0.20712E+04   -0.61668E+04  2960   0.918E+02
DAV:   2     0.408180261699E+03   -0.16630E+04   -0.15419E+04  3472   0.248E+02
DAV:   3    -0.127102812605E+03   -0.53528E+03   -0.51863E+03  4216   0.139E+02
DAV:   4    -0.173826615057E+03   -0.46724E+02   -0.46007E+02  4496   0.582E+01
DAV:   5    -0.174585338268E+03   -0.75872E+00   -0.74428E+00  4488   0.101E+01    0.423E+01
DAV:   6    -0.165785407222E+03    0.87999E+01   -0.14848E+02  4216   0.649E+01    0.432E+01
DAV:   7    -0.157681507951E+03    0.81039E+01   -0.30885E+01  4144   0.671E+01    0.206E+01
DAV:   8    -0.158080292651E+03   -0.39878E+00   -0.78348E+00  4280   0.115E+01    0.102E+01
DAV:   9    -0.157868462878E+03    0.21183E+00   -0.25121E+00  4512   0.160E+01    0.749E+00
DAV:  10    -0.157617552290E+03    0.25091E+00   -0.93586E-01  4208   0.806E+00    0.248E+00
DAV:  11    -0.157687986692E+03   -0.70434E-01   -0.15088E-01  4264   0.284E+00    0.104E+00
DAV:  12    -0.157766662299E+03   -0.78676E-01   -0.27278E-02  4128   0.886E-01    0.511E-01
DAV:  13    -0.157797207268E+03   -0.30545E-01   -0.73663E-03  4048   0.564E-01    0.360E-01
DAV:  14    -0.157810994921E+03   -0.13788E-01   -0.12101E-03  4176   0.178E-01    0.179E-01
DAV:  15    -0.157816192884E+03   -0.51980E-02   -0.74875E-04  4256   0.163E-01    0.903E-02
DAV:  16    -0.157818261225E+03   -0.20683E-02   -0.29339E-04  4224   0.998E-02    0.590E-02
DAV:  17    -0.157819952316E+03   -0.16911E-02   -0.14950E-04  3992   0.413E-02    0.418E-02
DAV:  18    -0.157821583283E+03   -0.16310E-02   -0.12944E-04  3880   0.358E-02    0.313E-02
DAV:  19    -0.157822719762E+03   -0.11365E-02   -0.13371E-04  3576   0.289E-02    0.207E-02
DAV:  20    -0.157823202093E+03   -0.48233E-03   -0.52174E-05  3672   0.163E-02    0.139E-02
DAV:  21    -0.157823545515E+03   -0.34342E-03   -0.23599E-05  3624   0.133E-02    0.755E-03
DAV:  22    -0.157823706930E+03   -0.16142E-03   -0.10420E-05  3344   0.964E-03    0.365E-03
DAV:  23    -0.157823771893E+03   -0.64963E-04   -0.10349E-06  2040   0.426E-03    0.273E-03
DAV:  24    -0.157823835485E+03   -0.63591E-04   -0.13220E-06  2136   0.317E-03    0.186E-03
DAV:  25    -0.157823874421E+03   -0.38936E-04   -0.68279E-07  1856   0.238E-03    0.162E-03
DAV:  26    -0.157823885701E+03   -0.11280E-04   -0.32556E-07  1664   0.190E-03    0.112E-03
DAV:  27    -0.157823901993E+03   -0.16292E-04   -0.70491E-07  2008   0.177E-03    0.991E-04
DAV:  28    -0.157823909940E+03   -0.79466E-05   -0.56035E-07  1968   0.192E-03    0.117E-03
DAV:  29    -0.157823914243E+03   -0.43029E-05   -0.18781E-07  1680   0.140E-03    0.533E-04
DAV:  30    -0.157823918209E+03   -0.39664E-05   -0.11239E-07  1640   0.842E-04    0.450E-04
DAV:  31    -0.157823921567E+03   -0.33575E-05   -0.55329E-08  1624   0.762E-04    0.344E-04
DAV:  32    -0.157823925253E+03   -0.36858E-05   -0.52665E-08  1616   0.611E-04    0.306E-04
DAV:  33    -0.157823926987E+03   -0.17340E-05   -0.30239E-08  1624   0.562E-04    0.281E-04
DAV:  34    -0.157823928866E+03   -0.18791E-05   -0.31597E-08  1584   0.380E-04    0.195E-04
DAV:  35    -0.157823930411E+03   -0.15453E-05   -0.28841E-08  1616   0.387E-04    0.219E-04
DAV:  36    -0.157823930963E+03   -0.55171E-06   -0.17377E-08  1584   0.366E-04
   1 F= -.15782393E+03 E0= -.15782393E+03  d E =-.157824E+03  mag=    23.0001
       N       E                     dE             d eps       ncg     rms          rms(c)
DAV:   1    -0.157844483027E+03   -0.20553E-01   -0.93635E+00  2880   0.588E+00    0.165E+00
DAV:   2    -0.157921063613E+03   -0.76581E-01   -0.75862E-01  4160   0.438E+00    0.173E+00
DAV:   3    -0.157908419857E+03    0.12644E-01   -0.62689E-02  4216   0.243E+00    0.673E-01
DAV:   4    -0.157906736063E+03    0.16838E-02   -0.57309E-03  4232   0.691E-01    0.536E-01
DAV:   5    -0.157905906696E+03    0.82937E-03   -0.51321E-03  3976   0.216E-01    0.301E-01
DAV:   6    -0.157906200964E+03   -0.29427E-03   -0.13364E-03  4216   0.236E-01    0.101E-01
DAV:   7    -0.157906289089E+03   -0.88125E-04   -0.14895E-04  4112   0.672E-02    0.506E-02
DAV:   8    -0.157906320129E+03   -0.31040E-04   -0.26149E-05  4024   0.313E-02    0.462E-02
DAV:   9    -0.157906330402E+03   -0.10273E-04   -0.21284E-05  3856   0.185E-02    0.275E-02
DAV:  10    -0.157906343197E+03   -0.12796E-04   -0.17734E-05  3944   0.196E-02    0.581E-03
DAV:  11    -0.157906351918E+03   -0.87211E-05   -0.16047E-06  2064   0.452E-03    0.328E-03
DAV:  12    -0.157906355674E+03   -0.37554E-05   -0.37538E-07  1648   0.336E-03    0.246E-03
DAV:  13    -0.157906360238E+03   -0.45642E-05   -0.30858E-07  1640   0.249E-03    0.134E-03
DAV:  14    -0.157906366362E+03   -0.61242E-05   -0.26267E-07  1720   0.171E-03    0.994E-04
DAV:  15    -0.157906368957E+03   -0.25946E-05   -0.12446E-07  1664   0.137E-03    0.565E-04
DAV:  16    -0.157906372130E+03   -0.31730E-05   -0.11193E-07  1656   0.884E-04    0.436E-04
DAV:  17    -0.157906374013E+03   -0.18828E-05   -0.61805E-08  1648   0.981E-04    0.449E-04
DAV:  18    -0.157906375458E+03   -0.14456E-05   -0.58461E-08  1640   0.664E-04    0.366E-04
DAV:  19    -0.157906377351E+03   -0.18922E-05   -0.67519E-08  1664   0.618E-04    0.273E-04
DAV:  20    -0.157906378240E+03   -0.88945E-06   -0.43724E-08  1640   0.601E-04
   2 F= -.15790638E+03 E0= -.15790638E+03  d E =-.824473E-01  mag=    23.0000
       N       E                     dE             d eps       ncg     rms          rms(c)
DAV:   1    -0.157856911483E+03    0.49466E-01   -0.12157E+01  2880   0.676E+00    0.187E+00
DAV:   2    -0.157955796706E+03   -0.98885E-01   -0.98051E-01  4136   0.502E+00    0.194E+00
DAV:   3    -0.157940949063E+03    0.14848E-01   -0.78167E-02  4208   0.272E+00    0.759E-01
DAV:   4    -0.157938651166E+03    0.22979E-02   -0.72140E-03  4240   0.799E-01    0.599E-01
DAV:   5    -0.157937579247E+03    0.10719E-02   -0.62988E-03  3944   0.235E-01    0.345E-01
DAV:   6    -0.157937953639E+03   -0.37439E-03   -0.16503E-03  4200   0.253E-01    0.105E-01
DAV:   7    -0.157938076640E+03   -0.12300E-03   -0.19554E-04  4080   0.766E-02    0.555E-02
DAV:   8    -0.157938107776E+03   -0.31136E-04   -0.41859E-05  4144   0.468E-02    0.530E-02
DAV:   9    -0.157938113796E+03   -0.60195E-05   -0.25236E-05  3864   0.209E-02    0.302E-02
DAV:  10    -0.157938124153E+03   -0.10357E-04   -0.20053E-05  4040   0.208E-02    0.622E-03
DAV:  11    -0.157938131511E+03   -0.73587E-05   -0.18675E-06  2184   0.505E-03    0.395E-03
DAV:  12    -0.157938134235E+03   -0.27241E-05   -0.56196E-07  1656   0.383E-03    0.246E-03
DAV:  13    -0.157938137973E+03   -0.37379E-05   -0.34374E-07  1640   0.273E-03    0.145E-03
DAV:  14    -0.157938142590E+03   -0.46167E-05   -0.28164E-07  1672   0.216E-03    0.925E-04
DAV:  15    -0.157938145710E+03   -0.31197E-05   -0.16642E-07  1672   0.136E-03    0.721E-04
DAV:  16    -0.157938148578E+03   -0.28680E-05   -0.13396E-07  1648   0.115E-03    0.551E-04
DAV:  17    -0.157938150596E+03   -0.20185E-05   -0.97056E-08  1656   0.940E-04    0.485E-04
DAV:  18    -0.157938152236E+03   -0.16394E-05   -0.73731E-08  1656   0.857E-04    0.487E-04
DAV:  19    -0.157938153854E+03   -0.16182E-05   -0.78353E-08  1632   0.849E-04    0.368E-04
DAV:  20    -0.157938154405E+03   -0.55124E-06   -0.45230E-08  1672   0.670E-04
   3 F= -.15793815E+03 E0= -.15793815E+03  d E =-.114223E+00  mag=    23.0000
       N       E                     dE             d eps       ncg     rms          rms(c)
DAV:   1    -0.157898526786E+03    0.39627E-01   -0.11174E+01  2880   0.660E+00    0.184E+00
DAV:   2    -0.157979940078E+03   -0.81413E-01   -0.80278E-01  4072   0.373E+00    0.127E+00
DAV:   3    -0.157978265296E+03    0.16748E-02   -0.62548E-02  4232   0.238E+00    0.872E-01
DAV:   4    -0.157973884279E+03    0.43810E-02   -0.94582E-03  4208   0.106E+00    0.508E-01
DAV:   5    -0.157972632875E+03    0.12514E-02   -0.40513E-03  3760   0.179E-01    0.342E-01
DAV:   6    -0.157972292850E+03    0.34003E-03   -0.18252E-03  4264   0.287E-01    0.973E-02
DAV:   7    -0.157972489146E+03   -0.19630E-03   -0.22132E-04  4104   0.600E-02    0.518E-02
DAV:   8    -0.157972811496E+03   -0.32235E-03   -0.41896E-05  4320   0.341E-02    0.429E-02
DAV:   9    -0.157973223170E+03   -0.41167E-03   -0.17596E-05  3912   0.218E-02    0.252E-02
DAV:  10    -0.157973555941E+03   -0.33277E-03   -0.12840E-05  4024   0.102E-02    0.116E-02
DAV:  11    -0.157973875555E+03   -0.31961E-03   -0.42790E-06  3056   0.538E-03    0.447E-03
DAV:  12    -0.157974118046E+03   -0.24249E-03   -0.21545E-06  2520   0.403E-03    0.324E-03
DAV:  13    -0.157974244063E+03   -0.12602E-03   -0.76652E-07  1920   0.348E-03    0.263E-03
DAV:  14    -0.157974438529E+03   -0.19447E-03   -0.25262E-06  2592   0.314E-03    0.176E-03
DAV:  15    -0.157974654605E+03   -0.21608E-03   -0.33014E-06  2816   0.297E-03    0.133E-03
DAV:  16    -0.157974729650E+03   -0.75045E-04   -0.63557E-07  2104   0.159E-03    0.123E-03
DAV:  17    -0.157974759243E+03   -0.29593E-04   -0.33724E-07  1744   0.181E-03    0.866E-04
DAV:  18    -0.157974794308E+03   -0.35065E-04   -0.82626E-07  2032   0.168E-03    0.944E-04
DAV:  19    -0.157974810749E+03   -0.16441E-04   -0.40579E-07  1872   0.167E-03    0.644E-04
DAV:  20    -0.157974817570E+03   -0.68210E-05   -0.32371E-07  1720   0.143E-03    0.610E-04
DAV:  21    -0.157974819141E+03   -0.15711E-05   -0.17207E-07  1672   0.131E-03    0.323E-04
DAV:  22    -0.157974819880E+03   -0.73884E-06   -0.10361E-07  1640   0.828E-04
   4 F= -.15797482E+03 E0= -.15797482E+03  d E =-.366655E-01  mag=    23.0000
       N       E                     dE             d eps       ncg     rms          rms(c)
DAV:   1    -0.157974786329E+03    0.32812E-04   -0.97831E-03  2976   0.196E-01    0.549E-02
DAV:   2    -0.157974846303E+03   -0.59974E-04   -0.67938E-04  4088   0.109E-01    0.359E-02
DAV:   3    -0.157974852200E+03   -0.58966E-05   -0.53481E-05  4224   0.679E-02    0.255E-02
DAV:   4    -0.157974847312E+03    0.48875E-05   -0.77591E-06  3232   0.323E-02    0.144E-02
DAV:   5    -0.157974843167E+03    0.41453E-05   -0.38122E-06  2568   0.549E-03    0.962E-03
DAV:   6    -0.157974839352E+03    0.38149E-05   -0.13896E-06  2192   0.856E-03    0.269E-03
DAV:   7    -0.157974839255E+03    0.97243E-07   -0.74000E-07  1672   0.365E-03
   5 F= -.15797484E+03 E0= -.15797484E+03  d E =-.366848E-01  mag=    23.0000
       N       E                     dE             d eps       ncg     rms          rms(c)
DAV:   1    -0.157960638781E+03    0.14201E-01   -0.47856E+00  2880   0.454E+00    0.132E+00
DAV:   2    -0.157997424446E+03   -0.36786E-01   -0.32682E-01  4080   0.202E+00    0.832E-01
DAV:   3    -0.157999685048E+03   -0.22606E-02   -0.14697E-02  4264   0.104E+00    0.487E-01
DAV:   4    -0.157998616102E+03    0.10689E-02   -0.25775E-03  4184   0.455E-01    0.298E-01
DAV:   5    -0.157998190543E+03    0.42556E-03   -0.88614E-04  4336   0.173E-01    0.231E-01
DAV:   6    -0.157997851153E+03    0.33939E-03   -0.12908E-03  4096   0.151E-01    0.815E-02
DAV:   7    -0.157998042808E+03   -0.19166E-03   -0.18426E-04  4072   0.678E-02    0.305E-02
DAV:   8    -0.157998246121E+03   -0.20331E-03   -0.18419E-05  4360   0.269E-02    0.192E-02
DAV:   9    -0.157998428765E+03   -0.18264E-03   -0.47895E-06  2928   0.126E-02    0.124E-02
DAV:  10    -0.157998671184E+03   -0.24242E-03   -0.70920E-06  3528   0.866E-03    0.579E-03
DAV:  11    -0.157998864065E+03   -0.19288E-03   -0.23581E-06  2504   0.729E-03    0.307E-03
DAV:  12    -0.157998963707E+03   -0.99643E-04   -0.11396E-06  1912   0.401E-03    0.234E-03
DAV:  13    -0.157999045349E+03   -0.81641E-04   -0.80778E-07  1896   0.275E-03    0.206E-03
DAV:  14    -0.157999174224E+03   -0.12887E-03   -0.18800E-06  2456   0.285E-03    0.148E-03
DAV:  15    -0.157999279375E+03   -0.10515E-03   -0.11966E-06  2272   0.224E-03    0.990E-04
DAV:  16    -0.157999357071E+03   -0.77696E-04   -0.11146E-06  2144   0.243E-03    0.139E-03
DAV:  17    -0.157999390253E+03   -0.33182E-04   -0.64247E-07  1880   0.213E-03    0.753E-04
DAV:  18    -0.157999402228E+03   -0.11976E-04   -0.38010E-07  1704   0.180E-03    0.755E-04
DAV:  19    -0.157999409368E+03   -0.71401E-05   -0.27264E-07  1656   0.143E-03    0.476E-04
DAV:  20    -0.157999416874E+03   -0.75057E-05   -0.33900E-07  1920   0.139E-03    0.459E-04
DAV:  21    -0.157999418310E+03   -0.14361E-05   -0.18312E-07  1664   0.140E-03    0.345E-04
DAV:  22    -0.157999418642E+03   -0.33202E-06   -0.94868E-08  1672   0.788E-04
   6 F= -.15799942E+03 E0= -.15799942E+03  d E =-.245794E-01  mag=    23.0000
       N       E                     dE             d eps       ncg     rms          rms(c)
DAV:   1    -0.157915625576E+03    0.83793E-01   -0.12169E+01  2880   0.726E+00    0.214E+00
DAV:   2    -0.158012206019E+03   -0.96580E-01   -0.85819E-01  4080   0.339E+00    0.145E+00
DAV:   3    -0.158017085927E+03   -0.48799E-02   -0.41283E-02  4272   0.179E+00    0.784E-01
DAV:   4    -0.158014315107E+03    0.27708E-02   -0.70702E-03  4224   0.755E-01    0.483E-01
DAV:   5    -0.158013300348E+03    0.10148E-02   -0.22819E-03  4344   0.291E-01    0.374E-01
DAV:   6    -0.158012555306E+03    0.74504E-03   -0.34996E-03  4120   0.239E-01    0.134E-01
DAV:   7    -0.158012963565E+03   -0.40826E-03   -0.50652E-04  4072   0.112E-01    0.502E-02
DAV:   8    -0.158013361013E+03   -0.39745E-03   -0.44195E-05  4376   0.438E-02    0.308E-02
DAV:   9    -0.158013722599E+03   -0.36159E-03   -0.13268E-05  4024   0.191E-02    0.205E-02
DAV:  10    -0.158014203548E+03   -0.48095E-03   -0.13165E-05  3792   0.126E-02    0.947E-03
DAV:  11    -0.158014571964E+03   -0.36842E-03   -0.56451E-06  3464   0.996E-03    0.443E-03
DAV:  12    -0.158014754679E+03   -0.18271E-03   -0.11476E-06  2144   0.388E-03    0.354E-03
DAV:  13    -0.158014954171E+03   -0.19949E-03   -0.19967E-06  2432   0.372E-03    0.297E-03
DAV:  14    -0.158015240668E+03   -0.28650E-03   -0.37439E-06  2920   0.401E-03    0.178E-03
DAV:  15    -0.158015427301E+03   -0.18663E-03   -0.22612E-06  2624   0.263E-03    0.144E-03
DAV:  16    -0.158015519673E+03   -0.92372E-04   -0.95110E-07  2160   0.204E-03    0.135E-03
DAV:  17    -0.158015562071E+03   -0.42399E-04   -0.54740E-07  1856   0.215E-03    0.109E-03
DAV:  18    -0.158015590028E+03   -0.27956E-04   -0.59728E-07  1952   0.184E-03    0.799E-04
DAV:  19    -0.158015607792E+03   -0.17764E-04   -0.51327E-07  1824   0.188E-03    0.678E-04
DAV:  20    -0.158015615546E+03   -0.77540E-05   -0.38824E-07  1712   0.157E-03    0.598E-04
DAV:  21    -0.158015618888E+03   -0.33425E-05   -0.27770E-07  1672   0.148E-03    0.404E-04
DAV:  22    -0.158015619536E+03   -0.64771E-06   -0.14002E-07  1672   0.113E-03
   7 F= -.15801562E+03 E0= -.15801562E+03  d E =-.407803E-01  mag=    23.0000
       N       E                     dE             d eps       ncg     rms          rms(c)
DAV:   1    -0.157979822371E+03    0.35797E-01   -0.72118E+00  2880   0.559E+00    0.180E+00
DAV:   2    -0.158031299242E+03   -0.51477E-01   -0.51559E-01  4088   0.252E+00    0.932E-01
DAV:   3    -0.158035002000E+03   -0.37028E-02   -0.21893E-02  4160   0.112E+00    0.646E-01
DAV:   4    -0.158033404508E+03    0.15975E-02   -0.34421E-03  4152   0.548E-01    0.405E-01
DAV:   5    -0.158032639934E+03    0.76457E-03   -0.12484E-03  4288   0.189E-01    0.319E-01
DAV:   6    -0.158032164243E+03    0.47569E-03   -0.18193E-03  4112   0.179E-01    0.128E-01
DAV:   7    -0.158032406413E+03   -0.24217E-03   -0.26368E-04  4144   0.763E-02    0.434E-02
DAV:   8    -0.158032769282E+03   -0.36287E-03   -0.46085E-05  4272   0.301E-02    0.272E-02
DAV:   9    -0.158033114912E+03   -0.34563E-03   -0.11594E-05  4064   0.155E-02    0.127E-02
DAV:  10    -0.158033434191E+03   -0.31928E-03   -0.89890E-06  3808   0.934E-03    0.622E-03
DAV:  11    -0.158033686938E+03   -0.25275E-03   -0.21462E-06  2480   0.528E-03    0.392E-03
DAV:  12    -0.158033868729E+03   -0.18179E-03   -0.14863E-06  2248   0.403E-03    0.313E-03
DAV:  13    -0.158034107525E+03   -0.23880E-03   -0.31392E-06  2752   0.375E-03    0.252E-03
DAV:  14    -0.158034273819E+03   -0.16629E-03   -0.15245E-06  2368   0.290E-03    0.217E-03
DAV:  15    -0.158034391699E+03   -0.11788E-03   -0.15106E-06  2304   0.287E-03    0.125E-03
DAV:  16    -0.158034463394E+03   -0.71695E-04   -0.11051E-06  2152   0.230E-03    0.115E-03
DAV:  17    -0.158034489806E+03   -0.26412E-04   -0.44785E-07  1768   0.224E-03    0.860E-04
DAV:  18    -0.158034512807E+03   -0.23001E-04   -0.56200E-07  1896   0.160E-03    0.596E-04
DAV:  19    -0.158034528594E+03   -0.15787E-04   -0.46611E-07  1920   0.181E-03    0.692E-04
DAV:  20    -0.158034534912E+03   -0.63182E-05   -0.37180E-07  1736   0.158E-03    0.366E-04
DAV:  21    -0.158034536888E+03   -0.19763E-05   -0.22003E-07  1672   0.133E-03    0.283E-04
DAV:  22    -0.158034537715E+03   -0.82709E-06   -0.12397E-07  1664   0.982E-04
   8 F= -.15803454E+03 E0= -.15803454E+03  d E =-.189182E-01  mag=    23.0000
       N       E                     dE             d eps       ncg     rms          rms(c)
DAV:   1    -0.158028470455E+03    0.60664E-02   -0.99973E-01  2880   0.208E+00    0.661E-01
DAV:   2    -0.158035302740E+03   -0.68323E-02   -0.71059E-02  4056   0.921E-01    0.323E-01
DAV:   3    -0.158035973275E+03   -0.67053E-03   -0.28904E-03  4144   0.396E-01    0.236E-01
DAV:   4    -0.158035740537E+03    0.23274E-03   -0.44271E-04  4160   0.196E-01    0.148E-01
DAV:   5    -0.158035582937E+03    0.15760E-03   -0.17241E-04  4224   0.640E-02    0.117E-01
DAV:   6    -0.158035466145E+03    0.11679E-03   -0.23845E-04  4112   0.650E-02    0.472E-02
DAV:   7    -0.158035506527E+03   -0.40381E-04   -0.34887E-05  4128   0.285E-02    0.165E-02
DAV:   8    -0.158035589849E+03   -0.83322E-04   -0.56204E-06  3008   0.115E-02    0.106E-02
DAV:   9    -0.158035681202E+03   -0.91353E-04   -0.21938E-06  2144   0.694E-03    0.500E-03
DAV:  10    -0.158035759104E+03   -0.77902E-04   -0.22445E-06  2136   0.496E-03    0.298E-03
DAV:  11    -0.158035810961E+03   -0.51856E-04   -0.10159E-06  1848   0.439E-03    0.212E-03
DAV:  12    -0.158035858304E+03   -0.47344E-04   -0.75274E-07  1872   0.332E-03    0.174E-03
DAV:  13    -0.158035896782E+03   -0.38478E-04   -0.57626E-07  1720   0.306E-03    0.145E-03
DAV:  14    -0.158035925825E+03   -0.29043E-04   -0.48856E-07  1832   0.184E-03    0.105E-03
DAV:  15    -0.158035962240E+03   -0.36415E-04   -0.51205E-07  1840   0.190E-03    0.111E-03
DAV:  16    -0.158035987606E+03   -0.25366E-04   -0.41739E-07  1792   0.173E-03    0.721E-04
DAV:  17    -0.158036005226E+03   -0.17620E-04   -0.36734E-07  1712   0.175E-03    0.873E-04
DAV:  18    -0.158036018885E+03   -0.13659E-04   -0.36727E-07  1840   0.147E-03    0.404E-04
DAV:  19    -0.158036027976E+03   -0.90907E-05   -0.32959E-07  1744   0.147E-03    0.762E-04
DAV:  20    -0.158036029902E+03   -0.19269E-05   -0.17916E-07  1672   0.131E-03    0.219E-04
DAV:  21    -0.158036032178E+03   -0.22759E-05   -0.17015E-07  1648   0.842E-04    0.438E-04
DAV:  22    -0.158036032664E+03   -0.48619E-06   -0.77497E-08  1656   0.922E-04
   9 F= -.15803603E+03 E0= -.15803603E+03  d E =-.204131E-01  mag=    23.0000
       N       E                     dE             d eps       ncg     rms          rms(c)
DAV:   1    -0.158027762647E+03    0.82695E-02   -0.19067E+00  2880   0.289E+00    0.914E-01
DAV:   2    -0.158041877814E+03   -0.14115E-01   -0.13443E-01  4112   0.142E+00    0.516E-01
DAV:   3    -0.158042426807E+03   -0.54899E-03   -0.69520E-03  4288   0.742E-01    0.349E-01
DAV:   4    -0.158041838556E+03    0.58825E-03   -0.10921E-03  4264   0.337E-01    0.211E-01
DAV:   5    -0.158041510533E+03    0.32802E-03   -0.43637E-04  4288   0.898E-02    0.154E-01
DAV:   6    -0.158041266845E+03    0.24369E-03   -0.35721E-04  4176   0.665E-02    0.581E-02
DAV:   7    -0.158041325215E+03   -0.58371E-04   -0.53439E-05  4152   0.358E-02    0.203E-02
DAV:   8    -0.158041441558E+03   -0.11634E-03   -0.10492E-05  4008   0.210E-02    0.144E-02
DAV:   9    -0.158041569415E+03   -0.12786E-03   -0.23299E-06  2360   0.922E-03    0.869E-03
DAV:  10    -0.158041730823E+03   -0.16141E-03   -0.51748E-06  3136   0.756E-03    0.507E-03
DAV:  11    -0.158041847663E+03   -0.11684E-03   -0.11148E-06  2024   0.424E-03    0.297E-03
DAV:  12    -0.158041950027E+03   -0.10236E-03   -0.11861E-06  2240   0.372E-03    0.214E-03
DAV:  13    -0.158042018547E+03   -0.68520E-04   -0.79950E-07  1832   0.270E-03    0.152E-03
DAV:  14    -0.158042053891E+03   -0.35343E-04   -0.44565E-07  1664   0.225E-03    0.131E-03
DAV:  15    -0.158042113422E+03   -0.59531E-04   -0.70852E-07  2016   0.191E-03    0.114E-03
DAV:  16    -0.158042178996E+03   -0.65574E-04   -0.12008E-06  2208   0.228E-03    0.114E-03
DAV:  17    -0.158042209271E+03   -0.30275E-04   -0.46824E-07  1816   0.184E-03    0.794E-04
DAV:  18    -0.158042228444E+03   -0.19173E-04   -0.42040E-07  1880   0.163E-03    0.762E-04
DAV:  19    -0.158042238338E+03   -0.98948E-05   -0.31510E-07  1696   0.153E-03    0.510E-04
DAV:  20    -0.158042242768E+03   -0.44297E-05   -0.22411E-07  1672   0.130E-03    0.464E-04
DAV:  21    -0.158042244673E+03   -0.19048E-05   -0.16098E-07  1640   0.109E-03    0.311E-04
DAV:  22    -0.158042245087E+03   -0.41432E-06   -0.83769E-08  1672   0.874E-04
  10 F= -.15804225E+03 E0= -.15804225E+03  d E =-.621242E-02  mag=    23.0000
