Cr Cl
 1.0000000000000000
    12.0925489970493256    0.0000000000000000    0.0000000000000000
    -6.0462744985246628   10.4724546279527502    0.0000000000000000
     0.0000000000000000    0.0000000000000000   20.0000000000000000
 Cr  Cl 
   8  24
Cartesian
  0.0000000000000859  3.4908182093175339 10.0000000000000000
  3.0231372492622461  1.7454091046588414 10.0000000000000000
  6.0462744985247481  3.4908182093175339 10.0000000000000000
  9.0694117477869085  1.7454091046588414 10.0000000000000000
 -3.0231372492622457  8.7270455232939081 10.0000000000000000
 -0.0000000000000855  6.9816364186352162 10.0000000000000000
  3.0231372492624167  8.7270455232939081 10.0000000000000000
  6.0462744985245767  6.9816364186352162 10.0000000000000000
 -0.8534889005461368  5.2362273139763751  8.6727094535013141
  4.9614503241665657  1.8789705872671831  8.6727094535013141
  1.9383130749042345  3.3572567267091928  8.6727094535013141
  0.8534889005461377  5.2362273139763751 11.3272905464986842
 -1.9383130749042345  3.3572567267091928 11.3272905464986842
  1.0848241743580973  1.8789705872671831 11.3272905464986842
  5.1927855979785242  5.2362273139763751  8.6727094535013141
 -1.0848241743580973  1.8789705872671831  8.6727094535013141
  7.9845875734288967  3.3572567267091928  8.6727094535013141
  6.8997633990707996  5.2362273139763751 11.3272905464986842
  4.1079614236204280  3.3572567267091928 11.3272905464986842
  7.1310986728827590  1.8789705872671831 11.3272905464986842
  2.1696483487161946  0.0000000000000000  8.6727094535013141
  1.9383130749042345  7.1151979012435573  8.6727094535013141
 -1.0848241743580969  8.5934840406855688  8.6727094535013141
  3.8766261498084691  0.0000000000000000 11.3272905464986842
 -4.9614503241665657  8.5934840406855688 11.3272905464986842
 -1.9383130749042337  7.1151979012435573 11.3272905464986842
  8.2159228472408561  0.0000000000000000  8.6727094535013141
 -4.1079614236204280  7.1151979012435573  8.6727094535013141
  4.9614503241665657  8.5934840406855688  8.6727094535013141
  9.9229006483331315  0.0000000000000000 11.3272905464986842
  1.0848241743580969  8.5934840406855688 11.3272905464986842
  4.1079614236204280  7.1151979012435573 11.3272905464986842
Cartesian
  0.0000000000000000  0.0000000000000000  0.0000000000000000
  0.0000000000000000  0.0000000000000000  0.0000000000000000
  0.0000000000000000  0.0000000000000000  0.0000000000000000
  0.0000000000000000  0.0000000000000000  0.0000000000000000
  0.0000000000000000  0.0000000000000000  0.0000000000000000
  0.0000000000000000  0.0000000000000000  0.0000000000000000
  0.0000000000000000  0.0000000000000000  0.0000000000000000
  0.0000000000000000  0.0000000000000000  0.0000000000000000
  0.0000000000000000  0.0000000000000000  0.0000000000000000
  0.0000000000000000  0.0000000000000000  0.0000000000000000
  0.0000000000000000  0.0000000000000000  0.0000000000000000
  0.0000000000000000  0.0000000000000000  0.0000000000000000
  0.0000000000000000  0.0000000000000000  0.0000000000000000
  0.0000000000000000  0.0000000000000000  0.0000000000000000
  0.0000000000000000  0.0000000000000000  0.0000000000000000
  0.0000000000000000  0.0000000000000000  0.0000000000000000
  0.0000000000000000  0.0000000000000000  0.0000000000000000
  0.0000000000000000  0.0000000000000000  0.0000000000000000
  0.0000000000000000  0.0000000000000000  0.0000000000000000
  0.0000000000000000  0.0000000000000000  0.0000000000000000
  0.0000000000000000  0.0000000000000000  0.0000000000000000
  0.0000000000000000  0.0000000000000000  0.0000000000000000
  0.0000000000000000  0.0000000000000000  0.0000000000000000
  0.0000000000000000  0.0000000000000000  0.0000000000000000
  0.0000000000000000  0.0000000000000000  0.0000000000000000
  0.0000000000000000  0.0000000000000000  0.0000000000000000
  0.0000000000000000  0.0000000000000000  0.0000000000000000
  0.0000000000000000  0.0000000000000000  0.0000000000000000
  0.0000000000000000  0.0000000000000000  0.0000000000000000
  0.0000000000000000  0.0000000000000000  0.0000000000000000
  0.0000000000000000  0.0000000000000000  0.0000000000000000
  0.0000000000000000  0.0000000000000000  0.0000000000000000
