CrCl3 2x2 S1 (D3, U=3.29eV) from POSCAR 
   1.00000000000000     
    12.0925489970493256    0.0000000000000000    0.0000000000000000
    -6.0462744985246628   10.4724546279527502    0.0000000000000000
     0.0000000000000000    0.0000000000000000   20.0000000000000000
   Cr   Cl   Co
     8    24     1
Direct
     0.1599856713906037    0.3207430069589547    0.5001092780460946
     0.3299855426841857    0.1582459355344697    0.5014112247272241
     0.6700144573158145    0.3282603928502699    0.5014112247272241
     0.8307039357320786    0.1593341895076620    0.4998754114593358
     0.1692960642679215    0.8286302537755694    0.4998754114593358
     0.3341319505451391    0.6647548187897003    0.5043964262424662
     0.6658680494548610    0.8306228682445542    0.5043964262424662
     0.8400143286093963    0.6607573355683656    0.5001092780460946
     0.1813931541865670    0.4988452906769147    0.4363851929889862
     0.5000000000000000    0.1727568707720790    0.4353832447992225
     0.3257060202491094    0.3180281250537397    0.4357961241166506
     0.3163310559201396    0.4988190175383964    0.5799483478043496
     0.9944274709056878    0.3138781971868376    0.5682052185801694
     0.1746763881783375    0.1657642312834260    0.5695168839703673
     0.6742939797508904    0.4923221048046302    0.4357961241166506
     0.9875994539736844    0.1636252408612183    0.4291269223975752
     0.8202850297654457    0.3157487011457690    0.4323143562733266
     0.8253236118216626    0.4910878431050814    0.5695168839703673
     0.5000000000000000    0.3133334272486288    0.5747998574992851
     0.6755790580077969    0.1707181969648164    0.5690039791376348
     0.1797149702345542    0.9954636713803304    0.4323143562733266
     0.5000000000000000    0.6666363399083410    0.4405904103188181
     0.3297955981496797    0.8201288585959490    0.4349242572726202
     0.3244209419922032    0.9951391389570193    0.5690039791376348
     0.0055725290943124    0.8194507262811502    0.5682052185801694
     0.1769167429809792    0.6739976832589301    0.5699432320773435
     0.6702044018503204    0.9903332604462697    0.4349242572726202
     0.0124005460263157    0.6760257868875340    0.4291269223975752
     0.8186068458134330    0.8174521364903550    0.4363851929889862
     0.8230832570190209    0.9970809402779580    0.5699432320773435
     0.5000000000000000    0.8218511954395405    0.5723014358435916
     0.6836689440798601    0.6824879616182566    0.5799483478043496
     0.5000000000000000    0.4980261541554758    0.5942975346107277
 
  0.00000000E+00  0.00000000E+00  0.00000000E+00
  0.00000000E+00  0.00000000E+00  0.00000000E+00
  0.00000000E+00  0.00000000E+00  0.00000000E+00
  0.00000000E+00  0.00000000E+00  0.00000000E+00
  0.00000000E+00  0.00000000E+00  0.00000000E+00
  0.00000000E+00  0.00000000E+00  0.00000000E+00
  0.00000000E+00  0.00000000E+00  0.00000000E+00
  0.00000000E+00  0.00000000E+00  0.00000000E+00
  0.00000000E+00  0.00000000E+00  0.00000000E+00
  0.00000000E+00  0.00000000E+00  0.00000000E+00
  0.00000000E+00  0.00000000E+00  0.00000000E+00
  0.00000000E+00  0.00000000E+00  0.00000000E+00
  0.00000000E+00  0.00000000E+00  0.00000000E+00
  0.00000000E+00  0.00000000E+00  0.00000000E+00
  0.00000000E+00  0.00000000E+00  0.00000000E+00
  0.00000000E+00  0.00000000E+00  0.00000000E+00
  0.00000000E+00  0.00000000E+00  0.00000000E+00
  0.00000000E+00  0.00000000E+00  0.00000000E+00
  0.00000000E+00  0.00000000E+00  0.00000000E+00
  0.00000000E+00  0.00000000E+00  0.00000000E+00
  0.00000000E+00  0.00000000E+00  0.00000000E+00
  0.00000000E+00  0.00000000E+00  0.00000000E+00
  0.00000000E+00  0.00000000E+00  0.00000000E+00
  0.00000000E+00  0.00000000E+00  0.00000000E+00
  0.00000000E+00  0.00000000E+00  0.00000000E+00
  0.00000000E+00  0.00000000E+00  0.00000000E+00
  0.00000000E+00  0.00000000E+00  0.00000000E+00
  0.00000000E+00  0.00000000E+00  0.00000000E+00
  0.00000000E+00  0.00000000E+00  0.00000000E+00
  0.00000000E+00  0.00000000E+00  0.00000000E+00
  0.00000000E+00  0.00000000E+00  0.00000000E+00
  0.00000000E+00  0.00000000E+00  0.00000000E+00
  0.00000000E+00  0.00000000E+00  0.00000000E+00
