       N       E                     dE             d eps       ncg     rms          rms(c)
DAV:   1     0.230243190949E+04    0.23024E+04   -0.71122E+04  5544   0.107E+03
DAV:   2     0.460341792854E+03   -0.18421E+04   -0.17293E+04  7056   0.244E+02
DAV:   3    -0.112410675970E+03   -0.57275E+03   -0.55937E+03  8540   0.143E+02
DAV:   4    -0.151035580260E+03   -0.38625E+02   -0.37943E+02  7924   0.501E+01
DAV:   5    -0.152018665097E+03   -0.98308E+00   -0.97846E+00  8428   0.947E+00    0.409E+01
DAV:   6    -0.152067178812E+03   -0.48514E-01   -0.17992E+02  9380   0.676E+01    0.525E+01
DAV:   7    -0.144076670797E+03    0.79905E+01   -0.39551E+01  7070   0.569E+01    0.379E+01
DAV:   8    -0.145301309532E+03   -0.12246E+01   -0.13581E+01  9870   0.384E+01    0.336E+01
DAV:   9    -0.142482026437E+03    0.28193E+01   -0.99814E+00  7588   0.276E+01    0.141E+01
DAV:  10    -0.143491457090E+03   -0.10094E+01   -0.35846E+00  9212   0.177E+01    0.852E+00
DAV:  11    -0.143948203205E+03   -0.45675E+00   -0.78599E-01  8764   0.626E+00    0.516E+00
DAV:  12    -0.143983029639E+03   -0.34826E-01   -0.34083E-01  8358   0.532E+00    0.348E+00
DAV:  13    -0.144074175115E+03   -0.91145E-01   -0.16111E-01  9828   0.387E+00    0.231E+00
DAV:  14    -0.144132657775E+03   -0.58483E-01   -0.10336E-01  9324   0.224E+00    0.132E+00
DAV:  15    -0.144159313828E+03   -0.26656E-01   -0.46767E-02  8218   0.806E-01    0.826E-01
DAV:  16    -0.144195645921E+03   -0.36332E-01   -0.13955E-02  8358   0.865E-01    0.493E-01
DAV:  17    -0.144228176315E+03   -0.32530E-01   -0.86846E-03  7476   0.414E-01    0.238E-01
DAV:  18    -0.144245031918E+03   -0.16856E-01   -0.23017E-03  7616   0.154E-01    0.168E-01
DAV:  19    -0.144267927937E+03   -0.22896E-01   -0.79174E-04  7336   0.100E-01    0.120E-01
DAV:  20    -0.144299794518E+03   -0.31867E-01   -0.14282E-03  7364   0.149E-01    0.552E-02
DAV:  21    -0.144309932703E+03   -0.10138E-01   -0.30514E-04  7392   0.547E-02    0.411E-02
DAV:  22    -0.144317400846E+03   -0.74681E-02   -0.11320E-04  6608   0.306E-02    0.323E-02
DAV:  23    -0.144329529178E+03   -0.12128E-01   -0.45165E-04  6496   0.489E-02    0.205E-02
DAV:  24    -0.144331912010E+03   -0.23828E-02   -0.73722E-05  7294   0.270E-02    0.131E-02
DAV:  25    -0.144333192472E+03   -0.12805E-02   -0.28430E-05  6636   0.137E-02    0.104E-02
DAV:  26    -0.144334071157E+03   -0.87869E-03   -0.30819E-05  6734   0.142E-02    0.699E-03
DAV:  27    -0.144334381706E+03   -0.31055E-03   -0.15796E-05  6566   0.977E-03    0.627E-03
DAV:  28    -0.144334462031E+03   -0.80324E-04   -0.68935E-06  5796   0.744E-03    0.617E-03
DAV:  29    -0.144334485051E+03   -0.23020E-04   -0.40957E-06  5264   0.581E-03    0.718E-03
DAV:  30    -0.144334461707E+03    0.23344E-04   -0.24046E-06  4802   0.573E-03    0.157E-02
DAV:  31    -0.144334499446E+03   -0.37740E-04   -0.21851E-06  4564   0.608E-03    0.108E-02
DAV:  32    -0.144334517070E+03   -0.17623E-04   -0.33378E-06  5544   0.586E-03    0.697E-03
DAV:  33    -0.144334525875E+03   -0.88049E-05   -0.26942E-06  4956   0.512E-03    0.612E-03
DAV:  34    -0.144334528727E+03   -0.28528E-05   -0.18639E-06  4690   0.403E-03    0.828E-03
DAV:  35    -0.144334525205E+03    0.35228E-05   -0.86495E-07  4508   0.296E-03    0.132E-02
DAV:  36    -0.144334528166E+03   -0.29616E-05   -0.36402E-07  3850   0.257E-03    0.131E-02
DAV:  37    -0.144334526728E+03    0.14384E-05   -0.53591E-07  4116   0.173E-03    0.149E-02
DAV:  38    -0.144334528266E+03   -0.15386E-05   -0.16951E-07  3724   0.139E-03    0.152E-02
DAV:  39    -0.144334534669E+03   -0.64025E-05   -0.46745E-07  4256   0.197E-03    0.133E-02
DAV:  40    -0.144334549255E+03   -0.14586E-04   -0.21342E-06  4942   0.456E-03    0.693E-03
DAV:  41    -0.144334553216E+03   -0.39611E-05   -0.18403E-06  4732   0.370E-03    0.665E-03
DAV:  42    -0.144334555976E+03   -0.27603E-05   -0.11316E-06  4536   0.312E-03    0.721E-03
DAV:  43    -0.144334556304E+03   -0.32788E-06   -0.85685E-07  4536   0.250E-03
   1 F= -.15045189E+03 E0= -.15044626E+03  d E =-.150452E+03  mag=    26.9999
       N       E                     dE             d eps       ncg     rms          rms(c)
DAV:   1    -0.144339616053E+03   -0.50601E-02   -0.49312E-01  5628   0.128E+00    0.401E-01
DAV:   2    -0.144343321931E+03   -0.37059E-02   -0.37103E-02  7924   0.593E-01    0.242E-01
DAV:   3    -0.144343294710E+03    0.27221E-04   -0.68191E-04  7434   0.988E-02    0.173E-01
DAV:   4    -0.144343033150E+03    0.26156E-03   -0.16411E-04  7910   0.354E-02    0.125E-01
DAV:   5    -0.144342644143E+03    0.38901E-03   -0.26441E-04  6860   0.419E-02    0.398E-02
DAV:   6    -0.144342706093E+03   -0.61949E-04   -0.69409E-05  7336   0.260E-02    0.207E-02
DAV:   7    -0.144342768081E+03   -0.61989E-04   -0.73066E-06  7280   0.119E-02    0.169E-02
DAV:   8    -0.144342886163E+03   -0.11808E-03   -0.36541E-06  5936   0.689E-03    0.125E-02
DAV:   9    -0.144343021653E+03   -0.13549E-03   -0.55763E-06  6986   0.620E-03    0.693E-03
DAV:  10    -0.144343098871E+03   -0.77218E-04   -0.16232E-06  5096   0.448E-03    0.434E-03
DAV:  11    -0.144343173224E+03   -0.74353E-04   -0.12354E-06  4536   0.324E-03    0.381E-03
DAV:  12    -0.144343239456E+03   -0.66231E-04   -0.12531E-06  4648   0.333E-03    0.367E-03
DAV:  13    -0.144343381919E+03   -0.14246E-03   -0.43265E-06  5796   0.447E-03    0.188E-03
DAV:  14    -0.144343388537E+03   -0.66178E-05   -0.80333E-07  4718   0.307E-03    0.263E-03
DAV:  15    -0.144343439630E+03   -0.51094E-04   -0.12308E-06  4452   0.303E-03    0.114E-03
DAV:  16    -0.144343448944E+03   -0.93138E-05   -0.97054E-07  4592   0.257E-03    0.179E-03
DAV:  17    -0.144343453651E+03   -0.47063E-05   -0.44457E-07  4186   0.201E-03    0.227E-03
DAV:  18    -0.144343448675E+03    0.49759E-05   -0.31161E-07  4060   0.167E-03    0.412E-03
DAV:  19    -0.144343451826E+03   -0.31513E-05   -0.12849E-07  3752   0.107E-03    0.426E-03
DAV:  20    -0.144343454146E+03   -0.23205E-05   -0.14882E-07  4032   0.103E-03    0.426E-03
DAV:  21    -0.144343454799E+03   -0.65301E-06   -0.13991E-07  3878   0.886E-04
   2 F= -.15046110E+03 E0= -.15045523E+03  d E =-.921025E-02  mag=    27.0000
       N       E                     dE             d eps       ncg     rms          rms(c)
DAV:   1    -0.144329482675E+03    0.13971E-01   -0.29934E+00  5544   0.316E+00    0.981E-01
DAV:   2    -0.144352099397E+03   -0.22617E-01   -0.22328E-01  7826   0.145E+00    0.578E-01
DAV:   3    -0.144352026434E+03    0.72962E-04   -0.43322E-03  7462   0.247E-01    0.410E-01
DAV:   4    -0.144350887347E+03    0.11391E-02   -0.98727E-04  7644   0.875E-02    0.296E-01
DAV:   5    -0.144349543351E+03    0.13440E-02   -0.14409E-03  6622   0.968E-02    0.986E-02
DAV:   6    -0.144349805908E+03   -0.26256E-03   -0.43720E-04  7252   0.717E-02    0.511E-02
DAV:   7    -0.144350053602E+03   -0.24769E-03   -0.30829E-05  9128   0.264E-02    0.393E-02
DAV:   8    -0.144350536024E+03   -0.48242E-03   -0.23197E-05  8316   0.190E-02    0.276E-02
DAV:   9    -0.144350965117E+03   -0.42909E-03   -0.18646E-05  7238   0.109E-02    0.129E-02
DAV:  10    -0.144351301870E+03   -0.33675E-03   -0.57932E-06  6790   0.745E-03    0.486E-03
DAV:  11    -0.144351564632E+03   -0.26276E-03   -0.24613E-06  5488   0.538E-03    0.327E-03
DAV:  12    -0.144351748736E+03   -0.18410E-03   -0.11285E-06  4578   0.324E-03    0.275E-03
DAV:  13    -0.144352089742E+03   -0.34101E-03   -0.46613E-06  5600   0.369E-03    0.213E-03
DAV:  14    -0.144352337663E+03   -0.24792E-03   -0.37265E-06  5642   0.283E-03    0.135E-03
DAV:  15    -0.144352417503E+03   -0.79840E-04   -0.84996E-07  4760   0.194E-03    0.884E-04
DAV:  16    -0.144352444412E+03   -0.26910E-04   -0.37043E-07  4144   0.191E-03    0.852E-04
DAV:  17    -0.144352463089E+03   -0.18677E-04   -0.38720E-07  4172   0.153E-03    0.620E-04
DAV:  18    -0.144352475460E+03   -0.12371E-04   -0.31634E-07  4074   0.159E-03    0.603E-04
DAV:  19    -0.144352483313E+03   -0.78529E-05   -0.30097E-07  4032   0.139E-03    0.482E-04
DAV:  20    -0.144352485836E+03   -0.25229E-05   -0.20016E-07  3920   0.134E-03    0.367E-04
DAV:  21    -0.144352486625E+03   -0.78946E-06   -0.12439E-07  3724   0.988E-04
   3 F= -.15047089E+03 E0= -.15046440E+03  d E =-.189984E-01  mag=    27.0000
       N       E                     dE             d eps       ncg     rms          rms(c)
DAV:   1    -0.144352426873E+03    0.58963E-04   -0.57525E-03  5978   0.138E-01    0.430E-02
DAV:   2    -0.144352465408E+03   -0.38536E-04   -0.42933E-04  7924   0.642E-02    0.252E-02
DAV:   3    -0.144352467418E+03   -0.20092E-05   -0.81734E-06  6482   0.112E-02    0.178E-02
DAV:   4    -0.144352461211E+03    0.62070E-05   -0.16658E-06  4886   0.416E-03    0.131E-02
DAV:   5    -0.144352446152E+03    0.15058E-04   -0.43189E-06  6314   0.555E-03    0.586E-03
DAV:   6    -0.144352444719E+03    0.14335E-05   -0.10405E-06  4368   0.406E-03    0.231E-03
DAV:   7    -0.144352446112E+03   -0.13936E-05   -0.15556E-07  3668   0.209E-03    0.163E-03
DAV:   8    -0.144352449423E+03   -0.33105E-05   -0.89470E-08  3682   0.144E-03    0.141E-03
DAV:   9    -0.144352454349E+03   -0.49262E-05   -0.99240E-08  3682   0.103E-03    0.881E-04
DAV:  10    -0.144352457221E+03   -0.28717E-05   -0.47284E-08  3710   0.886E-04    0.641E-04
DAV:  11    -0.144352459932E+03   -0.27118E-05   -0.38066E-08  3640   0.692E-04    0.413E-04
DAV:  12    -0.144352462972E+03   -0.30399E-05   -0.36212E-08  3836   0.631E-04    0.300E-04
DAV:  13    -0.144352465023E+03   -0.20505E-05   -0.26162E-08  3752   0.584E-04    0.254E-04
DAV:  14    -0.144352467341E+03   -0.23184E-05   -0.29001E-08  3738   0.487E-04    0.194E-04
DAV:  15    -0.144352468945E+03   -0.16036E-05   -0.24235E-08  3766   0.473E-04    0.205E-04
DAV:  16    -0.144352470829E+03   -0.18840E-05   -0.48035E-08  3920   0.442E-04    0.174E-04
DAV:  17    -0.144352471100E+03   -0.27078E-06   -0.19855E-08  3780   0.539E-04
   4 F= -.15047090E+03 E0= -.15046439E+03  d E =-.190157E-01  mag=    27.0000
       N       E                     dE             d eps       ncg     rms          rms(c)
DAV:   1    -0.144352469000E+03    0.18288E-05   -0.20426E-01  5572   0.917E-01    0.310E-01
DAV:   2    -0.144353860920E+03   -0.13919E-02   -0.12513E-02  7994   0.350E-01    0.158E-01
DAV:   3    -0.144353990850E+03   -0.12993E-03   -0.45240E-04  7784   0.845E-02    0.900E-02
DAV:   4    -0.144353846456E+03    0.14439E-03   -0.47090E-05  8232   0.244E-02    0.679E-02
DAV:   5    -0.144353537441E+03    0.30902E-03   -0.64520E-05  7168   0.199E-02    0.382E-02
DAV:   6    -0.144353412703E+03    0.12474E-03   -0.35583E-05  8260   0.198E-02    0.160E-02
DAV:   7    -0.144353471712E+03   -0.59009E-04   -0.34891E-06  5698   0.836E-03    0.119E-02
DAV:   8    -0.144353607031E+03   -0.13532E-03   -0.31995E-06  5208   0.656E-03    0.756E-03
DAV:   9    -0.144353725659E+03   -0.11863E-03   -0.23715E-06  5096   0.463E-03    0.342E-03
DAV:  10    -0.144353816610E+03   -0.90952E-04   -0.90086E-07  4270   0.293E-03    0.225E-03
DAV:  11    -0.144353919088E+03   -0.10248E-03   -0.14030E-06  4676   0.291E-03    0.145E-03
DAV:  12    -0.144353986619E+03   -0.67531E-04   -0.51752E-07  4242   0.236E-03    0.126E-03
DAV:  13    -0.144354054228E+03   -0.67609E-04   -0.63925E-07  4228   0.208E-03    0.129E-03
DAV:  14    -0.144354139038E+03   -0.84810E-04   -0.15635E-06  4732   0.232E-03    0.745E-04
DAV:  15    -0.144354187543E+03   -0.48505E-04   -0.76138E-07  4298   0.194E-03    0.641E-04
DAV:  16    -0.144354210952E+03   -0.23409E-04   -0.57419E-07  4186   0.205E-03    0.536E-04
DAV:  17    -0.144354214441E+03   -0.34896E-05   -0.25704E-07  3906   0.176E-03    0.390E-04
DAV:  18    -0.144354218018E+03   -0.35771E-05   -0.21732E-07  4116   0.108E-03    0.304E-04
DAV:  19    -0.144354219057E+03   -0.10387E-05   -0.10544E-07  3766   0.112E-03    0.221E-04
DAV:  20    -0.144354219435E+03   -0.37775E-06   -0.61852E-08  3696   0.650E-04
   5 F= -.15047274E+03 E0= -.15046612E+03  d E =-.184116E-02  mag=    27.0000
       N       E                     dE             d eps       ncg     rms          rms(c)
DAV:   1    -0.144352819082E+03    0.14000E-02   -0.23015E-01  5642   0.973E-01    0.329E-01
DAV:   2    -0.144354391565E+03   -0.15725E-02   -0.14085E-02  7980   0.371E-01    0.167E-01
DAV:   3    -0.144354534057E+03   -0.14249E-03   -0.51007E-04  7756   0.896E-02    0.955E-02
DAV:   4    -0.144354375764E+03    0.15829E-03   -0.52760E-05  8260   0.258E-02    0.721E-02
DAV:   5    -0.144354041884E+03    0.33388E-03   -0.72232E-05  7154   0.210E-02    0.406E-02
DAV:   6    -0.144353908754E+03    0.13313E-03   -0.40235E-05  8232   0.208E-02    0.170E-02
DAV:   7    -0.144353973946E+03   -0.65192E-04   -0.40785E-06  5824   0.883E-03    0.127E-02
DAV:   8    -0.144354121603E+03   -0.14766E-03   -0.36631E-06  5446   0.682E-03    0.795E-03
DAV:   9    -0.144354247468E+03   -0.12586E-03   -0.21698E-06  5012   0.457E-03    0.352E-03
DAV:  10    -0.144354359151E+03   -0.11168E-03   -0.12337E-06  4578   0.320E-03    0.224E-03
DAV:  11    -0.144354467652E+03   -0.10850E-03   -0.13662E-06  4578   0.307E-03    0.149E-03
DAV:  12    -0.144354538736E+03   -0.71084E-04   -0.60309E-07  4270   0.260E-03    0.140E-03
DAV:  13    -0.144354617830E+03   -0.79093E-04   -0.82494E-07  4186   0.223E-03    0.126E-03
DAV:  14    -0.144354710586E+03   -0.92756E-04   -0.18347E-06  4858   0.244E-03    0.766E-04
DAV:  15    -0.144354753068E+03   -0.42481E-04   -0.58813E-07  4368   0.185E-03    0.578E-04
DAV:  16    -0.144354780419E+03   -0.27352E-04   -0.61624E-07  4186   0.191E-03    0.583E-04
DAV:  17    -0.144354784019E+03   -0.36001E-05   -0.24860E-07  3920   0.183E-03    0.351E-04
DAV:  18    -0.144354788864E+03   -0.48444E-05   -0.25874E-07  4060   0.102E-03    0.300E-04
DAV:  19    -0.144354790033E+03   -0.11697E-05   -0.11440E-07  3724   0.122E-03    0.199E-04
DAV:  20    -0.144354790367E+03   -0.33401E-06   -0.65640E-08  3766   0.623E-04
   6 F= -.15047341E+03 E0= -.15046668E+03  d E =-.250932E-02  mag=    27.0000
       N       E                     dE             d eps       ncg     rms          rms(c)
DAV:   1    -0.144354642682E+03    0.14735E-03   -0.15825E-01  5712   0.741E-01    0.222E-01
DAV:   2    -0.144355473036E+03   -0.83035E-03   -0.74168E-03  7896   0.281E-01    0.107E-01
DAV:   3    -0.144355657539E+03   -0.18450E-03   -0.22214E-04  7350   0.658E-02    0.608E-02
DAV:   4    -0.144355651096E+03    0.64429E-05   -0.24770E-05  8050   0.201E-02    0.450E-02
DAV:   5    -0.144355644668E+03    0.64280E-05   -0.34657E-05  7644   0.190E-02    0.273E-02
DAV:   6    -0.144355646020E+03   -0.13524E-05   -0.16975E-05  7952   0.170E-02    0.804E-03
DAV:   7    -0.144355651781E+03   -0.57610E-05   -0.14882E-06  4494   0.804E-03    0.547E-03
DAV:   8    -0.144355660980E+03   -0.91988E-05   -0.10401E-06  3990   0.463E-03    0.352E-03
DAV:   9    -0.144355669773E+03   -0.87925E-05   -0.82696E-07  3836   0.270E-03    0.236E-03
DAV:  10    -0.144355673455E+03   -0.36821E-05   -0.25038E-07  3696   0.247E-03    0.162E-03
DAV:  11    -0.144355677432E+03   -0.39771E-05   -0.10785E-07  3752   0.141E-03    0.114E-03
DAV:  12    -0.144355685098E+03   -0.76657E-05   -0.10565E-07  3850   0.115E-03    0.791E-04
DAV:  13    -0.144355692132E+03   -0.70340E-05   -0.11010E-07  3920   0.965E-04    0.526E-04
DAV:  14    -0.144355695446E+03   -0.33145E-05   -0.61594E-08  3780   0.980E-04    0.421E-04
DAV:  15    -0.144355697393E+03   -0.19465E-05   -0.45650E-08  3752   0.649E-04    0.334E-04
DAV:  16    -0.144355700518E+03   -0.31254E-05   -0.48269E-08  3808   0.650E-04    0.337E-04
DAV:  17    -0.144355703975E+03   -0.34570E-05   -0.83162E-08  3990   0.635E-04    0.270E-04
DAV:  18    -0.144355704607E+03   -0.63159E-06   -0.32891E-08  3906   0.689E-04
   7 F= -.15047428E+03 E0= -.15046748E+03  d E =-.870350E-03  mag=    27.0000
       N       E                     dE             d eps       ncg     rms          rms(c)
DAV:   1    -0.144347454543E+03    0.82494E-02   -0.14247E+00  5544   0.222E+00    0.667E-01
DAV:   2    -0.144355636328E+03   -0.81818E-02   -0.67506E-02  7994   0.856E-01    0.326E-01
DAV:   3    -0.144356716867E+03   -0.10805E-02   -0.20070E-03  7490   0.212E-01    0.184E-01
DAV:   4    -0.144356687355E+03    0.29512E-04   -0.25338E-04  7854   0.681E-02    0.135E-01
DAV:   5    -0.144356682230E+03    0.51253E-05   -0.30958E-04  7630   0.555E-02    0.839E-02
DAV:   6    -0.144356718946E+03   -0.36717E-04   -0.15460E-04  8022   0.503E-02    0.248E-02
DAV:   7    -0.144356751035E+03   -0.32089E-04   -0.18063E-05  8064   0.233E-02    0.168E-02
DAV:   8    -0.144356795037E+03   -0.44002E-04   -0.54723E-06  5838   0.987E-03    0.974E-03
DAV:   9    -0.144356837236E+03   -0.42199E-04   -0.25112E-06  5264   0.529E-03    0.485E-03
DAV:  10    -0.144356876310E+03   -0.39074E-04   -0.12573E-06  4396   0.571E-03    0.321E-03
DAV:  11    -0.144356908040E+03   -0.31730E-04   -0.11622E-06  4466   0.429E-03    0.172E-03
DAV:  12    -0.144356930329E+03   -0.22290E-04   -0.70353E-07  3976   0.340E-03    0.156E-03
DAV:  13    -0.144356951595E+03   -0.21265E-04   -0.45589E-07  4242   0.260E-03    0.119E-03
DAV:  14    -0.144356988015E+03   -0.36421E-04   -0.85053E-07  4368   0.232E-03    0.824E-04
DAV:  15    -0.144357004974E+03   -0.16959E-04   -0.47661E-07  4466   0.196E-03    0.741E-04
DAV:  16    -0.144357009879E+03   -0.49050E-05   -0.22956E-07  3780   0.148E-03    0.616E-04
DAV:  17    -0.144357013896E+03   -0.40163E-05   -0.17829E-07  3934   0.116E-03    0.490E-04
DAV:  18    -0.144357017108E+03   -0.32122E-05   -0.14002E-07  3906   0.104E-03    0.494E-04
DAV:  19    -0.144357018370E+03   -0.12624E-05   -0.94800E-08  3766   0.878E-04    0.453E-04
DAV:  20    -0.144357019394E+03   -0.10239E-05   -0.76504E-08  3850   0.755E-04    0.319E-04
DAV:  21    -0.144357020399E+03   -0.10049E-05   -0.99770E-08  3976   0.779E-04    0.346E-04
DAV:  22    -0.144357020545E+03   -0.14630E-06   -0.44729E-08  3906   0.662E-04
   8 F= -.15047546E+03 E0= -.15046845E+03  d E =-.204575E-02  mag=    27.0000
       N       E                     dE             d eps       ncg     rms          rms(c)
DAV:   1    -0.144356205424E+03    0.81498E-03   -0.23072E-01  5656   0.863E-01    0.261E-01
DAV:   2    -0.144357317023E+03   -0.11116E-02   -0.87056E-03  7798   0.305E-01    0.132E-01
DAV:   3    -0.144357657078E+03   -0.34006E-03   -0.39549E-04  7224   0.861E-02    0.682E-02
DAV:   4    -0.144357648043E+03    0.90349E-05   -0.43246E-05  7784   0.301E-02    0.503E-02
DAV:   5    -0.144357640079E+03    0.79642E-05   -0.48343E-05  7868   0.243E-02    0.305E-02
DAV:   6    -0.144357643204E+03   -0.31252E-05   -0.22531E-05  8610   0.234E-02    0.103E-02
DAV:   7    -0.144357655693E+03   -0.12488E-04   -0.21647E-06  4648   0.977E-03    0.601E-03
DAV:   8    -0.144357673424E+03   -0.17731E-04   -0.21013E-06  4648   0.514E-03    0.399E-03
DAV:   9    -0.144357685940E+03   -0.12516E-04   -0.71833E-07  3766   0.385E-03    0.261E-03
DAV:  10    -0.144357692737E+03   -0.67966E-05   -0.35635E-07  3976   0.273E-03    0.180E-03
DAV:  11    -0.144357703071E+03   -0.10334E-04   -0.22432E-07  3920   0.180E-03    0.128E-03
DAV:  12    -0.144357717204E+03   -0.14133E-04   -0.21512E-07  4032   0.177E-03    0.659E-04
DAV:  13    -0.144357723427E+03   -0.62231E-05   -0.13011E-07  3808   0.156E-03    0.611E-04
DAV:  14    -0.144357726710E+03   -0.32826E-05   -0.86820E-08  3780   0.103E-03    0.499E-04
DAV:  15    -0.144357727661E+03   -0.95156E-06   -0.43515E-08  3766   0.776E-04
   9 F= -.15047624E+03 E0= -.15046913E+03  d E =-.785957E-03  mag=    27.0000
       N       E                     dE             d eps       ncg     rms          rms(c)
DAV:   1    -0.144348725712E+03    0.90010E-02   -0.14560E+00  5544   0.217E+00    0.656E-01
DAV:   2    -0.144356516591E+03   -0.77909E-02   -0.56196E-02  7938   0.786E-01    0.336E-01
DAV:   3    -0.144357995302E+03   -0.14787E-02   -0.21815E-03  7462   0.224E-01    0.173E-01
DAV:   4    -0.144357962107E+03    0.33194E-04   -0.27785E-04  7910   0.757E-02    0.126E-01
DAV:   5    -0.144357979041E+03   -0.16934E-04   -0.29547E-04  7826   0.559E-02    0.752E-02
DAV:   6    -0.144358031255E+03   -0.52214E-04   -0.12703E-04  8652   0.535E-02    0.244E-02
DAV:   7    -0.144358083623E+03   -0.52367E-04   -0.16555E-05  8036   0.235E-02    0.158E-02
DAV:   8    -0.144358143315E+03   -0.59692E-04   -0.55111E-06  6244   0.861E-03    0.893E-03
DAV:   9    -0.144358205201E+03   -0.61887E-04   -0.12915E-06  4508   0.618E-03    0.488E-03
DAV:  10    -0.144358267522E+03   -0.62321E-04   -0.19463E-06  4872   0.660E-03    0.361E-03
DAV:  11    -0.144358300810E+03   -0.33287E-04   -0.12538E-06  4200   0.472E-03    0.198E-03
DAV:  12    -0.144358325260E+03   -0.24450E-04   -0.77470E-07  4018   0.374E-03    0.203E-03
DAV:  13    -0.144358340778E+03   -0.15518E-04   -0.38558E-07  4032   0.265E-03    0.125E-03
DAV:  14    -0.144358378743E+03   -0.37966E-04   -0.64707E-07  4130   0.209E-03    0.116E-03
DAV:  15    -0.144358406035E+03   -0.27292E-04   -0.58456E-07  4242   0.199E-03    0.809E-04
DAV:  16    -0.144358410867E+03   -0.48319E-05   -0.23534E-07  3906   0.165E-03    0.686E-04
DAV:  17    -0.144358416955E+03   -0.60877E-05   -0.18327E-07  4032   0.109E-03    0.443E-04
DAV:  18    -0.144358419809E+03   -0.28545E-05   -0.98960E-08  3780   0.104E-03    0.519E-04
DAV:  19    -0.144358425341E+03   -0.55317E-05   -0.14407E-07  4144   0.746E-04    0.363E-04
DAV:  20    -0.144358428940E+03   -0.35992E-05   -0.12267E-07  4130   0.955E-04    0.297E-04
DAV:  21    -0.144358429684E+03   -0.74382E-06   -0.78674E-08  3780   0.807E-04
  10 F= -.15047713E+03 E0= -.15046977E+03  d E =-.167545E-02  mag=    27.0000
       N       E                     dE             d eps       ncg     rms          rms(c)
DAV:   1    -0.144356627984E+03    0.18010E-02   -0.25244E-01  5670   0.905E-01    0.277E-01
DAV:   2    -0.144357845137E+03   -0.12172E-02   -0.89778E-03  7952   0.315E-01    0.140E-01
DAV:   3    -0.144358266963E+03   -0.42183E-03   -0.39682E-04  7742   0.104E-01    0.718E-02
DAV:   4    -0.144358266320E+03    0.64306E-06   -0.41142E-05  7994   0.331E-02    0.502E-02
DAV:   5    -0.144358287629E+03   -0.21309E-04   -0.44088E-05  7448   0.204E-02    0.282E-02
DAV:   6    -0.144358307333E+03   -0.19703E-04   -0.20596E-05  7966   0.181E-02    0.960E-03
DAV:   7    -0.144358314467E+03   -0.71349E-05   -0.15522E-06  4662   0.871E-03    0.566E-03
DAV:   8    -0.144358323003E+03   -0.85354E-05   -0.13781E-06  4368   0.465E-03    0.372E-03
DAV:   9    -0.144358328872E+03   -0.58690E-05   -0.61986E-07  3836   0.481E-03    0.253E-03
DAV:  10    -0.144358332843E+03   -0.39710E-05   -0.38921E-07  4032   0.255E-03    0.145E-03
DAV:  11    -0.144358338193E+03   -0.53499E-05   -0.23159E-07  3822   0.181E-03    0.121E-03
DAV:  12    -0.144358343109E+03   -0.49159E-05   -0.10782E-07  3934   0.167E-03    0.397E-04
DAV:  13    -0.144358345961E+03   -0.28527E-05   -0.62277E-08  3780   0.103E-03    0.549E-04
DAV:  14    -0.144358347687E+03   -0.17259E-05   -0.33951E-08  3780   0.731E-04    0.279E-04
DAV:  15    -0.144358349989E+03   -0.23017E-05   -0.26479E-08  3822   0.493E-04    0.246E-04
DAV:  16    -0.144358352311E+03   -0.23221E-05   -0.27505E-08  3934   0.502E-04    0.201E-04
DAV:  17    -0.144358353765E+03   -0.14539E-05   -0.24147E-08  3808   0.449E-04    0.197E-04
DAV:  18    -0.144358353951E+03   -0.18580E-06   -0.84394E-09  3780   0.415E-04
  11 F= -.15047767E+03 E0= -.15047025E+03  d E =-.538981E-03  mag=    27.0000
       N       E                     dE             d eps       ncg     rms          rms(c)
DAV:   1    -0.144354261550E+03    0.40922E-02   -0.51201E-01  5614   0.129E+00    0.394E-01
DAV:   2    -0.144356864920E+03   -0.26034E-02   -0.18242E-02  7896   0.450E-01    0.200E-01
DAV:   3    -0.144357617522E+03   -0.75260E-03   -0.81417E-04  7742   0.152E-01    0.103E-01
DAV:   4    -0.144357617643E+03   -0.12068E-06   -0.86290E-05  8022   0.485E-02    0.716E-02
DAV:   5    -0.144357641680E+03   -0.24037E-04   -0.88546E-05  7378   0.286E-02    0.405E-02
DAV:   6    -0.144357680225E+03   -0.38545E-04   -0.42119E-05  8008   0.254E-02    0.137E-02
DAV:   7    -0.144357692593E+03   -0.12368E-04   -0.30881E-06  4886   0.122E-02    0.807E-03
DAV:   8    -0.144357706678E+03   -0.14085E-04   -0.33692E-06  5614   0.656E-03    0.573E-03
DAV:   9    -0.144357714906E+03   -0.82280E-05   -0.60326E-07  3850   0.602E-03    0.380E-03
DAV:  10    -0.144357724475E+03   -0.95694E-05   -0.40712E-07  4172   0.315E-03    0.204E-03
DAV:  11    -0.144357735597E+03   -0.11121E-04   -0.44822E-07  4060   0.238E-03    0.141E-03
DAV:  12    -0.144357740482E+03   -0.48850E-05   -0.23211E-07  3864   0.259E-03    0.929E-04
DAV:  13    -0.144357743144E+03   -0.26626E-05   -0.95973E-08  3780   0.150E-03    0.747E-04
DAV:  14    -0.144357749910E+03   -0.67660E-05   -0.85383E-08  4116   0.125E-03    0.406E-04
DAV:  15    -0.144357755656E+03   -0.57456E-05   -0.11201E-07  4046   0.747E-04    0.320E-04
DAV:  16    -0.144357756280E+03   -0.62461E-06   -0.26579E-08  3906   0.633E-04
  12 F= -.15047795E+03 E0= -.15047043E+03  d E =-.812480E-03  mag=    27.0000
       N       E                     dE             d eps       ncg     rms          rms(c)
DAV:   1    -0.144355542692E+03    0.22130E-02   -0.24457E-01  5656   0.911E-01    0.273E-01
DAV:   2    -0.144356751849E+03   -0.12092E-02   -0.10178E-02  7672   0.337E-01    0.135E-01
DAV:   3    -0.144357084695E+03   -0.33285E-03   -0.39509E-04  7602   0.994E-02    0.722E-02
DAV:   4    -0.144357082829E+03    0.18657E-05   -0.40554E-05  7896   0.316E-02    0.527E-02
DAV:   5    -0.144357097368E+03   -0.14538E-04   -0.49868E-05  7420   0.221E-02    0.308E-02
DAV:   6    -0.144357114952E+03   -0.17585E-04   -0.23847E-05  7700   0.174E-02    0.803E-03
DAV:   7    -0.144357121621E+03   -0.66690E-05   -0.18552E-06  4536   0.737E-03    0.582E-03
DAV:   8    -0.144357128246E+03   -0.66243E-05   -0.15074E-06  4172   0.523E-03    0.396E-03
DAV:   9    -0.144357132589E+03   -0.43436E-05   -0.79844E-07  3780   0.385E-03    0.259E-03
DAV:  10    -0.144357135513E+03   -0.29233E-05   -0.42943E-07  3780   0.279E-03    0.168E-03
DAV:  11    -0.144357139356E+03   -0.38435E-05   -0.20682E-07  3766   0.214E-03    0.113E-03
DAV:  12    -0.144357143527E+03   -0.41706E-05   -0.11027E-07  3850   0.156E-03    0.651E-04
DAV:  13    -0.144357146869E+03   -0.33420E-05   -0.70766E-08  3920   0.108E-03    0.391E-04
DAV:  14    -0.144357148619E+03   -0.17504E-05   -0.38298E-08  3766   0.812E-04    0.308E-04
DAV:  15    -0.144357150235E+03   -0.16157E-05   -0.22925E-08  3766   0.602E-04    0.284E-04
DAV:  16    -0.144357153063E+03   -0.28280E-05   -0.34786E-08  4032   0.503E-04    0.195E-04
DAV:  17    -0.144357153825E+03   -0.76220E-06   -0.12292E-08  3906   0.458E-04
  13 F= -.15047834E+03 E0= -.15047078E+03  d E =-.389710E-03  mag=    27.0000
