CrCl3 2x2 S1 (D3, U=3.29eV) from POSCAR 
   1.00000000000000     
    12.0925489970493256    0.0000000000000000    0.0000000000000000
    -6.0462744985246628   10.4724546279527502    0.0000000000000000
     0.0000000000000000    0.0000000000000000   20.0000000000000000
   Cr   Cl   Co
     8    24     1
Direct
     0.1590940323940159    0.3199180247169706    0.4994731685849785
     0.3292797804829189    0.1584602005827317    0.5010402400169630
     0.6707202195170813    0.3291804200997988    0.5010402400169630
     0.8303305067195756    0.1590396854170122    0.5000514939668615
     0.1696694932804247    0.8287091786974227    0.5000514939668615
     0.3348771899071795    0.6652465216491976    0.5043875306722058
     0.6651228100928210    0.8303693317420031    0.5043875306722058
     0.8409059676059847    0.6608239923229688    0.4994731685849785
     0.1814724790639102    0.4993827439444258    0.4367050925417503
     0.5000000000000000    0.1735209386998175    0.4355803658597411
     0.3253359945817724    0.3179383648216699    0.4352162783938247
     0.3202930675546165    0.4978193543615672    0.5792372288880956
     0.9944463004731156    0.3136853230184604    0.5683324673609839
     0.1737660028015026    0.1652752069154725    0.5692239212855398
     0.6746640054182281    0.4926023702398977    0.4352162783938247
     0.9860111083996091    0.1624700815505160    0.4287384372086764
     0.8204100855534234    0.3153280499771068    0.4321475701593930
     0.8262339971984977    0.4915092041139701    0.5692239212855398
     0.5000000000000000    0.3165365215649565    0.5747249746403773
     0.6752836563573045    0.1715161052439903    0.5690704630408056
     0.1795899144465766    0.9949179644236833    0.4321475701593930
     0.5000000000000000    0.6671429473384958    0.4402863046418166
     0.3307664787147853    0.8213043417441154    0.4353363834767031
     0.3247163436426961    0.9962324488866861    0.5690704630408056
     0.0055536995268842    0.8192390225453448    0.5683324673609839
     0.1779565365655856    0.6743132068549705    0.5704291864190163
     0.6692335212852151    0.9905378630293311    0.4353363834767031
     0.0139888916003909    0.6764589731509077    0.4287384372086764
     0.8185275209360903    0.8179102648805158    0.4367050925417503
     0.8220434634344141    0.9963566702893851    0.5704291864190163
     0.5000000000000000    0.8216778782173452    0.5728871945643557
     0.6797069324453830    0.6775262868069506    0.5792372288880956
     0.5000000000000000    0.4974004137205056    0.5970284295220409
 
  0.00000000E+00  0.00000000E+00  0.00000000E+00
  0.00000000E+00  0.00000000E+00  0.00000000E+00
  0.00000000E+00  0.00000000E+00  0.00000000E+00
  0.00000000E+00  0.00000000E+00  0.00000000E+00
  0.00000000E+00  0.00000000E+00  0.00000000E+00
  0.00000000E+00  0.00000000E+00  0.00000000E+00
  0.00000000E+00  0.00000000E+00  0.00000000E+00
  0.00000000E+00  0.00000000E+00  0.00000000E+00
  0.00000000E+00  0.00000000E+00  0.00000000E+00
  0.00000000E+00  0.00000000E+00  0.00000000E+00
  0.00000000E+00  0.00000000E+00  0.00000000E+00
  0.00000000E+00  0.00000000E+00  0.00000000E+00
  0.00000000E+00  0.00000000E+00  0.00000000E+00
  0.00000000E+00  0.00000000E+00  0.00000000E+00
  0.00000000E+00  0.00000000E+00  0.00000000E+00
  0.00000000E+00  0.00000000E+00  0.00000000E+00
  0.00000000E+00  0.00000000E+00  0.00000000E+00
  0.00000000E+00  0.00000000E+00  0.00000000E+00
  0.00000000E+00  0.00000000E+00  0.00000000E+00
  0.00000000E+00  0.00000000E+00  0.00000000E+00
  0.00000000E+00  0.00000000E+00  0.00000000E+00
  0.00000000E+00  0.00000000E+00  0.00000000E+00
  0.00000000E+00  0.00000000E+00  0.00000000E+00
  0.00000000E+00  0.00000000E+00  0.00000000E+00
  0.00000000E+00  0.00000000E+00  0.00000000E+00
  0.00000000E+00  0.00000000E+00  0.00000000E+00
  0.00000000E+00  0.00000000E+00  0.00000000E+00
  0.00000000E+00  0.00000000E+00  0.00000000E+00
  0.00000000E+00  0.00000000E+00  0.00000000E+00
  0.00000000E+00  0.00000000E+00  0.00000000E+00
  0.00000000E+00  0.00000000E+00  0.00000000E+00
  0.00000000E+00  0.00000000E+00  0.00000000E+00
  0.00000000E+00  0.00000000E+00  0.00000000E+00
