33
Lattice="12.092548997049326 0.0 0.0 -6.046274498524663 10.47245462795275 0.0 0.0 0.0 20.0" Properties=species:S:1:pos:R:3:momenta:R:3 pbc="T T T"
Cr      -0.01806267       3.45402579      10.00239410       0.00000000       0.00000000       0.00000000
Cr       3.00030542       1.71137016      10.00239410       0.00000000       0.00000000       0.00000000
Cr       6.08716900       3.49357169      10.00239410       0.00000000       0.00000000       0.00000000
Cr       9.06941175       1.74540910       9.97717893       0.00000000       0.00000000       0.00000000
Cr      -3.02313725       8.72704552       9.97717893       0.00000000       0.00000000       0.00000000
Cr      -0.01806267       7.01842884      10.00239410       0.00000000       0.00000000       0.00000000
Cr       3.00030542       8.76108446      10.00239410       0.00000000       0.00000000       0.00000000
Cr       6.08716900       6.97888294      10.00239410       0.00000000       0.00000000       0.00000000
Cl      -0.86738850       5.23622731       8.67987310       0.00000000       0.00000000       0.00000000
Cl       4.96840013       1.86693318       8.67987310       0.00000000       0.00000000       0.00000000
Cl       1.96557644       3.40447825       8.68778631       0.00000000       0.00000000       0.00000000
Cl       0.86483802       5.23622731      11.48315124       0.00000000       0.00000000       0.00000000
Cl      10.12996977       3.37154073      11.35496250       0.00000000       0.00000000       0.00000000
Cl       1.05244416       1.82288676      11.36821515       0.00000000       0.00000000       0.00000000
Cl       5.13825887       5.23622731       8.68778631       0.00000000       0.00000000       0.00000000
Cl      11.01143172       1.82296325       8.62037764       0.00000000       0.00000000       0.00000000
Cl       8.03123791       3.38847066       8.62037764       0.00000000       0.00000000       0.00000000
Cl       6.96452343       5.23622731      11.36821515       0.00000000       0.00000000       0.00000000
Cl       4.10228686       3.36708535      11.48315124       0.00000000       0.00000000       0.00000000
Cl       7.13086144       1.85081348      11.35496250       0.00000000       0.00000000       0.00000000
Cl      -3.92698338      10.44766122       8.62037764       0.00000000       0.00000000       0.00000000
Cl       1.96557644       7.06797637       8.68778631       0.00000000       0.00000000       0.00000000
Cl      -1.08111728       8.64949138       8.62037764       0.00000000       0.00000000       0.00000000
Cl      -2.14514497      10.45858152      11.35496250       0.00000000       0.00000000       0.00000000
Cl      -4.96168755       8.62164114      11.35496250       0.00000000       0.00000000       0.00000000
Cl      -1.96257923       7.10091390      11.35496250       0.00000000       0.00000000       0.00000000
Cl       8.16556562       0.02479341       8.62037764       0.00000000       0.00000000       0.00000000
Cl      -4.06131109       7.08398397       8.62037764       0.00000000       0.00000000       0.00000000
Cl       4.96840013       8.60552145       8.67987310       0.00000000       0.00000000       0.00000000
Cl       9.94740403       0.01387311      11.35496250       0.00000000       0.00000000       0.00000000
Cl       1.05244416       8.64956787      11.36821515       0.00000000       0.00000000       0.00000000
Cl       4.10228686       7.10536928      11.48315124       0.00000000       0.00000000       0.00000000
Ni       3.02313725       5.23622731      11.42215934       0.00000000       0.00000000       0.00000000
