CrCl3 2x2 + Ni | Bands U_all | Pore-Penetrated GS (z=+0.28A)
   1.0000000000000000     
    12.0925489970493256    0.0000000000000000    0.0000000000000000
    -6.0462744985246628   10.4724546279527502    0.0000000000000000
     0.0000000000000000    0.0000000000000000   20.0000000000000000
   Cr   Cl   Ni
     8    24     1
Direct
  0.1598604970816682  0.3282070750179724  0.5025361337289993
  0.3282070750179724  0.1598604970816682  0.5025361337289993
  0.6717929249820275  0.3316534220636816  0.5025361337289993
  0.8333333333333286  0.1666666666666714  0.5008870558905703
  0.1666666666666714  0.8333333333333286  0.5008870558905703
  0.3316534220636816  0.6717929249820275  0.5025361337289993
  0.6683465779363184  0.8401395029183319  0.5025361337289993
  0.8401395029183319  0.6683465779363184  0.5025361337289993
  0.1762159058944215  0.5000000000000000  0.4368246199868466
  0.5000000000000000  0.1762159058944215  0.4368246199868466
  0.3260104910519104  0.3260104910519104  0.4338521262471666
  0.3269487897261384  0.5000000000000000  0.5756281092471601
  0.9963381232951234  0.3216433821734488  0.5707318841462012
  0.1709543804966239  0.1709543804966239  0.5690924311762292
  0.6739895089480892  0.5000000000000000  0.4338521262471666
 -0.0043411307115159  0.1734724905966626  0.4318481427837211
  0.8265275094033371  0.3221863786918214  0.4318481427837211
  0.8290456195033761  0.5000000000000000  0.5690924311762292
  0.5000000000000000  0.3269487897261384  0.5756281092471601
  0.6783566178265511  0.1746947411216741  0.5707318841462012
  0.1734724905966626 -0.0043411307115159  0.4318481427837211
  0.5000000000000000  0.6739895089480892  0.4338521262471666
  0.3221863786918214  0.8265275094033371  0.4318481427837211
  0.3216433821734488  0.9963381232951234  0.5707318841462012
  0.0036618767048772  0.8253052588783261  0.5707318841462012
  0.1746947411216741  0.6783566178265511  0.5707318841462012
  0.6778136213081780  0.0043411307115159  0.4318481427837211
  0.0043411307115159  0.6778136213081780  0.4318481427837211
  0.8237840941055777  0.8237840941055777  0.4368246199868466
  0.8253052588783261  0.0036618767048772  0.5707318841462012
  0.5000000000000000  0.8290456195033761  0.5690924311762292
  0.6730512102738614  0.6730512102738614  0.5756281092471601
  0.5000000000000000  0.5000000000000000  0.5163370642931114

  0.00000000E+00  0.00000000E+00  0.00000000E+00
  0.00000000E+00  0.00000000E+00  0.00000000E+00
  0.00000000E+00  0.00000000E+00  0.00000000E+00
  0.00000000E+00  0.00000000E+00  0.00000000E+00
  0.00000000E+00  0.00000000E+00  0.00000000E+00
  0.00000000E+00  0.00000000E+00  0.00000000E+00
  0.00000000E+00  0.00000000E+00  0.00000000E+00
  0.00000000E+00  0.00000000E+00  0.00000000E+00
  0.00000000E+00  0.00000000E+00  0.00000000E+00
  0.00000000E+00  0.00000000E+00  0.00000000E+00
  0.00000000E+00  0.00000000E+00  0.00000000E+00
  0.00000000E+00  0.00000000E+00  0.00000000E+00
  0.00000000E+00  0.00000000E+00  0.00000000E+00
  0.00000000E+00  0.00000000E+00  0.00000000E+00
  0.00000000E+00  0.00000000E+00  0.00000000E+00
  0.00000000E+00  0.00000000E+00  0.00000000E+00
  0.00000000E+00  0.00000000E+00  0.00000000E+00
  0.00000000E+00  0.00000000E+00  0.00000000E+00
  0.00000000E+00  0.00000000E+00  0.00000000E+00
  0.00000000E+00  0.00000000E+00  0.00000000E+00
  0.00000000E+00  0.00000000E+00  0.00000000E+00
  0.00000000E+00  0.00000000E+00  0.00000000E+00
  0.00000000E+00  0.00000000E+00  0.00000000E+00
  0.00000000E+00  0.00000000E+00  0.00000000E+00
  0.00000000E+00  0.00000000E+00  0.00000000E+00
  0.00000000E+00  0.00000000E+00  0.00000000E+00
  0.00000000E+00  0.00000000E+00  0.00000000E+00
  0.00000000E+00  0.00000000E+00  0.00000000E+00
  0.00000000E+00  0.00000000E+00  0.00000000E+00
  0.00000000E+00  0.00000000E+00  0.00000000E+00
  0.00000000E+00  0.00000000E+00  0.00000000E+00
  0.00000000E+00  0.00000000E+00  0.00000000E+00
  0.00000000E+00  0.00000000E+00  0.00000000E+00
