       N       E                     dE             d eps       ncg     rms          rms(c)
DAV:   1     0.214686027031E+04    0.21469E+04   -0.64070E+04  3096   0.905E+02
DAV:   2     0.420953832067E+03   -0.17259E+04   -0.16056E+04  3688   0.244E+02
DAV:   3    -0.114719317530E+03   -0.53567E+03   -0.52285E+03  4568   0.138E+02
DAV:   4    -0.154078893992E+03   -0.39360E+02   -0.38707E+02  4608   0.521E+01
DAV:   5    -0.154819285616E+03   -0.74039E+00   -0.73345E+00  4608   0.945E+00    0.437E+01
DAV:   6    -0.154012201651E+03    0.80708E+00   -0.15267E+02  5224   0.642E+01    0.605E+01
DAV:   7    -0.152274957203E+03    0.17372E+01   -0.63009E+01  3896   0.748E+01    0.572E+01
DAV:   8    -0.146179199050E+03    0.60958E+01   -0.22347E+01  5048   0.272E+01    0.293E+01
DAV:   9    -0.140978102279E+03    0.52011E+01   -0.11879E+01  4288   0.344E+01    0.146E+01
DAV:  10    -0.143536840090E+03   -0.25587E+01   -0.41819E+00  4312   0.740E+00    0.728E+00
DAV:  11    -0.144454599808E+03   -0.91776E+00   -0.16979E+00  4504   0.910E+00    0.134E+01
DAV:  12    -0.144928244611E+03   -0.47364E+00   -0.71291E-01  4488   0.464E+00    0.207E+01
DAV:  13    -0.145094090874E+03   -0.16585E+00   -0.27470E-01  4456   0.416E+00    0.177E+01
DAV:  14    -0.145121306162E+03   -0.27215E-01   -0.39433E-02  4376   0.775E-01    0.169E+01
DAV:  15    -0.145376405409E+03   -0.25510E+00   -0.17221E+00  4336   0.436E+00    0.108E+01
DAV:  16    -0.144987688124E+03    0.38872E+00   -0.67739E-01  4272   0.628E+00    0.107E+01
DAV:  17    -0.144585574483E+03    0.40211E+00   -0.25227E-01  4760   0.393E+00    0.102E+01
DAV:  18    -0.145007667669E+03   -0.42209E+00   -0.12539E-01  4888   0.265E+00    0.154E+01
DAV:  19    -0.145314298814E+03   -0.30663E+00   -0.13058E-01  4272   0.325E+00    0.120E+01
DAV:  20    -0.145489295644E+03   -0.17500E+00   -0.16888E-01  4624   0.261E+00    0.695E+00
DAV:  21    -0.145657663336E+03   -0.16837E+00   -0.13538E-01  4304   0.180E+00    0.549E+00
DAV:  22    -0.145799068060E+03   -0.14140E+00   -0.99110E-02  4512   0.177E+00    0.350E+00
DAV:  23    -0.145856307308E+03   -0.57239E-01   -0.43398E-02  4360   0.121E+00    0.259E+00
DAV:  24    -0.145894875671E+03   -0.38568E-01   -0.22172E-02  4384   0.108E+00    0.189E+00
DAV:  25    -0.145910147490E+03   -0.15272E-01   -0.17017E-02  4640   0.690E-01    0.144E+00
DAV:  26    -0.145920126103E+03   -0.99786E-02   -0.83193E-03  4504   0.388E-01    0.116E+00
DAV:  27    -0.145925064527E+03   -0.49384E-02   -0.39579E-03  4120   0.260E-01    0.996E-01
DAV:  28    -0.145927079938E+03   -0.20154E-02   -0.61101E-03  4240   0.342E-01    0.700E-01
DAV:  29    -0.145926754601E+03    0.32534E-03   -0.17920E-03  4280   0.213E-01    0.429E-01
DAV:  30    -0.145926849942E+03   -0.95341E-04   -0.13686E-03  4648   0.176E-01    0.164E-01
DAV:  31    -0.145927475522E+03   -0.62558E-03   -0.28680E-04  3848   0.580E-02    0.125E-01
DAV:  32    -0.145927815840E+03   -0.34032E-03   -0.21012E-05  3456   0.198E-02    0.124E-01
DAV:  33    -0.145928987440E+03   -0.11716E-02   -0.10126E-03  4312   0.955E-02    0.476E-02
DAV:  34    -0.145929485417E+03   -0.49798E-03   -0.13781E-04  4208   0.337E-02    0.971E-02
DAV:  35    -0.145929649957E+03   -0.16454E-03   -0.35272E-05  4184   0.324E-02    0.358E-02
DAV:  36    -0.145930138511E+03   -0.48855E-03   -0.27463E-05  4056   0.209E-02    0.466E-02
DAV:  37    -0.145930548586E+03   -0.41007E-03   -0.35646E-05  3792   0.126E-02    0.414E-02
DAV:  38    -0.145930789025E+03   -0.24044E-03   -0.38261E-06  2752   0.119E-02    0.211E-02
DAV:  39    -0.145930956176E+03   -0.16715E-03   -0.48553E-06  2976   0.929E-03    0.100E-02
DAV:  40    -0.145931050709E+03   -0.94534E-04   -0.24294E-06  2560   0.546E-03    0.602E-03
DAV:  41    -0.145931155392E+03   -0.10468E-03   -0.33719E-06  2776   0.460E-03    0.355E-03
DAV:  42    -0.145931236911E+03   -0.81519E-04   -0.15934E-06  2480   0.325E-03    0.513E-03
DAV:  43    -0.145931280811E+03   -0.43900E-04   -0.65034E-07  2312   0.267E-03    0.260E-03
DAV:  44    -0.145931324314E+03   -0.43503E-04   -0.13422E-06  2488   0.274E-03    0.344E-03
DAV:  45    -0.145931336857E+03   -0.12542E-04   -0.42581E-07  2312   0.225E-03    0.356E-03
DAV:  46    -0.145931342231E+03   -0.53743E-05   -0.20577E-07  1968   0.187E-03    0.267E-03
DAV:  47    -0.145931346755E+03   -0.45240E-05   -0.18149E-07  2136   0.179E-03    0.827E-04
DAV:  48    -0.145931348274E+03   -0.15185E-05   -0.11020E-07  2008   0.124E-03    0.682E-04
DAV:  49    -0.145931349365E+03   -0.10909E-05   -0.74187E-08  2048   0.968E-04    0.553E-04
DAV:  50    -0.145931349721E+03   -0.35617E-06   -0.39616E-08  1928   0.771E-04
   1 F= -.15193784E+03 E0= -.15192145E+03  d E =-.151938E+03  mag=    27.8606
       N       E                     dE             d eps       ncg     rms          rms(c)
DAV:   1    -0.145739917494E+03    0.19143E+00   -0.65519E+01  3056   0.163E+01    0.593E+00
DAV:   2    -0.146694206305E+03   -0.95429E+00   -0.61399E+00  4432   0.112E+01    0.145E+01
DAV:   3    -0.146905824641E+03   -0.21162E+00   -0.23690E+00  4352   0.130E+01    0.129E+01
DAV:   4    -0.146450695985E+03    0.45513E+00   -0.75643E-01  4856   0.488E+00    0.936E+00
DAV:   5    -0.146400521805E+03    0.50174E-01   -0.77269E-02  4744   0.251E+00    0.705E+00
DAV:   6    -0.146370040243E+03    0.30482E-01   -0.51170E-02  4896   0.134E+00    0.210E+00
DAV:   7    -0.146390616571E+03   -0.20576E-01   -0.26383E-02  4392   0.103E+00    0.126E+00
DAV:   8    -0.146389304321E+03    0.13122E-02   -0.15287E-02  4472   0.596E-01    0.175E+00
DAV:   9    -0.146388165054E+03    0.11393E-02   -0.12979E-02  4448   0.596E-01    0.251E-01
DAV:  10    -0.146394495335E+03   -0.63303E-02   -0.16745E-03  4400   0.250E-01    0.450E-01
DAV:  11    -0.146399768743E+03   -0.52734E-02   -0.57836E-04  4424   0.118E-01    0.149E-01
DAV:  12    -0.146408154461E+03   -0.83857E-02   -0.33996E-04  3952   0.590E-02    0.883E-02
DAV:  13    -0.146414080483E+03   -0.59260E-02   -0.17791E-04  4232   0.326E-02    0.107E-01
DAV:  14    -0.146416814271E+03   -0.27338E-02   -0.48284E-05  3896   0.192E-02    0.917E-02
DAV:  15    -0.146420166988E+03   -0.33527E-02   -0.68473E-05  3888   0.182E-02    0.638E-02
DAV:  16    -0.146422752512E+03   -0.25855E-02   -0.74813E-05  3752   0.181E-02    0.458E-02
DAV:  17    -0.146423649784E+03   -0.89727E-03   -0.22108E-05  3840   0.130E-02    0.883E-03
DAV:  18    -0.146424047858E+03   -0.39807E-03   -0.78173E-06  3152   0.809E-03    0.157E-02
DAV:  19    -0.146424330265E+03   -0.28241E-03   -0.61090E-06  3232   0.730E-03    0.120E-02
DAV:  20    -0.146424442117E+03   -0.11185E-03   -0.20674E-06  2632   0.402E-03    0.422E-03
DAV:  21    -0.146424505134E+03   -0.63018E-04   -0.16682E-06  2600   0.298E-03    0.733E-03
DAV:  22    -0.146424541355E+03   -0.36221E-04   -0.15680E-06  2496   0.310E-03    0.479E-03
DAV:  23    -0.146424544920E+03   -0.35652E-05   -0.35574E-07  2160   0.250E-03    0.258E-03
DAV:  24    -0.146424547148E+03   -0.22279E-05   -0.24620E-07  2120   0.138E-03    0.256E-03
DAV:  25    -0.146424548857E+03   -0.17090E-05   -0.11601E-07  1936   0.151E-03    0.479E-04
DAV:  26    -0.146424550600E+03   -0.17428E-05   -0.99786E-08  2056   0.107E-03    0.113E-03
DAV:  27    -0.146424551269E+03   -0.66920E-06   -0.50483E-08  1904   0.912E-04
   2 F= -.15240774E+03 E0= -.15238846E+03  d E =-.469902E+00  mag=    28.3466
       N       E                     dE             d eps       ncg     rms          rms(c)
DAV:   1    -0.146209794854E+03    0.21476E+00   -0.37788E+01  3048   0.124E+01    0.779E+00
DAV:   2    -0.149264815360E+03   -0.30550E+01   -0.81082E+00  5112   0.214E+01    0.242E+01
DAV:   3    -0.146469332711E+03    0.27955E+01   -0.35788E+00  4392   0.225E+01    0.715E+00
DAV:   4    -0.146763532203E+03   -0.29420E+00   -0.13347E+00  4544   0.555E+00    0.787E+00
DAV:   5    -0.146570450204E+03    0.19308E+00   -0.21322E-01  4720   0.335E+00    0.534E+00
DAV:   6    -0.146545322336E+03    0.25128E-01   -0.29614E-02  4720   0.157E+00    0.228E+00
DAV:   7    -0.146553232943E+03   -0.79106E-02   -0.14177E-02  4408   0.722E-01    0.401E+00
DAV:   8    -0.146556095354E+03   -0.28624E-02   -0.87394E-03  4384   0.780E-01    0.262E+00
DAV:   9    -0.146588457175E+03   -0.32362E-01   -0.26413E-02  4880   0.145E+00    0.643E+00
DAV:  10    -0.146564758771E+03    0.23698E-01   -0.13014E-02  4352   0.701E-01    0.506E+00
DAV:  11    -0.146548590655E+03    0.16168E-01   -0.49240E-03  4800   0.592E-01    0.405E-01
DAV:  12    -0.146562669811E+03   -0.14079E-01   -0.30187E-03  3288   0.199E-01    0.461E-01
DAV:  13    -0.146566788152E+03   -0.41183E-02   -0.49926E-04  4504   0.145E-01    0.104E-01
DAV:  14    -0.146570200288E+03   -0.34121E-02   -0.15852E-04  3656   0.485E-02    0.579E-02
DAV:  15    -0.146573568826E+03   -0.33685E-02   -0.10109E-04  4208   0.271E-02    0.652E-02
DAV:  16    -0.146574788824E+03   -0.12200E-02   -0.21023E-05  4312   0.259E-02    0.895E-02
DAV:  17    -0.146576011632E+03   -0.12228E-02   -0.23623E-05  3592   0.111E-02    0.113E-01
DAV:  18    -0.146577254214E+03   -0.12426E-02   -0.36764E-05  4048   0.200E-02    0.109E-02
DAV:  19    -0.146577671461E+03   -0.41725E-03   -0.10704E-05  3360   0.958E-03    0.116E-02
DAV:  20    -0.146577778355E+03   -0.10689E-03   -0.12965E-06  2632   0.412E-03    0.125E-02
DAV:  21    -0.146577904451E+03   -0.12610E-03   -0.31183E-06  2816   0.445E-03    0.302E-03
DAV:  22    -0.146577945125E+03   -0.40675E-04   -0.75833E-07  2392   0.396E-03    0.100E-02
DAV:  23    -0.146577971146E+03   -0.26021E-04   -0.71396E-07  2280   0.310E-03    0.443E-03
DAV:  24    -0.146577990596E+03   -0.19450E-04   -0.63146E-07  2344   0.292E-03    0.368E-03
DAV:  25    -0.146578001654E+03   -0.11058E-04   -0.63444E-07  2312   0.217E-03    0.116E-03
DAV:  26    -0.146578007210E+03   -0.55567E-05   -0.42105E-07  2232   0.171E-03    0.124E-03
DAV:  27    -0.146578008289E+03   -0.10787E-05   -0.16125E-07  1992   0.130E-03    0.910E-04
DAV:  28    -0.146578009130E+03   -0.84136E-06   -0.91369E-08  1984   0.889E-04
   3 F= -.15254290E+03 E0= -.15252070E+03  d E =-.605055E+00  mag=    28.7478
       N       E                     dE             d eps       ncg     rms          rms(c)
DAV:   1    -0.146559214287E+03    0.18794E-01   -0.37003E+00  3072   0.385E+00    0.270E+00
DAV:   2    -0.147399536999E+03   -0.84032E+00   -0.88274E-01  4992   0.825E+00    0.179E+01
DAV:   3    -0.146534502504E+03    0.86503E+00   -0.59465E-01  4672   0.929E+00    0.222E+00
DAV:   4    -0.146590439775E+03   -0.55937E-01   -0.58523E-02  4008   0.867E-01    0.170E+00
DAV:   5    -0.146595550375E+03   -0.51106E-02   -0.51007E-03  4832   0.605E-01    0.382E+00
DAV:   6    -0.146585688779E+03    0.98616E-02   -0.51750E-03  4384   0.636E-01    0.116E+00
DAV:   7    -0.146589025377E+03   -0.33366E-02   -0.16262E-03  4576   0.308E-01    0.802E-01
DAV:   8    -0.146590145562E+03   -0.11202E-02   -0.87278E-04  4272   0.135E-01    0.634E-01
DAV:   9    -0.146590620748E+03   -0.47519E-03   -0.45521E-04  4544   0.150E-01    0.104E+00
DAV:  10    -0.146590281953E+03    0.33880E-03   -0.21769E-04  4560   0.131E-01    0.981E-01
DAV:  11    -0.146590125087E+03    0.15687E-03   -0.16643E-04  4688   0.117E-01    0.206E-01
DAV:  12    -0.146590990773E+03   -0.86569E-03   -0.73499E-05  3800   0.426E-02    0.195E-01
DAV:  13    -0.146591478636E+03   -0.48786E-03   -0.18664E-05  4152   0.233E-02    0.926E-02
DAV:  14    -0.146591776425E+03   -0.29779E-03   -0.11059E-05  3816   0.205E-02    0.714E-02
DAV:  15    -0.146591969774E+03   -0.19335E-03   -0.69106E-06  3352   0.152E-02    0.780E-03
DAV:  16    -0.146592211861E+03   -0.24209E-03   -0.34012E-06  2816   0.601E-03    0.191E-02
DAV:  17    -0.146592427742E+03   -0.21588E-03   -0.40691E-06  3128   0.608E-03    0.155E-02
DAV:  18    -0.146592495780E+03   -0.68037E-04   -0.84013E-07  2376   0.415E-03    0.393E-03
DAV:  19    -0.146592548720E+03   -0.52940E-04   -0.99191E-07  2384   0.257E-03    0.815E-03
DAV:  20    -0.146592609484E+03   -0.60764E-04   -0.13836E-06  2512   0.276E-03    0.162E-03
DAV:  21    -0.146592637166E+03   -0.27682E-04   -0.68045E-07  2336   0.259E-03    0.537E-03
DAV:  22    -0.146592644606E+03   -0.74405E-05   -0.39275E-07  2248   0.259E-03    0.112E-03
DAV:  23    -0.146592646571E+03   -0.19642E-05   -0.22594E-07  1992   0.146E-03    0.786E-04
DAV:  24    -0.146592647391E+03   -0.82027E-06   -0.10876E-07  1936   0.110E-03
   4 F= -.15255281E+03 E0= -.15253008E+03  d E =-.614968E+00  mag=    28.8523
       N       E                     dE             d eps       ncg     rms          rms(c)
DAV:   1    -0.146482853293E+03    0.10979E+00   -0.35511E+01  3040   0.118E+01    0.586E+00
DAV:   2    -0.148682208995E+03   -0.21994E+01   -0.49157E+00  5136   0.177E+01    0.221E+01
DAV:   3    -0.146684491811E+03    0.19977E+01   -0.23047E+00  4376   0.173E+01    0.273E+00
DAV:   4    -0.146755670536E+03   -0.71179E-01   -0.34412E-01  4384   0.285E+00    0.322E+00
DAV:   5    -0.146750455768E+03    0.52148E-02   -0.37346E-02  4536   0.163E+00    0.127E+00
DAV:   6    -0.146781822625E+03   -0.31367E-01   -0.14118E-02  4616   0.105E+00    0.793E+00
DAV:   7    -0.146735679174E+03    0.46143E-01   -0.10602E-02  4224   0.936E-01    0.319E+00
DAV:   8    -0.146767268993E+03   -0.31590E-01   -0.25500E-02  4664   0.136E+00    0.528E+00
DAV:   9    -0.146759803765E+03    0.74652E-02   -0.11384E-02  4440   0.693E-01    0.477E+00
DAV:  10    -0.146758254711E+03    0.15491E-02   -0.18781E-03  4472   0.295E-01    0.481E+00
DAV:  11    -0.146748192272E+03    0.10062E-01   -0.15672E-03  4848   0.367E-01    0.315E+00
DAV:  12    -0.146748905916E+03   -0.71364E-03   -0.18574E-03  4560   0.370E-01    0.511E-01
DAV:  13    -0.146756932064E+03   -0.80261E-02   -0.13344E-03  3256   0.137E-01    0.563E-01
DAV:  14    -0.146759595302E+03   -0.26632E-02   -0.14656E-04  4344   0.449E-02    0.613E-01
DAV:  15    -0.146761859607E+03   -0.22643E-02   -0.52719E-05  4264   0.631E-02    0.146E-01
DAV:  16    -0.146763811029E+03   -0.19514E-02   -0.55145E-05  3848   0.280E-02    0.560E-02
DAV:  17    -0.146765628134E+03   -0.18171E-02   -0.31783E-05  3760   0.153E-02    0.523E-02
DAV:  18    -0.146766816520E+03   -0.11884E-02   -0.14090E-05  3368   0.863E-03    0.186E-02
DAV:  19    -0.146767732256E+03   -0.91574E-03   -0.12184E-05  3360   0.714E-03    0.122E-02
DAV:  20    -0.146768208784E+03   -0.47653E-03   -0.54520E-06  3232   0.530E-03    0.131E-02
DAV:  21    -0.146768406849E+03   -0.19807E-03   -0.14319E-06  2464   0.405E-03    0.490E-03
DAV:  22    -0.146768776569E+03   -0.36972E-03   -0.79836E-06  3280   0.469E-03    0.108E-02
DAV:  23    -0.146768944300E+03   -0.16773E-03   -0.24783E-06  2848   0.262E-03    0.289E-03
DAV:  24    -0.146769030856E+03   -0.86556E-04   -0.13446E-06  2544   0.258E-03    0.715E-03
DAV:  25    -0.146769056207E+03   -0.25351E-04   -0.50148E-07  2336   0.302E-03    0.300E-03
DAV:  26    -0.146769083934E+03   -0.27727E-04   -0.11195E-06  2400   0.181E-03    0.151E-03
DAV:  27    -0.146769087731E+03   -0.37967E-05   -0.23069E-07  2104   0.174E-03    0.991E-04
DAV:  28    -0.146769090081E+03   -0.23504E-05   -0.14709E-07  1920   0.953E-04    0.280E-03
DAV:  29    -0.146769092128E+03   -0.20473E-05   -0.98868E-08  2064   0.111E-03    0.174E-03
DAV:  30    -0.146769093996E+03   -0.18674E-05   -0.10021E-07  1992   0.707E-04    0.414E-04
DAV:  31    -0.146769094746E+03   -0.75017E-06   -0.62058E-08  1968   0.778E-04
   5 F= -.15273432E+03 E0= -.15271095E+03  d E =-.181513E+00  mag=    28.9456
       N       E                     dE             d eps       ncg     rms          rms(c)
DAV:   1    -0.146475367890E+03    0.29373E+00   -0.36877E+01  3040   0.120E+01    0.588E+00
DAV:   2    -0.148723487096E+03   -0.22481E+01   -0.48421E+00  5144   0.181E+01    0.224E+01
DAV:   3    -0.146679510693E+03    0.20440E+01   -0.22575E+00  4328   0.173E+01    0.386E+00
DAV:   4    -0.146790574150E+03   -0.11106E+00   -0.37634E-01  4416   0.417E+00    0.836E+00
DAV:   5    -0.146757830647E+03    0.32744E-01   -0.86733E-02  4728   0.288E+00    0.506E+00
DAV:   6    -0.146744011245E+03    0.13819E-01   -0.26539E-02  4600   0.176E+00    0.221E+00
DAV:   7    -0.146747962616E+03   -0.39514E-02   -0.83205E-03  4424   0.508E-01    0.347E+00
DAV:   8    -0.146750764283E+03   -0.28017E-02   -0.13699E-02  4912   0.116E+00    0.382E+00
DAV:   9    -0.146740650901E+03    0.10113E-01   -0.81625E-03  4448   0.625E-01    0.129E+00
DAV:  10    -0.146752341204E+03   -0.11690E-01   -0.44773E-03  4520   0.535E-01    0.369E+00
DAV:  11    -0.146742064782E+03    0.10276E-01   -0.30627E-03  4304   0.539E-01    0.139E+00
DAV:  12    -0.146748677703E+03   -0.66129E-02   -0.91594E-04  3960   0.137E-01    0.106E+00
DAV:  13    -0.146750551846E+03   -0.18741E-02   -0.12025E-04  4480   0.780E-02    0.694E-01
DAV:  14    -0.146753372555E+03   -0.28207E-02   -0.90643E-05  4232   0.667E-02    0.333E-01
DAV:  15    -0.146756684135E+03   -0.33116E-02   -0.86919E-05  3872   0.468E-02    0.760E-02
DAV:  16    -0.146758337940E+03   -0.16538E-02   -0.40610E-05  3928   0.259E-02    0.531E-02
DAV:  17    -0.146759419435E+03   -0.10815E-02   -0.15575E-05  3688   0.152E-02    0.325E-02
DAV:  18    -0.146761252763E+03   -0.18333E-02   -0.22990E-05  3536   0.117E-02    0.881E-02
DAV:  19    -0.146762585058E+03   -0.13323E-02   -0.21260E-05  4032   0.190E-02    0.451E-02
DAV:  20    -0.146763201556E+03   -0.61650E-03   -0.82960E-06  3456   0.148E-02    0.323E-02
DAV:  21    -0.146763722925E+03   -0.52137E-03   -0.79520E-06  3376   0.758E-03    0.598E-03
DAV:  22    -0.146764369507E+03   -0.64658E-03   -0.17784E-05  3184   0.612E-03    0.921E-03
DAV:  23    -0.146764499860E+03   -0.13035E-03   -0.30736E-06  3112   0.497E-03    0.563E-03
DAV:  24    -0.146764529293E+03   -0.29433E-04   -0.47841E-07  2312   0.216E-03    0.224E-03
DAV:  25    -0.146764545813E+03   -0.16520E-04   -0.39036E-07  2272   0.204E-03    0.388E-03
DAV:  26    -0.146764557529E+03   -0.11716E-04   -0.41647E-07  2240   0.196E-03    0.210E-03
DAV:  27    -0.146764561954E+03   -0.44246E-05   -0.28533E-07  2120   0.161E-03    0.149E-03
DAV:  28    -0.146764563020E+03   -0.10665E-05   -0.13699E-07  1976   0.118E-03    0.195E-03
DAV:  29    -0.146764565078E+03   -0.20583E-05   -0.11400E-07  2024   0.952E-04    0.454E-04
DAV:  30    -0.146764567241E+03   -0.21631E-05   -0.91440E-08  1984   0.866E-04    0.346E-04
DAV:  31    -0.146764567867E+03   -0.62515E-06   -0.56234E-08  1936   0.664E-04
   6 F= -.15281011E+03 E0= -.15278600E+03  d E =-.257304E+00  mag=    29.0474
       N       E                     dE             d eps       ncg     rms          rms(c)
DAV:   1    -0.146755981574E+03    0.85857E-02   -0.41526E+00  3048   0.400E+00    0.249E+00
DAV:   2    -0.147115035986E+03   -0.35905E+00   -0.80777E-01  4776   0.820E+00    0.822E+00
DAV:   3    -0.146774209937E+03    0.34083E+00   -0.52836E-01  4664   0.591E+00    0.297E+00
DAV:   4    -0.146778983858E+03   -0.47739E-02   -0.60452E-02  4504   0.191E+00    0.128E+00
DAV:   5    -0.146782576011E+03   -0.35922E-02   -0.10242E-02  4560   0.873E-01    0.152E+00
DAV:   6    -0.146781405586E+03    0.11704E-02   -0.20402E-03  4616   0.342E-01    0.383E-01
DAV:   7    -0.146782122665E+03   -0.71708E-03   -0.68254E-04  4320   0.178E-01    0.730E-01
DAV:   8    -0.146783510479E+03   -0.13878E-02   -0.15132E-03  4808   0.373E-01    0.169E+00
DAV:   9    -0.146781110479E+03    0.24000E-02   -0.83689E-04  4176   0.242E-01    0.401E-01
DAV:  10    -0.146782376409E+03   -0.12659E-02   -0.21265E-04  4312   0.929E-02    0.665E-01
DAV:  11    -0.146782358279E+03    0.18129E-04   -0.75337E-05  4456   0.792E-02    0.215E-01
DAV:  12    -0.146783074111E+03   -0.71583E-03   -0.28221E-05  3296   0.214E-02    0.307E-01
DAV:  13    -0.146783450428E+03   -0.37632E-03   -0.16114E-05  4136   0.376E-02    0.647E-02
DAV:  14    -0.146783951052E+03   -0.50062E-03   -0.12769E-05  3672   0.151E-02    0.971E-03
DAV:  15    -0.146784433238E+03   -0.48219E-03   -0.56448E-06  2984   0.762E-03    0.422E-02
DAV:  16    -0.146784820580E+03   -0.38734E-03   -0.43183E-06  3048   0.108E-02    0.327E-02
DAV:  17    -0.146785107852E+03   -0.28727E-03   -0.44225E-06  3048   0.649E-03    0.101E-02
DAV:  18    -0.146785233746E+03   -0.12589E-03   -0.11377E-06  2408   0.386E-03    0.858E-03
DAV:  19    -0.146785300855E+03   -0.67109E-04   -0.73016E-07  2304   0.395E-03    0.604E-03
DAV:  20    -0.146785392951E+03   -0.92097E-04   -0.18340E-06  2552   0.322E-03    0.413E-03
DAV:  21    -0.146785469232E+03   -0.76280E-04   -0.18239E-06  2536   0.297E-03    0.114E-03
DAV:  22    -0.146785484175E+03   -0.14943E-04   -0.42268E-07  2328   0.201E-03    0.827E-04
DAV:  23    -0.146785490034E+03   -0.58597E-05   -0.26024E-07  2264   0.155E-03    0.446E-03
DAV:  24    -0.146785491304E+03   -0.12697E-05   -0.14065E-07  2104   0.138E-03    0.299E-03
DAV:  25    -0.146785492469E+03   -0.11652E-05   -0.94387E-08  2184   0.782E-04    0.275E-03
DAV:  26    -0.146785493199E+03   -0.72975E-06   -0.50596E-08  2088   0.825E-04
   7 F= -.15281282E+03 E0= -.15278896E+03  d E =-.260010E+00  mag=    29.0125
       N       E                     dE             d eps       ncg     rms          rms(c)
DAV:   1    -0.146772302764E+03    0.13190E-01   -0.83897E-01  3040   0.180E+00    0.106E+00
DAV:   2    -0.147013121729E+03   -0.24082E+00   -0.14018E-01  4952   0.345E+00    0.162E+01
DAV:   3    -0.146718551483E+03    0.29457E+00   -0.11075E-01  4320   0.372E+00    0.144E+00
DAV:   4    -0.146776406666E+03   -0.57855E-01   -0.15097E-02  3864   0.674E-01    0.536E-01
DAV:   5    -0.146777441147E+03   -0.10345E-02   -0.18974E-03  4512   0.407E-01    0.271E-01
DAV:   6    -0.146777715947E+03   -0.27480E-03   -0.31829E-04  4544   0.127E-01    0.104E+00
DAV:   7    -0.146776797503E+03    0.91844E-03   -0.29573E-04  4456   0.148E-01    0.258E-01
DAV:   8    -0.146777092515E+03   -0.29501E-03   -0.17362E-04  4520   0.830E-02    0.853E-02
DAV:   9    -0.146777340476E+03   -0.24796E-03   -0.10806E-04  4312   0.589E-02    0.409E-01
DAV:  10    -0.146777326811E+03    0.13664E-04   -0.62637E-05  4336   0.655E-02    0.144E-01
DAV:  11    -0.146777511465E+03   -0.18465E-03   -0.12698E-05  4312   0.231E-02    0.108E-01
DAV:  12    -0.146777617167E+03   -0.10570E-03   -0.21380E-06  2552   0.117E-02    0.501E-02
DAV:  13    -0.146777807677E+03   -0.19051E-03   -0.41315E-06  2928   0.103E-02    0.138E-02
DAV:  14    -0.146777952916E+03   -0.14524E-03   -0.35148E-06  2824   0.765E-03    0.118E-02
DAV:  15    -0.146778018903E+03   -0.65987E-04   -0.69546E-07  2312   0.296E-03    0.138E-02
DAV:  16    -0.146778106209E+03   -0.87306E-04   -0.68082E-07  2360   0.341E-03    0.274E-03
DAV:  17    -0.146778196763E+03   -0.90554E-04   -0.11441E-06  2472   0.246E-03    0.582E-03
DAV:  18    -0.146778261255E+03   -0.64492E-04   -0.75824E-07  2360   0.255E-03    0.997E-03
DAV:  19    -0.146778285511E+03   -0.24256E-04   -0.37296E-07  2160   0.212E-03    0.734E-03
DAV:  20    -0.146778340789E+03   -0.55279E-04   -0.94581E-07  2368   0.218E-03    0.204E-03
DAV:  21    -0.146778394825E+03   -0.54035E-04   -0.11872E-06  2488   0.261E-03    0.206E-03
DAV:  22    -0.146778407869E+03   -0.13044E-04   -0.38381E-07  2296   0.186E-03    0.893E-04
DAV:  23    -0.146778416503E+03   -0.86344E-05   -0.30546E-07  2208   0.129E-03    0.756E-04
DAV:  24    -0.146778421127E+03   -0.46236E-05   -0.20455E-07  2128   0.142E-03    0.111E-03
DAV:  25    -0.146778422773E+03   -0.16466E-05   -0.14068E-07  1968   0.942E-04    0.577E-04
DAV:  26    -0.146778423570E+03   -0.79651E-06   -0.84457E-08  2008   0.854E-04
   8 F= -.15281679E+03 E0= -.15279281E+03  d E =-.263980E+00  mag=    29.0281
       N       E                     dE             d eps       ncg     rms          rms(c)
DAV:   1    -0.146759189906E+03    0.19233E-01   -0.15791E+00  3048   0.245E+00    0.160E+00
DAV:   2    -0.147246540029E+03   -0.48735E+00   -0.32147E-01  4936   0.551E+00    0.174E+01
DAV:   3    -0.146708108279E+03    0.53843E+00   -0.23632E-01  4440   0.579E+00    0.162E+00
DAV:   4    -0.146768261921E+03   -0.60154E-01   -0.27823E-02  4072   0.876E-01    0.741E-01
DAV:   5    -0.146768943240E+03   -0.68132E-03   -0.35328E-03  4504   0.566E-01    0.287E-01
DAV:   6    -0.146769940009E+03   -0.99677E-03   -0.52717E-04  4576   0.156E-01    0.163E+00
DAV:   7    -0.146767866232E+03    0.20738E-02   -0.59697E-04  4304   0.231E-01    0.253E-01
DAV:   8    -0.146768993484E+03   -0.11273E-02   -0.29984E-04  4384   0.113E-01    0.153E-01
DAV:   9    -0.146769780904E+03   -0.78742E-03   -0.30726E-04  4440   0.119E-01    0.916E-01
DAV:  10    -0.146769135836E+03    0.64507E-03   -0.19081E-04  4248   0.103E-01    0.536E-01
DAV:  11    -0.146769269912E+03   -0.13408E-03   -0.34473E-05  4464   0.556E-02    0.259E-01
DAV:  12    -0.146769495808E+03   -0.22590E-03   -0.22824E-05  4072   0.325E-02    0.758E-02
DAV:  13    -0.146769695035E+03   -0.19923E-03   -0.94889E-06  3224   0.131E-02    0.752E-02
DAV:  14    -0.146769844418E+03   -0.14938E-03   -0.19276E-06  2552   0.116E-02    0.682E-03
DAV:  15    -0.146770003238E+03   -0.15882E-03   -0.50504E-06  3080   0.686E-03    0.189E-02
DAV:  16    -0.146770105037E+03   -0.10180E-03   -0.10105E-06  2464   0.608E-03    0.141E-02
DAV:  17    -0.146770169371E+03   -0.64334E-04   -0.69931E-07  2296   0.372E-03    0.392E-03
DAV:  18    -0.146770276766E+03   -0.10740E-03   -0.16023E-06  2616   0.354E-03    0.131E-02
DAV:  19    -0.146770347090E+03   -0.70324E-04   -0.94348E-07  2440   0.357E-03    0.362E-03
DAV:  20    -0.146770362721E+03   -0.15632E-04   -0.43859E-07  2136   0.230E-03    0.596E-03
DAV:  21    -0.146770391509E+03   -0.28788E-04   -0.51409E-07  2256   0.200E-03    0.149E-03
DAV:  22    -0.146770421982E+03   -0.30473E-04   -0.77366E-07  2336   0.234E-03    0.318E-03
DAV:  23    -0.146770431617E+03   -0.96352E-05   -0.43625E-07  2280   0.220E-03    0.990E-04
DAV:  24    -0.146770433613E+03   -0.19958E-05   -0.25567E-07  2016   0.146E-03    0.998E-04
DAV:  25    -0.146770434248E+03   -0.63507E-06   -0.12163E-07  1904   0.106E-03
   9 F= -.15282343E+03 E0= -.15279920E+03  d E =-.664229E-02  mag=    29.0676
       N       E                     dE             d eps       ncg     rms          rms(c)
DAV:   1    -0.146772313425E+03   -0.18798E-02   -0.33502E-01  3080   0.113E+00    0.774E-01
DAV:   2    -0.146854063905E+03   -0.81750E-01   -0.76896E-02  4768   0.269E+00    0.570E+00
DAV:   3    -0.146765837624E+03    0.88226E-01   -0.54966E-02  4560   0.245E+00    0.428E-01
DAV:   4    -0.146773906165E+03   -0.80685E-02   -0.50430E-03  4256   0.494E-01    0.304E-01
DAV:   5    -0.146774191496E+03   -0.28533E-03   -0.66656E-04  4536   0.229E-01    0.179E-01
DAV:   6    -0.146774255501E+03   -0.64006E-04   -0.91974E-05  4376   0.371E-02    0.449E-01
DAV:   7    -0.146774150465E+03    0.10504E-03   -0.80426E-05  4488   0.978E-02    0.131E-01
DAV:   8    -0.146774441219E+03   -0.29075E-03   -0.80043E-05  4328   0.550E-02    0.523E-01
DAV:   9    -0.146774112930E+03    0.32829E-03   -0.72074E-05  4264   0.744E-02    0.328E-02
DAV:  10    -0.146774361309E+03   -0.24838E-03   -0.22545E-05  3928   0.325E-02    0.249E-01
DAV:  11    -0.146774308336E+03    0.52974E-04   -0.66428E-06  3088   0.249E-02    0.977E-02
DAV:  12    -0.146774386119E+03   -0.77784E-04   -0.24154E-06  2528   0.128E-02    0.234E-02
DAV:  13    -0.146774458276E+03   -0.72157E-04   -0.25877E-06  2656   0.854E-03    0.197E-02
DAV:  14    -0.146774508114E+03   -0.49838E-04   -0.17109E-06  2488   0.641E-03    0.595E-03
DAV:  15    -0.146774529864E+03   -0.21750E-04   -0.32003E-07  2320   0.263E-03    0.786E-03
DAV:  16    -0.146774565838E+03   -0.35974E-04   -0.34134E-07  2192   0.359E-03    0.113E-02
DAV:  17    -0.146774607112E+03   -0.41274E-04   -0.50411E-07  2256   0.255E-03    0.577E-03
DAV:  18    -0.146774633637E+03   -0.26525E-04   -0.52011E-07  2288   0.193E-03    0.436E-03
DAV:  19    -0.146774639549E+03   -0.59125E-05   -0.22263E-07  2224   0.183E-03    0.154E-03
DAV:  20    -0.146774647484E+03   -0.79345E-05   -0.18740E-07  2184   0.955E-04    0.102E-03
DAV:  21    -0.146774660059E+03   -0.12575E-04   -0.20612E-07  2176   0.132E-03    0.102E-03
DAV:  22    -0.146774666688E+03   -0.66285E-05   -0.19267E-07  2272   0.132E-03    0.168E-03
DAV:  23    -0.146774669248E+03   -0.25606E-05   -0.15061E-07  2224   0.117E-03    0.685E-04
DAV:  24    -0.146774669511E+03   -0.26233E-06   -0.74649E-08  1984   0.870E-04
  10 F= -.15282637E+03 E0= -.15280226E+03  d E =-.958669E-02  mag=    29.0496
       N       E                     dE             d eps       ncg     rms          rms(c)
DAV:   1    -0.146779721406E+03   -0.50522E-02   -0.60097E-02  3168   0.496E-01    0.215E-01
DAV:   2    -0.146783036963E+03   -0.33156E-02   -0.44926E-03  4624   0.444E-01    0.236E+00
DAV:   3    -0.146777760787E+03    0.52762E-02   -0.19823E-03  4280   0.445E-01    0.423E-01
DAV:   4    -0.146780135111E+03   -0.23743E-02   -0.57734E-04  4224   0.193E-01    0.152E-01
DAV:   5    -0.146780070025E+03    0.65085E-04   -0.73192E-05  4536   0.894E-02    0.496E-02
DAV:   6    -0.146780023027E+03    0.46998E-04   -0.15480E-05  4328   0.200E-02    0.170E-01
DAV:   7    -0.146779878258E+03    0.14477E-03   -0.18480E-05  4352   0.367E-02    0.465E-02
DAV:   8    -0.146779868227E+03    0.10031E-04   -0.12303E-05  4176   0.259E-02    0.532E-02
DAV:   9    -0.146779914337E+03   -0.46110E-04   -0.29476E-06  2616   0.136E-02    0.785E-03
DAV:  10    -0.146779988365E+03   -0.74028E-04   -0.13205E-06  2328   0.790E-03    0.405E-03
DAV:  11    -0.146780040302E+03   -0.51937E-04   -0.10146E-06  2304   0.427E-03    0.518E-03
DAV:  12    -0.146780072163E+03   -0.31861E-04   -0.58036E-07  2232   0.308E-03    0.430E-03
DAV:  13    -0.146780106482E+03   -0.34319E-04   -0.46336E-07  2248   0.227E-03    0.265E-03
DAV:  14    -0.146780165708E+03   -0.59226E-04   -0.94719E-07  2416   0.202E-03    0.147E-03
DAV:  15    -0.146780199778E+03   -0.34071E-04   -0.54294E-07  2280   0.198E-03    0.177E-03
DAV:  16    -0.146780218324E+03   -0.18546E-04   -0.39047E-07  2288   0.183E-03    0.156E-03
DAV:  17    -0.146780226576E+03   -0.82525E-05   -0.25739E-07  2200   0.138E-03    0.956E-04
DAV:  18    -0.146780238481E+03   -0.11904E-04   -0.24994E-07  2232   0.115E-03    0.880E-04
DAV:  19    -0.146780246576E+03   -0.80956E-05   -0.19303E-07  2272   0.121E-03    0.432E-04
DAV:  20    -0.146780256027E+03   -0.94510E-05   -0.33300E-07  2272   0.110E-03    0.708E-04
DAV:  21    -0.146780256988E+03   -0.96075E-06   -0.12543E-07  2104   0.128E-03
  11 F= -.15283285E+03 E0= -.15280873E+03  d E =-.647204E-02  mag=    29.0503
       N       E                     dE             d eps       ncg     rms          rms(c)
DAV:   1    -0.146789397556E+03   -0.91415E-02   -0.54099E-01  3088   0.149E+00    0.650E-01
DAV:   2    -0.146815362005E+03   -0.25964E-01   -0.40308E-02  4600   0.133E+00    0.494E+00
DAV:   3    -0.146786738767E+03    0.28623E-01   -0.17222E-02  4312   0.134E+00    0.175E+00
DAV:   4    -0.146793260451E+03   -0.65217E-02   -0.39731E-03  4224   0.559E-01    0.683E-01
DAV:   5    -0.146792979636E+03    0.28081E-03   -0.53949E-04  4528   0.219E-01    0.355E-01
DAV:   6    -0.146792802542E+03    0.17709E-03   -0.11524E-04  4464   0.496E-02    0.527E-01
DAV:   7    -0.146792268066E+03    0.53448E-03   -0.25706E-04  4472   0.143E-01    0.380E-01
DAV:   8    -0.146792385209E+03   -0.11714E-03   -0.12101E-04  4272   0.709E-02    0.224E-01
DAV:   9    -0.146792499602E+03   -0.11439E-03   -0.16531E-05  4208   0.292E-02    0.413E-02
DAV:  10    -0.146792865674E+03   -0.36607E-03   -0.13207E-05  4152   0.239E-02    0.474E-02
DAV:  11    -0.146793066281E+03   -0.20061E-03   -0.24516E-06  2696   0.126E-02    0.715E-03
DAV:  12    -0.146793331653E+03   -0.26537E-03   -0.44705E-06  3296   0.820E-03    0.141E-02
DAV:  13    -0.146793507582E+03   -0.17593E-03   -0.13134E-06  2432   0.586E-03    0.120E-02
DAV:  14    -0.146793734734E+03   -0.22715E-03   -0.29420E-06  2824   0.508E-03    0.449E-03
DAV:  15    -0.146793865825E+03   -0.13109E-03   -0.13156E-06  2392   0.329E-03    0.278E-03
DAV:  16    -0.146793975502E+03   -0.10968E-03   -0.14659E-06  2512   0.314E-03    0.209E-03
DAV:  17    -0.146794072514E+03   -0.97012E-04   -0.18804E-06  2592   0.261E-03    0.137E-03
DAV:  18    -0.146794137305E+03   -0.64791E-04   -0.12730E-06  2440   0.237E-03    0.439E-03
DAV:  19    -0.146794157240E+03   -0.19934E-04   -0.51787E-07  2312   0.231E-03    0.794E-04
DAV:  20    -0.146794165763E+03   -0.85233E-05   -0.38496E-07  2280   0.161E-03    0.639E-04
DAV:  21    -0.146794169416E+03   -0.36529E-05   -0.22425E-07  2256   0.145E-03    0.483E-04
DAV:  22    -0.146794170644E+03   -0.12284E-05   -0.12900E-07  2056   0.100E-03    0.269E-04
DAV:  23    -0.146794171727E+03   -0.10832E-05   -0.92107E-08  2192   0.818E-04    0.371E-04
DAV:  24    -0.146794172039E+03   -0.31173E-06   -0.52060E-08  1960   0.679E-04
  12 F= -.15284939E+03 E0= -.15282527E+03  d E =-.230118E-01  mag=    29.0526
       N       E                     dE             d eps       ncg     rms          rms(c)
DAV:   1    -0.146790015310E+03    0.41564E-02   -0.21644E+00  3040   0.298E+00    0.131E+00
DAV:   2    -0.146864187792E+03   -0.74172E-01   -0.15956E-01  4616   0.261E+00    0.558E+00
DAV:   3    -0.146812924047E+03    0.51264E-01   -0.73863E-02  4520   0.277E+00    0.536E+00
DAV:   4    -0.146804549269E+03    0.83748E-02   -0.16542E-02  4240   0.139E+00    0.301E+00
DAV:   5    -0.146804803621E+03   -0.25435E-03   -0.31151E-03  4072   0.390E-01    0.172E+00
DAV:   6    -0.146803231940E+03    0.15717E-02   -0.74817E-04  4920   0.230E-01    0.695E-01
DAV:   7    -0.146804161285E+03   -0.92935E-03   -0.67717E-04  4384   0.163E-01    0.423E-01
DAV:   8    -0.146804356705E+03   -0.19542E-03   -0.42249E-04  4488   0.147E-01    0.249E-01
DAV:   9    -0.146805047873E+03   -0.69117E-03   -0.31872E-04  4680   0.166E-01    0.787E-01
DAV:  10    -0.146805183749E+03   -0.13588E-03   -0.14427E-04  4176   0.104E-01    0.184E-01
DAV:  11    -0.146805986081E+03   -0.80233E-03   -0.33685E-05  3976   0.286E-02    0.186E-02
DAV:  12    -0.146806540239E+03   -0.55416E-03   -0.11172E-05  3312   0.163E-02    0.698E-02
DAV:  13    -0.146807099831E+03   -0.55959E-03   -0.60270E-06  3320   0.153E-02    0.146E-02
DAV:  14    -0.146807751726E+03   -0.65189E-03   -0.93230E-06  3584   0.934E-03    0.161E-02
DAV:  15    -0.146807994798E+03   -0.24307E-03   -0.12858E-06  2552   0.502E-03    0.351E-03
DAV:  16    -0.146808409489E+03   -0.41469E-03   -0.63547E-06  3128   0.399E-03    0.473E-03
DAV:  17    -0.146808716019E+03   -0.30653E-03   -0.41331E-06  2944   0.330E-03    0.358E-03
DAV:  18    -0.146808847490E+03   -0.13147E-03   -0.12994E-06  2488   0.279E-03    0.745E-03
DAV:  19    -0.146808911431E+03   -0.63941E-04   -0.87126E-07  2352   0.260E-03    0.483E-03
DAV:  20    -0.146808956817E+03   -0.45386E-04   -0.93080E-07  2376   0.215E-03    0.438E-03
DAV:  21    -0.146808987839E+03   -0.31022E-04   -0.83751E-07  2360   0.227E-03    0.376E-03
DAV:  22    -0.146808998014E+03   -0.10174E-04   -0.47895E-07  2312   0.198E-03    0.109E-03
DAV:  23    -0.146808999727E+03   -0.17137E-05   -0.23132E-07  2088   0.163E-03    0.536E-04
DAV:  24    -0.146809001499E+03   -0.17713E-05   -0.15033E-07  2176   0.104E-03    0.122E-03
DAV:  25    -0.146809002805E+03   -0.13068E-05   -0.99009E-08  2160   0.102E-03    0.519E-04
DAV:  26    -0.146809003488E+03   -0.68271E-06   -0.70170E-08  2064   0.657E-04
  13 F= -.15286926E+03 E0= -.15284512E+03  d E =-.428853E-01  mag=    29.0577
       N       E                     dE             d eps       ncg     rms          rms(c)
DAV:   1    -0.146709732048E+03    0.99271E-01   -0.86596E+00  3040   0.597E+00    0.265E+00
DAV:   2    -0.146902714123E+03   -0.19298E+00   -0.62283E-01  4584   0.501E+00    0.645E+00
DAV:   3    -0.146867087350E+03    0.35627E-01   -0.31503E-01  4552   0.544E+00    0.126E+01
DAV:   4    -0.146772785247E+03    0.94302E-01   -0.92037E-02  4200   0.363E+00    0.544E+00
DAV:   5    -0.146790266207E+03   -0.17481E-01   -0.15106E-02  4120   0.849E-01    0.492E+00
DAV:   6    -0.146770934785E+03    0.19331E-01   -0.39746E-03  4576   0.537E-01    0.364E+00
DAV:   7    -0.146767566805E+03    0.33680E-02   -0.57020E-03  4872   0.827E-01    0.183E+00
DAV:   8    -0.146771770972E+03   -0.42042E-02   -0.52962E-03  4352   0.465E-01    0.330E-01
DAV:   9    -0.146774480861E+03   -0.27099E-02   -0.16900E-03  4496   0.338E-01    0.211E+00
DAV:  10    -0.146772465468E+03    0.20154E-02   -0.86371E-04  4120   0.203E-01    0.846E-01
DAV:  11    -0.146775003203E+03   -0.25377E-02   -0.29451E-04  3944   0.934E-02    0.267E-01
DAV:  12    -0.146776949221E+03   -0.19460E-02   -0.91263E-05  3880   0.493E-02    0.135E-01
DAV:  13    -0.146778456363E+03   -0.15071E-02   -0.30865E-05  4160   0.253E-02    0.190E-01
DAV:  14    -0.146780378225E+03   -0.19219E-02   -0.20700E-05  4120   0.242E-02    0.607E-02
DAV:  15    -0.146781721387E+03   -0.13432E-02   -0.16633E-05  3720   0.123E-02    0.188E-02
DAV:  16    -0.146782742567E+03   -0.10212E-02   -0.99919E-06  3384   0.732E-03    0.129E-02
DAV:  17    -0.146783643962E+03   -0.90139E-03   -0.87291E-06  3424   0.841E-03    0.357E-02
DAV:  18    -0.146784291357E+03   -0.64740E-03   -0.75913E-06  3368   0.578E-03    0.252E-02
DAV:  19    -0.146784712522E+03   -0.42116E-03   -0.49988E-06  3168   0.473E-03    0.313E-03
DAV:  20    -0.146784995134E+03   -0.28261E-03   -0.38557E-06  3000   0.352E-03    0.257E-03
DAV:  21    -0.146785219054E+03   -0.22392E-03   -0.47072E-06  2896   0.337E-03    0.499E-03
DAV:  22    -0.146785275147E+03   -0.56093E-04   -0.95961E-07  2472   0.230E-03    0.278E-03
DAV:  23    -0.146785281614E+03   -0.64671E-05   -0.28466E-07  2416   0.202E-03    0.219E-03
DAV:  24    -0.146785293135E+03   -0.11521E-04   -0.36719E-07  2200   0.126E-03    0.638E-04
DAV:  25    -0.146785296410E+03   -0.32748E-05   -0.16652E-07  2264   0.157E-03    0.107E-03
DAV:  26    -0.146785299170E+03   -0.27606E-05   -0.15073E-07  2264   0.100E-03    0.207E-03
DAV:  27    -0.146785300007E+03   -0.83694E-06   -0.74161E-08  2112   0.110E-03
  14 F= -.15285461E+03 E0= -.15283038E+03  d E =-.282342E-01  mag=    29.0690
       N       E                     dE             d eps       ncg     rms          rms(c)
DAV:   1    -0.146770330867E+03    0.14968E-01   -0.42718E+00  3048   0.421E+00    0.171E+00
DAV:   2    -0.146918001530E+03   -0.14767E+00   -0.31271E-01  4528   0.323E+00    0.141E+01
DAV:   3    -0.146773898534E+03    0.14410E+00   -0.10438E-01  4296   0.332E+00    0.470E+00
DAV:   4    -0.146808424835E+03   -0.34526E-01   -0.38941E-02  4344   0.201E+00    0.197E+00
DAV:   5    -0.146804066067E+03    0.43588E-02   -0.75957E-03  4480   0.938E-01    0.554E-01
DAV:   6    -0.146803222951E+03    0.84312E-03   -0.15992E-03  4688   0.317E-01    0.928E-01
DAV:   7    -0.146801875112E+03    0.13478E-02   -0.11904E-03  4432   0.145E-01    0.158E+00
DAV:   8    -0.146799483596E+03    0.23915E-02   -0.17936E-03  4720   0.376E-01    0.795E-01
DAV:   9    -0.146800960584E+03   -0.14770E-02   -0.75762E-04  4272   0.201E-01    0.260E-01
DAV:  10    -0.146802068625E+03   -0.11080E-02   -0.10409E-04  4368   0.675E-02    0.130E-01
DAV:  11    -0.146804055015E+03   -0.19864E-02   -0.75935E-05  4416   0.570E-02    0.481E-02
DAV:  12    -0.146805021784E+03   -0.96677E-03   -0.20798E-05  4384   0.228E-02    0.201E-02
DAV:  13    -0.146805969359E+03   -0.94758E-03   -0.88022E-06  3416   0.823E-03    0.100E-02
DAV:  14    -0.146807305585E+03   -0.13362E-02   -0.16998E-05  3184   0.727E-03    0.122E-02
DAV:  15    -0.146807921883E+03   -0.61630E-03   -0.60773E-06  3336   0.736E-03    0.668E-03
DAV:  16    -0.146808503920E+03   -0.58204E-03   -0.70046E-06  3224   0.485E-03    0.564E-03
DAV:  17    -0.146809028951E+03   -0.52503E-03   -0.89922E-06  3160   0.535E-03    0.169E-02
DAV:  18    -0.146809318154E+03   -0.28920E-03   -0.58192E-06  3032   0.488E-03    0.368E-03
DAV:  19    -0.146809403252E+03   -0.85098E-04   -0.12306E-06  2520   0.317E-03    0.555E-03
DAV:  20    -0.146809433404E+03   -0.30151E-04   -0.66522E-07  2288   0.252E-03    0.131E-03
DAV:  21    -0.146809456305E+03   -0.22901E-04   -0.64491E-07  2376   0.225E-03    0.288E-03
DAV:  22    -0.146809474918E+03   -0.18613E-04   -0.79609E-07  2384   0.257E-03    0.112E-03
DAV:  23    -0.146809477145E+03   -0.22266E-05   -0.30781E-07  2144   0.180E-03    0.116E-03
DAV:  24    -0.146809478242E+03   -0.10974E-05   -0.17862E-07  1952   0.109E-03    0.747E-04
DAV:  25    -0.146809479307E+03   -0.10646E-05   -0.11004E-07  2088   0.104E-03    0.126E-03
DAV:  26    -0.146809480049E+03   -0.74231E-06   -0.84239E-08  2000   0.791E-04
  15 F= -.15287256E+03 E0= -.15284840E+03  d E =-.461879E-01  mag=    29.0608
       N       E                     dE             d eps       ncg     rms          rms(c)
DAV:   1    -0.146811554353E+03   -0.20750E-02   -0.42314E-02  3184   0.402E-01    0.326E-01
DAV:   2    -0.146848688179E+03   -0.37134E-01   -0.13345E-02  4840   0.120E+00    0.855E+00
DAV:   3    -0.146789122895E+03    0.59565E-01   -0.15889E-02  4232   0.131E+00    0.398E-01
DAV:   4    -0.146810875542E+03   -0.21753E-01   -0.35954E-03  3200   0.200E-01    0.413E-01
DAV:   5    -0.146811751417E+03   -0.87587E-03   -0.27011E-04  4248   0.104E-01    0.376E-02
DAV:   6    -0.146811790258E+03   -0.38841E-04   -0.20776E-05  4304   0.220E-02    0.221E-01
DAV:   7    -0.146811747345E+03    0.42913E-04   -0.18796E-05  3984   0.401E-02    0.309E-02
DAV:   8    -0.146811792016E+03   -0.44671E-04   -0.81794E-06  3888   0.242E-02    0.157E-02
DAV:   9    -0.146811809258E+03   -0.17242E-04   -0.15951E-06  2440   0.108E-02    0.535E-02
DAV:  10    -0.146811811132E+03   -0.18743E-05   -0.16418E-06  2088   0.805E-03    0.383E-02
DAV:  11    -0.146811812779E+03   -0.16468E-05   -0.63202E-07  2240   0.417E-03    0.168E-02
DAV:  12    -0.146811816482E+03   -0.37029E-05   -0.33085E-07  2088   0.262E-03    0.486E-03
DAV:  13    -0.146811819510E+03   -0.30285E-05   -0.15409E-07  1968   0.184E-03    0.224E-03
DAV:  14    -0.146811822726E+03   -0.32152E-05   -0.80273E-08  1992   0.131E-03    0.281E-03
DAV:  15    -0.146811826828E+03   -0.41020E-05   -0.57369E-08  2104   0.917E-04    0.286E-03
DAV:  16    -0.146811830428E+03   -0.36009E-05   -0.31834E-08  2008   0.102E-03    0.674E-04
DAV:  17    -0.146811832876E+03   -0.24477E-05   -0.23080E-08  1936   0.564E-04    0.460E-04
DAV:  18    -0.146811835081E+03   -0.22048E-05   -0.12409E-08  2088   0.583E-04    0.195E-03
DAV:  19    -0.146811837597E+03   -0.25157E-05   -0.11886E-08  2160   0.444E-04    0.799E-04
DAV:  20    -0.146811840275E+03   -0.26780E-05   -0.15869E-08  2168   0.304E-04    0.252E-04
DAV:  21    -0.146811841302E+03   -0.10272E-05   -0.74432E-09  2000   0.310E-04    0.594E-04
DAV:  22    -0.146811841690E+03   -0.38804E-06   -0.41308E-09  1936   0.211E-04
  16 F= -.15287529E+03 E0= -.15285107E+03  d E =-.272590E-02  mag=    29.0673
       N       E                     dE             d eps       ncg     rms          rms(c)
DAV:   1    -0.146815948781E+03   -0.41075E-02   -0.38079E-01  3040   0.121E+00    0.964E-01
DAV:   2    -0.147084853408E+03   -0.26890E+00   -0.11469E-01  4832   0.354E+00    0.167E+01
DAV:   3    -0.146755884163E+03    0.32897E+00   -0.10567E-01  4296   0.380E+00    0.715E-01
DAV:   4    -0.146816264946E+03   -0.60381E-01   -0.14381E-02  3648   0.439E-01    0.135E+00
DAV:   5    -0.146817800340E+03   -0.15354E-02   -0.16416E-03  4144   0.305E-01    0.174E-01
DAV:   6    -0.146818655036E+03   -0.85470E-03   -0.23792E-04  4496   0.151E-01    0.106E+00
DAV:   7    -0.146817707599E+03    0.94744E-03   -0.30323E-04  4368   0.155E-01    0.146E-01
DAV:   8    -0.146818263629E+03   -0.55603E-03   -0.11544E-04  4424   0.734E-02    0.178E-01
DAV:   9    -0.146818407946E+03   -0.14432E-03   -0.55148E-05  4008   0.308E-02    0.295E-01
DAV:  10    -0.146818358376E+03    0.49570E-04   -0.16984E-05  4136   0.264E-02    0.219E-01
DAV:  11    -0.146818357625E+03    0.75137E-06   -0.42483E-06  2768   0.204E-02
  17 F= -.15288260E+03 E0= -.15285826E+03  d E =-.100370E-01  mag=    29.0821
       N       E                     dE             d eps       ncg     rms          rms(c)
DAV:   1    -0.146819670416E+03   -0.13120E-02   -0.15237E+00  3040   0.242E+00    0.187E+00
DAV:   2    -0.147503883312E+03   -0.68421E+00   -0.42534E-01  4784   0.690E+00    0.182E+01
DAV:   3    -0.146763531069E+03    0.74035E+00   -0.32042E-01  4568   0.704E+00    0.956E-01
DAV:   4    -0.146830717008E+03   -0.67186E-01   -0.45541E-02  4280   0.882E-01    0.315E+00
DAV:   5    -0.146827212150E+03    0.35049E-02   -0.57357E-03  4184   0.628E-01    0.976E-01
DAV:   6    -0.146829193108E+03   -0.19810E-02   -0.87417E-04  4728   0.292E-01    0.170E+00
DAV:   7    -0.146828591844E+03    0.60126E-03   -0.93835E-04  4224   0.253E-01    0.730E-01
DAV:   8    -0.146829476625E+03   -0.88478E-03   -0.51101E-04  4904   0.225E-01    0.879E-01
DAV:   9    -0.146829748264E+03   -0.27164E-03   -0.46734E-04  3320   0.780E-02    0.891E-01
DAV:  10    -0.146829182130E+03    0.56613E-03   -0.12889E-04  4632   0.977E-02    0.306E-01
DAV:  11    -0.146829596071E+03   -0.41394E-03   -0.52782E-05  3880   0.382E-02    0.134E-01
DAV:  12    -0.146829747163E+03   -0.15109E-03   -0.97382E-06  3520   0.186E-02    0.703E-02
DAV:  13    -0.146829818610E+03   -0.71447E-04   -0.28789E-06  2744   0.121E-02    0.120E-02
DAV:  14    -0.146829913357E+03   -0.94747E-04   -0.50114E-06  3120   0.799E-03    0.115E-02
DAV:  15    -0.146829970730E+03   -0.57374E-04   -0.78563E-07  2288   0.352E-03    0.126E-02
DAV:  16    -0.146830016261E+03   -0.45530E-04   -0.58738E-07  2344   0.406E-03    0.107E-02
DAV:  17    -0.146830052197E+03   -0.35936E-04   -0.61031E-07  2216   0.236E-03    0.289E-03
DAV:  18    -0.146830091174E+03   -0.38977E-04   -0.46228E-07  2216   0.280E-03    0.323E-03
DAV:  19    -0.146830112127E+03   -0.20953E-04   -0.33045E-07  2176   0.169E-03    0.150E-03
DAV:  20    -0.146830138246E+03   -0.26119E-04   -0.31227E-07  2272   0.216E-03    0.109E-02
DAV:  21    -0.146830155408E+03   -0.17162E-04   -0.31557E-07  2256   0.245E-03    0.381E-03
DAV:  22    -0.146830161261E+03   -0.58536E-05   -0.24183E-07  2232   0.130E-03    0.231E-03
DAV:  23    -0.146830162577E+03   -0.13159E-05   -0.86286E-08  2152   0.109E-03    0.644E-04
DAV:  24    -0.146830164189E+03   -0.16119E-05   -0.57145E-08  2184   0.669E-04    0.189E-03
DAV:  25    -0.146830164681E+03   -0.49216E-06   -0.30815E-08  1992   0.736E-04
  18 F= -.15289532E+03 E0= -.15287050E+03  d E =-.227534E-01  mag=    29.1264
       N       E                     dE             d eps       ncg     rms          rms(c)
DAV:   1    -0.146804972802E+03    0.25191E-01   -0.60881E+00  3040   0.483E+00    0.333E+00
DAV:   2    -0.148207731952E+03   -0.14028E+01   -0.13460E+00  4848   0.122E+01    0.206E+01
DAV:   3    -0.146781313220E+03    0.14264E+01   -0.85603E-01  4640   0.117E+01    0.504E+00
DAV:   4    -0.146873777322E+03   -0.92464E-01   -0.20001E-01  4720   0.249E+00    0.450E+00
DAV:   5    -0.146856679221E+03    0.17098E-01   -0.31443E-02  4288   0.145E+00    0.379E+00
DAV:   6    -0.146842559079E+03    0.14120E-01   -0.32594E-03  4688   0.588E-01    0.239E+00
DAV:   7    -0.146840332140E+03    0.22269E-02   -0.20488E-03  4896   0.444E-01    0.715E-01
DAV:   8    -0.146846169472E+03   -0.58373E-02   -0.19646E-03  4224   0.225E-01    0.175E+00
DAV:   9    -0.146844939533E+03    0.12299E-02   -0.15167E-03  4552   0.421E-01    0.112E+00
DAV:  10    -0.146845836405E+03   -0.89687E-03   -0.10099E-03  4080   0.151E-01    0.105E+00
DAV:  11    -0.146844885560E+03    0.95085E-03   -0.28707E-04  4776   0.170E-01    0.193E-01
DAV:  12    -0.146845872344E+03   -0.98678E-03   -0.15338E-04  3752   0.681E-02    0.687E-02
DAV:  13    -0.146845972377E+03   -0.10003E-03   -0.19683E-05  4232   0.428E-02    0.960E-02
DAV:  14    -0.146846127860E+03   -0.15548E-03   -0.11852E-05  4088   0.191E-02    0.172E-01
DAV:  15    -0.146846307232E+03   -0.17937E-03   -0.82212E-06  3664   0.216E-02    0.258E-02
DAV:  16    -0.146846458367E+03   -0.15114E-03   -0.38095E-06  2800   0.784E-03    0.127E-02
DAV:  17    -0.146846533909E+03   -0.75542E-04   -0.84369E-07  2232   0.598E-03    0.343E-02
DAV:  18    -0.146846620753E+03   -0.86845E-04   -0.17762E-06  2496   0.587E-03    0.222E-02
DAV:  19    -0.146846677322E+03   -0.56569E-04   -0.78940E-07  2360   0.341E-03    0.158E-02
DAV:  20    -0.146846725930E+03   -0.48608E-04   -0.79427E-07  2368   0.260E-03    0.640E-03
DAV:  21    -0.146846768833E+03   -0.42904E-04   -0.75262E-07  2336   0.266E-03    0.937E-03
DAV:  22    -0.146846785260E+03   -0.16426E-04   -0.45414E-07  2272   0.263E-03    0.351E-03
DAV:  23    -0.146846789906E+03   -0.46461E-05   -0.30468E-07  2248   0.154E-03    0.302E-03
DAV:  24    -0.146846791363E+03   -0.14577E-05   -0.12875E-07  2032   0.150E-03    0.740E-04
DAV:  25    -0.146846792005E+03   -0.64199E-06   -0.77922E-08  2104   0.808E-04
  19 F= -.15291304E+03 E0= -.15288749E+03  d E =-.404813E-01  mag=    29.2062
       N       E                     dE             d eps       ncg     rms          rms(c)
DAV:   1    -0.146681888626E+03    0.16490E+00   -0.24322E+01  3040   0.967E+00    0.471E+00
DAV:   2    -0.148609299703E+03   -0.19274E+01   -0.31893E+00  5048   0.162E+01    0.222E+01
DAV:   3    -0.146771734564E+03    0.18376E+01   -0.14508E+00  4520   0.147E+01    0.167E+00
DAV:   4    -0.146855274645E+03   -0.83540E-01   -0.21874E-01  4184   0.150E+00    0.260E+00
DAV:   5    -0.146858024416E+03   -0.27498E-02   -0.16526E-02  4728   0.138E+00    0.472E+00
DAV:   6    -0.146847516965E+03    0.10507E-01   -0.10416E-02  4600   0.108E+00    0.137E+00
DAV:   7    -0.146852492321E+03   -0.49754E-02   -0.38183E-03  4440   0.462E-01    0.150E+00
DAV:   8    -0.146860798208E+03   -0.83059E-02   -0.62240E-03  4656   0.904E-01    0.305E+00
DAV:   9    -0.146860698978E+03    0.99230E-04   -0.49019E-03  4000   0.223E-01    0.319E+00
DAV:  10    -0.146850771684E+03    0.99273E-02   -0.14888E-03  4264   0.408E-01    0.222E+00
DAV:  11    -0.146850828833E+03   -0.57149E-04   -0.55723E-04  4768   0.208E-01    0.159E+00
DAV:  12    -0.146851084154E+03   -0.25532E-03   -0.41867E-04  4720   0.184E-01    0.692E-01
DAV:  13    -0.146852591985E+03   -0.15078E-02   -0.21122E-04  3848   0.608E-02    0.477E-01
DAV:  14    -0.146853294521E+03   -0.70254E-03   -0.31287E-05  3256   0.255E-02    0.496E-01
DAV:  15    -0.146853831321E+03   -0.53680E-03   -0.47853E-05  4736   0.781E-02    0.380E-02
DAV:  16    -0.146854353827E+03   -0.52251E-03   -0.39280E-05  3864   0.257E-02    0.211E-02
DAV:  17    -0.146854625631E+03   -0.27180E-03   -0.82432E-06  3704   0.106E-02    0.264E-02
DAV:  18    -0.146854942751E+03   -0.31712E-03   -0.33343E-06  2704   0.902E-03    0.385E-02
DAV:  19    -0.146855334496E+03   -0.39175E-03   -0.10181E-05  3648   0.138E-02    0.307E-02
DAV:  20    -0.146855527864E+03   -0.19337E-03   -0.38545E-06  2848   0.100E-02    0.108E-02
DAV:  21    -0.146855582058E+03   -0.54194E-04   -0.11135E-06  2360   0.496E-03    0.686E-03
DAV:  22    -0.146855628824E+03   -0.46766E-04   -0.13844E-06  2432   0.283E-03    0.673E-03
DAV:  23    -0.146855667504E+03   -0.38680E-04   -0.73157E-07  2352   0.287E-03    0.305E-03
DAV:  24    -0.146855679186E+03   -0.11682E-04   -0.43160E-07  2296   0.234E-03    0.494E-03
DAV:  25    -0.146855681942E+03   -0.27559E-05   -0.22710E-07  2064   0.195E-03    0.282E-03
DAV:  26    -0.146855683215E+03   -0.12729E-05   -0.17410E-07  2176   0.122E-03    0.163E-03
DAV:  27    -0.146855683508E+03   -0.29268E-06   -0.77951E-08  1952   0.101E-03
  20 F= -.15292373E+03 E0= -.15289726E+03  d E =-.511701E-01  mag=    29.3683
       N       E                     dE             d eps       ncg     rms          rms(c)
DAV:   1    -0.146839557185E+03    0.16126E-01   -0.32832E+00  3040   0.364E+00    0.222E+00
DAV:   2    -0.147652492856E+03   -0.81294E+00   -0.52644E-01  4848   0.801E+00    0.195E+01
DAV:   3    -0.146790023180E+03    0.86247E+00   -0.36186E-01  4552   0.772E+00    0.153E+00
DAV:   4    -0.146867623439E+03   -0.77600E-01   -0.59637E-02  4424   0.158E+00    0.247E+00
DAV:   5    -0.146864539721E+03    0.30837E-02   -0.93575E-03  4440   0.932E-01    0.496E-01
DAV:   6    -0.146866100383E+03   -0.15607E-02   -0.12057E-03  4472   0.183E-01    0.132E+00
DAV:   7    -0.146866945036E+03   -0.84465E-03   -0.18142E-03  4552   0.531E-01    0.185E+00
DAV:   8    -0.146865781968E+03    0.11631E-02   -0.10221E-03  3928   0.137E-01    0.179E+00
DAV:   9    -0.146862933284E+03    0.28487E-02   -0.46896E-04  4760   0.211E-01    0.785E-01
DAV:  10    -0.146864523630E+03   -0.15903E-02   -0.21463E-04  4160   0.953E-02    0.452E-01
DAV:  11    -0.146865364686E+03   -0.84106E-03   -0.64139E-05  4352   0.706E-02    0.107E-01
DAV:  12    -0.146865986090E+03   -0.62140E-03   -0.34880E-05  3840   0.266E-02    0.168E-02
DAV:  13    -0.146866445072E+03   -0.45898E-03   -0.78505E-06  3280   0.106E-02    0.173E-02
DAV:  14    -0.146866942412E+03   -0.49734E-03   -0.59686E-06  3272   0.667E-03    0.626E-03
DAV:  15    -0.146867239335E+03   -0.29692E-03   -0.26101E-06  2720   0.405E-03    0.397E-03
DAV:  16    -0.146867538032E+03   -0.29870E-03   -0.36367E-06  2968   0.395E-03    0.391E-03
DAV:  17    -0.146867837254E+03   -0.29922E-03   -0.52913E-06  3176   0.418E-03    0.105E-02
DAV:  18    -0.146867984588E+03   -0.14733E-03   -0.23623E-06  2680   0.318E-03    0.211E-03
DAV:  19    -0.146868043279E+03   -0.58691E-04   -0.10304E-06  2408   0.252E-03    0.189E-03
DAV:  20    -0.146868056325E+03   -0.13046E-04   -0.38362E-07  2376   0.224E-03    0.356E-03
DAV:  21    -0.146868071879E+03   -0.15555E-04   -0.48034E-07  2304   0.192E-03    0.147E-03
DAV:  22    -0.146868076391E+03   -0.45117E-05   -0.25664E-07  2296   0.184E-03    0.306E-03
DAV:  23    -0.146868079054E+03   -0.26632E-05   -0.18324E-07  2232   0.134E-03    0.621E-04
DAV:  24    -0.146868080267E+03   -0.12123E-05   -0.11521E-07  2208   0.107E-03    0.342E-04
DAV:  25    -0.146868080788E+03   -0.52097E-06   -0.62535E-08  2024   0.729E-04
  21 F= -.15293676E+03 E0= -.15291028E+03  d E =-.130304E-01  mag=    29.4282
       N       E                     dE             d eps       ncg     rms          rms(c)
DAV:   1    -0.146847903788E+03    0.20176E-01   -0.26969E+00  3040   0.330E+00    0.197E+00
DAV:   2    -0.147536614092E+03   -0.68871E+00   -0.41145E-01  4856   0.708E+00    0.193E+01
DAV:   3    -0.146792571750E+03    0.74404E+00   -0.28775E-01  4536   0.687E+00    0.160E+00
DAV:   4    -0.146871021056E+03   -0.78449E-01   -0.47539E-02  4392   0.142E+00    0.218E+00
DAV:   5    -0.146868378773E+03    0.26423E-02   -0.73798E-03  4440   0.821E-01    0.305E-01
DAV:   6    -0.146869547194E+03   -0.11684E-02   -0.93091E-04  4496   0.157E-01    0.113E+00
DAV:   7    -0.146870253266E+03   -0.70607E-03   -0.15221E-03  4456   0.482E-01    0.158E+00
DAV:   8    -0.146869192696E+03    0.10606E-02   -0.80724E-04  4128   0.134E-01    0.150E+00
DAV:   9    -0.146867212203E+03    0.19805E-02   -0.33968E-04  4824   0.196E-01    0.573E-01
DAV:  10    -0.146868530699E+03   -0.13185E-02   -0.16321E-04  4184   0.829E-02    0.279E-01
DAV:  11    -0.146869231589E+03   -0.70089E-03   -0.44707E-05  4232   0.510E-02    0.691E-02
DAV:  12    -0.146869692309E+03   -0.46072E-03   -0.17554E-05  3824   0.186E-02    0.154E-02
DAV:  13    -0.146870089086E+03   -0.39678E-03   -0.51596E-06  3184   0.808E-03    0.104E-02
DAV:  14    -0.146870504114E+03   -0.41503E-03   -0.49096E-06  3136   0.587E-03    0.109E-02
DAV:  15    -0.146870740296E+03   -0.23618E-03   -0.17488E-06  2584   0.520E-03    0.105E-02
DAV:  16    -0.146870928001E+03   -0.18770E-03   -0.20225E-06  2576   0.416E-03    0.386E-03
DAV:  17    -0.146871166881E+03   -0.23888E-03   -0.45643E-06  3184   0.480E-03    0.111E-02
DAV:  18    -0.146871319734E+03   -0.15285E-03   -0.25104E-06  2720   0.414E-03    0.703E-03
DAV:  19    -0.146871375279E+03   -0.55546E-04   -0.10909E-06  2408   0.311E-03    0.378E-03
DAV:  20    -0.146871389694E+03   -0.14415E-04   -0.49442E-07  2320   0.230E-03    0.492E-03
DAV:  21    -0.146871405883E+03   -0.16189E-04   -0.52427E-07  2296   0.208E-03    0.221E-03
DAV:  22    -0.146871412229E+03   -0.63460E-05   -0.36818E-07  2280   0.176E-03    0.179E-03
DAV:  23    -0.146871413438E+03   -0.12096E-05   -0.17453E-07  2264   0.131E-03    0.477E-04
DAV:  24    -0.146871414136E+03   -0.69801E-06   -0.99205E-08  2176   0.942E-04
  22 F= -.15294064E+03 E0= -.15291430E+03  d E =-.169061E-01  mag=    29.4827
       N       E                     dE             d eps       ncg     rms          rms(c)
DAV:   1    -0.146858569110E+03    0.12844E-01   -0.23058E+00  3040   0.310E+00    0.152E+00
DAV:   2    -0.147277650294E+03   -0.41908E+00   -0.25740E-01  4936   0.499E+00    0.186E+01
DAV:   3    -0.146799739956E+03    0.47791E+00   -0.15653E-01  4472   0.479E+00    0.135E+00
DAV:   4    -0.146876670856E+03   -0.76931E-01   -0.29977E-02  4256   0.129E+00    0.182E+00
DAV:   5    -0.146877088082E+03   -0.41723E-03   -0.58780E-03  4472   0.734E-01    0.291E-01
DAV:   6    -0.146877661579E+03   -0.57350E-03   -0.61288E-04  4464   0.119E-01    0.678E-01
DAV:   7    -0.146877804582E+03   -0.14300E-03   -0.70339E-04  4640   0.293E-01    0.814E-01
DAV:   8    -0.146877808260E+03   -0.36779E-05   -0.47331E-04  4376   0.117E-01    0.854E-01
DAV:   9    -0.146877160732E+03    0.64753E-03   -0.18648E-04  4848   0.127E-01    0.272E-01
DAV:  10    -0.146877642946E+03   -0.48221E-03   -0.56410E-05  4136   0.370E-02    0.220E-01
DAV:  11    -0.146877747110E+03   -0.10416E-03   -0.94042E-06  3992   0.321E-02    0.625E-02
DAV:  12    -0.146877887535E+03   -0.14043E-03   -0.75789E-06  3376   0.151E-02    0.156E-02
DAV:  13    -0.146878026276E+03   -0.13874E-03   -0.33760E-06  2960   0.989E-03    0.318E-02
DAV:  14    -0.146878130565E+03   -0.10429E-03   -0.14311E-06  2472   0.102E-02    0.120E-02
DAV:  15    -0.146878203566E+03   -0.73001E-04   -0.16940E-06  2456   0.478E-03    0.101E-02
DAV:  16    -0.146878258286E+03   -0.54720E-04   -0.73907E-07  2280   0.329E-03    0.241E-03
DAV:  17    -0.146878312873E+03   -0.54587E-04   -0.82169E-07  2408   0.279E-03    0.443E-03
DAV:  18    -0.146878364778E+03   -0.51905E-04   -0.73682E-07  2416   0.232E-03    0.744E-03
DAV:  19    -0.146878396482E+03   -0.31704E-04   -0.54994E-07  2288   0.235E-03    0.527E-03
DAV:  20    -0.146878412896E+03   -0.16414E-04   -0.43335E-07  2240   0.158E-03    0.384E-03
DAV:  21    -0.146878425852E+03   -0.12956E-04   -0.30412E-07  2248   0.159E-03    0.124E-03
DAV:  22    -0.146878438006E+03   -0.12155E-04   -0.38467E-07  2344   0.134E-03    0.119E-03
DAV:  23    -0.146878442015E+03   -0.40090E-05   -0.18066E-07  2128   0.138E-03    0.560E-04
DAV:  24    -0.146878443957E+03   -0.19413E-05   -0.12043E-07  2000   0.832E-04    0.741E-04
DAV:  25    -0.146878445725E+03   -0.17680E-05   -0.92343E-08  2176   0.816E-04    0.397E-04
DAV:  26    -0.146878446549E+03   -0.82422E-06   -0.68171E-08  2136   0.654E-04
  23 F= -.15294763E+03 E0= -.15292128E+03  d E =-.699088E-02  mag=    29.4981
       N       E                     dE             d eps       ncg     rms          rms(c)
DAV:   1    -0.146874681478E+03    0.37642E-02   -0.53837E-01  3080   0.150E+00    0.749E-01
DAV:   2    -0.147010074143E+03   -0.13539E+00   -0.62038E-02  4944   0.249E+00    0.158E+01
DAV:   3    -0.146816252609E+03    0.19382E+00   -0.49835E-02  4248   0.248E+00    0.818E-01
DAV:   4    -0.146876716057E+03   -0.60463E-01   -0.13131E-02  3992   0.731E-01    0.110E+00
DAV:   5    -0.146878938710E+03   -0.22227E-02   -0.21347E-03  4392   0.403E-01    0.262E-01
DAV:   6    -0.146878932032E+03    0.66779E-05   -0.17406E-04  4416   0.648E-02    0.186E-01
DAV:   7    -0.146878959956E+03   -0.27924E-04   -0.14260E-04  4536   0.998E-02    0.139E-01
DAV:   8    -0.146878982842E+03   -0.22886E-04   -0.80416E-05  4720   0.700E-02    0.215E-01
DAV:   9    -0.146878959484E+03    0.23358E-04   -0.25350E-05  4600   0.399E-02    0.588E-02
DAV:  10    -0.146879033797E+03   -0.74313E-04   -0.44913E-06  2976   0.920E-03    0.668E-02
DAV:  11    -0.146879067276E+03   -0.33479E-04   -0.54473E-07  2328   0.873E-03    0.293E-02
DAV:  12    -0.146879130488E+03   -0.63212E-04   -0.15720E-06  2456   0.946E-03    0.300E-02
DAV:  13    -0.146879173692E+03   -0.43204E-04   -0.21116E-06  2504   0.744E-03    0.138E-02
DAV:  14    -0.146879187922E+03   -0.14229E-04   -0.52065E-07  2152   0.347E-03    0.394E-03
DAV:  15    -0.146879205043E+03   -0.17121E-04   -0.25635E-07  2096   0.223E-03    0.608E-03
DAV:  16    -0.146879227642E+03   -0.22599E-04   -0.26940E-07  2216   0.201E-03    0.803E-03
DAV:  17    -0.146879242219E+03   -0.14577E-04   -0.18870E-07  2168   0.166E-03    0.358E-03
DAV:  18    -0.146879254979E+03   -0.12760E-04   -0.20369E-07  2160   0.103E-03    0.325E-03
DAV:  19    -0.146879272993E+03   -0.18014E-04   -0.21922E-07  2288   0.141E-03    0.858E-04
DAV:  20    -0.146879283443E+03   -0.10450E-04   -0.17643E-07  2208   0.113E-03    0.886E-04
DAV:  21    -0.146879291421E+03   -0.79779E-05   -0.15753E-07  2176   0.105E-03    0.614E-04
DAV:  22    -0.146879297462E+03   -0.60413E-05   -0.14676E-07  2264   0.973E-04    0.712E-04
DAV:  23    -0.146879299533E+03   -0.20701E-05   -0.89276E-08  2016   0.865E-04    0.556E-04
DAV:  24    -0.146879301109E+03   -0.15769E-05   -0.66227E-08  2120   0.686E-04    0.507E-04
DAV:  25    -0.146879302236E+03   -0.11262E-05   -0.50919E-08  2152   0.587E-04    0.195E-04
DAV:  26    -0.146879303102E+03   -0.86618E-06   -0.47572E-08  2136   0.489E-04
  24 F= -.15294846E+03 E0= -.15292212E+03  d E =-.782042E-02  mag=    29.5055
       N       E                     dE             d eps       ncg     rms          rms(c)
DAV:   1    -0.146876285065E+03    0.30172E-02   -0.54166E-01  3056   0.150E+00    0.614E-01
DAV:   2    -0.146931080665E+03   -0.54796E-01   -0.45636E-02  4872   0.166E+00    0.111E+01
DAV:   3    -0.146845946631E+03    0.85134E-01   -0.24975E-02  4256   0.167E+00    0.806E-01
DAV:   4    -0.146879940659E+03   -0.33994E-01   -0.63545E-03  3392   0.293E-01    0.352E-01
DAV:   5    -0.146881103568E+03   -0.11629E-02   -0.46335E-04  4624   0.114E-01    0.202E-01
DAV:   6    -0.146881088665E+03    0.14903E-04   -0.90136E-05  4552   0.832E-02    0.176E-01
DAV:   7    -0.146881128535E+03   -0.39870E-04   -0.67359E-05  4496   0.448E-02    0.202E-01
DAV:   8    -0.146881102150E+03    0.26385E-04   -0.45621E-05  4616   0.563E-02    0.673E-02
DAV:   9    -0.146881140821E+03   -0.38671E-04   -0.22513E-05  4400   0.302E-02    0.315E-02
DAV:  10    -0.146881153725E+03   -0.12904E-04   -0.22211E-06  2640   0.102E-02    0.599E-03
DAV:  11    -0.146881173859E+03   -0.20134E-04   -0.97857E-07  2240   0.507E-03    0.189E-02
DAV:  12    -0.146881194199E+03   -0.20340E-04   -0.79318E-07  2240   0.386E-03    0.205E-02
DAV:  13    -0.146881207735E+03   -0.13536E-04   -0.41034E-07  2288   0.293E-03    0.137E-02
DAV:  14    -0.146881217761E+03   -0.10026E-04   -0.26116E-07  2208   0.208E-03    0.867E-03
DAV:  15    -0.146881229165E+03   -0.11404E-04   -0.18532E-07  2248   0.196E-03    0.201E-03
DAV:  16    -0.146881245200E+03   -0.16035E-04   -0.29058E-07  2256   0.180E-03    0.545E-03
DAV:  17    -0.146881253488E+03   -0.82888E-05   -0.25014E-07  2280   0.199E-03    0.244E-03
DAV:  18    -0.146881254750E+03   -0.12619E-05   -0.11693E-07  2072   0.991E-04    0.919E-04
DAV:  19    -0.146881256113E+03   -0.13629E-05   -0.58419E-08  2000   0.768E-04    0.640E-04
DAV:  20    -0.146881258734E+03   -0.26212E-05   -0.48778E-08  2168   0.594E-04    0.117E-03
DAV:  21    -0.146881261874E+03   -0.31400E-05   -0.55921E-08  2240   0.637E-04    0.517E-04
DAV:  22    -0.146881264387E+03   -0.25129E-05   -0.52657E-08  2200   0.566E-04    0.326E-04
DAV:  23    -0.146881265844E+03   -0.14569E-05   -0.40958E-08  2224   0.555E-04    0.203E-04
DAV:  24    -0.146881266574E+03   -0.73001E-06   -0.28809E-08  2072   0.455E-04
  25 F= -.15295046E+03 E0= -.15292411E+03  d E =-.200311E-02  mag=    29.5000
       N       E                     dE             d eps       ncg     rms          rms(c)
DAV:   1    -0.146876785749E+03    0.44801E-02   -0.55715E-01  3040   0.153E+00    0.622E-01
DAV:   2    -0.146932707570E+03   -0.55922E-01   -0.46936E-02  4880   0.168E+00    0.111E+01
DAV:   3    -0.146846101777E+03    0.86606E-01   -0.25623E-02  4256   0.168E+00    0.816E-01
DAV:   4    -0.146880560802E+03   -0.34459E-01   -0.64813E-03  3368   0.297E-01    0.367E-01
DAV:   5    -0.146881737814E+03   -0.11770E-02   -0.48599E-04  4608   0.125E-01    0.205E-01
DAV:   6    -0.146881720212E+03    0.17602E-04   -0.86019E-05  4568   0.791E-02    0.192E-01
DAV:   7    -0.146881756337E+03   -0.36125E-04   -0.76497E-05  4400   0.408E-02    0.203E-01
DAV:   8    -0.146881733712E+03    0.22626E-04   -0.43652E-05  4640   0.572E-02    0.700E-02
DAV:   9    -0.146881774215E+03   -0.40503E-04   -0.22608E-05  4328   0.306E-02    0.349E-02
DAV:  10    -0.146881787770E+03   -0.13555E-04   -0.21924E-06  2592   0.100E-02    0.573E-03
DAV:  11    -0.146881808953E+03   -0.21182E-04   -0.97015E-07  2272   0.482E-03    0.183E-02
DAV:  12    -0.146881830002E+03   -0.21049E-04   -0.75412E-07  2224   0.384E-03    0.215E-02
DAV:  13    -0.146881845338E+03   -0.15336E-04   -0.42282E-07  2280   0.312E-03    0.136E-02
DAV:  14    -0.146881856523E+03   -0.11185E-04   -0.28121E-07  2208   0.212E-03    0.791E-03
DAV:  15    -0.146881868085E+03   -0.11562E-04   -0.20238E-07  2240   0.169E-03    0.327E-03
DAV:  16    -0.146881883166E+03   -0.15080E-04   -0.25131E-07  2232   0.166E-03    0.311E-03
DAV:  17    -0.146881893688E+03   -0.10523E-04   -0.26563E-07  2256   0.160E-03    0.278E-03
DAV:  18    -0.146881895016E+03   -0.13278E-05   -0.11116E-07  2104   0.112E-03    0.144E-03
DAV:  19    -0.146881896692E+03   -0.16760E-05   -0.63949E-08  2064   0.708E-04    0.659E-04
DAV:  20    -0.146881899261E+03   -0.25689E-05   -0.50492E-08  2136   0.599E-04    0.653E-04
DAV:  21    -0.146881903614E+03   -0.43534E-05   -0.79995E-08  2224   0.599E-04    0.558E-04
DAV:  22    -0.146881905575E+03   -0.19602E-05   -0.49115E-08  2240   0.656E-04    0.247E-04
DAV:  23    -0.146881906856E+03   -0.12817E-05   -0.41438E-08  2168   0.450E-04    0.287E-04
DAV:  24    -0.146881907748E+03   -0.89133E-06   -0.29099E-08  2144   0.488E-04
  26 F= -.15295114E+03 E0= -.15292478E+03  d E =-.267915E-02  mag=    29.4941
       N       E                     dE             d eps       ncg     rms          rms(c)
DAV:   1    -0.146878338757E+03    0.35681E-02   -0.52330E-01  3040   0.147E+00    0.524E-01
DAV:   2    -0.146882439692E+03   -0.41009E-02   -0.37629E-02  4408   0.756E-01    0.762E-01
DAV:   3    -0.146906259755E+03   -0.23820E-01   -0.84603E-03  4736   0.112E+00    0.760E+00
DAV:   4    -0.146864735993E+03    0.41524E-01   -0.99619E-03  4112   0.107E+00    0.339E-01
DAV:   5    -0.146881416659E+03   -0.16681E-01   -0.31509E-03  3872   0.268E-01    0.225E-01
DAV:   6    -0.146882692774E+03   -0.12761E-02   -0.39603E-04  4312   0.112E-01    0.140E-01
DAV:   7    -0.146882690641E+03    0.21333E-05   -0.10142E-04  4424   0.354E-02    0.152E-01
DAV:   8    -0.146882671940E+03    0.18701E-04   -0.24134E-05  4432   0.295E-02    0.212E-02
DAV:   9    -0.146882714227E+03   -0.42288E-04   -0.96153E-06  4008   0.146E-02    0.953E-03
DAV:  10    -0.146882746701E+03   -0.32474E-04   -0.38253E-06  3104   0.134E-02    0.225E-02
DAV:  11    -0.146882771290E+03   -0.24589E-04   -0.11188E-06  2296   0.117E-02    0.238E-02
DAV:  12    -0.146882796857E+03   -0.25567E-04   -0.80556E-07  2144   0.557E-03    0.355E-03
DAV:  13    -0.146882820775E+03   -0.23918E-04   -0.68585E-07  2248   0.270E-03    0.486E-03
DAV:  14    -0.146882838613E+03   -0.17838E-04   -0.32131E-07  2208   0.242E-03    0.323E-03
DAV:  15    -0.146882850435E+03   -0.11822E-04   -0.21698E-07  2168   0.223E-03    0.133E-03
DAV:  16    -0.146882860086E+03   -0.96508E-05   -0.20331E-07  2160   0.136E-03    0.146E-03
DAV:  17    -0.146882872168E+03   -0.12082E-04   -0.17099E-07  2120   0.134E-03    0.882E-04
DAV:  18    -0.146882881441E+03   -0.92730E-05   -0.16495E-07  2248   0.131E-03    0.258E-03
DAV:  19    -0.146882885820E+03   -0.43784E-05   -0.12388E-07  2120   0.122E-03    0.959E-04
DAV:  20    -0.146882890278E+03   -0.44584E-05   -0.11754E-07  2184   0.896E-04    0.749E-04
DAV:  21    -0.146882892148E+03   -0.18702E-05   -0.76709E-08  2152   0.896E-04    0.467E-04
DAV:  22    -0.146882893013E+03   -0.86474E-06   -0.50469E-08  2072   0.602E-04
  27 F= -.15295241E+03 E0= -.15292612E+03  d E =-.127213E-02  mag=    29.4872
       N       E                     dE             d eps       ncg     rms          rms(c)
DAV:   1    -0.146881194539E+03    0.16976E-02   -0.20164E-01  3136   0.913E-01    0.324E-01
DAV:   2    -0.146882700384E+03   -0.15058E-02   -0.14502E-02  4328   0.462E-01    0.418E-01
DAV:   3    -0.146891447251E+03   -0.87469E-02   -0.31160E-03  4728   0.680E-01    0.446E+00
DAV:   4    -0.146875639413E+03    0.15808E-01   -0.36578E-03  4096   0.660E-01    0.217E-01
DAV:   5    -0.146882303893E+03   -0.66645E-02   -0.10977E-03  3864   0.154E-01    0.140E-01
DAV:   6    -0.146882855543E+03   -0.55165E-03   -0.14729E-04  4312   0.732E-02    0.979E-02
DAV:   7    -0.146882850862E+03    0.46809E-05   -0.39817E-05  4480   0.246E-02    0.113E-01
DAV:   8    -0.146882837783E+03    0.13079E-04   -0.11396E-05  4296   0.249E-02    0.385E-02
DAV:   9    -0.146882862747E+03   -0.24963E-04   -0.46978E-06  3088   0.155E-02    0.132E-02
DAV:  10    -0.146882877276E+03   -0.14530E-04   -0.21805E-06  2600   0.124E-02    0.229E-02
DAV:  11    -0.146882890749E+03   -0.13472E-04   -0.79734E-07  2216   0.886E-03    0.153E-02
DAV:  12    -0.146882903501E+03   -0.12752E-04   -0.56764E-07  2120   0.356E-03    0.407E-03
DAV:  13    -0.146882912212E+03   -0.87113E-05   -0.31118E-07  2088   0.203E-03    0.357E-03
DAV:  14    -0.146882919170E+03   -0.69577E-05   -0.11744E-07  2104   0.173E-03    0.193E-03
DAV:  15    -0.146882931225E+03   -0.12056E-04   -0.16697E-07  2104   0.127E-03    0.103E-03
DAV:  16    -0.146882936962E+03   -0.57362E-05   -0.10310E-07  2144   0.116E-03    0.174E-03
DAV:  17    -0.146882941097E+03   -0.41356E-05   -0.62147E-08  2048   0.990E-04    0.106E-03
DAV:  18    -0.146882944056E+03   -0.29584E-05   -0.48240E-08  2040   0.773E-04    0.908E-04
DAV:  19    -0.146882946661E+03   -0.26056E-05   -0.40827E-08  2032   0.515E-04    0.130E-03
DAV:  20    -0.146882949912E+03   -0.32510E-05   -0.37767E-08  2144   0.538E-04    0.134E-03
DAV:  21    -0.146882952738E+03   -0.28256E-05   -0.47292E-08  2136   0.586E-04    0.517E-04
DAV:  22    -0.146882953701E+03   -0.96315E-06   -0.29442E-08  2072   0.551E-04
  28 F= -.15295265E+03 E0= -.15292641E+03  d E =-.150841E-02  mag=    29.4829
       N       E                     dE             d eps       ncg     rms          rms(c)
DAV:   1    -0.146878279752E+03    0.46730E-02   -0.70161E-01  3040   0.171E+00    0.775E-01
DAV:   2    -0.146921637666E+03   -0.43358E-01   -0.75261E-02  4912   0.249E+00    0.338E+00
DAV:   3    -0.146880654414E+03    0.40983E-01   -0.35952E-02  4576   0.224E+00    0.351E-01
DAV:   4    -0.146883972503E+03   -0.33181E-02   -0.27665E-03  4168   0.220E-01    0.167E-01
DAV:   5    -0.146884146143E+03   -0.17364E-03   -0.20176E-04  4488   0.519E-02    0.444E-01
DAV:   6    -0.146883977550E+03    0.16859E-03   -0.55934E-05  3800   0.640E-02    0.280E-01
DAV:   7    -0.146884040752E+03   -0.63202E-04   -0.51108E-05  4776   0.640E-02    0.100E-01
DAV:   8    -0.146884164917E+03   -0.12417E-03   -0.85411E-05  4608   0.562E-02    0.186E-01
DAV:   9    -0.146884263023E+03   -0.98106E-04   -0.53939E-05  4472   0.385E-02    0.439E-01
DAV:  10    -0.146884048200E+03    0.21482E-03   -0.27040E-05  4176   0.566E-02    0.117E-01
DAV:  11    -0.146884169941E+03   -0.12174E-03   -0.96245E-06  3632   0.192E-02    0.200E-02
DAV:  12    -0.146884227405E+03   -0.57464E-04   -0.33314E-06  2784   0.819E-03    0.403E-02
DAV:  13    -0.146884250051E+03   -0.22645E-04   -0.64725E-07  2296   0.981E-03    0.129E-02
DAV:  14    -0.146884278912E+03   -0.28862E-04   -0.81393E-07  2056   0.396E-03    0.103E-02
DAV:  15    -0.146884299803E+03   -0.20890E-04   -0.34146E-07  2184   0.269E-03    0.772E-03
DAV:  16    -0.146884315142E+03   -0.15339E-04   -0.16330E-07  2184   0.320E-03    0.778E-03
DAV:  17    -0.146884325093E+03   -0.99514E-05   -0.16165E-07  2136   0.158E-03    0.594E-03
DAV:  18    -0.146884332956E+03   -0.78634E-05   -0.82629E-08  2096   0.132E-03    0.878E-03
DAV:  19    -0.146884346463E+03   -0.13506E-04   -0.76720E-08  2184   0.163E-03    0.293E-03
DAV:  20    -0.146884359272E+03   -0.12809E-04   -0.12308E-07  2208   0.129E-03    0.301E-03
DAV:  21    -0.146884364433E+03   -0.51608E-05   -0.80185E-08  2216   0.140E-03    0.840E-04
DAV:  22    -0.146884366373E+03   -0.19399E-05   -0.41164E-08  1992   0.701E-04    0.427E-04
DAV:  23    -0.146884368533E+03   -0.21608E-05   -0.29099E-08  2152   0.499E-04    0.514E-04
DAV:  24    -0.146884370538E+03   -0.20044E-05   -0.22474E-08  2112   0.385E-04    0.477E-04
DAV:  25    -0.146884371500E+03   -0.96270E-06   -0.15286E-08  2168   0.397E-04
  29 F= -.15295397E+03 E0= -.15292784E+03  d E =-.132478E-02  mag=    29.4745
       N       E                     dE             d eps       ncg     rms          rms(c)
DAV:   1    -0.146871375401E+03    0.12995E-01   -0.16169E+00  3040   0.259E+00    0.117E+00
DAV:   2    -0.146949570793E+03   -0.78195E-01   -0.17259E-01  4928   0.375E+00    0.391E+00
DAV:   3    -0.146880878112E+03    0.68693E-01   -0.80444E-02  4632   0.321E+00    0.424E-01
DAV:   4    -0.146884798017E+03   -0.39199E-02   -0.66461E-03  4272   0.321E-01    0.477E-01
DAV:   5    -0.146885298249E+03   -0.50023E-03   -0.10696E-03  4704   0.352E-01    0.940E-01
DAV:   6    -0.146884658427E+03    0.63982E-03   -0.24692E-04  4232   0.127E-01    0.602E-01
DAV:   7    -0.146884860883E+03   -0.20246E-03   -0.28175E-04  5104   0.188E-01    0.567E-01
DAV:   8    -0.146884910776E+03   -0.49893E-04   -0.27403E-04  4376   0.154E-01    0.261E-01
DAV:   9    -0.146885275711E+03   -0.36494E-03   -0.26864E-04  4536   0.156E-01    0.637E-01
DAV:  10    -0.146884876852E+03    0.39886E-03   -0.10924E-04  4240   0.898E-02    0.998E-02
DAV:  11    -0.146885131468E+03   -0.25462E-03   -0.17132E-05  3592   0.208E-02    0.137E-01
DAV:  12    -0.146885176410E+03   -0.44942E-04   -0.40624E-06  3008   0.238E-02    0.699E-03
DAV:  13    -0.146885243814E+03   -0.67404E-04   -0.38558E-06  2808   0.891E-03    0.109E-02
DAV:  14    -0.146885282974E+03   -0.39160E-04   -0.43467E-07  2176   0.341E-03    0.133E-02
DAV:  15    -0.146885323720E+03   -0.40746E-04   -0.36411E-07  2232   0.261E-03    0.144E-02
DAV:  16    -0.146885350717E+03   -0.26997E-04   -0.31184E-07  2224   0.223E-03    0.110E-02
DAV:  17    -0.146885365242E+03   -0.14525E-04   -0.17912E-07  2160   0.189E-03    0.327E-03
DAV:  18    -0.146885376063E+03   -0.10821E-04   -0.14292E-07  2080   0.164E-03    0.345E-03
DAV:  19    -0.146885391398E+03   -0.15335E-04   -0.10297E-07  2160   0.161E-03    0.243E-03
DAV:  20    -0.146885413947E+03   -0.22549E-04   -0.18621E-07  2120   0.167E-03    0.372E-03
DAV:  21    -0.146885420310E+03   -0.63631E-05   -0.13140E-07  2288   0.156E-03    0.717E-04
DAV:  22    -0.146885421894E+03   -0.15836E-05   -0.69798E-08  2048   0.825E-04    0.200E-03
DAV:  23    -0.146885423003E+03   -0.11085E-05   -0.36912E-08  2048   0.842E-04    0.433E-04
DAV:  24    -0.146885424803E+03   -0.18002E-05   -0.39594E-08  2160   0.418E-04    0.639E-04
DAV:  25    -0.146885425238E+03   -0.43570E-06   -0.16044E-08  2120   0.555E-04
  30 F= -.15295487E+03 E0= -.15292893E+03  d E =-.222479E-02  mag=    29.4619
       N       E                     dE             d eps       ncg     rms          rms(c)
DAV:   1    -0.146881500642E+03    0.39242E-02   -0.62765E-01  3088   0.161E+00    0.914E-01
DAV:   2    -0.146947325473E+03   -0.65825E-01   -0.93440E-02  4776   0.332E+00    0.387E+00
DAV:   3    -0.146883793508E+03    0.63532E-01   -0.56029E-02  4568   0.277E+00    0.128E+00
DAV:   4    -0.146889094498E+03   -0.53010E-02   -0.78361E-03  4808   0.686E-01    0.276E+00
DAV:   5    -0.146884660230E+03    0.44343E-02   -0.38998E-03  4352   0.664E-01    0.477E-01
DAV:   6    -0.146887310516E+03   -0.26503E-02   -0.55624E-04  3656   0.107E-01    0.794E-01
DAV:   7    -0.146886666717E+03    0.64380E-03   -0.16216E-04  4280   0.131E-01    0.164E-01
DAV:   8    -0.146887441475E+03   -0.77476E-03   -0.17020E-04  4512   0.129E-01    0.841E-01
DAV:   9    -0.146886778204E+03    0.66327E-03   -0.19172E-04  4144   0.114E-01    0.191E-01
DAV:  10    -0.146887061207E+03   -0.28300E-03   -0.26698E-05  4056   0.257E-02    0.666E-02
DAV:  11    -0.146887155690E+03   -0.94483E-04   -0.55850E-06  3160   0.154E-02    0.261E-02
DAV:  12    -0.146887199337E+03   -0.43647E-04   -0.13602E-06  2208   0.747E-03    0.661E-03
DAV:  13    -0.146887234894E+03   -0.35557E-04   -0.11484E-06  2192   0.512E-03    0.395E-03
DAV:  14    -0.146887253125E+03   -0.18231E-04   -0.64261E-07  2240   0.420E-03    0.515E-03
DAV:  15    -0.146887270757E+03   -0.17632E-04   -0.35836E-07  2112   0.233E-03    0.137E-03
DAV:  16    -0.146887290095E+03   -0.19338E-04   -0.15206E-07  2176   0.187E-03    0.421E-03
DAV:  17    -0.146887309155E+03   -0.19059E-04   -0.14106E-07  2160   0.125E-03    0.767E-03
DAV:  18    -0.146887317346E+03   -0.81916E-05   -0.72055E-08  2176   0.140E-03    0.950E-03
DAV:  19    -0.146887322258E+03   -0.49114E-05   -0.48192E-08  2120   0.106E-03    0.521E-03
DAV:  20    -0.146887327086E+03   -0.48279E-05   -0.44979E-08  2168   0.621E-04    0.409E-03
DAV:  21    -0.146887330269E+03   -0.31836E-05   -0.20191E-08  2104   0.667E-04    0.120E-03
DAV:  22    -0.146887334725E+03   -0.44554E-05   -0.38256E-08  2128   0.546E-04    0.119E-03
DAV:  23    -0.146887335543E+03   -0.81810E-06   -0.15918E-08  2064   0.566E-04
  31 F= -.15295602E+03 E0= -.15293018E+03  d E =-.114791E-02  mag=    29.4500
       N       E                     dE             d eps       ncg     rms          rms(c)
DAV:   1    -0.146872642383E+03    0.14692E-01   -0.18130E+00  3040   0.274E+00    0.157E+00
DAV:   2    -0.147013066504E+03   -0.14042E+00   -0.27711E-01  4752   0.569E+00    0.491E+00
DAV:   3    -0.146889220646E+03    0.12385E+00   -0.15848E-01  4608   0.428E+00    0.272E+00
DAV:   4    -0.146888617834E+03    0.60281E-03   -0.23143E-02  4840   0.125E+00    0.308E+00
DAV:   5    -0.146888235553E+03    0.38228E-03   -0.96397E-03  4432   0.103E+00    0.174E+00
DAV:   6    -0.146888823529E+03   -0.58798E-03   -0.11817E-03  3768   0.246E-01    0.125E+00
DAV:   7    -0.146888384147E+03    0.43938E-03   -0.72678E-04  5024   0.332E-01    0.978E-01
DAV:   8    -0.146888660409E+03   -0.27626E-03   -0.66059E-04  4064   0.193E-01    0.118E-01
DAV:   9    -0.146889352566E+03   -0.69216E-03   -0.21061E-04  4616   0.123E-01    0.770E-01
DAV:  10    -0.146888721380E+03    0.63119E-03   -0.12042E-04  4352   0.125E-01    0.112E-01
DAV:  11    -0.146889170757E+03   -0.44938E-03   -0.44662E-05  3616   0.393E-02    0.117E-02
DAV:  12    -0.146889220462E+03   -0.49705E-04   -0.33091E-06  2936   0.987E-03    0.327E-02
DAV:  13    -0.146889278387E+03   -0.57926E-04   -0.14124E-06  2352   0.110E-02    0.162E-02
DAV:  14    -0.146889333767E+03   -0.55379E-04   -0.11576E-06  2280   0.590E-03    0.147E-02
DAV:  15    -0.146889366280E+03   -0.32514E-04   -0.90027E-07  2280   0.363E-03    0.422E-03
DAV:  16    -0.146889385372E+03   -0.19092E-04   -0.38832E-07  2032   0.302E-03    0.405E-03
DAV:  17    -0.146889405867E+03   -0.20495E-04   -0.20415E-07  2208   0.271E-03    0.627E-03
DAV:  18    -0.146889447612E+03   -0.41745E-04   -0.27970E-07  2120   0.240E-03    0.438E-03
DAV:  19    -0.146889471378E+03   -0.23766E-04   -0.31400E-07  2256   0.172E-03    0.521E-03
DAV:  20    -0.146889476648E+03   -0.52698E-05   -0.12307E-07  2184   0.133E-03    0.828E-03
DAV:  21    -0.146889478562E+03   -0.19146E-05   -0.57350E-08  2032   0.122E-03    0.424E-03
DAV:  22    -0.146889483158E+03   -0.45963E-05   -0.52262E-08  2192   0.839E-04    0.696E-04
DAV:  23    -0.146889487955E+03   -0.47969E-05   -0.59331E-08  2160   0.681E-04    0.101E-03
DAV:  24    -0.146889489111E+03   -0.11557E-05   -0.25208E-08  2184   0.649E-04    0.223E-03
DAV:  25    -0.146889489472E+03   -0.36119E-06   -0.15822E-08  2008   0.542E-04
  32 F= -.15295604E+03 E0= -.15293040E+03  d E =-.116982E-02  mag=    29.4298
       N       E                     dE             d eps       ncg     rms          rms(c)
DAV:   1    -0.146881097709E+03    0.83914E-02   -0.76542E-01  3048   0.178E+00    0.942E-01
DAV:   2    -0.147115543166E+03   -0.23445E+00   -0.10187E-01  4792   0.337E+00    0.176E+01
DAV:   3    -0.146811883187E+03    0.30366E+00   -0.81771E-02  4240   0.324E+00    0.574E-01
DAV:   4    -0.146884150667E+03   -0.72267E-01   -0.13905E-02  3824   0.489E-01    0.112E+00
DAV:   5    -0.146887620007E+03   -0.34693E-02   -0.19183E-03  4016   0.304E-01    0.125E-01
DAV:   6    -0.146887795845E+03   -0.17584E-03   -0.18015E-04  4464   0.821E-02    0.299E-01
DAV:   7    -0.146888044231E+03   -0.24839E-03   -0.22649E-04  4824   0.153E-01    0.552E-01
DAV:   8    -0.146887877917E+03    0.16631E-03   -0.16000E-04  4392   0.825E-02    0.322E-01
DAV:   9    -0.146887909457E+03   -0.31540E-04   -0.28075E-05  4600   0.449E-02    0.139E-01
DAV:  10    -0.146887999977E+03   -0.90520E-04   -0.84728E-06  3824   0.202E-02    0.424E-02
DAV:  11    -0.146888054753E+03   -0.54776E-04   -0.30518E-06  2656   0.107E-02    0.537E-03
DAV:  12    -0.146888108441E+03   -0.53688E-04   -0.22975E-06  2496   0.575E-03    0.330E-03
DAV:  13    -0.146888136858E+03   -0.28418E-04   -0.51796E-07  2432   0.385E-03    0.217E-03
DAV:  14    -0.146888160213E+03   -0.23355E-04   -0.31044E-07  2216   0.213E-03    0.267E-03
DAV:  15    -0.146888181821E+03   -0.21608E-04   -0.17856E-07  2240   0.204E-03    0.618E-03
DAV:  16    -0.146888206451E+03   -0.24630E-04   -0.18578E-07  2248   0.143E-03    0.603E-03
DAV:  17    -0.146888222879E+03   -0.16428E-04   -0.15482E-07  2280   0.113E-03    0.598E-03
DAV:  18    -0.146888228746E+03   -0.58668E-05   -0.70470E-08  2184   0.103E-03    0.376E-03
DAV:  19    -0.146888242558E+03   -0.13813E-04   -0.14675E-07  2280   0.102E-03    0.989E-04
DAV:  20    -0.146888248050E+03   -0.54917E-05   -0.86996E-08  2296   0.897E-04    0.127E-03
DAV:  21    -0.146888249279E+03   -0.12291E-05   -0.34113E-08  2096   0.538E-04    0.761E-04
DAV:  22    -0.146888250455E+03   -0.11758E-05   -0.21326E-08  2112   0.440E-04    0.448E-04
DAV:  23    -0.146888251088E+03   -0.63304E-06   -0.16695E-08  2056   0.324E-04
  33 F= -.15295642E+03 E0= -.15293065E+03  d E =-.155185E-02  mag=    29.4428
       N       E                     dE             d eps       ncg     rms          rms(c)
DAV:   1    -0.146887468626E+03    0.78183E-03   -0.15171E-01  3160   0.792E-01    0.440E-01
DAV:   2    -0.146912305077E+03   -0.24836E-01   -0.21916E-02  4768   0.159E+00    0.330E+00
DAV:   3    -0.146885035383E+03    0.27270E-01   -0.14110E-02  4520   0.145E+00    0.352E-01
DAV:   4    -0.146888673602E+03   -0.36382E-02   -0.14846E-03  4152   0.177E-01    0.789E-01
DAV:   5    -0.146888524547E+03    0.14906E-03   -0.37578E-04  4288   0.182E-01    0.106E-01
DAV:   6    -0.146888768108E+03   -0.24356E-03   -0.52645E-05  4104   0.431E-02    0.228E-01
DAV:   7    -0.146888727668E+03    0.40440E-04   -0.22486E-05  4136   0.467E-02    0.377E-02
DAV:   8    -0.146888874632E+03   -0.14696E-03   -0.36409E-05  4488   0.511E-02    0.374E-01
DAV:   9    -0.146888704933E+03    0.16970E-03   -0.33191E-05  4176   0.500E-02    0.872E-02
DAV:  10    -0.146888779338E+03   -0.74405E-04   -0.50288E-06  3080   0.149E-02    0.952E-03
DAV:  11    -0.146888813908E+03   -0.34570E-04   -0.21497E-06  2312   0.101E-02    0.854E-03
DAV:  12    -0.146888824538E+03   -0.10630E-04   -0.70733E-07  2176   0.643E-03    0.122E-02
DAV:  13    -0.146888837385E+03   -0.12847E-04   -0.40258E-07  2072   0.454E-03    0.795E-03
DAV:  14    -0.146888844801E+03   -0.74162E-05   -0.26233E-07  2064   0.384E-03    0.427E-03
DAV:  15    -0.146888853892E+03   -0.90911E-05   -0.15321E-07  2048   0.216E-03    0.430E-03
DAV:  16    -0.146888860978E+03   -0.70852E-05   -0.97683E-08  2136   0.167E-03    0.785E-04
DAV:  17    -0.146888868616E+03   -0.76382E-05   -0.69200E-08  2112   0.104E-03    0.434E-03
DAV:  18    -0.146888870841E+03   -0.22248E-05   -0.32088E-08  2080   0.863E-04    0.275E-03
DAV:  19    -0.146888873434E+03   -0.25937E-05   -0.25257E-08  2072   0.365E-04    0.234E-03
DAV:  20    -0.146888875475E+03   -0.20404E-05   -0.10509E-08  2064   0.464E-04    0.164E-03
DAV:  21    -0.146888877105E+03   -0.16305E-05   -0.10629E-08  2128   0.379E-04    0.319E-04
DAV:  22    -0.146888877655E+03   -0.54942E-06   -0.64681E-09  2000   0.337E-04
  34 F= -.15295652E+03 E0= -.15293080E+03  d E =-.164381E-02  mag=    29.4371
       N       E                     dE             d eps       ncg     rms          rms(c)
DAV:   1    -0.146884250390E+03    0.46267E-02   -0.68226E-01  3040   0.164E+00    0.852E-01
DAV:   2    -0.146938616304E+03   -0.54366E-01   -0.66925E-02  4928   0.272E+00    0.377E+00
DAV:   3    -0.146885862525E+03    0.52754E-01   -0.42512E-02  4656   0.244E+00    0.736E-01
DAV:   4    -0.146890716674E+03   -0.48541E-02   -0.45503E-03  4664   0.398E-01    0.165E+00
DAV:   5    -0.146889446684E+03    0.12700E-02   -0.18786E-03  4344   0.460E-01    0.614E-01
DAV:   6    -0.146890164893E+03   -0.71821E-03   -0.28311E-04  3936   0.112E-01    0.429E-01
DAV:   7    -0.146890734425E+03   -0.56953E-03   -0.27982E-04  5120   0.204E-01    0.111E+00
DAV:   8    -0.146889996559E+03    0.73787E-03   -0.26361E-04  3888   0.102E-01    0.767E-01
DAV:   9    -0.146889783022E+03    0.21354E-03   -0.40852E-05  4696   0.708E-02    0.239E-01
DAV:  10    -0.146890230275E+03   -0.44725E-03   -0.41574E-05  3776   0.332E-02    0.638E-02
DAV:  11    -0.146890380508E+03   -0.15023E-03   -0.86672E-06  3184   0.142E-02    0.434E-02
DAV:  12    -0.146890434099E+03   -0.53591E-04   -0.10104E-06  2216   0.742E-03    0.309E-02
DAV:  13    -0.146890490785E+03   -0.56686E-04   -0.97731E-07  2304   0.750E-03    0.130E-02
DAV:  14    -0.146890535039E+03   -0.44254E-04   -0.15032E-06  2312   0.541E-03    0.835E-03
DAV:  15    -0.146890558861E+03   -0.23821E-04   -0.50467E-07  2248   0.263E-03    0.183E-03
DAV:  16    -0.146890573214E+03   -0.14353E-04   -0.20800E-07  2160   0.186E-03    0.124E-03
DAV:  17    -0.146890586606E+03   -0.13392E-04   -0.13333E-07  2160   0.146E-03    0.399E-03
DAV:  18    -0.146890611254E+03   -0.24648E-04   -0.22662E-07  2144   0.164E-03    0.134E-03
DAV:  19    -0.146890628151E+03   -0.16897E-04   -0.20068E-07  2264   0.172E-03    0.708E-03
DAV:  20    -0.146890640077E+03   -0.11926E-04   -0.23073E-07  2208   0.162E-03    0.370E-03
DAV:  21    -0.146890643546E+03   -0.34692E-05   -0.14723E-07  2240   0.112E-03    0.198E-03
DAV:  22    -0.146890645258E+03   -0.17119E-05   -0.71107E-08  2040   0.967E-04    0.644E-04
DAV:  23    -0.146890647232E+03   -0.19743E-05   -0.60964E-08  2200   0.710E-04    0.486E-04
DAV:  24    -0.146890647998E+03   -0.76567E-06   -0.38160E-08  2096   0.626E-04
  35 F= -.15295711E+03 E0= -.15293148E+03  d E =-.594352E-03  mag=    29.4313
       N       E                     dE             d eps       ncg     rms          rms(c)
DAV:   1    -0.146890500492E+03    0.14674E-03   -0.56205E-02  3200   0.471E-01    0.243E-01
DAV:   2    -0.146899249482E+03   -0.87490E-02   -0.55791E-03  4928   0.786E-01    0.281E+00
DAV:   3    -0.146887695328E+03    0.11554E-01   -0.39296E-03  4376   0.755E-01    0.194E-01
DAV:   4    -0.146890689064E+03   -0.29937E-02   -0.53043E-04  3768   0.894E-02    0.284E-01
DAV:   5    -0.146890926948E+03   -0.23788E-03   -0.94128E-05  4112   0.751E-02    0.643E-02
DAV:   6    -0.146890939713E+03   -0.12765E-04   -0.14184E-05  4088   0.320E-02    0.317E-02
DAV:   7    -0.146890961787E+03   -0.22074E-04   -0.98131E-06  4056   0.257E-02    0.137E-01
DAV:   8    -0.146890948600E+03    0.13187E-04   -0.74097E-06  3496   0.139E-02    0.109E-01
DAV:   9    -0.146890944642E+03    0.39580E-05   -0.24035E-06  2712   0.179E-02    0.180E-02
DAV:  10    -0.146890972257E+03   -0.27615E-04   -0.18539E-06  2256   0.724E-03    0.136E-02
DAV:  11    -0.146890980121E+03   -0.78638E-05   -0.39075E-07  2056   0.346E-03    0.226E-03
DAV:  12    -0.146890986501E+03   -0.63807E-05   -0.22536E-07  2040   0.189E-03    0.385E-03
DAV:  13    -0.146890990294E+03   -0.37926E-05   -0.78667E-08  2048   0.116E-03    0.600E-03
DAV:  14    -0.146890995863E+03   -0.55693E-05   -0.55217E-08  2104   0.125E-03    0.663E-03
DAV:  15    -0.146891002022E+03   -0.61586E-05   -0.55258E-08  2152   0.133E-03    0.114E-03
DAV:  16    -0.146891006535E+03   -0.45127E-05   -0.53702E-08  2056   0.999E-04    0.951E-04
DAV:  17    -0.146891009381E+03   -0.28466E-05   -0.32076E-08  2040   0.646E-04    0.139E-03
DAV:  18    -0.146891013240E+03   -0.38587E-05   -0.26498E-08  2104   0.639E-04    0.152E-03
DAV:  19    -0.146891016032E+03   -0.27924E-05   -0.23842E-08  2104   0.553E-04    0.880E-04
DAV:  20    -0.146891019617E+03   -0.35844E-05   -0.41667E-08  2168   0.376E-04    0.519E-04
DAV:  21    -0.146891020571E+03   -0.95384E-06   -0.14458E-08  2120   0.416E-04
  36 F= -.15295714E+03 E0= -.15293153E+03  d E =-.619587E-03  mag=    29.4297
       N       E                     dE             d eps       ncg     rms          rms(c)
DAV:   1    -0.146890250079E+03    0.76954E-03   -0.94407E-02  3144   0.631E-01    0.231E-01
DAV:   2    -0.146892236466E+03   -0.19864E-02   -0.55066E-03  4528   0.396E-01    0.171E+00
DAV:   3    -0.146890422475E+03    0.18140E-02   -0.17274E-03  4352   0.473E-01    0.106E+00
DAV:   4    -0.146890843869E+03   -0.42139E-03   -0.52549E-04  4096   0.206E-01    0.271E-01
DAV:   5    -0.146890992974E+03   -0.14910E-03   -0.46743E-05  4392   0.478E-02    0.139E-01
DAV:   6    -0.146891055714E+03   -0.62741E-04   -0.17296E-05  4192   0.274E-02    0.378E-02
DAV:   7    -0.146891115114E+03   -0.59400E-04   -0.16388E-05  4128   0.236E-02    0.656E-02
DAV:   8    -0.146891120902E+03   -0.57876E-05   -0.27537E-06  2744   0.131E-02    0.260E-02
DAV:   9    -0.146891134355E+03   -0.13453E-04   -0.14371E-06  2312   0.828E-03    0.500E-03
DAV:  10    -0.146891139923E+03   -0.55683E-05   -0.82568E-07  2112   0.498E-03    0.355E-03
DAV:  11    -0.146891141999E+03   -0.20757E-05   -0.43365E-07  2008   0.280E-03    0.541E-03
DAV:  12    -0.146891144616E+03   -0.26168E-05   -0.18785E-07  1992   0.181E-03    0.796E-03
DAV:  13    -0.146891146784E+03   -0.21680E-05   -0.90735E-08  2112   0.204E-03    0.189E-03
DAV:  14    -0.146891149243E+03   -0.24595E-05   -0.11232E-07  2080   0.110E-03    0.362E-03
DAV:  15    -0.146891149676E+03   -0.43306E-06   -0.50759E-08  1968   0.890E-04
  37 F= -.15295741E+03 E0= -.15293184E+03  d E =-.273579E-03  mag=    29.4357
       N       E                     dE             d eps       ncg     rms          rms(c)
DAV:   1    -0.146891148498E+03    0.74550E-06   -0.80692E-05  2968   0.184E-02    0.754E-03
DAV:   2    -0.146891151880E+03   -0.33823E-05   -0.43944E-06  2984   0.176E-02    0.874E-02
DAV:   3    -0.146891141447E+03    0.10433E-04   -0.31440E-06  2568   0.211E-02    0.248E-02
DAV:   4    -0.146891149614E+03   -0.81666E-05   -0.68272E-07  1952   0.662E-03    0.356E-03
DAV:   5    -0.146891149928E+03   -0.31460E-06   -0.25633E-07  1920   0.273E-03
  38 F= -.15295741E+03 E0= -.15293184E+03  d E =-.275263E-03  mag=    29.4361
       N       E                     dE             d eps       ncg     rms          rms(c)
DAV:   1    -0.146890943939E+03    0.20567E-03   -0.48726E-02  3056   0.440E-01    0.139E-01
DAV:   2    -0.146891284015E+03   -0.34008E-03   -0.35062E-03  4352   0.199E-01    0.854E-02
DAV:   3    -0.146891663043E+03   -0.37903E-03   -0.19112E-04  4576   0.144E-01    0.841E-01
DAV:   4    -0.146890925909E+03    0.73713E-03   -0.15791E-04  4024   0.140E-01    0.541E-02
DAV:   5    -0.146891280790E+03   -0.35488E-03   -0.35292E-05  3568   0.288E-02    0.476E-02
DAV:   6    -0.146891308691E+03   -0.27901E-04   -0.13213E-05  4184   0.229E-02    0.779E-02
DAV:   7    -0.146891297379E+03    0.11312E-04   -0.93987E-06  3952   0.130E-02    0.199E-02
DAV:   8    -0.146891304522E+03   -0.71435E-05   -0.14102E-06  2368   0.711E-03    0.122E-02
DAV:   9    -0.146891308273E+03   -0.37509E-05   -0.72660E-07  2000   0.543E-03    0.247E-03
DAV:  10    -0.146891310288E+03   -0.20151E-05   -0.25917E-07  2016   0.253E-03    0.286E-03
DAV:  11    -0.146891312147E+03   -0.18584E-05   -0.10757E-07  1920   0.230E-03    0.733E-03
DAV:  12    -0.146891314254E+03   -0.21070E-05   -0.56249E-08  2040   0.169E-03    0.166E-03
DAV:  13    -0.146891317121E+03   -0.28669E-05   -0.53967E-08  2040   0.787E-04    0.220E-03
DAV:  14    -0.146891318560E+03   -0.14392E-05   -0.30759E-08  1920   0.909E-04    0.786E-04
DAV:  15    -0.146891319236E+03   -0.67623E-06   -0.15995E-08  1928   0.480E-04
  39 F= -.15295764E+03 E0= -.15293210E+03  d E =-.234393E-03  mag=    29.4377
       N       E                     dE             d eps       ncg     rms          rms(c)
DAV:   1    -0.146890806319E+03    0.51224E-03   -0.71357E-02  3184   0.533E-01    0.169E-01
DAV:   2    -0.146891305892E+03   -0.49957E-03   -0.51525E-03  4368   0.241E-01    0.965E-02
DAV:   3    -0.146891647711E+03   -0.34182E-03   -0.21531E-04  4536   0.141E-01    0.778E-01
DAV:   4    -0.146891015406E+03    0.63231E-03   -0.14583E-04  4016   0.133E-01    0.594E-02
DAV:   5    -0.146891320811E+03   -0.30541E-03   -0.33569E-05  3640   0.312E-02    0.512E-02
DAV:   6    -0.146891339725E+03   -0.18915E-04   -0.15821E-05  4280   0.232E-02    0.804E-02
DAV:   7    -0.146891327247E+03    0.12479E-04   -0.14557E-05  4160   0.143E-02    0.189E-02
DAV:   8    -0.146891335209E+03   -0.79621E-05   -0.18228E-06  2440   0.774E-03    0.735E-03
DAV:   9    -0.146891340177E+03   -0.49685E-05   -0.76910E-07  1976   0.531E-03    0.373E-03
DAV:  10    -0.146891342936E+03   -0.27589E-05   -0.28707E-07  1952   0.257E-03    0.252E-03
DAV:  11    -0.146891345668E+03   -0.27320E-05   -0.12794E-07  1920   0.232E-03    0.759E-03
DAV:  12    -0.146891348231E+03   -0.25623E-05   -0.65670E-08  2024   0.178E-03    0.187E-03
DAV:  13    -0.146891352016E+03   -0.37850E-05   -0.76315E-08  2048   0.819E-04    0.196E-03
DAV:  14    -0.146891354376E+03   -0.23604E-05   -0.40437E-08  1936   0.978E-04    0.160E-03
DAV:  15    -0.146891355470E+03   -0.10942E-05   -0.22560E-08  1936   0.626E-04    0.387E-04
DAV:  16    -0.146891357737E+03   -0.22664E-05   -0.34543E-08  2112   0.436E-04    0.356E-04
DAV:  17    -0.146891358316E+03   -0.57974E-06   -0.12877E-08  1984   0.463E-04
  40 F= -.15295774E+03 E0= -.15293223E+03  d E =-.333805E-03  mag=    29.4393
