CrCl3 2x2 + H S1 top-Cl (D3, U=0) (a_2x2
    1.000000000000000     
    12.0925489970493256    0.0000000000000000    0.0000000000000000
    -6.0462744985246628   10.4724546279527502    0.0000000000000000
     0.0000000000000000    0.0000000000000000   20.0000000000000000
   Cr   Cl   H 
     8    24     1
Direct
     0.1662741357736074    0.3331551920501317    0.4998095351575037
     0.3272234000665218    0.1622434314138408    0.4979873241430282
     0.6727765999334783    0.3350200313473048    0.4979873241430282
     0.8335516708089675    0.1671048892630926    0.4995995728926600
     0.1664483291910325    0.8335532184541109    0.4995995728926600
     0.3332654198703628    0.6669627927201748    0.4997952685095869
     0.6667345801296373    0.8336973728497978    0.4997952685095869
     0.8337258642263926    0.6668810562765385    0.4998095351575037
     0.1794885128320506    0.4999862726582703    0.4332594186405849
     0.5000000000000000    0.1801033237919787    0.4336474911563797
     0.3208955978305161    0.3211051284038438    0.4332377052863783
     0.3206749809838308    0.4999142447191210    0.5669785591658048
     0.0000876319292434    0.3206045792056489    0.5668387110154635
     0.1790040048986717    0.1796655281552227    0.5672777078257950
     0.6791044021694840    0.5002095305733277    0.4332377052863783
     0.0001077441358722    0.1795353172619004    0.4332917584993303
     0.8219995978997551    0.3198260389214260    0.4326949832819783
     0.8209959951013284    0.5006615232565510    0.5672777078257950
     0.5000000000000000    0.3243559845853903    0.5680776704703331
     0.6791809979400339    0.1788201919309136    0.5672754159334459
     0.1780004021002449    0.9978264410216710    0.4326949832819783
     0.5000000000000000    0.6794515616765545    0.4332130657431320
     0.3205331347711499    0.8204036829518845    0.4332539372010842
     0.3208190020599660    0.9996391939908796    0.5672754159334459
     0.9999123680707566    0.8205169472764055    0.5668387110154635
     0.1794855035098232    0.6793171842612106    0.5668827661708191
     0.6794668652288500    0.9998705481807345    0.4332539372010842
     0.9998922558641278    0.6794275731260282    0.4332917584993303
     0.8205114871679494    0.8204977598262198    0.4332594186405849
     0.8205144964901767    0.9998316807513874    0.5668827661708191
     0.5000000000000000    0.8205639075543981    0.5668531795467948
     0.6793250190161693    0.6792392637352903    0.5669785591658048
     0.5000000000000000    0.3203585093769423    0.6336294588963611
 
  0.00000000E+00  0.00000000E+00  0.00000000E+00
  0.00000000E+00  0.00000000E+00  0.00000000E+00
  0.00000000E+00  0.00000000E+00  0.00000000E+00
  0.00000000E+00  0.00000000E+00  0.00000000E+00
  0.00000000E+00  0.00000000E+00  0.00000000E+00
  0.00000000E+00  0.00000000E+00  0.00000000E+00
  0.00000000E+00  0.00000000E+00  0.00000000E+00
  0.00000000E+00  0.00000000E+00  0.00000000E+00
  0.00000000E+00  0.00000000E+00  0.00000000E+00
  0.00000000E+00  0.00000000E+00  0.00000000E+00
  0.00000000E+00  0.00000000E+00  0.00000000E+00
  0.00000000E+00  0.00000000E+00  0.00000000E+00
  0.00000000E+00  0.00000000E+00  0.00000000E+00
  0.00000000E+00  0.00000000E+00  0.00000000E+00
  0.00000000E+00  0.00000000E+00  0.00000000E+00
  0.00000000E+00  0.00000000E+00  0.00000000E+00
  0.00000000E+00  0.00000000E+00  0.00000000E+00
  0.00000000E+00  0.00000000E+00  0.00000000E+00
  0.00000000E+00  0.00000000E+00  0.00000000E+00
  0.00000000E+00  0.00000000E+00  0.00000000E+00
  0.00000000E+00  0.00000000E+00  0.00000000E+00
  0.00000000E+00  0.00000000E+00  0.00000000E+00
  0.00000000E+00  0.00000000E+00  0.00000000E+00
  0.00000000E+00  0.00000000E+00  0.00000000E+00
  0.00000000E+00  0.00000000E+00  0.00000000E+00
  0.00000000E+00  0.00000000E+00  0.00000000E+00
  0.00000000E+00  0.00000000E+00  0.00000000E+00
  0.00000000E+00  0.00000000E+00  0.00000000E+00
  0.00000000E+00  0.00000000E+00  0.00000000E+00
  0.00000000E+00  0.00000000E+00  0.00000000E+00
  0.00000000E+00  0.00000000E+00  0.00000000E+00
  0.00000000E+00  0.00000000E+00  0.00000000E+00
  0.00000000E+00  0.00000000E+00  0.00000000E+00
