       N       E                     dE             d eps       ncg     rms          rms(c)
DAV:   1     0.207268391672E+04    0.20727E+04   -0.61704E+04  5312   0.918E+02
DAV:   2     0.398613806990E+03   -0.16741E+04   -0.15594E+04  6352   0.248E+02
DAV:   3    -0.128075181129E+03   -0.52669E+03   -0.51081E+03  7360   0.138E+02
DAV:   4    -0.172345199071E+03   -0.44270E+02   -0.43598E+02  8088   0.578E+01
DAV:   5    -0.173134823735E+03   -0.78962E+00   -0.77662E+00  8064   0.987E+00    0.411E+01
DAV:   6    -0.163411380456E+03    0.97234E+01   -0.14411E+02  7632   0.613E+01    0.405E+01
DAV:   7    -0.157379812508E+03    0.60316E+01   -0.26502E+01  7648   0.588E+01    0.221E+01
DAV:   8    -0.157921410977E+03   -0.54160E+00   -0.83539E+00  7800   0.138E+01    0.155E+01
DAV:   9    -0.157750013285E+03    0.17140E+00   -0.29628E+00  7720   0.132E+01    0.119E+01
DAV:  10    -0.157403010355E+03    0.34700E+00   -0.88323E-01  7760   0.758E+00    0.588E+00
DAV:  11    -0.157373982000E+03    0.29028E-01   -0.16727E-01  7632   0.227E+00    0.475E+00
DAV:  12    -0.157373438238E+03    0.54376E-03   -0.35723E-02  7424   0.895E-01    0.357E+00
DAV:  13    -0.157373059698E+03    0.37854E-03   -0.52194E-02  8208   0.234E+00    0.152E+00
DAV:  14    -0.157399751339E+03   -0.26692E-01   -0.49895E-02  7656   0.112E+00    0.585E-01
DAV:  15    -0.157421547689E+03   -0.21796E-01   -0.64597E-03  7480   0.369E-01    0.466E-01
DAV:  16    -0.157466892351E+03   -0.45345E-01   -0.63293E-03  7496   0.328E-01    0.216E-01
DAV:  17    -0.157491497906E+03   -0.24606E-01   -0.10950E-03  7624   0.185E-01    0.110E-01
DAV:  18    -0.157513929731E+03   -0.22432E-01   -0.43655E-04  7400   0.768E-02    0.862E-02
DAV:  19    -0.157543413715E+03   -0.29484E-01   -0.60723E-04  7040   0.755E-02    0.740E-02
DAV:  20    -0.157560163837E+03   -0.16750E-01   -0.34509E-04  7072   0.565E-02    0.447E-02
DAV:  21    -0.157569438348E+03   -0.92745E-02   -0.28779E-04  5848   0.340E-02    0.259E-02
DAV:  22    -0.157572275364E+03   -0.28370E-02   -0.96192E-05  7072   0.272E-02    0.192E-02
DAV:  23    -0.157573371667E+03   -0.10963E-02   -0.37402E-05  6480   0.204E-02    0.915E-03
DAV:  24    -0.157573594341E+03   -0.22267E-03   -0.10208E-05  6280   0.873E-03    0.655E-03
DAV:  25    -0.157573654375E+03   -0.60034E-04   -0.10269E-06  3880   0.419E-03    0.397E-03
DAV:  26    -0.157573710696E+03   -0.56321E-04   -0.16227E-06  4104   0.404E-03    0.276E-03
DAV:  27    -0.157573749741E+03   -0.39045E-04   -0.10121E-06  3616   0.309E-03    0.199E-03
DAV:  28    -0.157573782449E+03   -0.32708E-04   -0.54385E-07  3568   0.228E-03    0.166E-03
DAV:  29    -0.157573811857E+03   -0.29409E-04   -0.39205E-07  3528   0.194E-03    0.131E-03
DAV:  30    -0.157573852317E+03   -0.40460E-04   -0.62326E-07  3592   0.222E-03    0.130E-03
DAV:  31    -0.157573860214E+03   -0.78968E-05   -0.46289E-07  3544   0.185E-03    0.884E-04
DAV:  32    -0.157573864527E+03   -0.43134E-05   -0.20163E-07  3472   0.120E-03    0.544E-04
DAV:  33    -0.157573869699E+03   -0.51714E-05   -0.74115E-08  3120   0.102E-03    0.398E-04
DAV:  34    -0.157573874281E+03   -0.45823E-05   -0.64163E-08  3152   0.808E-04    0.402E-04
DAV:  35    -0.157573876333E+03   -0.20517E-05   -0.38632E-08  3056   0.622E-04    0.276E-04
DAV:  36    -0.157573878053E+03   -0.17205E-05   -0.30046E-08  2984   0.474E-04    0.270E-04
DAV:  37    -0.157573879167E+03   -0.11136E-05   -0.21095E-08  2928   0.417E-04    0.159E-04
DAV:  38    -0.157573880438E+03   -0.12713E-05   -0.25183E-08  3008   0.363E-04    0.212E-04
DAV:  39    -0.157573881364E+03   -0.92570E-06   -0.22425E-08  3064   0.360E-04
   1 F= -.16126910E+03 E0= -.16126783E+03  d E =-.161269E+03  mag=    25.0000
       N       E                     dE             d eps       ncg     rms          rms(c)
DAV:   1    -0.157440824869E+03    0.13306E+00   -0.34918E+01  5416   0.110E+01    0.456E+00
DAV:   2    -0.157793513979E+03   -0.35269E+00   -0.17825E+00  7416   0.477E+00    0.332E+00
DAV:   3    -0.157847897938E+03   -0.54384E-01   -0.72670E-02  7704   0.169E+00    0.101E+00
DAV:   4    -0.157840413937E+03    0.74840E-02   -0.11058E-02  7752   0.452E-01    0.669E-01
DAV:   5    -0.157834086223E+03    0.63277E-02   -0.86029E-03  7624   0.398E-01    0.394E-01
DAV:   6    -0.157834536550E+03   -0.45033E-03   -0.26014E-03  7848   0.296E-01    0.171E-01
DAV:   7    -0.157838098007E+03   -0.35615E-02   -0.55923E-04  7672   0.171E-01    0.995E-02
DAV:   8    -0.157841252792E+03   -0.31548E-02   -0.16807E-04  7592   0.744E-02    0.535E-02
DAV:   9    -0.157844101922E+03   -0.28491E-02   -0.56559E-05  7584   0.407E-02    0.385E-02
DAV:  10    -0.157847282193E+03   -0.31803E-02   -0.52653E-05  7320   0.223E-02    0.206E-02
DAV:  11    -0.157849547184E+03   -0.22650E-02   -0.25126E-05  7320   0.147E-02    0.134E-02
DAV:  12    -0.157850746078E+03   -0.11989E-02   -0.81278E-06  6536   0.108E-02    0.950E-03
DAV:  13    -0.157851901513E+03   -0.11554E-02   -0.85264E-06  6360   0.821E-03    0.748E-03
DAV:  14    -0.157853078936E+03   -0.11774E-02   -0.10633E-05  5432   0.565E-03    0.530E-03
DAV:  15    -0.157854421638E+03   -0.13427E-02   -0.23976E-05  5344   0.732E-03    0.283E-03
DAV:  16    -0.157854938027E+03   -0.51639E-03   -0.97193E-06  6000   0.481E-03    0.189E-03
DAV:  17    -0.157855170738E+03   -0.23271E-03   -0.40485E-06  5136   0.297E-03    0.121E-03
DAV:  18    -0.157855235879E+03   -0.65141E-04   -0.90862E-07  4144   0.192E-03    0.940E-04
DAV:  19    -0.157855257152E+03   -0.21273E-04   -0.53684E-07  3712   0.210E-03    0.927E-04
DAV:  20    -0.157855263508E+03   -0.63562E-05   -0.43512E-07  3592   0.187E-03    0.646E-04
DAV:  21    -0.157855265620E+03   -0.21121E-05   -0.33216E-07  3392   0.156E-03    0.534E-04
DAV:  22    -0.157855266134E+03   -0.51365E-06   -0.15540E-07  3160   0.130E-03
   2 F= -.16155610E+03 E0= -.16155551E+03  d E =-.286995E+00  mag=    25.0000
