 vasp.6.5.1 10Mar25 (build Jan 13 2026 20:43:53) complex                         
 executed on             LinuxAMD date 2026.09.09  04:48:57
 running   16 mpi-ranks, with    1 threads/rank, on    1 nodes
 distrk:  each k-point on   16 cores,    1 groups
 distr:  one band on NCORE=   4 cores,    4 groups


--------------------------------------------------------------------------------------------------------


 INCAR:
   SYSTEM = CrCl3 2x2 + H (S1 top-Cl) (D3, U\=0eV)
   PREC = Accurate
   ENCUT = 400.0
   ALGO = Normal
   EDIFF = 1.0E-06
   NELM = 100
   ISPIN = 2
   MAGMOM = 8*3.0 24*0.0 1*0.0
   ISMEAR = 0
   SIGMA = 0.05
   NCORE = 4
   LREAL = Auto
   IVDW = 11
   IBRION = 2
   NSW = 100
   ISIF = 2
   EDIFFG = -0.025
   LASPH = .TRUE.
   LMAXMIX = 4
   LDAU = .FALSE.
   LDIPOL = .TRUE.
   IDIPOL = 3
   DIPOL = 0.5 0.5 0.5
   LWAVE = .FALSE.
   LCHARG = .FALSE.

 POTCAR:    PAW_PBE Cr 06Sep2000                  
 POTCAR:    PAW_PBE Cl 06Sep2000                  
 POTCAR:    PAW_PBE H 15Jun2001                   
 POTCAR:    PAW_PBE Cr 06Sep2000                  
   SHA256 =  56e7271fac8042f322b235801e26979132a24da65eb043fa6a03029023cb2fcc Cr/POTCAR             
   COPYR  = (c) Copyright 06Sep2000 Georg Kresse                                                    
   COPYR  = This file is part of the software VASP. Any use, copying, and all other rights are regul
   COPYR  = If you do not have a valid VASP license, you may not use, copy or distribute this file. 
   VRHFIN =Cr : d5 s1                                                                               
   LEXCH  = PE                                                                                      
   EATOM  =   276.8859 eV,   20.3505 Ry                                                             
                                                                                                    
   TITEL  = PAW_PBE Cr 06Sep2000                                                                    
   LULTRA =        F    use ultrasoft PP ?                                                          
   IUNSCR =        1    unscreen: 0-lin 1-nonlin 2-no                                               
   RPACOR =    2.080    partial core radius                                                         
   POMASS =   51.996; ZVAL   =    6.000    mass and valenz                                          
   RCORE  =    2.500    outmost cutoff radius                                                       
   RWIGS  =    2.500; RWIGS  =    1.323    wigner-seitz radius (au A)                               
   ENMAX  =  227.080; ENMIN  =  170.310 eV                                                          
   RCLOC  =    1.721    cutoff for local pot                                                        
   LCOR   =        T    correct aug charges                                                         
   LPAW   =        T    paw PP                                                                      
   EAUG   =  402.108                                                                                
   DEXC   =    0.000                                                                                
   RMAX   =    2.552    core radius for proj-oper                                                   
   RAUG   =    1.300    factor for augmentation sphere                                              
   RDEP   =    2.609    radius for radial grids                                                     
   RDEPT  =    2.065    core radius for aug-charge                                                  
                                                                                                    
   Atomic configuration                                                                             
    9 entries                                                                                       
     n  l   j            E        occ.                                                              
     1  0  0.50     -5880.4963   2.0000                                                             
     2  0  0.50      -667.0865   2.0000                                                             
     2  1  1.50      -560.6250   6.0000                                                             
     3  0  0.50       -73.9860   2.0000                                                             
     3  1  1.50       -45.4378   6.0000                                                             
     3  2  2.50        -2.9137   5.0000                                                             
     4  0  0.50        -4.0071   1.0000                                                             
     4  1  0.50        -1.2789   0.0000                                                             
     4  3  2.50        -1.3606   0.0000                                                             
   Description                                                                                      
     l       E           TYP  RCUT    TYP  RCUT                                                     
     2     -2.9136677     23  2.500                                                                 
     2     -4.2742503     23  2.500                                                                 
     0     -4.0071322     23  2.500                                                                 
     0      9.4498801     23  2.500                                                                 
     1     -5.4423304     23  2.500                                                                 
     1     27.2116520     23  2.500                                                                 
  local pseudopotential read in
  partial core-charges read in
  partial kinetic energy density read in
  atomic valenz-charges read in
  non local Contribution for L=            2  read in
    real space projection operators read in
  non local Contribution for L=            2  read in
    real space projection operators read in
  non local Contribution for L=            0  read in
    real space projection operators read in
  non local Contribution for L=            0  read in
    real space projection operators read in
  non local Contribution for L=            1  read in
    real space projection operators read in
  non local Contribution for L=            1  read in
    real space projection operators read in
    PAW grid and wavefunctions read in
 
   number of l-projection  operators is LMAX  =            6
   number of lm-projection operators is LMMAX =           18
 
 POTCAR:    PAW_PBE Cl 06Sep2000                  
   SHA256 =  9f1b6e6ed4247ac726a768b330d26d7667cc3c95a39ff49c1d064c2d9dcce931 Cl/POTCAR             
   COPYR  = (c) Copyright 06Sep2000 Georg Kresse                                                    
   COPYR  = This file is part of the software VASP. Any use, copying, and all other rights are regul
   COPYR  = If you do not have a valid VASP license, you may not use, copy or distribute this file. 
   VRHFIN =Cl: s2p5                                                                                 
   LEXCH  = PE                                                                                      
   EATOM  =   409.7259 eV,   30.1140 Ry                                                             
                                                                                                    
   TITEL  = PAW_PBE Cl 06Sep2000                                                                    
   LULTRA =        F    use ultrasoft PP ?                                                          
   IUNSCR =        1    unscreen: 0-lin 1-nonlin 2-no                                               
   RPACOR =    1.500    partial core radius                                                         
   POMASS =   35.453; ZVAL   =    7.000    mass and valenz                                          
   RCORE  =    1.900    outmost cutoff radius                                                       
   RWIGS  =    2.100; RWIGS  =    1.111    wigner-seitz radius (au A)                               
   ENMAX  =  262.472; ENMIN  =  196.854 eV                                                          
   ICORE  =        2    local potential                                                             
   LCOR   =        T    correct aug charges                                                         
   LPAW   =        T    paw PP                                                                      
   EAUG   =  356.192                                                                                
   DEXC   =    0.000                                                                                
   RMAX   =    1.945    core radius for proj-oper                                                   
   RAUG   =    1.300    factor for augmentation sphere                                              
   RDEP   =    2.020    radius for radial grids                                                     
   RDEPT  =    1.678    core radius for aug-charge                                                  
                                                                                                    
   Atomic configuration                                                                             
    6 entries                                                                                       
     n  l   j            E        occ.                                                              
     1  0  0.50     -2751.1850   2.0000                                                             
     2  0  0.50      -252.6861   2.0000                                                             
     2  1  1.50      -191.6157   6.0000                                                             
     3  0  0.50       -20.6916   2.0000                                                             
     3  1  0.50        -8.5949   5.0000                                                             
     3  2  1.50        -8.1635   0.0000                                                             
   Description                                                                                      
     l       E           TYP  RCUT    TYP  RCUT                                                     
     0    -20.6915656     23  1.900                                                                 
     0    -22.0521482     23  1.900                                                                 
     1     -8.5948577     23  1.900                                                                 
     1     -5.3847331     23  1.900                                                                 
     2     -8.1634956     23  1.900                                                                 
  local pseudopotential read in
  partial core-charges read in
  partial kinetic energy density read in
  atomic valenz-charges read in
  non local Contribution for L=            0  read in
    real space projection operators read in
  non local Contribution for L=            0  read in
    real space projection operators read in
  non local Contribution for L=            1  read in
    real space projection operators read in
  non local Contribution for L=            1  read in
    real space projection operators read in
    PAW grid and wavefunctions read in
 
   number of l-projection  operators is LMAX  =            4
   number of lm-projection operators is LMMAX =            8
 
 POTCAR:    PAW_PBE H 15Jun2001                   
   SHA256 =  030f79b5d3ab3cf0e668861823c8fb652ff669f3e15e46930bd03bfd63a607b6 H/POTCAR              
   COPYR  = (c) Copyright 15Jun2001 Georg Kresse                                                    
   COPYR  = This file is part of the software VASP. Any use, copying, and all other rights are regul
   COPYR  = If you do not have a valid VASP license, you may not use, copy or distribute this file. 
   VRHFIN =H: ultrasoft test                                                                        
   LEXCH  = PE                                                                                      
   EATOM  =    12.4884 eV,    0.9179 Ry                                                             
                                                                                                    
   TITEL  = PAW_PBE H 15Jun2001                                                                     
   LULTRA =        F    use ultrasoft PP ?                                                          
   IUNSCR =        0    unscreen: 0-lin 1-nonlin 2-no                                               
   RPACOR =    0.000    partial core radius                                                         
   POMASS =    1.000; ZVAL   =    1.000    mass and valenz                                          
   RCORE  =    1.100    outmost cutoff radius                                                       
   RWIGS  =    0.700; RWIGS  =    0.370    wigner-seitz radius (au A)                               
   ENMAX  =  250.000; ENMIN  =  200.000 eV                                                          
   RCLOC  =    0.701    cutoff for local pot                                                        
   LCOR   =        T    correct aug charges                                                         
   LPAW   =        T    paw PP                                                                      
   EAUG   =  400.000                                                                                
   RMAX   =    1.123    core radius for proj-oper                                                   
   RAUG   =    1.200    factor for augmentation sphere                                              
   RDEP   =    1.112    radius for radial grids                                                     
   RDEPT  =    0.926    core radius for aug-charge                                                  
                                                                                                    
   Atomic configuration                                                                             
    2 entries                                                                                       
     n  l   j            E        occ.                                                              
     1  0  0.50        -6.4927   1.0000                                                             
     2  1  0.50        -3.4015   0.0000                                                             
   Description                                                                                      
     l       E           TYP  RCUT    TYP  RCUT                                                     
     0     -6.4927494     23  1.100                                                                 
     0      6.8029130     23  1.100                                                                 
     1     -4.0817478     23  1.100                                                                 
  local pseudopotential read in
  atomic valenz-charges read in
  non local Contribution for L=            0  read in
    real space projection operators read in
  non local Contribution for L=            0  read in
    real space projection operators read in
  non local Contribution for L=            1  read in
    real space projection operators read in
    PAW grid and wavefunctions read in
 
   number of l-projection  operators is LMAX  =            3
   number of lm-projection operators is LMMAX =            5
 
 Optimization of the real space projectors (new method)

 maximal supplied QI-value         = 15.12
 optimisation between [QCUT,QGAM] = [ 10.13, 20.41] = [ 28.73,116.64] Ry 
 Optimized for a Real-space Cutoff    1.55 Angstroem

   l    n(q)    QCUT    max X(q) W(low)/X(q) W(high)/X(q)  e(spline) 
   2      9    10.129    94.395    0.23E-03    0.29E-03    0.30E-06
   2      9    10.129    88.078    0.23E-03    0.29E-03    0.30E-06
   0      9    10.129    50.173    0.57E-04    0.58E-04    0.11E-06
   0      9    10.129    24.906    0.50E-04    0.51E-04    0.96E-07
   1      9    10.129    12.133    0.24E-03    0.21E-04    0.16E-06
   1      9    10.129     7.290    0.17E-03    0.12E-04    0.12E-06
 Optimization of the real space projectors (new method)

 maximal supplied QI-value         = 19.84
 optimisation between [QCUT,QGAM] = [ 10.12, 20.44] = [ 28.68,116.96] Ry 
 Optimized for a Real-space Cutoff    1.42 Angstroem

   l    n(q)    QCUT    max X(q) W(low)/X(q) W(high)/X(q)  e(spline) 
   0      9    10.119   168.010    0.50E-04    0.84E-04    0.57E-07
   0      9    10.119   164.674    0.49E-04    0.82E-04    0.55E-07
   1      8    10.119    69.222    0.16E-03    0.16E-03    0.24E-06
   1      8    10.119    56.786    0.16E-03    0.16E-03    0.23E-06
 Optimization of the real space projectors (new method)

 maximal supplied QI-value         = 34.20
 optimisation between [QCUT,QGAM] = [  9.92, 20.18] = [ 27.55,114.04] Ry 
 Optimized for a Real-space Cutoff    1.34 Angstroem

   l    n(q)    QCUT    max X(q) W(low)/X(q) W(high)/X(q)  e(spline) 
   0      8     9.919    19.460    0.16E-03    0.20E-03    0.36E-06
   0      8     9.919    12.209    0.16E-03    0.20E-03    0.35E-06
   1      8     9.919     4.655    0.19E-03    0.46E-03    0.40E-06
  PAW_PBE Cr 06Sep2000                  :
 energy of atom  1       EATOM= -276.8859
 kinetic energy error for atom=    0.0018 (will be added to EATOM!!)
  PAW_PBE Cl 06Sep2000                  :
 energy of atom  2       EATOM= -409.7259
 kinetic energy error for atom=    0.0089 (will be added to EATOM!!)
  PAW_PBE H 15Jun2001                   :
 energy of atom  3       EATOM=  -12.4884
 kinetic energy error for atom=    0.0098 (will be added to EATOM!!)
 
 
 POSCAR: CrCl3 2x2 + H S1 top-Cl (D3, U=0) (a_2x2
  positions in direct lattice
  No initial velocities read in
 IVDW         = 11
 VDW_S6       =    1.0000
 VDW_S8       =    0.7220
 VDW_SR       =    1.2170
 VDW_RADIUS   =   50.2022 A
 VDW_CNRADIUS =   21.1671 A


 exchange-correlation table for PE
   RHO(1)=    0.500       N(1)  =     2000
   RHO(2)=  100.500       N(2)  =     4000
 


--------------------------------------------------------------------------------------------------------


 ion  position               nearest neighbor table
   1  0.167  0.333  0.500-  11 2.36  14 2.36  12 2.36  16 2.36   9 2.36  13 2.36
   2  0.333  0.167  0.500-  11 2.36  14 2.36  19 2.36  21 2.36  24 2.36  10 2.36
   3  0.667  0.333  0.500-  17 2.36  20 2.36  18 2.36  10 2.36  15 2.36  19 2.36
   4  0.833  0.167  0.500-  17 2.36  20 2.36  13 2.36  27 2.36  30 2.36  16 2.36
   5  0.167  0.833  0.500-  23 2.36  26 2.36  24 2.36  28 2.36  21 2.36  25 2.36
   6  0.333  0.667  0.500-  23 2.36  26 2.36   9 2.36  31 2.36  12 2.36  22 2.36
   7  0.667  0.833  0.500-  29 2.36  32 2.36  30 2.36  22 2.36  27 2.36  31 2.36
   8  0.833  0.667  0.500-  29 2.36  32 2.36  15 2.36  25 2.36  18 2.36  28 2.36
   9  0.180  0.500  0.433-   6 2.36   1 2.36
  10  0.500  0.180  0.433-   3 2.36   2 2.36
  11  0.320  0.320  0.433-   1 2.36   2 2.36
  12  0.320  0.500  0.567-   1 2.36   6 2.36
  13  0.000  0.320  0.567-   4 2.36   1 2.36
  14  0.180  0.180  0.567-   1 2.36   2 2.36
  15  0.680  0.500  0.433-   8 2.36   3 2.36
  16  0.000  0.180  0.433-   1 2.36   4 2.36
  17  0.820  0.320  0.433-   3 2.36   4 2.36
  18  0.820  0.500  0.567-   3 2.36   8 2.36
  19  0.500  0.320  0.567-  33 1.30   2 2.36   3 2.36
  20  0.680  0.180  0.567-   3 2.36   4 2.36
  21  0.180  0.000  0.433-   2 2.36   5 2.36
  22  0.500  0.680  0.433-   7 2.36   6 2.36
  23  0.320  0.820  0.433-   5 2.36   6 2.36
  24  0.320  0.000  0.567-   5 2.36   2 2.36
  25  0.000  0.820  0.567-   8 2.36   5 2.36
  26  0.180  0.680  0.567-   5 2.36   6 2.36
  27  0.680  0.000  0.433-   4 2.36   7 2.36
  28  0.000  0.680  0.433-   5 2.36   8 2.36
  29  0.820  0.820  0.433-   7 2.36   8 2.36
  30  0.820  0.000  0.567-   7 2.36   4 2.36
  31  0.500  0.820  0.567-   6 2.36   7 2.36
  32  0.680  0.680  0.567-   7 2.36   8 2.36
  33  0.500  0.320  0.632-  19 1.30
 
  LATTYP: Found a hexagonal cell.
 ALAT       =    12.0925489970
 C/A-ratio  =     1.6539110162
  
  Lattice vectors:
  
 A1 = (  12.0925489970,   0.0000000000,   0.0000000000)
 A2 = (  -6.0462744985,  10.4724546280,   0.0000000000)
 A3 = (   0.0000000000,   0.0000000000,  20.0000000000)


Analysis of symmetry for initial positions (statically):
=====================================================================
 Subroutine PRICEL returns:
 Original cell was already a primitive cell.
 

 Routine SETGRP: Setting up the symmetry group for a 
 hexagonal supercell.


 Subroutine GETGRP returns: Found  2 space group operations
 (whereof  1 operations were pure point group operations)
 out of a pool of 24 trial point group operations.


The static configuration has the point symmetry C_1 .
 The point group associated with its full space group is C_1h.


Analysis of symmetry for dynamics (positions and initial velocities):
=====================================================================
 Subroutine PRICEL returns:
 Original cell was already a primitive cell.
 

 Routine SETGRP: Setting up the symmetry group for a 
 hexagonal supercell.


 Subroutine GETGRP returns: Found  2 space group operations
 (whereof  1 operations were pure point group operations)
 out of a pool of 24 trial point group operations.


The dynamic configuration has the point symmetry C_1 .
 The point group associated with its full space group is C_1h.


Analysis of structural, dynamic, and magnetic symmetry:
=====================================================================
 Subroutine PRICEL returns:
 Original cell was already a primitive cell.
 

 Routine SETGRP: Setting up the symmetry group for a 
 hexagonal supercell.


 Subroutine GETGRP returns: Found  2 space group operations
 (whereof  1 operations were pure point group operations)
 out of a pool of 24 trial point group operations.


The overall configuration has the point symmetry C_1 .
 The point group associated with its full space group is C_1h.


 Subroutine INISYM returns: Found  2 space group operations
 (whereof  1 operations are pure point group operations),
 and found     1 'primitive' translations


----------------------------------------------------------------------------------------

                                     Primitive cell                                     

  volume of cell :    2532.7734

  direct lattice vectors                    reciprocal lattice vectors
    12.092548997  0.000000000  0.000000000     0.082695551  0.047744299 -0.000000000
    -6.046274499 10.472454628  0.000000000     0.000000000  0.095488597  0.000000000
     0.000000000  0.000000000 20.000000000     0.000000000 -0.000000000  0.050000000

  length of vectors
    12.092548997 12.092548997 20.000000000     0.095488597  0.095488597  0.050000000

  position of ions in fractional coordinates (direct lattice)
     0.166666667  0.333333333  0.500000000
     0.333333333  0.166666667  0.500000000
     0.666666667  0.333333333  0.500000000
     0.833333333  0.166666667  0.500000000
     0.166666667  0.833333333  0.500000000
     0.333333333  0.666666667  0.500000000
     0.666666667  0.833333333  0.500000000
     0.833333333  0.666666667  0.500000000
     0.179650098  0.500000000  0.433213807
     0.500000000  0.179650098  0.433213807
     0.320349902  0.320349902  0.433213807
     0.320349902  0.500000000  0.566786193
     0.000000000  0.320349902  0.566786193
     0.179650098  0.179650098  0.566786193
     0.679650098  0.500000000  0.433213807
     0.000000000  0.179650098  0.433213807
     0.820349902  0.320349902  0.433213807
     0.820349902  0.500000000  0.566786193
     0.500000000  0.320349902  0.566786193
     0.679650098  0.179650098  0.566786193
     0.179650098  0.000000000  0.433213807
     0.500000000  0.679650098  0.433213807
     0.320349902  0.820349902  0.433213807
     0.320349902  0.000000000  0.566786193
     0.000000000  0.820349902  0.566786193
     0.179650098  0.679650098  0.566786193
     0.679650098  0.000000000  0.433213807
     0.000000000  0.679650098  0.433213807
     0.820349902  0.820349902  0.433213807
     0.820349902  0.000000000  0.566786193
     0.500000000  0.820349902  0.566786193
     0.679650098  0.679650098  0.566786193
     0.500000000  0.320349902  0.631786193

  ion indices of the primitive-cell ions
   primitive index   ion index
                 1           1
                 2           2
                 3           3
                 4           4
                 5           5
                 6           6
                 7           7
                 8           8
                 9           9
                10          10
                11          11
                12          12
                13          13
                14          14
                15          15
                16          16
                17          17
                18          18
                19          19
                20          20
                21          21
                22          22
                23          23
                24          24
                25          25
                26          26
                27          27
                28          28
                29          29
                30          30
                31          31
                32          32
                33          33

----------------------------------------------------------------------------------------

 
 
 KPOINTS: K-Points 5x5x1 Gamma-centered           

Automatic generation of k-mesh.
 Grid dimensions read from file:
 generate k-points for:    5    5    1

 Generating k-lattice:

  Cartesian coordinates                     Fractional coordinates (reciprocal lattice)
     0.016539110  0.009548860 -0.000000000     0.200000000 -0.000000000  0.000000000
     0.000000000  0.019097719  0.000000000     0.000000000  0.200000000  0.000000000
     0.000000000 -0.000000000  0.050000000     0.000000000  0.000000000  1.000000000

  Length of vectors
     0.019097719  0.019097719  0.050000000

  Shift w.r.t. Gamma in fractional coordinates (k-lattice)
     0.000000000  0.000000000  0.000000000

 
 Subroutine IBZKPT returns following result:
 ===========================================
 
 Found      9 irreducible k-points:
 
 Following reciprocal coordinates:
            Coordinates               Weight
  0.000000  0.000000  0.000000      1.000000
  0.200000  0.000000  0.000000      2.000000
  0.000000  0.200000  0.000000      4.000000
  0.400000  0.000000  0.000000      2.000000
  0.000000  0.400000  0.000000      4.000000
  0.200000  0.200000  0.000000      4.000000
 -0.200000  0.400000  0.000000      2.000000
  0.400000  0.200000  0.000000      2.000000
 -0.200000 -0.400000  0.000000      4.000000
 
 Following cartesian coordinates:
            Coordinates               Weight
  0.000000  0.000000  0.000000      1.000000
  0.016539  0.009549  0.000000      2.000000
  0.000000  0.019098  0.000000      4.000000
  0.033078  0.019098  0.000000      2.000000
  0.000000  0.038195  0.000000      4.000000
  0.016539  0.028647  0.000000      4.000000
 -0.016539  0.028647  0.000000      2.000000
  0.033078  0.038195  0.000000      2.000000
 -0.016539 -0.047744  0.000000      4.000000
 


--------------------------------------------------------------------------------------------------------




 Dimension of arrays:
   k-points           NKPTS =      9   k-points in BZ     NKDIM =      9   number of bands    NBANDS=    144
   number of dos      NEDOS =    301   number of ions     NIONS =     33
   non local maximal  LDIM  =      6   non local SUM 2l+1 LMDIM =     18
   total plane-waves  NPLWV = 896000
   max r-space proj   IRMAX =   5608   max aug-charges    IRDMAX=  18270
   dimension x,y,z NGX =    80 NGY =   80 NGZ =  140
   dimension x,y,z NGXF=   160 NGYF=  160 NGZF=  280
   support grid    NGXF=   160 NGYF=  160 NGZF=  280
   ions per type =               8  24   1
   NGX,Y,Z   is equivalent  to a cutoff of  11.00, 11.00, 11.64 a.u.
   NGXF,Y,Z  is equivalent  to a cutoff of  22.00, 22.00, 23.27 a.u.

 SYSTEM =  CrCl3 2x2 + H (S1 top-Cl) (D3, U=0eV)   
 POSCAR =  CrCl3 2x2 + H S1 top-Cl (D3, U=0) (a_2x2

 Startparameter for this run:
   NWRITE =      2    write-flag & timer
   PREC   = accura    normal or accurate (medium, high low for compatibility)
   ISTART =      0    job   : 0-new  1-cont  2-samecut
   ICHARG =      2    charge: 1-file 2-atom 10-const
   ISPIN  =      2    spin polarized calculation?
   LNONCOLLINEAR =      F non collinear calculations
   LSORBIT =      F    spin-orbit coupling
   INIWAV =      1    electr: 0-lowe 1-rand  2-diag
   LASPH  =      T    aspherical Exc in radial PAW
 Electronic Relaxation 1
   ENCUT  =  400.0 eV  29.40 Ry    5.42 a.u.  19.72 19.72 32.61*2*pi/ulx,y,z
   ENINI  =  400.0     initial cutoff
   ENAUG  =  402.1 eV  augmentation charge cutoff
   NELM   =    100;   NELMIN=  2; NELMDL= -5     # of ELM steps 
   EDIFF  = 0.1E-05   stopping-criterion for ELM
   LREAL  =      T    real-space projection
   NLSPLINE    = F    spline interpolate recip. space projectors
   LCOMPAT=      F    compatible to vasp.4.4
   GGA_COMPAT  = T    GGA compatible to vasp.4.4-vasp.4.6
   LMAXPAW     = -100 max onsite density
   LMAXMIX     =    4 max onsite mixed and CHGCAR
   VOSKOWN=      0    Vosko Wilk Nusair interpolation
   ROPT   =   -0.00025  -0.00025  -0.00025
 Ionic relaxation
   EDIFFG = -.3E-01   stopping-criterion for IOM
   NSW    =    100    number of steps for IOM
   NBLOCK =      1;   KBLOCK =    100    inner block; outer block 
   IBRION =      2    ionic relax: 0-MD 1-quasi-New 2-CG
   NFREE  =      1    steps in history (QN), initial steepest desc. (CG)
   ISIF   =      2    stress and relaxation
   IWAVPR =     11    prediction:  0-non 1-charg 2-wave 3-comb
   ISYM   =      2    0-nonsym 1-usesym 2-fastsym
   LCORR  =      T    Harris-Foulkes like correction to forces

   POTIM  = 0.5000    time-step for ionic-motion
   TEIN   =    0.0    initial temperature
   TEBEG  =    0.0;   TEEND  =   0.0 temperature during run
   SMASS  =  -3.00    Nose mass-parameter (am)
   estimated Nose-frequenzy (Omega)   =  0.10E-29 period in steps = 0.13E+47 mass=  -0.334E-26a.u.
   SCALEE = 1.0000    scale energy and forces
   NPACO  =    256;   APACO  = 10.0  distance and # of slots for P.C.
   PSTRESS=    0.0 pullay stress

  Mass of Ions in am
   POMASS =  52.00 35.45  1.00
  Ionic Valenz
   ZVAL   =   6.00  7.00  1.00
  Atomic Wigner-Seitz radii
   RWIGS  =  -1.00 -1.00 -1.00
  virtual crystal weights 
   VCA    =   1.00  1.00  1.00
   NELECT =     217.0000    total number of electrons
   NUPDOWN=      -1.0000    fix difference up-down

 DOS related values:
   EMIN   =  10.00;   EMAX   =-10.00  energy-range for DOS
   EFERMI =   0.00;   METHOD = LEGACY      
   ISMEAR =     0;   SIGMA  =   0.05  broadening in eV -4-tet -1-fermi 0-gaus
   EFERMI_NEDOS =   21; number of points for ismear=-14 and -15

 Electronic relaxation 2 (details)
   IALGO  =     38    algorithm
   LDIAG  =      T    sub-space diagonalisation (order eigenvalues)
   LSUBROT=      F    optimize rotation matrix (better conditioning)
   LROBUST=      F    robust break criterion during scf (extrapolated energy error)
   ISEARCH=      0    line search for conjugate gradient (0, 1=use gradient)
   TURBO    =      0    0=normal 1=particle mesh
   IRESTART =      0    0=no restart 2=restart with 2 vectors
   NREBOOT  =      0    no. of reboots
   NMIN     =      0    reboot dimension
   EREF     =   0.00    reference energy to select bands
   IMIX   =      4    mixing-type and parameters
     AMIX     =   0.40;   BMIX     =  1.00
     AMIX_MAG =   1.60;   BMIX_MAG =  1.00
     AMIN     =   0.10
     WC   =   100.;   INIMIX=   1;  MIXPRE=   1;  MAXMIX= -45

 Intra band minimization:
   WEIMIN = 0.0010     energy-eigenvalue tresh-hold
   EBREAK =  0.17E-08  absolut break condition
   DEPER  =   0.30     relativ break condition  

   TIME   =   0.40     timestep for ELM

  volume/ion in A,a.u.               =      76.75       517.94
  Fermi-wavevector in a.u.,A,eV,Ry     =   0.721710  1.363834  7.086800  0.520865
  Thomas-Fermi vector in A             =   1.811487
 
 Write flags
   LWAVE        =      F    write WAVECAR
   LDOWNSAMPLE  =      F    k-point downsampling of WAVECAR
   LCHARG       =      F    write CHGCAR
   LVTOT        =      F    write LOCPOT, total local potential
   LVHAR        =      F    write LOCPOT, Hartree potential only
   WRT_POTENTIAL= false  ! write potential to hdf5 file
   LELF         =      F    write electronic localiz. function (ELF)
   LORBIT       =      0    0 simple, 1 ext, 2 COOP (PROOUT), +10 PAW based schemes


 Python interface
   PLUGINS active      =      F    recompile with -DPLUGINS to activate
 
 Dipole corrections
   LMONO      =      F    monopole corrections only (constant potential shift)
   LDIPOL     =      T    correct potential (dipole corrections)
   IDIPOL     =      3    1-x, 2-y, 3-z, 4-all directions 
   EPSILON    =  1.0000000 bulk dielectric constant
   LVACPOTAV  =      F  vacuum potentials using an averaging scheme for the charge density
   VACPOTFLAT =  0.1000000 required flatness to determine vacuum potential
 
Coulomb truncation method
  LTRUNCATE          =      F  Coulomb kernel truncation to be used

 
 Exchange correlation treatment:
   GGA     = PE    functional components
   XC_C    = 1    coefficients multiplying the functional components
   LIBXC   =     F    Libxc                    
   VOSKOWN =     0    Vosko Wilk Nusair interpolation
   LHFCALC =     F    Hartree Fock is set to
   LHFONE  =     F    Hartree Fock one center treatment
   AEXX    =    0.0000 exact exchange contribution

 Parameters of functionals:
   PE:
     No parameter
 
 Van der Waals corrections
   IVDW    =    11    specifies the selected vdW correction

 Linear response parameters
   LEPSILON=     F    determine dielectric tensor
   LRPA    =     F    only Hartree local field effects (RPA)
   LNABLA  =     F    use nabla operator in PAW spheres
   LVEL    =     F    velocity operator in full k-point grid
   CSHIFT  =0.1000    complex shift for real part using Kramers Kronig
   OMEGAMAX=  -1.0    maximum frequency
   DEG_THRESHOLD= 0.2000000E-02 threshold for treating states as degnerate
   RTIME   =   -0.100 relaxation time in fs
  (WPLASMAI=    0.000 imaginary part of plasma frequency in eV, 0.658/RTIME)
   DFIELD  = 0.0000000 0.0000000 0.0000000 field for delta impulse in time
 
  Optional k-point grid parameters
   LKPOINTS_OPT  =     F    use optional k-point grid
   KPOINTS_OPT_MODE=     1    mode for optional k-point grid
 
 Orbital magnetization related:
   ORBITALMAG=     F  switch on orbital magnetization
   LCHIMAG   =     F  perturbation theory with respect to B field
   DQ        =  0.001000  dq finite difference perturbation B field
   LLRAUG    =     F  two centre corrections for induced B field
   LBONE     =     F  B-component reconstruction in AE one-centre
   LVGVCALC  =     T  calculate vGv susceptibility
   LVGVAPPL  =     F  apply vGv susceptibility instead of pGv for G=0

 Random number generation:
   RANDOM_GENERATOR = DEFAULT
   PCG_SEED         = not used


--------------------------------------------------------------------------------------------------------


 conjugate gradient relaxation of ions
 charge density and potential will be updated during run
 spin polarized calculation
 Variant of blocked Davidson
 Davidson routine will perform the subspace rotation
 perform sub-space diagonalisation
    after iterative eigenvector-optimisation
 modified Broyden-mixing scheme, WC =      100.0
 initial mixing is a Kerker type mixing with AMIX =  0.4000 and BMIX =      1.0000
 Hartree-type preconditioning will be used
 using additional bands            35
 real space projection scheme for non local part
 use partial core corrections
 calculate Harris-corrections to forces 
   (improved forces if not selfconsistent)
 use gradient corrections 
 use of overlap-Matrix (Vanderbilt PP)
 Gauss-broadening in eV      SIGMA  =   0.05


--------------------------------------------------------------------------------------------------------


  energy-cutoff  :      400.00
  volume of cell :     2532.77
      direct lattice vectors                 reciprocal lattice vectors
    12.092548997  0.000000000  0.000000000     0.082695551  0.047744299 -0.000000000
    -6.046274499 10.472454628  0.000000000     0.000000000  0.095488597  0.000000000
     0.000000000  0.000000000 20.000000000     0.000000000 -0.000000000  0.050000000

  length of vectors
    12.092548997 12.092548997 20.000000000     0.095488597  0.095488597  0.050000000


 
 k-points in units of 2pi/SCALE and weight: K-Points 5x5x1 Gamma-centered           
   0.00000000  0.00000000  0.00000000       0.040
   0.01653911  0.00954886  0.00000000       0.080
   0.00000000  0.01909772  0.00000000       0.160
   0.03307822  0.01909772  0.00000000       0.080
   0.00000000  0.03819544  0.00000000       0.160
   0.01653911  0.02864658  0.00000000       0.160
  -0.01653911  0.02864658  0.00000000       0.080
   0.03307822  0.03819544  0.00000000       0.080
  -0.01653911 -0.04774430  0.00000000       0.160
 
 k-points in reciprocal lattice and weights: K-Points 5x5x1 Gamma-centered           
   0.00000000  0.00000000  0.00000000       0.040
   0.20000000  0.00000000  0.00000000       0.080
   0.00000000  0.20000000  0.00000000       0.160
   0.40000000  0.00000000  0.00000000       0.080
   0.00000000  0.40000000  0.00000000       0.160
   0.20000000  0.20000000  0.00000000       0.160
  -0.20000000  0.40000000  0.00000000       0.080
   0.40000000  0.20000000  0.00000000       0.080
  -0.20000000 -0.40000000  0.00000000       0.160
 
 position of ions in fractional coordinates (direct lattice) 
   0.16666667  0.33333333  0.50000000
   0.33333333  0.16666667  0.50000000
   0.66666667  0.33333333  0.50000000
   0.83333333  0.16666667  0.50000000
   0.16666667  0.83333333  0.50000000
   0.33333333  0.66666667  0.50000000
   0.66666667  0.83333333  0.50000000
   0.83333333  0.66666667  0.50000000
   0.17965010  0.50000000  0.43321381
   0.50000000  0.17965010  0.43321381
   0.32034990  0.32034990  0.43321381
   0.32034990  0.50000000  0.56678619
   0.00000000  0.32034990  0.56678619
   0.17965010  0.17965010  0.56678619
   0.67965010  0.50000000  0.43321381
   0.00000000  0.17965010  0.43321381
   0.82034990  0.32034990  0.43321381
   0.82034990  0.50000000  0.56678619
   0.50000000  0.32034990  0.56678619
   0.67965010  0.17965010  0.56678619
   0.17965010  0.00000000  0.43321381
   0.50000000  0.67965010  0.43321381
   0.32034990  0.82034990  0.43321381
   0.32034990  0.00000000  0.56678619
   0.00000000  0.82034990  0.56678619
   0.17965010  0.67965010  0.56678619
   0.67965010  0.00000000  0.43321381
   0.00000000  0.67965010  0.43321381
   0.82034990  0.82034990  0.43321381
   0.82034990  0.00000000  0.56678619
   0.50000000  0.82034990  0.56678619
   0.67965010  0.67965010  0.56678619
   0.50000000  0.32034990  0.63178619
 
 position of ions in cartesian coordinates  (Angst):
   0.00000000  3.49081821 10.00000000
   3.02313725  1.74540910 10.00000000
   6.04627450  3.49081821 10.00000000
   9.06941175  1.74540910 10.00000000
  -3.02313725  8.72704552 10.00000000
  -0.00000000  6.98163642 10.00000000
   3.02313725  8.72704552 10.00000000
   6.04627450  6.98163642 10.00000000
  -0.85070963  5.23622731  8.66427613
   4.96006069  1.88137750  8.66427613
   1.93692344  3.35484981  8.66427613
   0.85070963  5.23622731 11.33572387
  -1.93692344  3.35484981 11.33572387
   1.08621381  1.88137750 11.33572387
   5.19556487  5.23622731  8.66427613
  -1.08621381  1.88137750  8.66427613
   7.98319794  3.35484981  8.66427613
   6.89698413  5.23622731 11.33572387
   4.10935106  3.35484981 11.33572387
   7.13248831  1.88137750 11.33572387
   2.17242762  0.00000000  8.66427613
   1.93692344  7.11760482  8.66427613
  -1.08621381  8.59107712  8.66427613
   3.87384688  0.00000000 11.33572387
  -4.96006069  8.59107712 11.33572387
  -1.93692344  7.11760482 11.33572387
   8.21870212  0.00000000  8.66427613
  -4.10935106  7.11760482  8.66427613
   4.96006069  8.59107712  8.66427613
   9.92012138  0.00000000 11.33572387
   1.08621381  8.59107712 11.33572387
   4.10935106  7.11760482 11.33572387
   4.10935106  3.35484981 12.63572387
 


--------------------------------------------------------------------------------------------------------


 k-point     1 :   0.0000 0.0000 0.0000  plane waves:   46037
 k-point     2 :   0.2000 0.0000 0.0000  plane waves:   45994
 k-point     3 :   0.0000 0.2000 0.0000  plane waves:   45994
 k-point     4 :   0.4000 0.0000 0.0000  plane waves:   46016
 k-point     5 :   0.0000 0.4000 0.0000  plane waves:   46016
 k-point     6 :   0.2000 0.2000 0.0000  plane waves:   46056
 k-point     7 :  -0.2000 0.4000 0.0000  plane waves:   46056
 k-point     8 :   0.4000 0.2000 0.0000  plane waves:   46002
 k-point     9 :  -0.2000-0.4000 0.0000  plane waves:   46002

 maximum and minimum number of plane-waves per node :     11549    11450

 maximum number of plane-waves:     46056
 maximum index in each direction: 
   IXMAX=   19   IYMAX=   20   IZMAX=   32
   IXMIN=  -20   IYMIN=  -20   IZMIN=  -32


 real space projection operators:
  total allocation   :      12388.62 KBytes
  max/ min on nodes  :       3120.26       3075.66


 parallel 3D FFT for wavefunctions:
    minimum data exchange during FFTs selected (reduces bandwidth)
 parallel 3D FFT for charge:
    minimum data exchange during FFTs selected (reduces bandwidth)


 total amount of memory used by VASP MPI-rank0   236866. kBytes
=======================================================================

   base                                    :      30000. kBytes
   nonlr-proj                              :       6956. kBytes
   fftplans                                :      21738. kBytes
   grid                                    :      57625. kBytes
   one-center                              :        279. kBytes
   wavefun                                 :     120268. kBytes
 
     INWAV:  cpu time      0.0001: real time      0.0068
 Broyden mixing: mesh for mixing (old mesh)
   NGX = 39   NGY = 39   NGZ = 65
  (NGX  =160   NGY  =160   NGZ  =280)
  gives a total of  98865 points

 initial charge density was supplied:
 charge density of overlapping atoms calculated
 number of electron     217.0000000 magnetization      24.0000000
 keeping initial charge density in first step


--------------------------------------------------------------------------------------------------------


 Maximum index for non-local projection operator          1364
 Maximum index for augmentation-charges          1154 (set IRDMAX)


--------------------------------------------------------------------------------------------------------


 First call to EWALD:  gamma=   0.130
 Maximum number of real-space cells   3x   3x   2
 Maximum number of reciprocal cells   3x   3x   4

    FEWALD:  cpu time      0.0557: real time      0.6169


--------------------------------------- Ionic step        1  -------------------------------------------




--------------------------------------- Iteration      1(   1)  ---------------------------------------


    POTLOK:  cpu time      0.5791: real time      6.3820
    SETDIJ:  cpu time      0.2767: real time      3.0850
     EDDAV:  cpu time    230.3962: real time   2546.7890
       DOS:  cpu time      0.2947: real time      3.2560
    --------------------------------------------
      LOOP:  cpu time    231.5467: real time   2559.5121

 eigenvalue-minimisations  :  5312
 total energy-change (2. order) : 0.2072684E+04  (-0.6170354E+04)
 number of electron     217.0000000 magnetization      24.0000000
 augmentation part      217.0000000 magnetization      24.0000000

 DIPCOR: dipole corrections for dipol
 direction  3 min pos     1,
 dipolmoment           0.000000      0.000000     -0.000011 electrons x Angstroem
 Tr[quadrupol]     -5243.542101

 energy correction for charged system         0.000000 eV
 dipol+quadrupol energy correction           -0.000000 eV
 added-field ion interaction          0.000002 eV  (added to PSCEN)


 Free energy of the ion-electron system (eV)
  ---------------------------------------------------
  alpha Z        PSCENC =       109.46236567
  Ewald energy   TEWEN  =     24459.73926070
  -Hartree energ DENC   =    -35172.61755103
  -exchange      EXHF   =         0.00000000
  -V(xc)+E(xc)   XCENC  =       333.01139999
  PAW double counting   =     10021.38580736    -9866.74876467
  entropy T*S    EENTRO =        -0.03567738
  eigenvalues    EBANDS =       127.72819929
  atomic energy  EATOM  =     12060.75887678
  Solvation  Ediel_sol  =         0.00000000
  ---------------------------------------------------
  free energy    TOTEN  =      2072.68391672 eV

  energy without entropy =     2072.71959410  energy(sigma->0) =     2072.70175541


--------------------------------------------------------------------------------------------------------




--------------------------------------- Iteration      1(   2)  ---------------------------------------


     EDDAV:  cpu time    253.5050: real time   2802.3830
       DOS:  cpu time      0.2311: real time      2.5511
    --------------------------------------------
      LOOP:  cpu time    253.7361: real time   2804.9340

 eigenvalue-minimisations  :  6352
 total energy-change (2. order) :-0.1674070E+04  (-0.1559362E+04)
 number of electron     217.0000000 magnetization      24.0000000
 augmentation part      217.0000000 magnetization      24.0000000

 DIPCOR: dipole corrections for dipol
 direction  3 min pos     1,
 dipolmoment           0.000000      0.000000     -0.000011 electrons x Angstroem
 Tr[quadrupol]     -5243.542101

 energy correction for charged system         0.000000 eV
 dipol+quadrupol energy correction           -0.000000 eV
 added-field ion interaction          0.000002 eV  (added to PSCEN)


 Free energy of the ion-electron system (eV)
  ---------------------------------------------------
  alpha Z        PSCENC =       109.46236567
  Ewald energy   TEWEN  =     24459.73926070
  -Hartree energ DENC   =    -35172.61755103
  -exchange      EXHF   =         0.00000000
  -V(xc)+E(xc)   XCENC  =       333.01139999
  PAW double counting   =     10021.38580736    -9866.74876467
  entropy T*S    EENTRO =        -0.02551783
  eigenvalues    EBANDS =     -1546.35206999
  atomic energy  EATOM  =     12060.75887678
  Solvation  Ediel_sol  =         0.00000000
  ---------------------------------------------------
  free energy    TOTEN  =       398.61380699 eV

  energy without entropy =      398.63932482  energy(sigma->0) =      398.62656590


--------------------------------------------------------------------------------------------------------




--------------------------------------- Iteration      1(   3)  ---------------------------------------


     EDDAV:  cpu time    276.1012: real time   3051.9410
       DOS:  cpu time      0.2231: real time      2.4640
    --------------------------------------------
      LOOP:  cpu time    276.3243: real time   3054.4050

 eigenvalue-minimisations  :  7360
 total energy-change (2. order) :-0.5266890E+03  (-0.5108127E+03)
 number of electron     217.0000000 magnetization      24.0000000
 augmentation part      217.0000000 magnetization      24.0000000

 DIPCOR: dipole corrections for dipol
 direction  3 min pos     1,
 dipolmoment           0.000000      0.000000     -0.000011 electrons x Angstroem
 Tr[quadrupol]     -5243.542101

 energy correction for charged system         0.000000 eV
 dipol+quadrupol energy correction           -0.000000 eV
 added-field ion interaction          0.000002 eV  (added to PSCEN)


 Free energy of the ion-electron system (eV)
  ---------------------------------------------------
  alpha Z        PSCENC =       109.46236567
  Ewald energy   TEWEN  =     24459.73926070
  -Hartree energ DENC   =    -35172.61755103
  -exchange      EXHF   =         0.00000000
  -V(xc)+E(xc)   XCENC  =       333.01139999
  PAW double counting   =     10021.38580736    -9866.74876467
  entropy T*S    EENTRO =        -0.00317207
  eigenvalues    EBANDS =     -2073.06340387
  atomic energy  EATOM  =     12060.75887678
  Solvation  Ediel_sol  =         0.00000000
  ---------------------------------------------------
  free energy    TOTEN  =      -128.07518113 eV

  energy without entropy =     -128.07200906  energy(sigma->0) =     -128.07359510


--------------------------------------------------------------------------------------------------------




--------------------------------------- Iteration      1(   4)  ---------------------------------------


     EDDAV:  cpu time    290.1668: real time   3207.5640
       DOS:  cpu time      0.1434: real time      1.5840
    --------------------------------------------
      LOOP:  cpu time    290.3102: real time   3209.1480

 eigenvalue-minimisations  :  8088
 total energy-change (2. order) :-0.4427002E+02  (-0.4359814E+02)
 number of electron     217.0000000 magnetization      24.0000000
 augmentation part      217.0000000 magnetization      24.0000000

 DIPCOR: dipole corrections for dipol
 direction  3 min pos     1,
 dipolmoment           0.000000      0.000000     -0.000011 electrons x Angstroem
 Tr[quadrupol]     -5243.542101

 energy correction for charged system         0.000000 eV
 dipol+quadrupol energy correction           -0.000000 eV
 added-field ion interaction          0.000002 eV  (added to PSCEN)


 Free energy of the ion-electron system (eV)
  ---------------------------------------------------
  alpha Z        PSCENC =       109.46236567
  Ewald energy   TEWEN  =     24459.73926070
  -Hartree energ DENC   =    -35172.61755103
  -exchange      EXHF   =         0.00000000
  -V(xc)+E(xc)   XCENC  =       333.01139999
  PAW double counting   =     10021.38580736    -9866.74876467
  entropy T*S    EENTRO =        -0.00000818
  eigenvalues    EBANDS =     -2117.33658570
  atomic energy  EATOM  =     12060.75887678
  Solvation  Ediel_sol  =         0.00000000
  ---------------------------------------------------
  free energy    TOTEN  =      -172.34519907 eV

  energy without entropy =     -172.34519089  energy(sigma->0) =     -172.34519498


--------------------------------------------------------------------------------------------------------




--------------------------------------- Iteration      1(   5)  ---------------------------------------


     EDDAV:  cpu time    289.3893: real time   3198.9310
       DOS:  cpu time      0.1674: real time      1.8500
    CHARGE:  cpu time      6.1413: real time     67.8972
    MIXING:  cpu time      0.0903: real time      1.0107
    --------------------------------------------
      LOOP:  cpu time    295.7883: real time   3269.6890

 eigenvalue-minimisations  :  8064
 total energy-change (2. order) :-0.7896247E+00  (-0.7766213E+00)
 number of electron     216.9999982 magnetization      23.8562724
 augmentation part       -8.0139344 magnetization      13.9816755

 DIPCOR: dipole corrections for dipol
 direction  3 min pos     1,
 dipolmoment           0.000000      0.000000     -0.000011 electrons x Angstroem
 Tr[quadrupol]     -5243.542101

 energy correction for charged system         0.000000 eV
 dipol+quadrupol energy correction           -0.000000 eV
 added-field ion interaction          0.000002 eV  (added to PSCEN)


 Broyden mixing:
  rms(total) = 0.41084E+01    rms(broyden)= 0.41075E+01
  rms(prec ) = 0.43212E+01
  weight for this iteration     100.00

 Free energy of the ion-electron system (eV)
  ---------------------------------------------------
  alpha Z        PSCENC =       109.46236567
  Ewald energy   TEWEN  =     24459.73926070
  -Hartree energ DENC   =    -35172.61755103
  -exchange      EXHF   =         0.00000000
  -V(xc)+E(xc)   XCENC  =       333.01139999
  PAW double counting   =     10021.38580736    -9866.74876467
  entropy T*S    EENTRO =        -0.00000445
  eigenvalues    EBANDS =     -2118.12621409
  atomic energy  EATOM  =     12060.75887678
  Solvation  Ediel_sol  =         0.00000000
  ---------------------------------------------------
  free energy    TOTEN  =      -173.13482374 eV

  energy without entropy =     -173.13481928  energy(sigma->0) =     -173.13482151


--------------------------------------------------------------------------------------------------------




--------------------------------------- Iteration      1(   6)  ---------------------------------------


    POTLOK:  cpu time      0.6149: real time      6.7779
    SETDIJ:  cpu time      0.2727: real time      3.0341
     EDDAV:  cpu time    278.5271: real time   3078.9800
       DOS:  cpu time      0.2310: real time      2.5520
    CHARGE:  cpu time      6.0861: real time     67.2501
    MIXING:  cpu time      0.1094: real time      1.2299
    --------------------------------------------
      LOOP:  cpu time    285.8412: real time   3159.8240

 eigenvalue-minimisations  :  7632
 total energy-change (2. order) : 0.9723443E+01  (-0.1441064E+02)
 number of electron     216.9999983 magnetization      23.7929782
 augmentation part        3.2842438 magnetization      16.0086285

 DIPCOR: dipole corrections for dipol
 direction  3 min pos     1,
 dipolmoment           0.000000      0.000000     -0.112011 electrons x Angstroem
 Tr[quadrupol]     -5242.393286

 energy correction for charged system         0.000000 eV
 dipol+quadrupol energy correction           -0.000449 eV
 added-field ion interaction          0.021111 eV  (added to PSCEN)


 Broyden mixing:
  rms(total) = 0.40541E+01    rms(broyden)= 0.40540E+01
  rms(prec ) = 0.42005E+01
  weight for this iteration     100.00

 eigenvalues of (default mixing * dielectric matrix)
  average eigenvalue GAMMA=   0.3458
  0.3458

 Free energy of the ion-electron system (eV)
  ---------------------------------------------------
  alpha Z        PSCENC =       109.48302638
  Ewald energy   TEWEN  =     24459.73926070
  -Hartree energ DENC   =    -35124.60270535
  -exchange      EXHF   =         0.00000000
  -V(xc)+E(xc)   XCENC  =       344.19855947
  PAW double counting   =     11475.42010457   -11303.51764170
  entropy T*S    EENTRO =        -0.03006641
  eigenvalues    EBANDS =     -2184.86079491
  atomic energy  EATOM  =     12060.75887678
  Solvation  Ediel_sol  =         0.00000000
  ---------------------------------------------------
  free energy    TOTEN  =      -163.41138046 eV

  energy without entropy =     -163.38131405  energy(sigma->0) =     -163.39634725


--------------------------------------------------------------------------------------------------------




--------------------------------------- Iteration      1(   7)  ---------------------------------------


    POTLOK:  cpu time      0.6553: real time      7.2184
    SETDIJ:  cpu time      0.2922: real time      3.2536
     EDDAV:  cpu time    280.1769: real time   3097.1720
       DOS:  cpu time      0.2110: real time      2.3320
    CHARGE:  cpu time      5.4981: real time     60.7537
    MIXING:  cpu time      0.0938: real time      1.0543
    --------------------------------------------
      LOOP:  cpu time    286.9273: real time   3171.7840

 eigenvalue-minimisations  :  7648
 total energy-change (2. order) : 0.6031568E+01  (-0.2650153E+01)
 number of electron     216.9999983 magnetization      23.8837794
 augmentation part       -2.5518699 magnetization      15.3569135

 DIPCOR: dipole corrections for dipol
 direction  3 min pos     1,
 dipolmoment           0.000000      0.000000     -0.136334 electrons x Angstroem
 Tr[quadrupol]     -5243.739948

 energy correction for charged system         0.000000 eV
 dipol+quadrupol energy correction           -0.000665 eV
 added-field ion interaction          0.025696 eV  (added to PSCEN)


 Broyden mixing:
  rms(total) = 0.22141E+01    rms(broyden)= 0.22140E+01
  rms(prec ) = 0.22317E+01
  weight for this iteration     100.00

 eigenvalues of (default mixing * dielectric matrix)
  average eigenvalue GAMMA=   0.6566
  0.9067  0.4065

 Free energy of the ion-electron system (eV)
  ---------------------------------------------------
  alpha Z        PSCENC =       109.48739471
  Ewald energy   TEWEN  =     24459.73926070
  -Hartree energ DENC   =    -35172.00872823
  -exchange      EXHF   =         0.00000000
  -V(xc)+E(xc)   XCENC  =       342.66212308
  PAW double counting   =     12230.69196913   -12072.71697431
  entropy T*S    EENTRO =        -0.02014856
  eigenvalues    EBANDS =     -2115.97358582
  atomic energy  EATOM  =     12060.75887678
  Solvation  Ediel_sol  =         0.00000000
  ---------------------------------------------------
  free energy    TOTEN  =      -157.37981251 eV

  energy without entropy =     -157.35966395  energy(sigma->0) =     -157.36973823


--------------------------------------------------------------------------------------------------------




--------------------------------------- Iteration      1(   8)  ---------------------------------------


    POTLOK:  cpu time      0.6220: real time      6.8610
    SETDIJ:  cpu time      0.2858: real time      3.1630
     EDDAV:  cpu time    283.3811: real time   3132.5400
       DOS:  cpu time      0.2429: real time      2.6840
    CHARGE:  cpu time      5.4386: real time     60.1137
    MIXING:  cpu time      0.1197: real time      1.3233
    --------------------------------------------
      LOOP:  cpu time    290.0902: real time   3206.6850

 eigenvalue-minimisations  :  7800
 total energy-change (2. order) :-0.5415985E+00  (-0.8353876E+00)
 number of electron     216.9999983 magnetization      24.0398246
 augmentation part       -2.7919222 magnetization      15.4815105

 DIPCOR: dipole corrections for dipol
 direction  3 min pos     1,
 dipolmoment           0.000000      0.000000     -0.220066 electrons x Angstroem
 Tr[quadrupol]     -5244.302971

 energy correction for charged system         0.000000 eV
 dipol+quadrupol energy correction           -0.001732 eV
 added-field ion interaction          0.041477 eV  (added to PSCEN)


 Broyden mixing:
  rms(total) = 0.15463E+01    rms(broyden)= 0.15463E+01
  rms(prec ) = 0.15927E+01
  weight for this iteration     100.00

 eigenvalues of (default mixing * dielectric matrix)
  average eigenvalue GAMMA=   0.7986
  1.5400  0.4279  0.4279

 Free energy of the ion-electron system (eV)
  ---------------------------------------------------
  alpha Z        PSCENC =       109.50210908
  Ewald energy   TEWEN  =     24459.73926070
  -Hartree energ DENC   =    -35182.13627066
  -exchange      EXHF   =         0.00000000
  -V(xc)+E(xc)   XCENC  =       345.93883179
  PAW double counting   =     13630.04363694   -13477.97376368
  entropy T*S    EENTRO =        -0.04670643
  eigenvalues    EBANDS =     -2103.74738551
  atomic energy  EATOM  =     12060.75887678
  Solvation  Ediel_sol  =         0.00000000
  ---------------------------------------------------
  free energy    TOTEN  =      -157.92141098 eV

  energy without entropy =     -157.87470455  energy(sigma->0) =     -157.89805776


--------------------------------------------------------------------------------------------------------




--------------------------------------- Iteration      1(   9)  ---------------------------------------


    POTLOK:  cpu time      0.6292: real time      6.9700
    SETDIJ:  cpu time      0.2847: real time      3.1650
     EDDAV:  cpu time    278.3393: real time   3077.5020
       DOS:  cpu time      0.1713: real time      1.8960
    CHARGE:  cpu time      5.6586: real time     62.5308
    MIXING:  cpu time      0.1296: real time      1.4502
    --------------------------------------------
      LOOP:  cpu time    285.2126: real time   3153.5140

 eigenvalue-minimisations  :  7720
 total energy-change (2. order) : 0.1713977E+00  (-0.2962796E+00)
 number of electron     216.9999983 magnetization      24.1829850
 augmentation part       -2.2883655 magnetization      15.9052226

 DIPCOR: dipole corrections for dipol
 direction  3 min pos     1,
 dipolmoment           0.000000      0.000000     -0.299622 electrons x Angstroem
 Tr[quadrupol]     -5244.794780

 energy correction for charged system         0.000000 eV
 dipol+quadrupol energy correction           -0.003210 eV
 added-field ion interaction          0.056471 eV  (added to PSCEN)


 Broyden mixing:
  rms(total) = 0.11923E+01    rms(broyden)= 0.11922E+01
  rms(prec ) = 0.12222E+01
  weight for this iteration     100.00

 eigenvalues of (default mixing * dielectric matrix)
  average eigenvalue GAMMA=   0.9185
  2.2016  0.6519  0.4802  0.3403

 Free energy of the ion-electron system (eV)
  ---------------------------------------------------
  alpha Z        PSCENC =       109.51562506
  Ewald energy   TEWEN  =     24459.73926070
  -Hartree energ DENC   =    -35193.84422227
  -exchange      EXHF   =         0.00000000
  -V(xc)+E(xc)   XCENC  =       348.37097193
  PAW double counting   =     14655.52890249   -14506.76011776
  entropy T*S    EENTRO =        -0.00078228
  eigenvalues    EBANDS =     -2091.05852795
  atomic energy  EATOM  =     12060.75887678
  Solvation  Ediel_sol  =         0.00000000
  ---------------------------------------------------
  free energy    TOTEN  =      -157.75001328 eV

  energy without entropy =     -157.74923100  energy(sigma->0) =     -157.74962214


--------------------------------------------------------------------------------------------------------




--------------------------------------- Iteration      1(  10)  ---------------------------------------


    POTLOK:  cpu time      0.6265: real time      6.9036
    SETDIJ:  cpu time      0.2800: real time      3.1214
     EDDAV:  cpu time    279.5257: real time   3090.4841
       DOS:  cpu time      0.1951: real time      2.1600
    CHARGE:  cpu time      5.5656: real time     61.4944
    MIXING:  cpu time      0.1370: real time      1.5376
    --------------------------------------------
      LOOP:  cpu time    286.3299: real time   3165.7010

 eigenvalue-minimisations  :  7760
 total energy-change (2. order) : 0.3470029E+00  (-0.8832276E-01)
 number of electron     216.9999983 magnetization      24.2369327
 augmentation part       -1.9238711 magnetization      16.0358765

 DIPCOR: dipole corrections for dipol
 direction  3 min pos     1,
 dipolmoment           0.000000      0.000000     -0.333559 electrons x Angstroem
 Tr[quadrupol]     -5245.114424

 energy correction for charged system         0.000000 eV
 dipol+quadrupol energy correction           -0.003978 eV
 added-field ion interaction          0.062867 eV  (added to PSCEN)


 Broyden mixing:
  rms(total) = 0.58817E+00    rms(broyden)= 0.58816E+00
  rms(prec ) = 0.60081E+00
  weight for this iteration     100.00

 eigenvalues of (default mixing * dielectric matrix)
  average eigenvalue GAMMA=   0.8649
  2.3109  0.6745  0.4954  0.4219  0.4219

 Free energy of the ion-electron system (eV)
  ---------------------------------------------------
  alpha Z        PSCENC =       109.52125306
  Ewald energy   TEWEN  =     24459.73926070
  -Hartree energ DENC   =    -35202.69826804
  -exchange      EXHF   =         0.00000000
  -V(xc)+E(xc)   XCENC  =       349.07885264
  PAW double counting   =     15106.28765183   -14958.66409247
  entropy T*S    EENTRO =        -0.00060319
  eigenvalues    EBANDS =     -2081.42594167
  atomic energy  EATOM  =     12060.75887678
  Solvation  Ediel_sol  =         0.00000000
  ---------------------------------------------------
  free energy    TOTEN  =      -157.40301036 eV

  energy without entropy =     -157.40240716  energy(sigma->0) =     -157.40270876


--------------------------------------------------------------------------------------------------------




--------------------------------------- Iteration      1(  11)  ---------------------------------------


    POTLOK:  cpu time      0.6192: real time      6.8331
    SETDIJ:  cpu time      0.2767: real time      3.0809
     EDDAV:  cpu time    278.6801: real time   3081.2650
       DOS:  cpu time      0.2389: real time      2.6390
    CHARGE:  cpu time      5.8671: real time     64.8547
    MIXING:  cpu time      0.1695: real time      1.8893
    --------------------------------------------
      LOOP:  cpu time    285.8515: real time   3160.5620

 eigenvalue-minimisations  :  7632
 total energy-change (2. order) : 0.2902835E-01  (-0.1672667E-01)
 number of electron     216.9999983 magnetization      24.3232494
 augmentation part       -1.9462666 magnetization      16.0969850

 DIPCOR: dipole corrections for dipol
 direction  3 min pos     1,
 dipolmoment           0.000000      0.000000     -0.332738 electrons x Angstroem
 Tr[quadrupol]     -5245.205404

 energy correction for charged system         0.000000 eV
 dipol+quadrupol energy correction           -0.003958 eV
 added-field ion interaction          0.062713 eV  (added to PSCEN)


 Broyden mixing:
  rms(total) = 0.47510E+00    rms(broyden)= 0.47510E+00
  rms(prec ) = 0.48317E+00
  weight for this iteration     100.00

 eigenvalues of (default mixing * dielectric matrix)
  average eigenvalue GAMMA=   0.9138
  2.4388  0.7915  0.7915  0.6202  0.3713  0.4699

 Free energy of the ion-electron system (eV)
  ---------------------------------------------------
  alpha Z        PSCENC =       109.52111787
  Ewald energy   TEWEN  =     24459.73926070
  -Hartree energ DENC   =    -35204.70587224
  -exchange      EXHF   =         0.00000000
  -V(xc)+E(xc)   XCENC  =       349.03085849
  PAW double counting   =     15120.27026594   -14972.79727858
  entropy T*S    EENTRO =        -0.00063847
  eigenvalues    EBANDS =     -2079.19057249
  atomic energy  EATOM  =     12060.75887678
  Solvation  Ediel_sol  =         0.00000000
  ---------------------------------------------------
  free energy    TOTEN  =      -157.37398200 eV

  energy without entropy =     -157.37334353  energy(sigma->0) =     -157.37366276


--------------------------------------------------------------------------------------------------------




--------------------------------------- Iteration      1(  12)  ---------------------------------------


    POTLOK:  cpu time      0.6218: real time      6.8601
    SETDIJ:  cpu time      0.2768: real time      3.0780
     EDDAV:  cpu time    272.5063: real time   3012.7910
       DOS:  cpu time      0.2028: real time      2.2490
    CHARGE:  cpu time      5.6985: real time     62.9660
    MIXING:  cpu time      0.1532: real time      1.7139
    --------------------------------------------
      LOOP:  cpu time    279.4593: real time   3089.6580

 eigenvalue-minimisations  :  7424
 total energy-change (2. order) : 0.5437626E-03  (-0.3572266E-02)
 number of electron     216.9999983 magnetization      24.5022016
 augmentation part       -1.9812284 magnetization      16.2670711

 DIPCOR: dipole corrections for dipol
 direction  3 min pos     1,
 dipolmoment           0.000000      0.000000     -0.334264 electrons x Angstroem
 Tr[quadrupol]     -5245.343049

 energy correction for charged system         0.000000 eV
 dipol+quadrupol energy correction           -0.003995 eV
 added-field ion interaction          0.063000 eV  (added to PSCEN)


 Broyden mixing:
  rms(total) = 0.35693E+00    rms(broyden)= 0.35693E+00
  rms(prec ) = 0.36444E+00
  weight for this iteration     100.00

 eigenvalues of (default mixing * dielectric matrix)
  average eigenvalue GAMMA=   0.9831
  2.5699  1.1262  1.1262  0.6176  0.6176  0.3844  0.4396

 Free energy of the ion-electron system (eV)
  ---------------------------------------------------
  alpha Z        PSCENC =       109.52136909
  Ewald energy   TEWEN  =     24459.73926070
  -Hartree energ DENC   =    -35206.57995212
  -exchange      EXHF   =         0.00000000
  -V(xc)+E(xc)   XCENC  =       348.98845636
  PAW double counting   =     15195.09653953   -15047.72445062
  entropy T*S    EENTRO =        -0.00061110
  eigenvalues    EBANDS =     -2077.17292686
  atomic energy  EATOM  =     12060.75887678
  Solvation  Ediel_sol  =         0.00000000
  ---------------------------------------------------
  free energy    TOTEN  =      -157.37343824 eV

  energy without entropy =     -157.37282714  energy(sigma->0) =     -157.37313269


--------------------------------------------------------------------------------------------------------




--------------------------------------- Iteration      1(  13)  ---------------------------------------


    POTLOK:  cpu time      0.6316: real time      6.9543
    SETDIJ:  cpu time      0.2645: real time      2.9457
     EDDAV:  cpu time    290.4506: real time   3211.6160
       DOS:  cpu time      0.1912: real time      2.1160
    CHARGE:  cpu time      5.7083: real time     63.0931
    MIXING:  cpu time      0.1610: real time      1.8019
    --------------------------------------------
      LOOP:  cpu time    297.4073: real time   3288.5270

 eigenvalue-minimisations  :  8208
 total energy-change (2. order) : 0.3785399E-03  (-0.5219379E-02)
 number of electron     216.9999983 magnetization      24.6138695
 augmentation part       -2.0175806 magnetization      16.3451535

 DIPCOR: dipole corrections for dipol
 direction  3 min pos     1,
 dipolmoment           0.000000      0.000000     -0.335953 electrons x Angstroem
 Tr[quadrupol]     -5245.619336

 energy correction for charged system         0.000000 eV
 dipol+quadrupol energy correction           -0.004035 eV
 added-field ion interaction          0.063319 eV  (added to PSCEN)


 Broyden mixing:
  rms(total) = 0.15217E+00    rms(broyden)= 0.15216E+00
  rms(prec ) = 0.15517E+00
  weight for this iteration     100.00

 eigenvalues of (default mixing * dielectric matrix)
  average eigenvalue GAMMA=   1.0526
  2.2571  2.2571  1.0216  0.7461  0.7461  0.3789  0.5539  0.4600

 Free energy of the ion-electron system (eV)
  ---------------------------------------------------
  alpha Z        PSCENC =       109.52164698
  Ewald energy   TEWEN  =     24459.73926070
  -Hartree energ DENC   =    -35211.17241976
  -exchange      EXHF   =         0.00000000
  -V(xc)+E(xc)   XCENC  =       348.79898346
  PAW double counting   =     15211.47770094   -15064.01203111
  entropy T*S    EENTRO =        -0.00114561
  eigenvalues    EBANDS =     -2072.48393208
  atomic energy  EATOM  =     12060.75887678
  Solvation  Ediel_sol  =         0.00000000
  ---------------------------------------------------
  free energy    TOTEN  =      -157.37305970 eV

  energy without entropy =     -157.37191409  energy(sigma->0) =     -157.37248689


--------------------------------------------------------------------------------------------------------




--------------------------------------- Iteration      1(  14)  ---------------------------------------


    POTLOK:  cpu time      0.6231: real time      6.8659
    SETDIJ:  cpu time      0.2768: real time      3.0788
     EDDAV:  cpu time    279.3094: real time   3088.4164
       DOS:  cpu time      0.2309: real time      2.5510
    CHARGE:  cpu time      5.8986: real time     65.2282
    MIXING:  cpu time      0.1610: real time      1.8058
    --------------------------------------------
      LOOP:  cpu time    286.4998: real time   3167.9460

 eigenvalue-minimisations  :  7656
 total energy-change (2. order) :-0.2669164E-01  (-0.4989535E-02)
 number of electron     216.9999983 magnetization      24.6491328
 augmentation part       -2.0200506 magnetization      16.3640580

 DIPCOR: dipole corrections for dipol
 direction  3 min pos     1,
 dipolmoment           0.000000      0.000000     -0.337127 electrons x Angstroem
 Tr[quadrupol]     -5245.790004

 energy correction for charged system         0.000000 eV
 dipol+quadrupol energy correction           -0.004064 eV
 added-field ion interaction          0.063540 eV  (added to PSCEN)


 Broyden mixing:
  rms(total) = 0.58490E-01    rms(broyden)= 0.58486E-01
  rms(prec ) = 0.60420E-01
  weight for this iteration     100.00

 eigenvalues of (default mixing * dielectric matrix)
  average eigenvalue GAMMA=   1.0261
  2.2647  2.2647  1.0861  0.8215  0.8215  0.3796  0.4500  0.5734  0.5734

 Free energy of the ion-electron system (eV)
  ---------------------------------------------------
  alpha Z        PSCENC =       109.52183994
  Ewald energy   TEWEN  =     24459.73926070
  -Hartree energ DENC   =    -35214.51818388
  -exchange      EXHF   =         0.00000000
  -V(xc)+E(xc)   XCENC  =       348.74186503
  PAW double counting   =     15168.77704683   -15021.12410548
  entropy T*S    EENTRO =        -0.00360869
  eigenvalues    EBANDS =     -2069.29274256
  atomic energy  EATOM  =     12060.75887678
  Solvation  Ediel_sol  =         0.00000000
  ---------------------------------------------------
  free energy    TOTEN  =      -157.39975134 eV

  energy without entropy =     -157.39614265  energy(sigma->0) =     -157.39794699


--------------------------------------------------------------------------------------------------------




--------------------------------------- Iteration      1(  15)  ---------------------------------------


    POTLOK:  cpu time      0.6434: real time      7.0816
    SETDIJ:  cpu time      0.2999: real time      3.3394
     EDDAV:  cpu time    276.0597: real time   3052.2750
       DOS:  cpu time      0.2309: real time      2.5470
    CHARGE:  cpu time      5.8418: real time     64.5699
    MIXING:  cpu time      0.1692: real time      1.8901
    --------------------------------------------
      LOOP:  cpu time    283.2449: real time   3131.7030

 eigenvalue-minimisations  :  7480
 total energy-change (2. order) :-0.2179635E-01  (-0.6459725E-03)
 number of electron     216.9999983 magnetization      24.7307375
 augmentation part       -2.0077300 magnetization      16.4509066

 DIPCOR: dipole corrections for dipol
 direction  3 min pos     1,
 dipolmoment           0.000000      0.000000     -0.339183 electrons x Angstroem
 Tr[quadrupol]     -5245.853154

 energy correction for charged system         0.000000 eV
 dipol+quadrupol energy correction           -0.004113 eV
 added-field ion interaction          0.063927 eV  (added to PSCEN)


 Broyden mixing:
  rms(total) = 0.46560E-01    rms(broyden)= 0.46560E-01
  rms(prec ) = 0.48060E-01
  weight for this iteration     100.00

 eigenvalues of (default mixing * dielectric matrix)
  average eigenvalue GAMMA=   1.0604
  2.3682  2.3682  1.1562  1.1562  0.8169  0.3790  0.4546  0.6598  0.6598  0.5854

 Free energy of the ion-electron system (eV)
  ---------------------------------------------------
  alpha Z        PSCENC =       109.52217783
  Ewald energy   TEWEN  =     24459.73926070
  -Hartree energ DENC   =    -35215.99987137
  -exchange      EXHF   =         0.00000000
  -V(xc)+E(xc)   XCENC  =       348.77677768
  PAW double counting   =     15155.12003726   -15007.45452676
  entropy T*S    EENTRO =        -0.00236991
  eigenvalues    EBANDS =     -2067.88190990
  atomic energy  EATOM  =     12060.75887678
  Solvation  Ediel_sol  =         0.00000000
  ---------------------------------------------------
  free energy    TOTEN  =      -157.42154769 eV

  energy without entropy =     -157.41917778  energy(sigma->0) =     -157.42036273


--------------------------------------------------------------------------------------------------------




--------------------------------------- Iteration      1(  16)  ---------------------------------------


    POTLOK:  cpu time      0.6228: real time      6.8649
    SETDIJ:  cpu time      0.2688: real time      2.9941
     EDDAV:  cpu time    275.1648: real time   3042.5690
       DOS:  cpu time      0.2146: real time      2.3800
    CHARGE:  cpu time      5.3790: real time     59.4430
    MIXING:  cpu time      0.1883: real time      2.1149
    --------------------------------------------
      LOOP:  cpu time    281.8384: real time   3116.3660

 eigenvalue-minimisations  :  7496
 total energy-change (2. order) :-0.4534466E-01  (-0.6329267E-03)
 number of electron     216.9999983 magnetization      24.7747145
 augmentation part       -1.9971203 magnetization      16.4949035

 DIPCOR: dipole corrections for dipol
 direction  3 min pos     1,
 dipolmoment           0.000000      0.000000     -0.343978 electrons x Angstroem
 Tr[quadrupol]     -5245.997264

 energy correction for charged system         0.000000 eV
 dipol+quadrupol energy correction           -0.004230 eV
 added-field ion interaction          0.064831 eV  (added to PSCEN)


 Broyden mixing:
  rms(total) = 0.21553E-01    rms(broyden)= 0.21552E-01
  rms(prec ) = 0.23076E-01
  weight for this iteration     100.00

 eigenvalues of (default mixing * dielectric matrix)
  average eigenvalue GAMMA=   1.1036
  2.5589  2.5589  1.3434  1.3434  0.8486  0.8486  0.6336  0.6336  0.3789  0.4541
  0.5376

 Free energy of the ion-electron system (eV)
  ---------------------------------------------------
  alpha Z        PSCENC =       109.52296445
  Ewald energy   TEWEN  =     24459.73926070
  -Hartree energ DENC   =    -35219.07543329
  -exchange      EXHF   =         0.00000000
  -V(xc)+E(xc)   XCENC  =       348.80754922
  PAW double counting   =     15133.61222378   -14985.94696327
  entropy T*S    EENTRO =        -0.00324993
  eigenvalues    EBANDS =     -2064.88212079
  atomic energy  EATOM  =     12060.75887678
  Solvation  Ediel_sol  =         0.00000000
  ---------------------------------------------------
  free energy    TOTEN  =      -157.46689235 eV

  energy without entropy =     -157.46364242  energy(sigma->0) =     -157.46526738


--------------------------------------------------------------------------------------------------------




--------------------------------------- Iteration      1(  17)  ---------------------------------------


    POTLOK:  cpu time      0.6382: real time      7.0273
    SETDIJ:  cpu time      0.2725: real time      3.0377
     EDDAV:  cpu time    278.4675: real time   3079.1990
       DOS:  cpu time      0.2349: real time      2.5950
    CHARGE:  cpu time      5.6398: real time     62.3686
    MIXING:  cpu time      0.1696: real time      1.8904
    --------------------------------------------
      LOOP:  cpu time    285.4226: real time   3156.1180

 eigenvalue-minimisations  :  7624
 total energy-change (2. order) :-0.2460556E-01  (-0.1095033E-03)
 number of electron     216.9999983 magnetization      24.8100722
 augmentation part       -1.9978000 magnetization      16.5314939

 DIPCOR: dipole corrections for dipol
 direction  3 min pos     1,
 dipolmoment           0.000000      0.000000     -0.346894 electrons x Angstroem
 Tr[quadrupol]     -5246.075812

 energy correction for charged system         0.000000 eV
 dipol+quadrupol energy correction           -0.004302 eV
 added-field ion interaction          0.065381 eV  (added to PSCEN)


 Broyden mixing:
  rms(total) = 0.10952E-01    rms(broyden)= 0.10951E-01
  rms(prec ) = 0.12360E-01
  weight for this iteration     100.00

 eigenvalues of (default mixing * dielectric matrix)
  average eigenvalue GAMMA=   1.0847
  2.5372  2.5372  1.3165  1.3165  1.1006  0.8015  0.8015  0.3789  0.4547  0.6132
  0.6132  0.5460

 Free energy of the ion-electron system (eV)
  ---------------------------------------------------
  alpha Z        PSCENC =       109.52344202
  Ewald energy   TEWEN  =     24459.73926070
  -Hartree energ DENC   =    -35220.45755534
  -exchange      EXHF   =         0.00000000
  -V(xc)+E(xc)   XCENC  =       348.80281601
  PAW double counting   =     15134.91019788   -14987.24979370
  entropy T*S    EENTRO =        -0.00254304
  eigenvalues    EBANDS =     -2063.51619922
  atomic energy  EATOM  =     12060.75887678
  Solvation  Ediel_sol  =         0.00000000
  ---------------------------------------------------
  free energy    TOTEN  =      -157.49149791 eV

  energy without entropy =     -157.48895486  energy(sigma->0) =     -157.49022638


--------------------------------------------------------------------------------------------------------




--------------------------------------- Iteration      1(  18)  ---------------------------------------


    POTLOK:  cpu time      0.6347: real time      6.9961
    SETDIJ:  cpu time      0.2965: real time      3.2979
     EDDAV:  cpu time    272.7620: real time   3015.8490
       DOS:  cpu time      0.1962: real time      2.1970
    CHARGE:  cpu time      5.6380: real time     62.2864
    MIXING:  cpu time      0.1747: real time      1.9466
    --------------------------------------------
      LOOP:  cpu time    279.7021: real time   3092.5730

 eigenvalue-minimisations  :  7400
 total energy-change (2. order) :-0.2243182E-01  (-0.4365513E-04)
 number of electron     216.9999983 magnetization      24.8662864
 augmentation part       -1.9946793 magnetization      16.5889769

 DIPCOR: dipole corrections for dipol
 direction  3 min pos     1,
 dipolmoment           0.000000      0.000000     -0.349300 electrons x Angstroem
 Tr[quadrupol]     -5246.141380

 energy correction for charged system         0.000000 eV
 dipol+quadrupol energy correction           -0.004362 eV
 added-field ion interaction          0.065834 eV  (added to PSCEN)


 Broyden mixing:
  rms(total) = 0.86215E-02    rms(broyden)= 0.86214E-02
  rms(prec ) = 0.98531E-02
  weight for this iteration     100.00

 eigenvalues of (default mixing * dielectric matrix)
  average eigenvalue GAMMA=   1.0919
  2.5923  2.5923  1.3113  1.3113  1.3688  0.8775  0.8775  0.3789  0.6960  0.4546
  0.5929  0.5929  0.5481

 Free energy of the ion-electron system (eV)
  ---------------------------------------------------
  alpha Z        PSCENC =       109.52383559
  Ewald energy   TEWEN  =     24459.73926070
  -Hartree energ DENC   =    -35221.58587274
  -exchange      EXHF   =         0.00000000
  -V(xc)+E(xc)   XCENC  =       348.80161842
  PAW double counting   =     15134.19422093   -14986.53179930
  entropy T*S    EENTRO =        -0.00266775
  eigenvalues    EBANDS =     -2062.41140237
  atomic energy  EATOM  =     12060.75887678
  Solvation  Ediel_sol  =         0.00000000
  ---------------------------------------------------
  free energy    TOTEN  =      -157.51392973 eV

  energy without entropy =     -157.51126198  energy(sigma->0) =     -157.51259585


--------------------------------------------------------------------------------------------------------




--------------------------------------- Iteration      1(  19)  ---------------------------------------


    POTLOK:  cpu time      0.6040: real time      6.6768
    SETDIJ:  cpu time      0.2890: real time      3.2102
     EDDAV:  cpu time    264.1246: real time   2920.3690
       DOS:  cpu time      0.1831: real time      2.0280
    CHARGE:  cpu time      5.9278: real time     65.5375
    MIXING:  cpu time      0.1937: real time      2.1585
    --------------------------------------------
      LOOP:  cpu time    271.3222: real time   2999.9800

 eigenvalue-minimisations  :  7040
 total energy-change (2. order) :-0.2948398E-01  (-0.6072331E-04)
 number of electron     216.9999983 magnetization      24.9123803
 augmentation part       -1.9944622 magnetization      16.6355909

 DIPCOR: dipole corrections for dipol
 direction  3 min pos     1,
 dipolmoment           0.000000      0.000000     -0.353109 electrons x Angstroem
 Tr[quadrupol]     -5246.246766

 energy correction for charged system         0.000000 eV
 dipol+quadrupol energy correction           -0.004458 eV
 added-field ion interaction          0.066552 eV  (added to PSCEN)


 Broyden mixing:
  rms(total) = 0.74003E-02    rms(broyden)= 0.74002E-02
  rms(prec ) = 0.81738E-02
  weight for this iteration     100.00

 eigenvalues of (default mixing * dielectric matrix)
  average eigenvalue GAMMA=   1.1116
  2.7124  2.7124  1.6374  1.4132  1.4132  0.9731  0.8329  0.8329  0.6061  0.6061
  0.3789  0.5391  0.4548  0.4503

 Free energy of the ion-electron system (eV)
  ---------------------------------------------------
  alpha Z        PSCENC =       109.52445781
  Ewald energy   TEWEN  =     24459.73926070
  -Hartree energ DENC   =    -35223.33925142
  -exchange      EXHF   =         0.00000000
  -V(xc)+E(xc)   XCENC  =       348.79311976
  PAW double counting   =     15133.16259148   -14985.49546255
  entropy T*S    EENTRO =        -0.00263298
  eigenvalues    EBANDS =     -2060.68437331
  atomic energy  EATOM  =     12060.75887678
  Solvation  Ediel_sol  =         0.00000000
  ---------------------------------------------------
  free energy    TOTEN  =      -157.54341371 eV

  energy without entropy =     -157.54078074  energy(sigma->0) =     -157.54209723


--------------------------------------------------------------------------------------------------------




--------------------------------------- Iteration      1(  20)  ---------------------------------------


    POTLOK:  cpu time      0.6475: real time      7.1405
    SETDIJ:  cpu time      0.2723: real time      3.0335
     EDDAV:  cpu time    266.0586: real time   2941.7010
       DOS:  cpu time      0.2111: real time      2.3321
    CHARGE:  cpu time      5.6170: real time     62.0674
    MIXING:  cpu time      0.1966: real time      2.1965
    --------------------------------------------
      LOOP:  cpu time    273.0032: real time   3018.4710

 eigenvalue-minimisations  :  7072
 total energy-change (2. order) :-0.1675012E-01  (-0.3450900E-04)
 number of electron     216.9999983 magnetization      24.9565916
 augmentation part       -1.9951634 magnetization      16.6796826

 DIPCOR: dipole corrections for dipol
 direction  3 min pos     1,
 dipolmoment           0.000000      0.000000     -0.356471 electrons x Angstroem
 Tr[quadrupol]     -5246.335588

 energy correction for charged system         0.000000 eV
 dipol+quadrupol energy correction           -0.004543 eV
 added-field ion interaction          0.067186 eV  (added to PSCEN)


 Broyden mixing:
  rms(total) = 0.44745E-02    rms(broyden)= 0.44745E-02
  rms(prec ) = 0.50567E-02
  weight for this iteration     100.00

 eigenvalues of (default mixing * dielectric matrix)
  average eigenvalue GAMMA=   1.1609
  3.4103  2.2804  2.2804  1.3114  1.3114  1.2250  0.8929  0.8929  0.7798  0.3789
  0.6034  0.6034  0.5346  0.4550  0.4532

 Free energy of the ion-electron system (eV)
  ---------------------------------------------------
  alpha Z        PSCENC =       109.52500619
  Ewald energy   TEWEN  =     24459.73926070
  -Hartree energ DENC   =    -35224.73810481
  -exchange      EXHF   =         0.00000000
  -V(xc)+E(xc)   XCENC  =       348.78748435
  PAW double counting   =     15133.39349769   -14985.72268400
  entropy T*S    EENTRO =        -0.00268889
  eigenvalues    EBANDS =     -2059.30081186
  atomic energy  EATOM  =     12060.75887678
  Solvation  Ediel_sol  =         0.00000000
  ---------------------------------------------------
  free energy    TOTEN  =      -157.56016384 eV

  energy without entropy =     -157.55747495  energy(sigma->0) =     -157.55881939


--------------------------------------------------------------------------------------------------------




--------------------------------------- Iteration      1(  21)  ---------------------------------------


    POTLOK:  cpu time      0.6114: real time      6.7342
    SETDIJ:  cpu time      0.2726: real time      3.0338
     EDDAV:  cpu time    243.0092: real time   2687.1790
       DOS:  cpu time      0.2262: real time      2.5041
    CHARGE:  cpu time      5.5652: real time     61.5216
    MIXING:  cpu time      0.2054: real time      2.2884
    --------------------------------------------
      LOOP:  cpu time    249.8900: real time   2763.2610

 eigenvalue-minimisations  :  5848
 total energy-change (2. order) :-0.9274511E-02  (-0.2877896E-04)
 number of electron     216.9999983 magnetization      24.9802465
 augmentation part       -1.9956762 magnetization      16.7032872

 DIPCOR: dipole corrections for dipol
 direction  3 min pos     1,
 dipolmoment           0.000000      0.000000     -0.360308 electrons x Angstroem
 Tr[quadrupol]     -5246.426555

 energy correction for charged system         0.000000 eV
 dipol+quadrupol energy correction           -0.004642 eV
 added-field ion interaction          0.067909 eV  (added to PSCEN)


 Broyden mixing:
  rms(total) = 0.25904E-02    rms(broyden)= 0.25903E-02
  rms(prec ) = 0.29365E-02
  weight for this iteration     100.00

 eigenvalues of (default mixing * dielectric matrix)
  average eigenvalue GAMMA=   1.2454
  4.5918  2.3870  2.3870  1.2886  1.2886  1.2786  1.2786  0.8416  0.8416  0.3789
  0.7030  0.6056  0.6056  0.5368  0.4542  0.4595

 Free energy of the ion-electron system (eV)
  ---------------------------------------------------
  alpha Z        PSCENC =       109.52563094
  Ewald energy   TEWEN  =     24459.73926070
  -Hartree energ DENC   =    -35226.06844094
  -exchange      EXHF   =         0.00000000
  -V(xc)+E(xc)   XCENC  =       348.78591711
  PAW double counting   =     15134.40955994   -14986.73487146
  entropy T*S    EENTRO =        -0.00257937
  eigenvalues    EBANDS =     -2057.98279206
  atomic energy  EATOM  =     12060.75887678
  Solvation  Ediel_sol  =         0.00000000
  ---------------------------------------------------
  free energy    TOTEN  =      -157.56943835 eV

  energy without entropy =     -157.56685898  energy(sigma->0) =     -157.56814866


--------------------------------------------------------------------------------------------------------




--------------------------------------- Iteration      