 running   16 mpi-ranks, with    1 threads/rank, on    1 nodes
 distrk:  each k-point on   16 cores,    1 groups
 distr:  one band on    4 cores,    4 groups
 vasp.6.5.1 10Mar25 (build Jan 13 2026 20:43:53) complex                         
 POSCAR found type information on POSCAR CrClH 
 POSCAR found :  3 types and      33 ions
 scaLAPACK will be used
 LDA part: xc-table for (Slater+PW92), standard interpolation
 POSCAR, INCAR and KPOINTS ok, starting setup
 FFT: planning ... GRIDC
 FFT: planning ... GRID_SOFT
 FFT: planning ... GRID
 WAVECAR not read
 entering main loop
       N       E                     dE             d eps       ncg     rms          rms(c)
DAV:   1     0.207268391672E+04    0.20727E+04   -0.61704E+04  5312   0.918E+02
DAV:   2     0.398613806990E+03   -0.16741E+04   -0.15594E+04  6352   0.248E+02
DAV:   3    -0.128075181129E+03   -0.52669E+03   -0.51081E+03  7360   0.138E+02
DAV:   4    -0.172345199071E+03   -0.44270E+02   -0.43598E+02  8088   0.578E+01
DAV:   5    -0.173134823735E+03   -0.78962E+00   -0.77662E+00  8064   0.987E+00    0.411E+01
DAV:   6    -0.163411380456E+03    0.97234E+01   -0.14411E+02  7632   0.613E+01    0.405E+01
DAV:   7    -0.157379812508E+03    0.60316E+01   -0.26502E+01  7648   0.588E+01    0.221E+01
DAV:   8    -0.157921410977E+03   -0.54160E+00   -0.83539E+00  7800   0.138E+01    0.155E+01
DAV:   9    -0.157750013285E+03    0.17140E+00   -0.29628E+00  7720   0.132E+01    0.119E+01
DAV:  10    -0.157403010355E+03    0.34700E+00   -0.88323E-01  7760   0.758E+00    0.588E+00
DAV:  11    -0.157373982000E+03    0.29028E-01   -0.16727E-01  7632   0.227E+00    0.475E+00
DAV:  12    -0.157373438238E+03    0.54376E-03   -0.35723E-02  7424   0.895E-01    0.357E+00
DAV:  13    -0.157373059698E+03    0.37854E-03   -0.52194E-02  8208   0.234E+00    0.152E+00
DAV:  14    -0.157399751339E+03   -0.26692E-01   -0.49895E-02  7656   0.112E+00    0.585E-01
DAV:  15    -0.157421547689E+03   -0.21796E-01   -0.64597E-03  7480   0.369E-01    0.466E-01
DAV:  16    -0.157466892351E+03   -0.45345E-01   -0.63293E-03  7496   0.328E-01    0.216E-01
DAV:  17    -0.157491497906E+03   -0.24606E-01   -0.10950E-03  7624   0.185E-01    0.110E-01
DAV:  18    -0.157513929731E+03   -0.22432E-01   -0.43655E-04  7400   0.768E-02    0.862E-02
DAV:  19    -0.157543413715E+03   -0.29484E-01   -0.60723E-04  7040   0.755E-02    0.740E-02
DAV:  20    -0.157560163837E+03   -0.16750E-01   -0.34509E-04  7072   0.565E-02    0.447E-02
DAV:  21    -0.157569438348E+03   -0.92745E-02   -0.28779E-04  5848   0.340E-02    0.259E-02
DAV:  22    -0.157572275364E+03   -0.28370E-02   -0.96192E-05  7072   0.272E-02    0.192E-02
DAV:  23    -0.157573371667E+03   -0.10963E-02   -0.37402E-05  6480   0.204E-02    0.915E-03
DAV:  24    -0.157573594341E+03   -0.22267E-03   -0.10208E-05  6280   0.873E-03    0.655E-03
DAV:  25    -0.157573654375E+03   -0.60034E-04   -0.10269E-06  3880   0.419E-03    0.397E-03
DAV:  26    -0.157573710696E+03   -0.56321E-04   -0.16227E-06  4104   0.404E-03    0.276E-03
DAV:  27    -0.157573749741E+03   -0.39045E-04   -0.10121E-06  3616   0.309E-03    0.199E-03
DAV:  28    -0.157573782449E+03   -0.32708E-04   -0.54385E-07  3568   0.228E-03    0.166E-03
DAV:  29    -0.157573811857E+03   -0.29409E-04   -0.39205E-07  3528   0.194E-03    0.131E-03
DAV:  30    -0.157573852317E+03   -0.40460E-04   -0.62326E-07  3592   0.222E-03    0.130E-03
DAV:  31    -0.157573860214E+03   -0.78968E-05   -0.46289E-07  3544   0.185E-03    0.884E-04
DAV:  32    -0.157573864527E+03   -0.43134E-05   -0.20163E-07  3472   0.120E-03    0.544E-04
DAV:  33    -0.157573869699E+03   -0.51714E-05   -0.74115E-08  3120   0.102E-03    0.398E-04
DAV:  34    -0.157573874281E+03   -0.45823E-05   -0.64163E-08  3152   0.808E-04    0.402E-04
DAV:  35    -0.157573876333E+03   -0.20517E-05   -0.38632E-08  3056   0.622E-04    0.276E-04
DAV:  36    -0.157573878053E+03   -0.17205E-05   -0.30046E-08  2984   0.474E-04    0.270E-04
DAV:  37    -0.157573879167E+03   -0.11136E-05   -0.21095E-08  2928   0.417E-04    0.159E-04
DAV:  38    -0.157573880438E+03   -0.12713E-05   -0.25183E-08  3008   0.363E-04    0.212E-04
DAV:  39    -0.157573881364E+03   -0.92570E-06   -0.22425E-08  3064   0.360E-04
   1 F= -.16126910E+03 E0= -.16126783E+03  d E =-.161269E+03  mag=    25.0000
 curvature:   0.00 expect dE= 0.000E+00 dE for cont linesearch  0.000E+00
 trial: gam= 0.00000 g(F)=  0.395E+00 g(S)=  0.000E+00 ort = 0.000E+00 (trialstep = 0.100E+01)
 search vector abs. value=  0.395E+00
 bond charge predicted
       N       E                     dE             d eps       ncg     rms          rms(c)
DAV:   1    -0.157440824869E+03    0.13306E+00   -0.34918E+01  5416   0.110E+01    0.456E+00
DAV:   2    -0.157793513979E+03   -0.35269E+00   -0.17825E+00  7416   0.477E+00    0.332E+00
DAV:   3    -0.157847897938E+03   -0.54384E-01   -0.72670E-02  7704   0.169E+00    0.101E+00
DAV:   4    -0.157840413937E+03    0.74840E-02   -0.11058E-02  7752   0.452E-01    0.669E-01
DAV:   5    -0.157834086223E+03    0.63277E-02   -0.86029E-03  7624   0.398E-01    0.394E-01
DAV:   6    -0.157834536550E+03   -0.45033E-03   -0.26014E-03  7848   0.296E-01    0.171E-01
DAV:   7    -0.157838098007E+03   -0.35615E-02   -0.55923E-04  7672   0.171E-01    0.995E-02
DAV:   8    -0.157841252792E+03   -0.31548E-02   -0.16807E-04  7592   0.744E-02    0.535E-02
DAV:   9    -0.157844101922E+03   -0.28491E-02   -0.56559E-05  7584   0.407E-02    0.385E-02
DAV:  10    -0.157847282193E+03   -0.31803E-02   -0.52653E-05  7320   0.223E-02    0.206E-02
DAV:  11    -0.157849547184E+03   -0.22650E-02   -0.25126E-05  7320   0.147E-02    0.134E-02
DAV:  12    -0.157850746078E+03   -0.11989E-02   -0.81278E-06  6536   0.108E-02    0.950E-03
DAV:  13    -0.157851901513E+03   -0.11554E-02   -0.85264E-06  6360   0.821E-03    0.748E-03
DAV:  14    -0.157853078936E+03   -0.11774E-02   -0.10633E-05  5432   0.565E-03    0.530E-03
DAV:  15    -0.157854421638E+03   -0.13427E-02   -0.23976E-05  5344   0.732E-03    0.283E-03
DAV:  16    -0.157854938027E+03   -0.51639E-03   -0.97193E-06  6000   0.481E-03    0.189E-03
DAV:  17    -0.157855170738E+03   -0.23271E-03   -0.40485E-06  5136   0.297E-03    0.121E-03
DAV:  18    -0.157855235879E+03   -0.65141E-04   -0.90862E-07  4144   0.192E-03    0.940E-04
DAV:  19    -0.157855257152E+03   -0.21273E-04   -0.53684E-07  3712   0.210E-03    0.927E-04
DAV:  20    -0.157855263508E+03   -0.63562E-05   -0.43512E-07  3592   0.187E-03    0.646E-04
DAV:  21    -0.157855265620E+03   -0.21121E-05   -0.33216E-07  3392   0.156E-03    0.534E-04
DAV:  22    -0.157855266134E+03   -0.51365E-06   -0.15540E-07  3160   0.130E-03
   2 F= -.16155610E+03 E0= -.16155551E+03  d E =-.286995E+00  mag=    25.0000
 trial-energy change:   -0.286995  1 .order   -0.290096   -0.395122   -0.185070
 step:   2.0801(harm=  1.8811)  dis= 0.13247  next Energy=  -161.652134 (dE=-0.383E+00)
 bond charge predicted
       N       E                     dE             d eps       ncg     rms          rms(c)
DAV:   1    -0.157457816598E+03    0.39745E+00   -0.40807E+01  5408   0.121E+01    0.484E+00
DAV:   2    -0.157868419702E+03   -0.41060E+00   -0.20390E+00  7384   0.506E+00    0.327E+00
DAV:   3    -0.157934454283E+03   -0.66035E-01   -0.87866E-02  7696   0.177E+00    0.110E+00
DAV:   4    -0.157925928415E+03    0.85259E-02   -0.11952E-02  7576   0.488E-01    0.716E-01
DAV:   5    -0.157918325206E+03    0.76032E-02   -0.11106E-02  7672   0.426E-01    0.406E-01
DAV:   6    -0.157919179829E+03   -0.85462E-03   -0.30474E-03  7688   0.317E-01    0.183E-01
DAV:   7    -0.157922949096E+03   -0.37693E-02   -0.54043E-04  7632   0.167E-01    0.109E-01
DAV:   8    -0.157926468183E+03   -0.35191E-02   -0.16660E-04  7616   0.695E-02    0.636E-02
DAV:   9    -0.157929904809E+03   -0.34366E-02   -0.64553E-05  7504   0.363E-02    0.399E-02
DAV:  10    -0.157933647004E+03   -0.37422E-02   -0.66088E-05  6856   0.215E-02    0.196E-02
DAV:  11    -0.157936134191E+03   -0.24872E-02   -0.30826E-05  7336   0.157E-02    0.132E-02
DAV:  12    -0.157937409381E+03   -0.12752E-02   -0.86255E-06  6496   0.972E-03    0.944E-03
DAV:  13    -0.157938637409E+03   -0.12280E-02   -0.91914E-06  6184   0.754E-03    0.781E-03
DAV:  14    -0.157939814941E+03   -0.11775E-02   -0.10840E-05  5496   0.601E-03    0.509E-03
DAV:  15    -0.157941052928E+03   -0.12380E-02   -0.19996E-05  5352   0.663E-03    0.301E-03
DAV:  16    -0.157941654281E+03   -0.60135E-03   -0.12030E-05  5848   0.502E-03    0.187E-03
DAV:  17    -0.157941899592E+03   -0.24531E-03   -0.50097E-06  5176   0.317E-03    0.113E-03
DAV:  18    -0.157941953025E+03   -0.53433E-04   -0.81765E-07  4056   0.174E-03    0.828E-04
DAV:  19    -0.157941970010E+03   -0.16985E-04   -0.55790E-07  3696   0.194E-03    0.775E-04
DAV:  20    -0.157941973815E+03   -0.38050E-05   -0.33989E-07  3400   0.177E-03    0.484E-04
DAV:  21    -0.157941975264E+03   -0.14492E-05   -0.23651E-07  3264   0.135E-03    0.398E-04
DAV:  22    -0.157941975820E+03   -0.55652E-06   -0.11447E-07  3096   0.111E-03
   3 F= -.16164823E+03 E0= -.16164804E+03  d E =-.379128E+00  mag=    25.0000
 curvature:  -0.89 expect dE=-0.192E+00 dE for cont linesearch -0.243E-03
 trial: gam= 0.56934 g(F)=  0.215E+00 g(S)=  0.000E+00 ort =-0.104E-01 (trialstep = 0.122E+01)
 search vector abs. value=  0.331E+00
 bond charge predicted
       N       E                     dE             d eps       ncg     rms          rms(c)
DAV:   1    -0.157734632198E+03    0.20734E+00   -0.43399E+01  5184   0.128E+01    0.416E+00
DAV:   2    -0.158091820061E+03   -0.35719E+00   -0.36405E+00  7248   0.705E+00    0.271E+00
DAV:   3    -0.158093509027E+03   -0.16890E-02   -0.85433E-02  7520   0.158E+00    0.156E+00
DAV:   4    -0.158087774452E+03    0.57346E-02   -0.11332E-02  7552   0.436E-01    0.122E+00
DAV:   5    -0.158083409438E+03    0.43650E-02   -0.15276E-02  7008   0.369E-01    0.661E-01
DAV:   6    -0.158084333268E+03   -0.92383E-03   -0.59640E-03  7416   0.314E-01    0.192E-01
DAV:   7    -0.158084665287E+03   -0.33202E-03   -0.43416E-04  7648   0.128E-01    0.116E-01
DAV:   8    -0.158084973779E+03   -0.30849E-03   -0.88197E-05  7624   0.548E-02    0.874E-02
DAV:   9    -0.158085370610E+03   -0.39683E-03   -0.55124E-05  7376   0.374E-02    0.598E-02
DAV:  10    -0.158085734767E+03   -0.36416E-03   -0.61957E-05  7216   0.256E-02    0.182E-02
DAV:  11    -0.158085992264E+03   -0.25750E-03   -0.92586E-06  6848   0.122E-02    0.863E-03
DAV:  12    -0.158086079878E+03   -0.87614E-04   -0.81351E-07  3568   0.630E-03    0.502E-03
DAV:  13    -0.158086206739E+03   -0.12686E-03   -0.17051E-06  4240   0.417E-03    0.310E-03
DAV:  14    -0.158086341310E+03   -0.13457E-03   -0.14993E-06  4000   0.320E-03    0.261E-03
DAV:  15    -0.158086477064E+03   -0.13575E-03   -0.14501E-06  4040   0.319E-03    0.213E-03
DAV:  16    -0.158086579918E+03   -0.10285E-03   -0.13574E-06  4048   0.266E-03    0.141E-03
DAV:  17    -0.158086666430E+03   -0.86512E-04   -0.12760E-06  3976   0.278E-03    0.130E-03
DAV:  18    -0.158086723451E+03   -0.57021E-04   -0.10950E-06  3856   0.242E-03    0.119E-03
DAV:  19    -0.158086756648E+03   -0.33197E-04   -0.71115E-07  3592   0.226E-03    0.996E-04
DAV:  20    -0.158086771596E+03   -0.14948E-04   -0.46905E-07  3392   0.196E-03    0.650E-04
DAV:  21    -0.158086777937E+03   -0.63408E-05   -0.31223E-07  3160   0.156E-03    0.536E-04
DAV:  22    -0.158086782579E+03   -0.46421E-05   -0.25702E-07  3296   0.137E-03    0.408E-04
DAV:  23    -0.158086784559E+03   -0.19796E-05   -0.17729E-07  3088   0.120E-03    0.353E-04
DAV:  24    -0.158086785261E+03   -0.70190E-06   -0.99446E-08  3024   0.918E-04
   4 F= -.16179916E+03 E0= -.16179898E+03  d E =-.150930E+00  mag=    25.0000
 trial-energy change:   -0.150930  1 .order   -0.149450   -0.253747   -0.045152
 step:   1.4664(harm=  1.4792)  dis= 0.07992  next Energy=  -161.803821 (dE=-0.156E+00)
 bond charge predicted
       N       E                     dE             d eps       ncg     rms          rms(c)
DAV:   1    -0.158076674257E+03    0.10110E-01   -0.18557E+00  5184   0.264E+00    0.850E-01
DAV:   2    -0.158090162440E+03   -0.13488E-01   -0.13977E-01  7184   0.136E+00    0.471E-01
DAV:   3    -0.158090457922E+03   -0.29548E-03   -0.35129E-03  7392   0.315E-01    0.308E-01
DAV:   4    -0.158090227660E+03    0.23026E-03   -0.43098E-04  7528   0.101E-01    0.236E-01
DAV:   5    -0.158089997528E+03    0.23013E-03   -0.62469E-04  6784   0.697E-02    0.126E-01
DAV:   6    -0.158090052917E+03   -0.55389E-04   -0.21898E-04  7400   0.618E-02    0.367E-02
DAV:   7    -0.158090080665E+03   -0.27748E-04   -0.15063E-05  7672   0.234E-02    0.205E-02
DAV:   8    -0.158090119901E+03   -0.39236E-04   -0.23690E-06  4384   0.111E-02    0.164E-02
DAV:   9    -0.158090172932E+03   -0.53031E-04   -0.37836E-06  4872   0.861E-03    0.111E-02
DAV:  10    -0.158090205229E+03   -0.32298E-04   -0.28407E-06  4504   0.496E-03    0.479E-03
DAV:  11    -0.158090236873E+03   -0.31644E-04   -0.68622E-07  3320   0.326E-03    0.238E-03
DAV:  12    -0.158090261676E+03   -0.24803E-04   -0.50015E-07  3240   0.291E-03    0.169E-03
DAV:  13    -0.158090281126E+03   -0.19450E-04   -0.36937E-07  3136   0.225E-03    0.887E-04
DAV:  14    -0.158090294748E+03   -0.13622E-04   -0.25916E-07  3040   0.176E-03    0.865E-04
DAV:  15    -0.158090305873E+03   -0.11125E-04   -0.18512E-07  3032   0.132E-03    0.663E-04
DAV:  16    -0.158090321672E+03   -0.15799E-04   -0.24445E-07  3376   0.118E-03    0.660E-04
DAV:  17    -0.158090339387E+03   -0.17715E-04   -0.34222E-07  3464   0.130E-03    0.564E-04
DAV:  18    -0.158090345620E+03   -0.62326E-05   -0.20074E-07  3024   0.135E-03    0.439E-04
DAV:  19    -0.158090348420E+03   -0.28005E-05   -0.13287E-07  2984   0.938E-04    0.316E-04
DAV:  20    -0.158090350761E+03   -0.23406E-05   -0.93995E-08  3008   0.850E-04    0.276E-04
DAV:  21    -0.158090353412E+03   -0.26512E-05   -0.10343E-07  3168   0.709E-04    0.294E-04
DAV:  22    -0.158090354389E+03   -0.97710E-06   -0.64525E-08  2984   0.744E-04
   5 F= -.16180384E+03 E0= -.16180363E+03  d E =-.155605E+00  mag=    25.0000
 curvature:  -1.17 expect dE=-0.241E+00 dE for cont linesearch -0.177E-06
 trial: gam= 1.03348 g(F)=  0.206E+00 g(S)=  0.000E+00 ort = 0.223E-03 (trialstep = 0.748E+00)
 search vector abs. value=  0.560E+00
 bond charge predicted
       N       E                     dE             d eps       ncg     rms          rms(c)
DAV:   1    -0.157981058090E+03    0.10930E+00   -0.24554E+01  5184   0.980E+00    0.289E+00
