34
Lattice="12.1343889236 0.0 0.0 -6.0613529831 10.5120826005 0.0 0.0 0.0 17.6887664795" Properties=species:S:1:pos:R:3:momenta:R:3 pbc="T T T"
Cr      -0.21597142       3.44959844       5.88696780       0.00000000       0.00000000       0.00000000
Cr      -3.13485935       8.85231484       5.86640192       0.00000000       0.00000000       0.00000000
Cr       5.96794081       3.55160746       5.99346584       0.00000000       0.00000000       0.00000000
Cr       2.87147560       8.88170370       5.99861244       0.00000000       0.00000000       0.00000000
Cr       8.93061344       1.79651738       5.86458634       0.00000000       0.00000000       0.00000000
Cr       6.08595740       7.07663595       5.89181244       0.00000000       0.00000000       0.00000000
Cr       2.89445118       1.78446788       5.99479430       0.00000000       0.00000000       0.00000000
Cr      -0.16719776       7.13571644       5.99878840       0.00000000       0.00000000       0.00000000
Cl      -0.98248882       5.39285948       4.64970658       0.00000000       0.00000000       0.00000000
Cl       2.04712462       0.14106279       4.56123820       0.00000000       0.00000000       0.00000000
Cl       4.85617046       5.28489231       4.74567891       0.00000000       0.00000000       0.00000000
Cl       7.98656298      -0.00112390       4.59356740       0.00000000       0.00000000       0.00000000
Cl       1.95565492       3.61847566       4.74586670       0.00000000       0.00000000       0.00000000
Cl      -1.10561637       8.77329591       4.59498590       0.00000000       0.00000000       0.00000000
Cl       7.81636317       3.46430456       4.56148854       0.00000000       0.00000000       0.00000000
Cl       4.78832633       8.71413374       4.65232687       0.00000000       0.00000000       0.00000000
Cl      10.70293858       1.79953360       4.36321789       0.00000000       0.00000000       0.00000000
Cl      -4.02497459       7.32129709       4.36254846       0.00000000       0.00000000       0.00000000
Cl       4.85344506       1.93140308       4.66077898       0.00000000       0.00000000       0.00000000
Cl       1.88781739       7.07886030       4.73371700       0.00000000       0.00000000       0.00000000
Cl       9.95250325       3.39187580       7.26108335       0.00000000       0.00000000       0.00000000
Cl      -5.02878040       8.76105764       7.26195720       0.00000000       0.00000000       0.00000000
Cl       3.96121164       3.48619214       7.40409163       0.00000000       0.00000000       0.00000000
Cl       0.88523950       8.81985065       7.31926306       0.00000000       0.00000000       0.00000000
Cl       0.78733793       5.48574601       7.49610972       0.00000000       0.00000000       0.00000000
Cl       3.80347379       0.07257318       7.30176973       0.00000000       0.00000000       0.00000000
Cl       6.86682285       5.26610720       7.31834147       0.00000000       0.00000000       0.00000000
Cl       9.83675363       0.09822651       7.27892586       0.00000000       0.00000000       0.00000000
Cl       0.95797603       1.86932665       7.31361099       0.00000000       0.00000000       0.00000000
Cl      -2.12157591       7.21207120       7.27402269       0.00000000       0.00000000       0.00000000
Cl       6.98843980       1.90079787       7.29495649       0.00000000       0.00000000       0.00000000
Cl       3.82089109       7.23165735       7.49894542       0.00000000       0.00000000       0.00000000
Co       2.88542306       5.35112517       6.34852575       0.00000000       0.00000000       0.00000000
H        2.77242461       5.56543377       7.80107372       0.00000000       0.00000000       0.00000000
