Cr8Cl24                                 
   1.00000000000000     
    12.2092962264999993    0.0000000000000000    0.0000000000000000
    -6.0854095134000001   10.5847228971000007    0.0000000000000000
     0.0000000000000000    0.0000000000000000   17.6887664794999999
   Cr   Cl   Fe   H 
     8    24     1     1
Direct
     0.1524981581957761    0.3355031914478914    0.3339076864968646
     0.1586671108560793    0.8412673618351434    0.3302111748444645
     0.6640017277688912    0.3413324939113096    0.3342749095019997
     0.6588748275956817    0.8474026226736342    0.3342393252910583
     0.8250814270214306    0.1747959789149434    0.3302112173705254
     0.8312690115007015    0.6750366476691383    0.3342648279682763
     0.3193526517440617    0.1686707224272510    0.3339135433225948
     0.3251738530097725    0.6801503546056153    0.3342412473438259
     0.1745490780499352    0.5082423117996839    0.2611986000840290
     0.1715342380175571    0.0056198269586929    0.2543324520767101
     0.6647298942952204    0.5083855197636566    0.2651387150518261
     0.6733871847936328    0.0101795384678312    0.2546260117761037
     0.3178818404905499    0.3340459218752372    0.2642670086400400
     0.3102829171123815    0.8280646402272680    0.2545362726842697
     0.8119115087465616    0.3264751251616573    0.2545759044252023
     0.8096343866275006    0.8257794152728479    0.2613459576562036
     0.9894484681899058    0.1877110589498017    0.2543271660518656
     0.9940078089167912    0.6895331640349767    0.2546608341474439
     0.4920950224466694    0.1907371904595649    0.2612105528370421
     0.4922282175135635    0.6807731847669274    0.2651528069873947
     0.9885846263745393    0.3257189921307528    0.4076857604563315
     0.9952342749045613    0.8288540052377371    0.4078863197121336
     0.4916727069879698    0.3237289858011891    0.4171698970840225
     0.4918237298468853    0.8354024739290580    0.4086731637393299
     0.3075322824553410    0.5077974901833571    0.4171592819735395
     0.3095880840985643    0.0047525404991262    0.4076836451723977
     0.8192677059397866    0.5079899192022808    0.4087153407844752
     0.8126468406163596    0.0113775315839320    0.4078854798842926
     0.1642192646478975    0.1803836697234900    0.4084279724437110
     0.1713421067651808    0.6904405824291686    0.4079578195967457
     0.6742273206072795    0.1874369406121161    0.4079594187729754
     0.6769916323478000    0.6931130922508260    0.4175228496773400
     0.4928268649184631    0.5090122377569699    0.4019687062153494
     0.4927634735967175    0.5089495474369272    0.4859082059295972
 
  0.00000000E+00  0.00000000E+00  0.00000000E+00
  0.00000000E+00  0.00000000E+00  0.00000000E+00
  0.00000000E+00  0.00000000E+00  0.00000000E+00
  0.00000000E+00  0.00000000E+00  0.00000000E+00
  0.00000000E+00  0.00000000E+00  0.00000000E+00
  0.00000000E+00  0.00000000E+00  0.00000000E+00
  0.00000000E+00  0.00000000E+00  0.00000000E+00
  0.00000000E+00  0.00000000E+00  0.00000000E+00
  0.00000000E+00  0.00000000E+00  0.00000000E+00
  0.00000000E+00  0.00000000E+00  0.00000000E+00
  0.00000000E+00  0.00000000E+00  0.00000000E+00
  0.00000000E+00  0.00000000E+00  0.00000000E+00
  0.00000000E+00  0.00000000E+00  0.00000000E+00
  0.00000000E+00  0.00000000E+00  0.00000000E+00
  0.00000000E+00  0.00000000E+00  0.00000000E+00
  0.00000000E+00  0.00000000E+00  0.00000000E+00
  0.00000000E+00  0.00000000E+00  0.00000000E+00
  0.00000000E+00  0.00000000E+00  0.00000000E+00
  0.00000000E+00  0.00000000E+00  0.00000000E+00
  0.00000000E+00  0.00000000E+00  0.00000000E+00
  0.00000000E+00  0.00000000E+00  0.00000000E+00
  0.00000000E+00  0.00000000E+00  0.00000000E+00
  0.00000000E+00  0.00000000E+00  0.00000000E+00
  0.00000000E+00  0.00000000E+00  0.00000000E+00
  0.00000000E+00  0.00000000E+00  0.00000000E+00
  0.00000000E+00  0.00000000E+00  0.00000000E+00
  0.00000000E+00  0.00000000E+00  0.00000000E+00
  0.00000000E+00  0.00000000E+00  0.00000000E+00
  0.00000000E+00  0.00000000E+00  0.00000000E+00
  0.00000000E+00  0.00000000E+00  0.00000000E+00
  0.00000000E+00  0.00000000E+00  0.00000000E+00
  0.00000000E+00  0.00000000E+00  0.00000000E+00
  0.00000000E+00  0.00000000E+00  0.00000000E+00
  0.00000000E+00  0.00000000E+00  0.00000000E+00
