33
Lattice="12.168232316556168 0.0016454480897831 0.0 -6.131497967118471 10.5521182477467 0.0 0.0 0.0 17.6887664795" Properties=species:S:1:pos:R:3:momenta:R:3 pbc="T T T"
Cr      -0.21116760       3.59135834       5.96403571       0.00000000       0.00000000       0.00000000
Cr      -3.22533508       8.88400186       5.90732781       0.00000000       0.00000000       0.00000000
Cr       5.92570288       3.61041971       6.00032549       0.00000000       0.00000000       0.00000000
Cr       2.81454584       8.89781788       5.98001826       0.00000000       0.00000000       0.00000000
Cr       8.96610054       1.83642710       5.96680432       0.00000000       0.00000000       0.00000000
Cr       5.96641411       7.12892527       5.92934589       0.00000000       0.00000000       0.00000000
Cr       2.86339466       1.80920947       6.01358902       0.00000000       0.00000000       0.00000000
Cr      -0.23325648       7.16413728       5.93148499       0.00000000       0.00000000       0.00000000
Cl      -1.06883378       5.35560468       4.62226440       0.00000000       0.00000000       0.00000000
Cl       2.01767181       0.12893823       4.60258091       0.00000000       0.00000000       0.00000000
Cl       4.81152687       5.35550136       4.61976289       0.00000000       0.00000000       0.00000000
Cl       8.09925716       0.08338333       4.61530302       0.00000000       0.00000000       0.00000000
Cl       1.86228638       3.59871597       4.67818067       0.00000000       0.00000000       0.00000000
Cl      -1.21250912       8.81590069       4.58869792       0.00000000       0.00000000       0.00000000
Cl       7.96510565       3.43450177       4.57570566       0.00000000       0.00000000       0.00000000
Cl       4.75064105       8.79033504       4.65492719       0.00000000       0.00000000       0.00000000
Cl      10.95614010       1.95537984       4.61325469       0.00000000       0.00000000       0.00000000
Cl      -4.12487406       7.33087025       4.43426151       0.00000000       0.00000000       0.00000000
Cl       4.80449077       1.94104663       4.69137567       0.00000000       0.00000000       0.00000000
Cl       1.77229205       7.19669292       4.59945528       0.00000000       0.00000000       0.00000000
Cl      10.04885533       3.49035152       7.32064707       0.00000000       0.00000000       0.00000000
Cl      -5.11246556       8.79608997       7.30459294       0.00000000       0.00000000       0.00000000
Cl       3.77823631       3.52160686       7.43777644       0.00000000       0.00000000       0.00000000
Cl       0.80767836       8.81170265       7.27189457       0.00000000       0.00000000       0.00000000
Cl       0.78149994       5.38123716       7.27439384       0.00000000       0.00000000       0.00000000
Cl       3.76085959       0.09885204       7.32913769       0.00000000       0.00000000       0.00000000
Cl       6.78821269       5.36117236       7.33046842       0.00000000       0.00000000       0.00000000
Cl       9.84890944       0.05148820       7.32814857       0.00000000       0.00000000       0.00000000
Cl       0.85389655       1.93257595       7.28937885       0.00000000       0.00000000       0.00000000
Cl      -2.15228612       7.23409453       7.27274410       0.00000000       0.00000000       0.00000000
Cl       7.07472008       1.92306960       7.35829943       0.00000000       0.00000000       0.00000000
Cl       3.65397692       7.12471749       7.37287915       0.00000000       0.00000000       0.00000000
Ni       2.97490225       5.31249975       6.05422091       0.00000000       0.00000000       0.00000000
