CrCl3 2x2 + Fe S1 top-Cl (D3, U=0) (a_2x
   1.00000000000000     
    12.0925489970493256    0.0000000000000000    0.0000000000000000
    -6.0462744985246628   10.4724546279527502    0.0000000000000000
     0.0000000000000000    0.0000000000000000   20.0000000000000000
   Cr   Cl   Fe
     8    24     1
Direct
     0.1545977294733301    0.3172276538732360    0.5024745465936677
     0.3319010828747774    0.1566829094036632    0.5071868296225687
     0.6680989171252227    0.3247818265288716    0.5071868296225687
     0.8298308005660803    0.1584048666151167    0.5022090624598038
     0.1701691994339196    0.8285740660490217    0.5022090624598038
     0.3332360342380927    0.6648843378966853    0.5067456212207845
     0.6667639657619074    0.8316483036585849    0.5067456212207845
     0.8454022705266701    0.6626299243999202    0.5024745465936677
     0.1819208525173183    0.4999415281205584    0.4389661076801747
     0.5000000000000000    0.1686285875166615    0.4407259456477337
     0.3382775325989807    0.3266747823437052    0.4399552206109834
     0.3396504875277931    0.5087003319821662    0.5793455547346177
     0.9892604667424511    0.3107916246503324    0.5721793983370501
     0.1759761066595692    0.1654102389028087    0.5726717995889129
     0.6617224674010190    0.4883972497447242    0.4399552206109834
     0.9764407272601578    0.1588289242023803    0.4269327979422378
     0.8173927178600384    0.3167433860770518    0.4363820880009009
     0.8240238933404307    0.4894341322432395    0.5726717995889129
     0.5000000000000000    0.3203253215131224    0.5776688005648855
     0.6741056353683386    0.1690123239757380    0.5734849598239081
     0.1826072821399615    0.9993506682170136    0.4363820880009009
     0.5000000000000000    0.6656736199264067    0.4385893776906906
     0.3333419182585066    0.8220115663021796    0.4376432490821728
     0.3258943646316614    0.9949066886073994    0.5734849598239081
     0.0107395332575491    0.8215311579078814    0.5721793983370501
     0.1771382936474146    0.6718776247460309    0.5720341203775104
     0.6666580817414931    0.9886696480436731    0.4376432490821728
     0.0235592727398425    0.6823881969422230    0.4269327979422378
     0.8180791474826816    0.8180206756032402    0.4389661076801747
     0.8228617063525854    0.9947393310986161    0.5720341203775104
     0.5000000000000000    0.8256486877608787    0.5724262212144485
     0.6603495124722069    0.6690498444543728    0.5793455547346177
     0.5000000000000000    0.4987598722606668    0.5134531359915748
 
  0.00000000E+00  0.00000000E+00  0.00000000E+00
  0.00000000E+00  0.00000000E+00  0.00000000E+00
  0.00000000E+00  0.00000000E+00  0.00000000E+00
  0.00000000E+00  0.00000000E+00  0.00000000E+00
  0.00000000E+00  0.00000000E+00  0.00000000E+00
  0.00000000E+00  0.00000000E+00  0.00000000E+00
  0.00000000E+00  0.00000000E+00  0.00000000E+00
  0.00000000E+00  0.00000000E+00  0.00000000E+00
  0.00000000E+00  0.00000000E+00  0.00000000E+00
  0.00000000E+00  0.00000000E+00  0.00000000E+00
  0.00000000E+00  0.00000000E+00  0.00000000E+00
  0.00000000E+00  0.00000000E+00  0.00000000E+00
  0.00000000E+00  0.00000000E+00  0.00000000E+00
  0.00000000E+00  0.00000000E+00  0.00000000E+00
  0.00000000E+00  0.00000000E+00  0.00000000E+00
  0.00000000E+00  0.00000000E+00  0.00000000E+00
  0.00000000E+00  0.00000000E+00  0.00000000E+00
  0.00000000E+00  0.00000000E+00  0.00000000E+00
  0.00000000E+00  0.00000000E+00  0.00000000E+00
  0.00000000E+00  0.00000000E+00  0.00000000E+00
  0.00000000E+00  0.00000000E+00  0.00000000E+00
  0.00000000E+00  0.00000000E+00  0.00000000E+00
  0.00000000E+00  0.00000000E+00  0.00000000E+00
  0.00000000E+00  0.00000000E+00  0.00000000E+00
  0.00000000E+00  0.00000000E+00  0.00000000E+00
  0.00000000E+00  0.00000000E+00  0.00000000E+00
  0.00000000E+00  0.00000000E+00  0.00000000E+00
  0.00000000E+00  0.00000000E+00  0.00000000E+00
  0.00000000E+00  0.00000000E+00  0.00000000E+00
  0.00000000E+00  0.00000000E+00  0.00000000E+00
  0.00000000E+00  0.00000000E+00  0.00000000E+00
  0.00000000E+00  0.00000000E+00  0.00000000E+00
  0.00000000E+00  0.00000000E+00  0.00000000E+00
