 running   16 mpi-ranks, with    1 threads/rank, on    1 nodes
 distrk:  each k-point on   16 cores,    1 groups
 distr:  one band on    4 cores,    4 groups
 vasp.6.5.1 10Mar25 (build Jan 13 2026 20:43:53) complex                         
 POSCAR found type information on POSCAR CrClH 
 POSCAR found :  3 types and       9 ions
 scaLAPACK will be used
 LDA part: xc-table for (Slater+PW92), standard interpolation
 POSCAR, INCAR and KPOINTS ok, starting setup
 FFT: planning ... GRIDC
 FFT: planning ... GRID_SOFT
 FFT: planning ... GRID
 WAVECAR not read
 entering main loop
       N       E                     dE             d eps       ncg     rms          rms(c)
DAV:   1     0.533067309826E+03    0.53307E+03   -0.15618E+04  1296   0.923E+02
DAV:   2     0.869606896374E+02   -0.44611E+03   -0.42760E+03  1712   0.250E+02
DAV:   3    -0.356101441981E+02   -0.12257E+03   -0.12050E+03  1792   0.134E+02
DAV:   4    -0.431750158516E+02   -0.75649E+01   -0.74216E+01  1904   0.473E+01
DAV:   5    -0.433862873608E+02   -0.21127E+00   -0.20892E+00  1876   0.725E+00    0.212E+01
DAV:   6    -0.414940970485E+02    0.18922E+01   -0.36061E+01  1968   0.564E+01    0.180E+01
DAV:   7    -0.400180082748E+02    0.14761E+01   -0.80701E+00  2000   0.576E+01    0.100E+01
DAV:   8    -0.399521134403E+02    0.65895E-01   -0.12887E+00  1808   0.563E+00    0.690E+00
DAV:   9    -0.400269240503E+02   -0.74811E-01   -0.46281E-01  1904   0.718E+00    0.629E+00
DAV:  10    -0.398809847465E+02    0.14594E+00   -0.82161E-02  1520   0.173E+00    0.765E+00
DAV:  11    -0.401789066385E+02   -0.29792E+00   -0.17099E-01  1828   0.322E+00    0.441E+00
DAV:  12    -0.399164301838E+02    0.26248E+00   -0.24258E-01  1540   0.185E+00    0.194E+00
DAV:  13    -0.399053148581E+02    0.11115E-01   -0.39546E-02  1820   0.106E+00    0.991E-01
DAV:  14    -0.399840811571E+02   -0.78766E-01   -0.89932E-03  1700   0.524E-01    0.566E-01
DAV:  15    -0.400516597156E+02   -0.67579E-01   -0.41569E-03  1660   0.292E-01    0.372E-01
DAV:  16    -0.401350807400E+02   -0.83421E-01   -0.10276E-02  1484   0.386E-01    0.275E-01
DAV:  17    -0.401902840716E+02   -0.55203E-01   -0.79081E-03  1460   0.274E-01    0.168E-01
DAV:  18    -0.402437657437E+02   -0.53482E-01   -0.85283E-03  1436   0.278E-01    0.122E-01
DAV:  19    -0.402657453207E+02   -0.21980E-01   -0.19544E-03  1480   0.146E-01    0.842E-02
DAV:  20    -0.402866906345E+02   -0.20945E-01   -0.24317E-03  1484   0.143E-01    0.437E-02
DAV:  21    -0.402905797971E+02   -0.38892E-02   -0.51273E-04  1680   0.714E-02    0.194E-02
DAV:  22    -0.402910588512E+02   -0.47905E-03   -0.44887E-05  1588   0.253E-02    0.148E-02
DAV:  23    -0.402914703320E+02   -0.41148E-03   -0.42473E-05  1452   0.194E-02    0.107E-02
DAV:  24    -0.402917469419E+02   -0.27661E-03   -0.27570E-05  1436   0.144E-02    0.690E-03
DAV:  25    -0.402918555228E+02   -0.10858E-03   -0.63135E-06  1420   0.796E-03    0.761E-03
DAV:  26    -0.402920272583E+02   -0.17174E-03   -0.18418E-05  1488   0.101E-02    0.823E-03
DAV:  27    -0.402921226499E+02   -0.95392E-04   -0.90711E-06  1544   0.862E-03    0.208E-03
DAV:  28    -0.402921489771E+02   -0.26327E-04   -0.12579E-06  1168   0.389E-03    0.131E-03
DAV:  29    -0.402921711108E+02   -0.22134E-04   -0.14418E-06  1100   0.372E-03    0.939E-04
DAV:  30    -0.402921823937E+02   -0.11283E-04   -0.60148E-07  1080   0.315E-03    0.620E-04
DAV:  31    -0.402921910085E+02   -0.86148E-05   -0.51985E-07  1008   0.270E-03    0.628E-04
DAV:  32    -0.402921973965E+02   -0.63880E-05   -0.50844E-07  1040   0.262E-03    0.316E-04
DAV:  33    -0.402922017621E+02   -0.43656E-05   -0.49630E-07  1000   0.241E-03    0.324E-04
DAV:  34    -0.402922028924E+02   -0.11303E-05   -0.13647E-07   964   0.213E-03    0.204E-04
DAV:  35    -0.402922037648E+02   -0.87234E-06   -0.99614E-08   944   0.125E-03
   1 F= -.40292204E+02 E0= -.40291696E+02  d E =-.402922E+02  mag=     7.0000
 curvature:   0.00 expect dE= 0.000E+00 dE for cont linesearch  0.000E+00
 trial: gam= 0.00000 g(F)=  0.418E+00 g(S)=  0.000E+00 ort = 0.000E+00 (trialstep = 0.100E+01)
 search vector abs. value=  0.418E+00
 bond charge predicted
       N       E                     dE             d eps       ncg     rms          rms(c)
DAV:   1    -0.401519202527E+02    0.14028E+00   -0.36547E+01  1296   0.255E+01    0.468E+00
DAV:   2    -0.405074110140E+02   -0.35549E+00   -0.18661E+00  1892   0.981E+00    0.316E+00
DAV:   3    -0.405634535162E+02   -0.56043E-01   -0.70560E-02  1832   0.230E+00    0.101E+00
DAV:   4    -0.405444529959E+02    0.19001E-01   -0.10930E-02  1756   0.589E-01    0.656E-01
DAV:   5    -0.405286535679E+02    0.15799E-01   -0.97548E-03  1876   0.502E-01    0.298E-01
DAV:   6    -0.405314288370E+02   -0.27753E-02   -0.16474E-03  1800   0.364E-01    0.144E-01
DAV:   7    -0.405384774270E+02   -0.70486E-02   -0.28156E-04  1844   0.123E-01    0.937E-02
DAV:   8    -0.405461714036E+02   -0.76940E-02   -0.17052E-04  1520   0.593E-02    0.547E-02
DAV:   9    -0.405566478049E+02   -0.10476E-01   -0.18618E-04  1524   0.532E-02    0.335E-02
DAV:  10    -0.405664057333E+02   -0.97579E-02   -0.15542E-04  1512   0.519E-02    0.206E-02
DAV:  11    -0.405714126223E+02   -0.50069E-02   -0.53892E-05  1556   0.259E-02    0.168E-02
DAV:  12    -0.405751863252E+02   -0.37737E-02   -0.38954E-05  1360   0.212E-02    0.131E-02
DAV:  13    -0.405798929948E+02   -0.47067E-02   -0.12682E-04  1424   0.322E-02    0.763E-03
DAV:  14    -0.405814075786E+02   -0.15146E-02   -0.63552E-05  1588   0.244E-02    0.346E-03
