Isolated H2 molecule in 15A cubic box   
    1.000000000000000     
    15.0000000000000000    0.0000000000000000    0.0000000000000000
     0.0000000000000000   15.0000000000000000    0.0000000000000000
     0.0000000000000000    0.0000000000000000   15.0000000000000000
   H 
     2
Direct
     0.5000000000000000    0.5000000000000000    0.4749694972284957
     0.5000000000000000    0.5000000000000000    0.5250305027715043
 
  0.00000000E+00  0.00000000E+00  0.00000000E+00
  0.00000000E+00  0.00000000E+00  0.00000000E+00
