       N       E                     dE             d eps       ncg     rms          rms(c)
DAV:   1     0.662555495355E+01    0.66256E+01   -0.33999E+02    25   0.143E+02
DAV:   2    -0.501979662947E+01   -0.11645E+02   -0.11645E+02    20   0.417E+01
DAV:   3    -0.741582758706E+01   -0.23960E+01   -0.23960E+01    30   0.223E+01
DAV:   4    -0.745667957501E+01   -0.40852E-01   -0.40852E-01    25   0.330E+00
DAV:   5    -0.745670161166E+01   -0.22037E-04   -0.22037E-04    40   0.667E-02    0.453E+00
DAV:   6    -0.700204494889E+01    0.45466E+00   -0.22937E-01    20   0.221E+00    0.248E+00
DAV:   7    -0.675388212108E+01    0.24816E+00   -0.54503E-01    30   0.346E+00    0.306E-01
DAV:   8    -0.675736459833E+01   -0.34825E-02   -0.61220E-03    20   0.307E-01    0.277E-01
DAV:   9    -0.675358935834E+01    0.37752E-02   -0.52074E-03    30   0.320E-01    0.529E-02
DAV:  10    -0.675506823628E+01   -0.14789E-02   -0.11618E-03    20   0.142E-01    0.179E-02
DAV:  11    -0.675554914372E+01   -0.48091E-03   -0.63636E-05    20   0.367E-02    0.209E-02
DAV:  12    -0.675673001509E+01   -0.11809E-02   -0.12049E-04    20   0.547E-02    0.102E-02
DAV:  13    -0.675755930642E+01   -0.82929E-03   -0.16986E-04    40   0.593E-02    0.738E-03
DAV:  14    -0.675773535204E+01   -0.17605E-03   -0.49181E-06    30   0.107E-02    0.369E-03
DAV:  15    -0.675795134197E+01   -0.21599E-03   -0.18352E-05    30   0.186E-02    0.229E-03
DAV:  16    -0.675797406291E+01   -0.22721E-04   -0.24419E-07    30   0.254E-03    0.103E-03
DAV:  17    -0.675801824097E+01   -0.44178E-04   -0.11438E-06    30   0.457E-03    0.109E-03
DAV:  18    -0.675802258711E+01   -0.43461E-05   -0.10161E-07    40   0.152E-03    0.204E-04
DAV:  19    -0.675803059109E+01   -0.80040E-05   -0.69638E-08    20   0.121E-03    0.191E-04
DAV:  20    -0.675803229327E+01   -0.17022E-05   -0.25862E-08    20   0.803E-04    0.622E-05
DAV:  21    -0.675803350431E+01   -0.12110E-05   -0.92921E-09    20   0.516E-04    0.340E-05
DAV:  22    -0.675803412469E+01   -0.62038E-06   -0.51819E-09    20   0.398E-04
   1 F= -.67580341E+01 E0= -.67580341E+01  d E =-.675803E+01  mag=    -0.0000
       N       E                     dE             d eps       ncg     rms          rms(c)
DAV:   1    -0.675270112671E+01    0.53324E-02   -0.30696E-01    20   0.417E+00    0.269E-01
DAV:   2    -0.675155985695E+01    0.11413E-02   -0.15782E-03    30   0.257E-01    0.146E-01
DAV:   3    -0.675123310837E+01    0.32675E-03   -0.12075E-03    40   0.150E-01    0.104E-02
DAV:   4    -0.675125761783E+01   -0.24509E-04   -0.31018E-06    30   0.954E-03    0.459E-03
DAV:   5    -0.675127054976E+01   -0.12932E-04   -0.20895E-06    30   0.763E-03    0.905E-04
DAV:   6    -0.675127516907E+01   -0.46193E-05   -0.20143E-07    30   0.217E-03    0.675E-04
DAV:   7    -0.675128234305E+01   -0.71740E-05   -0.13558E-06    30   0.458E-03    0.323E-04
DAV:   8    -0.675128338238E+01   -0.10393E-05   -0.21478E-08    40   0.750E-04    0.203E-04
DAV:   9    -0.675128580561E+01   -0.24232E-05   -0.20620E-07    25   0.176E-03    0.214E-04
DAV:  10    -0.675128614544E+01   -0.33984E-06   -0.59647E-09    40   0.381E-04
   2 F= -.67512861E+01 E0= -.67512861E+01  d E =0.674798E-02  mag=     0.0000
       N       E                     dE             d eps       ncg     rms          rms(c)
DAV:   1    -0.676028347725E+01   -0.89977E-02   -0.15027E-01    20   0.289E+00    0.186E-01
DAV:   2    -0.675974637189E+01    0.53711E-03   -0.76142E-04    20   0.187E-01    0.103E-01
DAV:   3    -0.675956992311E+01    0.17645E-03   -0.66476E-04    40   0.113E-01    0.817E-03
DAV:   4    -0.675957725188E+01   -0.73288E-05   -0.21791E-06    30   0.655E-03    0.425E-03
DAV:   5    -0.675958474936E+01   -0.74975E-05   -0.12061E-06    40   0.614E-03    0.611E-04
DAV:   6    -0.675959040189E+01   -0.56525E-05   -0.26543E-07    30   0.295E-03    0.426E-04
DAV:   7    -0.675959397038E+01   -0.35685E-05   -0.23065E-07    30   0.252E-03    0.229E-04
DAV:   8    -0.675959597544E+01   -0.20051E-05   -0.19818E-08    40   0.658E-04    0.136E-04
DAV:   9    -0.675959947678E+01   -0.35013E-05   -0.18048E-07    40   0.167E-03    0.807E-05
DAV:  10    -0.675960012080E+01   -0.64401E-06   -0.51872E-09    40   0.357E-04
   3 F= -.67596001E+01 E0= -.67596001E+01  d E =-.156600E-02  mag=     0.0000
