33
Lattice="12.092548997049326 0.0 0.0 -6.046274498524663 10.47245462795275 0.0 0.0 0.0 20.0" Properties=species:S:1:pos:R:3:momenta:R:3 pbc="T T T"
Cr      -0.04856486       3.32215221      10.04949093       0.00000000       0.00000000       0.00000000
Cr       3.06618223       1.64085466      10.14373659       0.00000000       0.00000000       0.00000000
Cr       6.11529881       3.40126294      10.14373659       0.00000000       0.00000000       0.00000000
Cr       9.07701031       1.65888778      10.04418125       0.00000000       0.00000000       0.00000000
Cr      -2.95200686       8.67720431      10.04418125       0.00000000       0.00000000       0.00000000
Cr       0.00959985       6.96297106      10.13491242       0.00000000       0.00000000       0.00000000
Cr       3.03450200       8.70939913      10.13491242       0.00000000       0.00000000       0.00000000
Cr       6.21662596       6.93936182      10.04949093       0.00000000       0.00000000       0.00000000
Cl      -0.82289689       5.23561497       8.77932215       0.00000000       0.00000000       0.00000000
Cl       5.02669977       1.76595523       8.81451891       0.00000000       0.00000000       0.00000000
Cl       2.11547223       3.42108684       8.79910441       0.00000000       0.00000000       0.00000000
Cl       1.03149832       5.32734115      11.58691109       0.00000000       0.00000000       0.00000000
Cl      10.08354919       3.25475119      11.44358797       0.00000000       0.00000000       0.00000000
Cl       1.12788398       1.73225122      11.45343599       0.00000000       0.00000000       0.00000000
Cl       5.04892752       5.11471804       8.79910441       0.00000000       0.00000000       0.00000000
Cl      10.84733406       1.66332870       8.53865596       0.00000000       0.00000000       0.00000000
Cl       7.96924403       3.31708074       8.72764176       0.00000000       0.00000000       0.00000000
Cl       7.00529619       5.12557674      11.45343599       0.00000000       0.00000000       0.00000000
Cl       4.10949968       3.35459240      11.55337601       0.00000000       0.00000000       0.00000000
Cl       7.12976052       1.76997389      11.46969920       0.00000000       0.00000000       0.00000000
Cl      -3.83416095      10.46565453       8.72764176       0.00000000       0.00000000       0.00000000
Cl       2.02142907       6.97123678       8.77178755       0.00000000       0.00000000       0.00000000
Cl      -0.93915409       8.60847883       8.75286498       0.00000000       0.00000000       0.00000000
Cl      -2.07458537      10.41911516      11.46969920       0.00000000       0.00000000       0.00000000
Cl      -4.83733456       8.60344778      11.44358797       0.00000000       0.00000000       0.00000000
Cl      -1.92030305       7.03620794      11.44068241       0.00000000       0.00000000       0.00000000
Cl       2.08382744      10.35379803       8.75286498       0.00000000       0.00000000       0.00000000
Cl      -3.84101469       7.14627943       8.53865596       0.00000000       0.00000000       0.00000000
Cl       4.94668462       8.56668441       8.77932215       0.00000000       0.00000000       0.00000000
Cl       3.93602845      10.41736251      11.44068241       0.00000000       0.00000000       0.00000000
Cl       1.05417589       8.64656842      11.44852442       0.00000000       0.00000000       0.00000000
Cl       3.94004982       7.00659414      11.58691109       0.00000000       0.00000000       0.00000000
Fe       3.03063540       5.22324013      10.26906272       0.00000000       0.00000000       0.00000000
