       N       E                     dE             d eps       ncg     rms          rms(c)
DAV:   1     0.465837643819E+04    0.46584E+04   -0.13889E+05  6608   0.930E+02
DAV:   2     0.935299281303E+03   -0.37231E+04   -0.34491E+04  7680   0.251E+02
DAV:   3    -0.282800293615E+03   -0.12181E+04   -0.11786E+04  9296   0.142E+02
DAV:   4    -0.388673066573E+03   -0.10587E+03   -0.10428E+03  9888   0.585E+01
DAV:   5    -0.390798677637E+03   -0.21256E+01   -0.20690E+01 10040   0.117E+01    0.622E+01
DAV:   6    -0.368661074602E+03    0.22138E+02   -0.33413E+02  9440   0.644E+01    0.635E+01
DAV:   7    -0.352615576923E+03    0.16045E+02   -0.61022E+01  9280   0.623E+01    0.304E+01
DAV:   8    -0.353698157165E+03   -0.10826E+01   -0.15703E+01  9528   0.916E+00    0.145E+01
DAV:   9    -0.353392321046E+03    0.30584E+00   -0.47285E+00  9936   0.144E+01    0.102E+01
DAV:  10    -0.352959540642E+03    0.43278E+00   -0.22087E+00  9352   0.730E+00    0.399E+00
DAV:  11    -0.352960584822E+03   -0.10442E-02   -0.31518E-01  9384   0.339E+00    0.156E+00
DAV:  12    -0.353047118028E+03   -0.86533E-01   -0.62280E-02  9000   0.788E-01    0.763E-01
DAV:  13    -0.353107846057E+03   -0.60728E-01   -0.14666E-02  9112   0.430E-01    0.477E-01
DAV:  14    -0.353142583124E+03   -0.34737E-01   -0.32633E-03  9448   0.245E-01    0.203E-01
DAV:  15    -0.353156725167E+03   -0.14142E-01   -0.90155E-04  9240   0.123E-01    0.133E-01
DAV:  16    -0.353164930624E+03   -0.82055E-02   -0.32011E-04  9376   0.700E-02    0.718E-02
DAV:  17    -0.353172355648E+03   -0.74250E-02   -0.19369E-04  8776   0.309E-02    0.422E-02
DAV:  18    -0.353177285435E+03   -0.49298E-02   -0.14847E-04  8952   0.282E-02    0.321E-02
DAV:  19    -0.353180419681E+03   -0.31342E-02   -0.12799E-04  8584   0.235E-02    0.256E-02
DAV:  20    -0.353182214495E+03   -0.17948E-02   -0.73595E-05  7904   0.133E-02    0.162E-02
DAV:  21    -0.353183059538E+03   -0.84504E-03   -0.40243E-05  7432   0.868E-03    0.101E-02
DAV:  22    -0.353183464044E+03   -0.40451E-03   -0.23512E-05  7256   0.748E-03    0.612E-03
DAV:  23    -0.353183702007E+03   -0.23796E-03   -0.72233E-06  6648   0.414E-03    0.400E-03
DAV:  24    -0.353183916055E+03   -0.21405E-03   -0.26664E-06  5560   0.299E-03    0.289E-03
DAV:  25    -0.353184052667E+03   -0.13661E-03   -0.17030E-06  5144   0.262E-03    0.216E-03
DAV:  26    -0.353184143725E+03   -0.91058E-04   -0.28423E-06  5472   0.253E-03    0.163E-03
DAV:  27    -0.353184183240E+03   -0.39515E-04   -0.87915E-07  4512   0.152E-03    0.123E-03
DAV:  28    -0.353184216970E+03   -0.33730E-04   -0.14460E-06  4832   0.144E-03    0.928E-04
DAV:  29    -0.353184237524E+03   -0.20554E-04   -0.70656E-07  4448   0.131E-03    0.895E-04
DAV:  30    -0.353184246555E+03   -0.90308E-05   -0.30637E-07  3704   0.120E-03    0.775E-04
DAV:  31    -0.353184254834E+03   -0.82793E-05   -0.19992E-07  3600   0.845E-04    0.659E-04
DAV:  32    -0.353184267333E+03   -0.12499E-04   -0.21012E-07  3744   0.757E-04    0.588E-04
DAV:  33    -0.353184278618E+03   -0.11285E-04   -0.18305E-07  3672   0.720E-04    0.586E-04
DAV:  34    -0.353184285354E+03   -0.67360E-05   -0.13672E-07  3664   0.665E-04    0.449E-04
DAV:  35    -0.353184291117E+03   -0.57628E-05   -0.13761E-07  3736   0.553E-04    0.448E-04
DAV:  36    -0.353184293180E+03   -0.20636E-05   -0.73244E-08  3584   0.528E-04    0.285E-04
DAV:  37    -0.353184294583E+03   -0.14026E-05   -0.54843E-08  3616   0.365E-04    0.228E-04
DAV:  38    -0.353184295147E+03   -0.56392E-06   -0.28819E-08  3592   0.347E-04
   1 F= -.35318430E+03 E0= -.35318430E+03  d E =-.353184E+03  mag=    53.0001
       N       E                     dE             d eps       ncg     rms          rms(c)
DAV:   1    -0.353204019079E+03   -0.19724E-01   -0.93601E+00  6400   0.379E+00    0.167E+00
DAV:   2    -0.353281744827E+03   -0.77726E-01   -0.77263E-01  9184   0.287E+00    0.178E+00
DAV:   3    -0.353268824935E+03    0.12920E-01   -0.63593E-02  9272   0.161E+00    0.661E-01
DAV:   4    -0.353267109412E+03    0.17155E-02   -0.58637E-03  9272   0.454E-01    0.537E-01
DAV:   5    -0.353266158733E+03    0.95068E-03   -0.53471E-03  8960   0.155E-01    0.292E-01
DAV:   6    -0.353266459421E+03   -0.30069E-03   -0.11774E-03  9328   0.134E-01    0.101E-01
DAV:   7    -0.353266551026E+03   -0.91605E-04   -0.14518E-04  9336   0.467E-02    0.510E-02
DAV:   8    -0.353266603028E+03   -0.52002E-04   -0.30842E-05  9080   0.240E-02    0.471E-02
DAV:   9    -0.353266637713E+03   -0.34685E-04   -0.25245E-05  8632   0.118E-02    0.276E-02
DAV:  10    -0.353266662972E+03   -0.25260E-04   -0.18503E-05  9000   0.143E-02    0.527E-03
DAV:  11    -0.353266678100E+03   -0.15128E-04   -0.15020E-06  4536   0.309E-03    0.325E-03
DAV:  12    -0.353266685433E+03   -0.73334E-05   -0.39176E-07  3608   0.247E-03    0.230E-03
DAV:  13    -0.353266693422E+03   -0.79883E-05   -0.35434E-07  3680   0.172E-03    0.133E-03
DAV:  14    -0.353266700672E+03   -0.72500E-05   -0.25643E-07  3720   0.116E-03    0.917E-04
DAV:  15    -0.353266703804E+03   -0.31324E-05   -0.11884E-07  3624   0.864E-04    0.598E-04
DAV:  16    -0.353266706576E+03   -0.27714E-05   -0.84687E-08  3600   0.654E-04    0.505E-04
DAV:  17    -0.353266709009E+03   -0.24337E-05   -0.77808E-08  3640   0.588E-04    0.424E-04
DAV:  18    -0.353266710259E+03   -0.12501E-05   -0.52609E-08  3632   0.519E-04    0.368E-04
DAV:  19    -0.353266711010E+03   -0.75065E-06   -0.31959E-08  3592   0.377E-04
   2 F= -.35326671E+03 E0= -.35326671E+03  d E =-.824159E-01  mag=    53.0000
       N       E                     dE             d eps       ncg     rms          rms(c)
DAV:   1    -0.353215598643E+03    0.51112E-01   -0.12182E+01  6400   0.437E+00    0.190E+00
DAV:   2    -0.353316749795E+03   -0.10115E+00   -0.10056E+00  9208   0.333E+00    0.200E+00
DAV:   3    -0.353301430644E+03    0.15319E-01   -0.79730E-02  9296   0.181E+00    0.749E-01
DAV:   4    -0.353299086269E+03    0.23444E-02   -0.71381E-03  9352   0.528E-01    0.607E-01
DAV:   5    -0.353297823982E+03    0.12623E-02   -0.64464E-03  8864   0.169E-01    0.335E-01
DAV:   6    -0.353298193185E+03   -0.36920E-03   -0.14304E-03  9400   0.134E-01    0.103E-01
DAV:   7    -0.353298328057E+03   -0.13487E-03   -0.18746E-04  9400   0.502E-02    0.550E-02
DAV:   8    -0.353298385147E+03   -0.57089E-04   -0.55539E-05  9344   0.400E-02    0.545E-02
DAV:   9    -0.353298426944E+03   -0.41797E-04   -0.31143E-05  8816   0.154E-02    0.292E-02
DAV:  10    -0.353298457885E+03   -0.30941E-04   -0.17275E-05  9184   0.131E-02    0.570E-03
DAV:  11    -0.353298478090E+03   -0.20206E-04   -0.17405E-06  5112   0.394E-03    0.403E-03
DAV:  12    -0.353298486406E+03   -0.83159E-05   -0.80484E-07  3776   0.334E-03    0.224E-03
DAV:  13    -0.353298494821E+03   -0.84153E-05   -0.53802E-07  3600   0.183E-03    0.164E-03
DAV:  14    -0.353298501659E+03   -0.68370E-05   -0.27536E-07  3592   0.167E-03    0.100E-03
DAV:  15    -0.353298506854E+03   -0.51956E-05   -0.16943E-07  3624   0.826E-04    0.879E-04
DAV:  16    -0.353298510301E+03   -0.34468E-05   -0.10105E-07  3696   0.819E-04    0.539E-04
DAV:  17    -0.353298513125E+03   -0.28243E-05   -0.12548E-07  3600   0.596E-04    0.625E-04
DAV:  18    -0.353298514269E+03   -0.11441E-05   -0.51196E-08  3632   0.584E-04    0.352E-04
DAV:  19    -0.353298515413E+03   -0.11435E-05   -0.43100E-08  3536   0.373E-04    0.297E-04
DAV:  20    -0.353298516370E+03   -0.95686E-06   -0.30877E-08  3592   0.367E-04
   3 F= -.35329852E+03 E0= -.35329852E+03  d E =-.114221E+00  mag=    53.0000
       N       E                     dE             d eps       ncg     rms          rms(c)
DAV:   1    -0.353256975027E+03    0.41540E-01   -0.11327E+01  6432   0.432E+00    0.188E+00
DAV:   2    -0.353340117943E+03   -0.83143E-01   -0.82128E-01  9096   0.244E+00    0.126E+00
DAV:   3    -0.353338871472E+03    0.12465E-02   -0.63615E-02  9376   0.159E+00    0.891E-01
DAV:   4    -0.353334265653E+03    0.46058E-02   -0.96108E-03  9448   0.709E-01    0.518E-01
DAV:   5    -0.353333124885E+03    0.11408E-02   -0.41262E-03  8712   0.120E-01    0.349E-01
DAV:   6    -0.353333026003E+03    0.98883E-04   -0.19716E-03  9360   0.210E-01    0.948E-02
DAV:   7    -0.353333316139E+03   -0.29014E-03   -0.25552E-04  9216   0.465E-02    0.524E-02
DAV:   8    -0.353333634867E+03   -0.31873E-03   -0.48319E-05  9568   0.255E-02    0.442E-02
DAV:   9    -0.353333988261E+03   -0.35339E-03   -0.18521E-05  8920   0.137E-02    0.258E-02
DAV:  10    -0.353334254306E+03   -0.26605E-03   -0.13037E-05  8976   0.699E-03    0.115E-02
DAV:  11    -0.353334524954E+03   -0.27065E-03   -0.45557E-06  6616   0.373E-03    0.397E-03
DAV:  12    -0.353334688789E+03   -0.16383E-03   -0.16093E-06  5096   0.291E-03    0.326E-03
DAV:  13    -0.353334778997E+03   -0.90208E-04   -0.79888E-07  4064   0.254E-03    0.265E-03
DAV:  14    -0.353334904601E+03   -0.12560E-03   -0.17810E-06  5416   0.201E-03    0.171E-03
DAV:  15    -0.353335051014E+03   -0.14641E-03   -0.20273E-06  5568   0.190E-03    0.127E-03
DAV:  16    -0.353335128670E+03   -0.77656E-04   -0.97032E-07  4592   0.150E-03    0.111E-03
DAV:  17    -0.353335165198E+03   -0.36528E-04   -0.61373E-07  4160   0.145E-03    0.959E-04
DAV:  18    -0.353335185482E+03   -0.20283E-04   -0.49635E-07  3880   0.136E-03    0.902E-04
DAV:  19    -0.353335206691E+03   -0.21210E-04   -0.95451E-07  4752   0.126E-03    0.677E-04
DAV:  20    -0.353335211362E+03   -0.46705E-05   -0.33246E-07  3824   0.117E-03    0.504E-04
DAV:  21    -0.353335212356E+03   -0.99398E-06   -0.18035E-07  3592   0.782E-04
   4 F= -.35333521E+03 E0= -.35333521E+03  d E =-.366960E-01  mag=    53.0000
       N       E                     dE             d eps       ncg     rms          rms(c)
DAV:   1    -0.353335161319E+03    0.50042E-04   -0.14920E-02  6552   0.158E-01    0.695E-02
DAV:   2    -0.353335254679E+03   -0.93359E-04   -0.10444E-03  9128   0.872E-02    0.441E-02
DAV:   3    -0.353335262745E+03   -0.80661E-05   -0.80578E-05  9368   0.551E-02    0.317E-02
DAV:   4    -0.353335255514E+03    0.72310E-05   -0.12475E-05  8744   0.267E-02    0.179E-02
DAV:   5    -0.353335250855E+03    0.46590E-05   -0.46415E-06  6432   0.403E-03    0.121E-02
DAV:   6    -0.353335248745E+03    0.21097E-05   -0.18535E-06  5032   0.629E-03    0.315E-03
DAV:   7    -0.353335250510E+03   -0.17652E-05   -0.10366E-06  3744   0.272E-03    0.246E-03
DAV:   8    -0.353335251841E+03   -0.13304E-05   -0.47820E-07  3608   0.200E-03    0.166E-03
DAV:   9    -0.353335255033E+03   -0.31919E-05   -0.19291E-07  3512   0.140E-03    0.137E-03
DAV:  10    -0.353335258376E+03   -0.33433E-05   -0.11144E-07  3568   0.840E-04    0.685E-04
DAV:  11    -0.353335259954E+03   -0.15786E-05   -0.51885E-08  3608   0.594E-04    0.569E-04
DAV:  12    -0.353335260990E+03   -0.10355E-05   -0.25697E-08  3576   0.429E-04    0.353E-04
DAV:  13    -0.353335261953E+03   -0.96291E-06   -0.16853E-08  3568   0.293E-04
   5 F= -.35333526E+03 E0= -.35333526E+03  d E =-.367456E-01  mag=    53.0000
       N       E                     dE             d eps       ncg     rms          rms(c)
DAV:   1    -0.353321358110E+03    0.13903E-01   -0.47558E+00  6400   0.297E+00    0.132E+00
DAV:   2    -0.353358074631E+03   -0.36717E-01   -0.32597E-01  9136   0.133E+00    0.817E-01
DAV:   3    -0.353360433675E+03   -0.23590E-02   -0.14463E-02  9392   0.688E-01    0.481E-01
DAV:   4    -0.353359408982E+03    0.10247E-02   -0.25077E-03  9496   0.296E-01    0.293E-01
DAV:   5    -0.353359008355E+03    0.40063E-03   -0.90672E-04  9544   0.115E-01    0.226E-01
DAV:   6    -0.353358723976E+03    0.28438E-03   -0.12318E-03  9264   0.104E-01    0.815E-02
DAV:   7    -0.353358881187E+03   -0.15721E-03   -0.17975E-04  9088   0.427E-02    0.281E-02
DAV:   8    -0.353359059652E+03   -0.17847E-03   -0.16895E-05  9608   0.167E-02    0.184E-02
DAV:   9    -0.353359220000E+03   -0.16035E-03   -0.52797E-06  6968   0.829E-03    0.118E-02
DAV:  10    -0.353359421782E+03   -0.20178E-03   -0.61892E-06  7448   0.531E-03    0.554E-03
DAV:  11    -0.353359584379E+03   -0.16260E-03   -0.22131E-06  5592   0.455E-03    0.274E-03
DAV:  12    -0.353359658776E+03   -0.74397E-04   -0.99127E-07  4048   0.253E-03    0.244E-03
DAV:  13    -0.353359714698E+03   -0.55922E-04   -0.58636E-07  3848   0.192E-03    0.177E-03
DAV:  14    -0.353359805364E+03   -0.90666E-04   -0.11263E-06  4832   0.167E-03    0.149E-03
DAV:  15    -0.353359900451E+03   -0.95087E-04   -0.12726E-06  4960   0.185E-03    0.111E-03
DAV:  16    -0.353359952536E+03   -0.52085E-04   -0.79243E-07  4296   0.150E-03    0.113E-03
DAV:  17    -0.353359975215E+03   -0.22680E-04   -0.41977E-07  3736   0.128E-03    0.807E-04
DAV:  18    -0.353359988763E+03   -0.13547E-04   -0.31140E-07  3768   0.102E-03    0.691E-04
DAV:  19    -0.353359998342E+03   -0.95795E-05   -0.21832E-07  3608   0.914E-04    0.516E-04
DAV:  20    -0.353360007414E+03   -0.90721E-05   -0.22188E-07  3888   0.775E-04    0.446E-04
DAV:  21    -0.353360015258E+03   -0.78442E-05   -0.26175E-07  4024   0.783E-04    0.414E-04
DAV:  22    -0.353360016250E+03   -0.99140E-06   -0.11335E-07  3648   0.753E-04
   6 F= -.35336002E+03 E0= -.35336002E+03  d E =-.247543E-01  mag=    53.0000
       N       E                     dE             d eps       ncg     rms          rms(c)
DAV:   1    -0.353237275651E+03    0.12274E+00   -0.16973E+01  6400   0.564E+00    0.253E+00
DAV:   2    -0.353374194321E+03   -0.13692E+00   -0.12151E+00  9160   0.269E+00    0.175E+00
DAV:   3    -0.353380696409E+03   -0.65021E-02   -0.59581E-02  9384   0.145E+00    0.921E-01
DAV:   4    -0.353376899256E+03    0.37972E-02   -0.99000E-03  9440   0.587E-01    0.569E-01
DAV:   5    -0.353375539623E+03    0.13596E-02   -0.33620E-03  9536   0.232E-01    0.436E-01
DAV:   6    -0.353374706248E+03    0.83337E-03   -0.47837E-03  9216   0.193E-01    0.160E-01
DAV:   7    -0.353375189836E+03   -0.48359E-03   -0.71059E-04  9112   0.798E-02    0.547E-02
DAV:   8    -0.353375643227E+03   -0.45339E-03   -0.53771E-05  9624   0.335E-02    0.353E-02
DAV:   9    -0.353376066875E+03   -0.42365E-03   -0.18908E-05  9104   0.148E-02    0.236E-02
DAV:  10    -0.353376604280E+03   -0.53741E-03   -0.18653E-05  8840   0.969E-03    0.104E-02
DAV:  11    -0.353376973976E+03   -0.36970E-03   -0.65170E-06  7752   0.732E-03    0.475E-03
DAV:  12    -0.353377155060E+03   -0.18108E-03   -0.13445E-06  4760   0.294E-03    0.385E-03
DAV:  13    -0.353377327548E+03   -0.17249E-03   -0.14678E-06  4872   0.270E-03    0.316E-03
DAV:  14    -0.353377592887E+03   -0.26534E-03   -0.35243E-06  5880   0.256E-03    0.182E-03
DAV:  15    -0.353377790136E+03   -0.19725E-03   -0.20901E-06  5552   0.193E-03    0.146E-03
DAV:  16    -0.353377886899E+03   -0.96763E-04   -0.86136E-07  4520   0.152E-03    0.138E-03
DAV:  17    -0.353377942416E+03   -0.55517E-04   -0.57793E-07  4112   0.159E-03    0.127E-03
DAV:  18    -0.353377983390E+03   -0.40973E-04   -0.68419E-07  4264   0.134E-03    0.889E-04
DAV:  19    -0.353378015991E+03   -0.32601E-04   -0.66952E-07  4200   0.137E-03    0.872E-04
DAV:  20    -0.353378036576E+03   -0.20585E-04   -0.65358E-07  4240   0.135E-03    0.717E-04
DAV:  21    -0.353378042102E+03   -0.55262E-05   -0.31085E-07  3624   0.113E-03    0.478E-04
DAV:  22    -0.353378045157E+03   -0.30556E-05   -0.17839E-07  3592   0.748E-04    0.382E-04
DAV:  23    -0.353378048198E+03   -0.30404E-05   -0.12144E-07  3624   0.645E-04    0.266E-04
DAV:  24    -0.353378051121E+03   -0.29228E-05   -0.11017E-07  3656   0.547E-04    0.326E-04
DAV:  25    -0.353378052089E+03   -0.96820E-06   -0.59405E-08  3640   0.510E-04
   7 F= -.35337805E+03 E0= -.35337805E+03  d E =-.427901E-01  mag=    53.0000
       N       E                     dE             d eps       ncg     rms          rms(c)
DAV:   1    -0.353350885415E+03    0.27166E-01   -0.61579E+00  6400   0.339E+00    0.164E+00
DAV:   2    -0.353394971403E+03   -0.44086E-01   -0.45379E-01  9144   0.158E+00    0.840E-01
DAV:   3    -0.353397149157E+03   -0.21778E-02   -0.19636E-02  9256   0.738E-01    0.612E-01
DAV:   4    -0.353395674705E+03    0.14745E-02   -0.31200E-03  9448   0.353E-01    0.377E-01
DAV:   5    -0.353394986090E+03    0.68861E-03   -0.10921E-03  9392   0.992E-02    0.291E-01
DAV:   6    -0.353394566930E+03    0.41916E-03   -0.13586E-03  9088   0.926E-02    0.119E-01
DAV:   7    -0.353394710447E+03   -0.14352E-03   -0.20889E-04  9160   0.450E-02    0.361E-02
DAV:   8    -0.353394945411E+03   -0.23496E-03   -0.36440E-05  9048   0.161E-02    0.220E-02
DAV:   9    -0.353395203254E+03   -0.25784E-03   -0.13339E-05  9040   0.124E-02    0.140E-02
DAV:  10    -0.353395364831E+03   -0.16158E-03   -0.24935E-06  5656   0.673E-03    0.646E-03
DAV:  11    -0.353395570994E+03   -0.20616E-03   -0.57157E-06  6968   0.409E-03    0.288E-03
DAV:  12    -0.353395735130E+03   -0.16414E-03   -0.11619E-06  4768   0.298E-03    0.280E-03
DAV:  13    -0.353395854131E+03   -0.11900E-03   -0.80172E-07  4352   0.282E-03    0.200E-03
DAV:  14    -0.353395964876E+03   -0.11075E-03   -0.17852E-06  5120   0.201E-03    0.176E-03
DAV:  15    -0.353396036608E+03   -0.71733E-04   -0.54357E-07  4040   0.157E-03    0.139E-03
DAV:  16    -0.353396112691E+03   -0.76082E-04   -0.86856E-07  4456   0.136E-03    0.131E-03
DAV:  17    -0.353396178042E+03   -0.65352E-04   -0.10592E-06  4592   0.155E-03    0.105E-03
DAV:  18    -0.353396208766E+03   -0.30724E-04   -0.58286E-07  4032   0.135E-03    0.759E-04
DAV:  19    -0.353396222157E+03   -0.13391E-04   -0.35327E-07  3656   0.119E-03    0.622E-04
DAV:  20    -0.353396230965E+03   -0.88078E-05   -0.27599E-07  3792   0.937E-04    0.552E-04
DAV:  21    -0.353396237320E+03   -0.63557E-05   -0.21323E-07  3712   0.838E-04    0.409E-04
DAV:  22    -0.353396240638E+03   -0.33176E-05   -0.14989E-07  3608   0.708E-04    0.359E-04
DAV:  23    -0.353396242802E+03   -0.21641E-05   -0.11198E-07  3632   0.598E-04    0.251E-04
DAV:  24    -0.353396243393E+03   -0.59120E-06   -0.60709E-08  3640   0.504E-04
   8 F= -.35339624E+03 E0= -.35339624E+03  d E =-.181913E-01  mag=    53.0000
       N       E                     dE             d eps       ncg     rms          rms(c)
DAV:   1    -0.353382352241E+03    0.13891E-01   -0.23030E+00  6408   0.208E+00    0.991E-01
DAV:   2    -0.353398611157E+03   -0.16259E-01   -0.16957E-01  9096   0.958E-01    0.496E-01
DAV:   3    -0.353399568554E+03   -0.95740E-03   -0.72710E-03  9248   0.448E-01    0.372E-01
DAV:   4    -0.353399009185E+03    0.55937E-03   -0.11499E-03  9416   0.217E-01    0.228E-01
DAV:   5    -0.353398703856E+03    0.30533E-03   -0.39832E-04  9360   0.573E-02    0.177E-01
DAV:   6    -0.353398491095E+03    0.21276E-03   -0.49796E-04  9088   0.548E-02    0.732E-02
DAV:   7    -0.353398549797E+03   -0.58702E-04   -0.78731E-05  9128   0.282E-02    0.222E-02
DAV:   8    -0.353398661964E+03   -0.11217E-03   -0.13582E-05  8752   0.975E-03    0.135E-02
DAV:   9    -0.353398795954E+03   -0.13399E-03   -0.52933E-06  6768   0.828E-03    0.861E-03
DAV:  10    -0.353398879846E+03   -0.83892E-04   -0.14586E-06  4160   0.446E-03    0.426E-03
DAV:  11    -0.353398973061E+03   -0.93214E-04   -0.24102E-06  5448   0.324E-03    0.210E-03
DAV:  12    -0.353399061817E+03   -0.88756E-04   -0.11761E-06  4288   0.289E-03    0.196E-03
DAV:  13    -0.353399113414E+03   -0.51597E-04   -0.60524E-07  3784   0.182E-03    0.148E-03
DAV:  14    -0.353399166843E+03   -0.53429E-04   -0.64312E-07  4256   0.160E-03    0.130E-03
DAV:  15    -0.353399202726E+03   -0.35882E-04   -0.46167E-07  3808   0.137E-03    0.111E-03
DAV:  16    -0.353399243135E+03   -0.40409E-04   -0.58225E-07  4056   0.128E-03    0.946E-04
DAV:  17    -0.353399280120E+03   -0.36985E-04   -0.71586E-07  4360   0.137E-03    0.102E-03
DAV:  18    -0.353399296892E+03   -0.16772E-04   -0.46976E-07  3816   0.128E-03    0.651E-04
DAV:  19    -0.353399301905E+03   -0.50128E-05   -0.26371E-07  3624   0.102E-03    0.547E-04
DAV:  20    -0.353399306061E+03   -0.41563E-05   -0.17603E-07  3624   0.724E-04    0.352E-04
DAV:  21    -0.353399310171E+03   -0.41093E-05   -0.13971E-07  3600   0.648E-04    0.367E-04
DAV:  22    -0.353399312763E+03   -0.25929E-05   -0.10955E-07  3656   0.578E-04    0.276E-04
DAV:  23    -0.353399313903E+03   -0.11399E-05   -0.71942E-08  3600   0.494E-04    0.220E-04
DAV:  24    -0.353399314477E+03   -0.57343E-06   -0.46144E-08  3592   0.378E-04
   9 F= -.35339931E+03 E0= -.35339931E+03  d E =-.212624E-01  mag=    53.0000
       N       E                     dE             d eps       ncg     rms          rms(c)
DAV:   1    -0.353394821889E+03    0.44920E-02   -0.13512E+00  6408   0.162E+00    0.773E-01
DAV:   2    -0.353404665506E+03   -0.98436E-02   -0.95668E-02  9104   0.814E-01    0.442E-01
DAV:   3    -0.353405395999E+03   -0.73049E-03   -0.48862E-03  9368   0.411E-01    0.288E-01
DAV:   4    -0.353404967408E+03    0.42859E-03   -0.75195E-04  9608   0.188E-01    0.181E-01
DAV:   5    -0.353404689819E+03    0.27759E-03   -0.32158E-04  9376   0.535E-02    0.131E-01
DAV:   6    -0.353404457661E+03    0.23216E-03   -0.25708E-04  9304   0.402E-02    0.524E-02
DAV:   7    -0.353404495674E+03   -0.38014E-04   -0.45745E-05  9152   0.230E-02    0.183E-02
DAV:   8    -0.353404597059E+03   -0.10138E-03   -0.82378E-06  7984   0.119E-02    0.123E-02
DAV:   9    -0.353404720094E+03   -0.12303E-03   -0.27162E-06  5168   0.667E-03    0.866E-03
DAV:  10    -0.353404814798E+03   -0.94705E-04   -0.16951E-06  4240   0.430E-03    0.525E-03
DAV:  11    -0.353404922609E+03   -0.10781E-03   -0.29061E-06  5552   0.296E-03    0.313E-03
DAV:  12    -0.353405024678E+03   -0.10207E-03   -0.77620E-07  4328   0.250E-03    0.207E-03
DAV:  13    -0.353405094604E+03   -0.69925E-04   -0.69636E-07  4168   0.198E-03    0.178E-03
DAV:  14    -0.353405148104E+03   -0.53501E-04   -0.61865E-07  4072   0.181E-03    0.117E-03
DAV:  15    -0.353405190158E+03   -0.42054E-04   -0.56961E-07  3928   0.127E-03    0.106E-03
DAV:  16    -0.353405238225E+03   -0.48067E-04   -0.62412E-07  4272   0.136E-03    0.104E-03
DAV:  17    -0.353405279399E+03   -0.41174E-04   -0.72386E-07  4296   0.130E-03    0.958E-04
DAV:  18    -0.353405303890E+03   -0.24490E-04   -0.56666E-07  3968   0.127E-03    0.750E-04
DAV:  19    -0.353405314218E+03   -0.10328E-04   -0.36504E-07  3648   0.115E-03    0.534E-04
DAV:  20    -0.353405318574E+03   -0.43562E-05   -0.22619E-07  3608   0.882E-04    0.447E-04
DAV:  21    -0.353405322152E+03   -0.35779E-05   -0.16468E-07  3744   0.705E-04    0.339E-04
DAV:  22    -0.353405323821E+03   -0.16691E-05   -0.10344E-07  3608   0.605E-04    0.290E-04
DAV:  23    -0.353405325051E+03   -0.12297E-05   -0.77532E-08  3584   0.457E-04    0.193E-04
DAV:  24    -0.353405325404E+03   -0.35374E-06   -0.41817E-08  3624   0.416E-04
  10 F= -.35340533E+03 E0= -.35340533E+03  d E =-.601093E-02  mag=    53.0000
       N       E                     dE             d eps       ncg     rms          rms(c)
DAV:   1    -0.353395857338E+03    0.94677E-02   -0.14929E+00  6408   0.171E+00    0.813E-01
DAV:   2    -0.353406772099E+03   -0.10915E-01   -0.10590E-01  9056   0.859E-01    0.466E-01
DAV:   3    -0.353407555231E+03   -0.78313E-03   -0.54085E-03  9344   0.433E-01    0.304E-01
DAV:   4    -0.353407082746E+03    0.47249E-03   -0.83066E-04  9608   0.198E-01    0.191E-01
DAV:   5    -0.353406786709E+03    0.29604E-03   -0.35532E-04  9400   0.565E-02    0.138E-01
DAV:   6    -0.353406537813E+03    0.24890E-03   -0.28468E-04  9304   0.427E-02    0.554E-02
DAV:   7    -0.353406580319E+03   -0.42506E-04   -0.51231E-05  9168   0.244E-02    0.193E-02
DAV:   8    -0.353406690358E+03   -0.11004E-03   -0.92839E-06  8424   0.125E-02    0.129E-02
DAV:   9    -0.353406822536E+03   -0.13218E-03   -0.29533E-06  5184   0.697E-03    0.911E-03
DAV:  10    -0.353406923879E+03   -0.10134E-03   -0.20054E-06  4432   0.448E-03    0.552E-03
DAV:  11    -0.353407040968E+03   -0.11709E-03   -0.28964E-06  5536   0.301E-03    0.322E-03
DAV:  12    -0.353407153684E+03   -0.11272E-03   -0.82209E-07  4424   0.256E-03    0.212E-03
DAV:  13    -0.353407226937E+03   -0.73253E-04   -0.76883E-07  4144   0.206E-03    0.177E-03
DAV:  14    -0.353407285038E+03   -0.58102E-04   -0.70577E-07  4152   0.186E-03    0.121E-03
DAV:  15    -0.353407328287E+03   -0.43248E-04   -0.57573E-07  3984   0.130E-03    0.108E-03
DAV:  16    -0.353407382604E+03   -0.54317E-04   -0.69461E-07  4272   0.139E-03    0.109E-03
DAV:  17    -0.353407426799E+03   -0.44195E-04   -0.78798E-07  4400   0.140E-03    0.985E-04
DAV:  18    -0.353407450780E+03   -0.23981E-04   -0.56643E-07  3896   0.129E-03    0.698E-04
DAV:  19    -0.353407461754E+03   -0.10974E-04   -0.38438E-07  3664   0.116E-03    0.556E-04
DAV:  20    -0.353407466508E+03   -0.47542E-05   -0.23908E-07  3592   0.911E-04    0.419E-04
DAV:  21    -0.353407470408E+03   -0.39001E-05   -0.17721E-07  3744   0.723E-04    0.358E-04
DAV:  22    -0.353407472506E+03   -0.20976E-05   -0.11945E-07  3592   0.632E-04    0.286E-04
DAV:  23    -0.353407473575E+03   -0.10698E-05   -0.79478E-08  3592   0.493E-04    0.197E-04
DAV:  24    -0.353407474008E+03   -0.43300E-06   -0.46297E-08  3616   0.409E-04
  11 F= -.35340747E+03 E0= -.35340747E+03  d E =-.815953E-02  mag=    53.0000
       N       E                     dE             d eps       ncg     rms          rms(c)
DAV:   1    -0.353401531234E+03    0.59423E-02   -0.13460E+00  6408   0.162E+00    0.739E-01
DAV:   2    -0.353411017561E+03   -0.94863E-02   -0.10261E-01  9112   0.770E-01    0.364E-01
DAV:   3    -0.353411626373E+03   -0.60881E-03   -0.31088E-03  9040   0.285E-01    0.263E-01
DAV:   4    -0.353411359707E+03    0.26667E-03   -0.47190E-04  9608   0.134E-01    0.183E-01
DAV:   5    -0.353411123309E+03    0.23640E-03   -0.20031E-04  9408   0.415E-02    0.139E-01
DAV:   6    -0.353410895629E+03    0.22768E-03   -0.24692E-04  9216   0.411E-02    0.690E-02
DAV:   7    -0.353410906234E+03   -0.10606E-04   -0.49099E-05  9192   0.254E-02    0.201E-02
DAV:   8    -0.353411001317E+03   -0.95083E-04   -0.10288E-05  8432   0.978E-03    0.990E-03
DAV:   9    -0.353411132190E+03   -0.13087E-03   -0.22658E-06  5392   0.606E-03    0.717E-03
DAV:  10    -0.353411219353E+03   -0.87163E-04   -0.16431E-06  4152   0.381E-03    0.462E-03
DAV:  11    -0.353411308670E+03   -0.89317E-04   -0.21205E-06  4624   0.268E-03    0.309E-03
DAV:  12    -0.353411377528E+03   -0.68859E-04   -0.65450E-07  3776   0.220E-03    0.205E-03
DAV:  13    -0.353411464121E+03   -0.86593E-04   -0.88414E-07  4448   0.179E-03    0.166E-03
DAV:  14    -0.353411513164E+03   -0.49042E-04   -0.53807E-07  3808   0.172E-03    0.120E-03
DAV:  15    -0.353411555608E+03   -0.42444E-04   -0.55220E-07  3888   0.128E-03    0.960E-04
DAV:  16    -0.353411580772E+03   -0.25165E-04   -0.33273E-07  3656   0.124E-03    0.802E-04
DAV:  17    -0.353411620231E+03   -0.39459E-04   -0.58393E-07  4336   0.106E-03    0.840E-04
DAV:  18    -0.353411653450E+03   -0.33219E-04   -0.64932E-07  4328   0.128E-03    0.865E-04
DAV:  19    -0.353411665252E+03   -0.11802E-04   -0.40266E-07  3776   0.118E-03    0.578E-04
DAV:  20    -0.353411668732E+03   -0.34799E-05   -0.22606E-07  3600   0.914E-04    0.469E-04
DAV:  21    -0.353411671708E+03   -0.29763E-05   -0.15554E-07  3608   0.669E-04    0.362E-04
DAV:  22    -0.353411673804E+03   -0.20959E-05   -0.10962E-07  3608   0.597E-04    0.253E-04
DAV:  23    -0.353411674800E+03   -0.99666E-06   -0.74588E-08  3560   0.477E-04
  12 F= -.35341167E+03 E0= -.35341167E+03  d E =-.420079E-02  mag=    53.0000
       N       E                     dE             d eps       ncg     rms          rms(c)
DAV:   1    -0.353408939797E+03    0.27340E-02   -0.45120E-01  6488   0.937E-01    0.429E-01
DAV:   2    -0.353412023073E+03   -0.30833E-02   -0.34354E-02  9048   0.446E-01    0.210E-01
DAV:   3    -0.353412291786E+03   -0.26871E-03   -0.10276E-03  9048   0.163E-01    0.152E-01
DAV:   4    -0.353412193474E+03    0.98312E-04   -0.15638E-04  9608   0.769E-02    0.106E-01
DAV:   5    -0.353412095849E+03    0.97625E-04   -0.66839E-05  9376   0.241E-02    0.807E-02
DAV:   6    -0.353411985815E+03    0.11003E-03   -0.83542E-05  9216   0.242E-02    0.400E-02
DAV:   7    -0.353411986086E+03   -0.27128E-06   -0.16671E-05  9184   0.149E-02    0.116E-02
DAV:   8    -0.353412027912E+03   -0.41826E-04   -0.24236E-06  5200   0.564E-03    0.591E-03
DAV:   9    -0.353412086702E+03   -0.58790E-04   -0.12517E-06  3952   0.408E-03    0.438E-03
DAV:  10    -0.353412125216E+03   -0.38514E-04   -0.74422E-07  3936   0.265E-03    0.274E-03
DAV:  11    -0.353412168583E+03   -0.43367E-04   -0.75197E-07  4072   0.169E-03    0.212E-03
DAV:  12    -0.353412198962E+03   -0.30379E-04   -0.41170E-07  3608   0.171E-03    0.141E-03
DAV:  13    -0.353412249007E+03   -0.50045E-04   -0.79003E-07  4224   0.148E-03    0.132E-03
DAV:  14    -0.353412265639E+03   -0.16632E-04   -0.32301E-07  3672   0.147E-03    0.805E-04
DAV:  15    -0.353412278877E+03   -0.13238E-04   -0.23717E-07  3552   0.846E-04    0.657E-04
DAV:  16    -0.353412288626E+03   -0.97489E-05   -0.13095E-07  3616   0.796E-04    0.488E-04
DAV:  17    -0.353412303656E+03   -0.15030E-04   -0.18985E-07  3672   0.582E-04    0.505E-04
DAV:  18    -0.353412322997E+03   -0.19341E-04   -0.28027E-07  4264   0.795E-04    0.584E-04
DAV:  19    -0.353412330781E+03   -0.77837E-05   -0.19881E-07  3704   0.836E-04    0.468E-04
DAV:  20    -0.353412332321E+03   -0.15402E-05   -0.10488E-07  3640   0.640E-04    0.277E-04
DAV:  21    -0.353412335526E+03   -0.32042E-05   -0.10948E-07  3640   0.470E-04    0.400E-04
DAV:  22    -0.353412336801E+03   -0.12758E-05   -0.67110E-08  3568   0.512E-04    0.127E-04
DAV:  23    -0.353412337271E+03   -0.46983E-06   -0.45110E-08  3544   0.341E-04
  13 F= -.35341234E+03 E0= -.35341234E+03  d E =-.486326E-02  mag=    53.0000
       N       E                     dE             d eps       ncg     rms          rms(c)
DAV:   1    -0.353404121203E+03    0.82156E-02   -0.13266E+00  6432   0.161E+00    0.732E-01
DAV:   2    -0.353413707916E+03   -0.95867E-02   -0.91910E-02  9064   0.721E-01    0.393E-01
DAV:   3    -0.353415097222E+03   -0.13893E-02   -0.27019E-03  9208   0.261E-01    0.228E-01
DAV:   4    -0.353414897317E+03    0.19991E-03   -0.46052E-04  9624   0.120E-01    0.157E-01
DAV:   5    -0.353414818147E+03    0.79170E-04   -0.24186E-04  9456   0.641E-02    0.117E-01
DAV:   6    -0.353414885346E+03   -0.67199E-04   -0.32931E-04  9264   0.572E-02    0.485E-02
DAV:   7    -0.353414979415E+03   -0.94069E-04   -0.55333E-05  9184   0.266E-02    0.143E-02
DAV:   8    -0.353415063029E+03   -0.83614E-04   -0.55589E-06  6992   0.918E-03    0.105E-02
DAV:   9    -0.353415102183E+03   -0.39154E-04   -0.31045E-06  5336   0.756E-03    0.808E-03
DAV:  10    -0.353415122346E+03   -0.20163E-04   -0.10542E-06  3720   0.305E-03    0.431E-03
DAV:  11    -0.353415145225E+03   -0.22879E-04   -0.15284E-06  4680   0.270E-03    0.219E-03
DAV:  12    -0.353415159019E+03   -0.13795E-04   -0.76201E-07  3840   0.226E-03    0.152E-03
DAV:  13    -0.353415165858E+03   -0.68390E-05   -0.40447E-07  3688   0.169E-03    0.114E-03
DAV:  14    -0.353415169527E+03   -0.36688E-05   -0.20461E-07  3608   0.133E-03    0.745E-04
DAV:  15    -0.353415172420E+03   -0.28926E-05   -0.10961E-07  3584   0.842E-04    0.528E-04
DAV:  16    -0.353415175577E+03   -0.31569E-05   -0.89382E-08  3592   0.617E-04    0.446E-04
DAV:  17    -0.353415178300E+03   -0.27231E-05   -0.84521E-08  3648   0.582E-04    0.336E-04
DAV:  18    -0.353415179063E+03   -0.76270E-06   -0.46782E-08  3632   0.522E-04
  14 F= -.35341518E+03 E0= -.35341518E+03  d E =-.284179E-02  mag=    53.0000
       N       E                     dE             d eps       ncg     rms          rms(c)
DAV:   1    -0.353413872624E+03    0.13057E-02   -0.18417E-01  6536   0.601E-01    0.273E-01
DAV:   2    -0.353415082298E+03   -0.12097E-02   -0.12655E-02  9048   0.265E-01    0.142E-01
DAV:   3    -0.353415361998E+03   -0.27970E-03   -0.35821E-04  9144   0.921E-02    0.842E-02
DAV:   4    -0.353415332730E+03    0.29268E-04   -0.59857E-05  9624   0.424E-02    0.583E-02
DAV:   5    -0.353415322265E+03    0.10466E-04   -0.33798E-05  9264   0.235E-02    0.436E-02
DAV:   6    -0.353415333923E+03   -0.11659E-04   -0.44149E-05  9272   0.217E-02    0.181E-02
DAV:   7    -0.353415354436E+03   -0.20513E-04   -0.67935E-06  7544   0.102E-02    0.565E-03
DAV:   8    -0.353415375702E+03   -0.21266E-04   -0.11256E-06  4248   0.388E-03    0.424E-03
DAV:   9    -0.353415383945E+03   -0.82429E-05   -0.76456E-07  3896   0.328E-03    0.333E-03
DAV:  10    -0.353415387507E+03   -0.35623E-05   -0.36978E-07  3664   0.157E-03    0.203E-03
DAV:  11    -0.353415391791E+03   -0.42836E-05   -0.22402E-07  3544   0.127E-03    0.166E-03
DAV:  12    -0.353415396131E+03   -0.43404E-05   -0.18776E-07  3696   0.118E-03    0.906E-04
DAV:  13    -0.353415398684E+03   -0.25529E-05   -0.16026E-07  3688   0.943E-04    0.689E-04
DAV:  14    -0.353415399195E+03   -0.51059E-06   -0.77684E-08  3664   0.857E-04
  15 F= -.35341540E+03 E0= -.35341540E+03  d E =-.306192E-02  mag=    53.0000
       N       E                     dE             d eps       ncg     rms          rms(c)
DAV:   1    -0.353408814563E+03    0.65841E-02   -0.11985E+00  6424   0.152E+00    0.703E-01
DAV:   2    -0.353417383564E+03   -0.85690E-02   -0.91588E-02  9104   0.726E-01    0.335E-01
DAV:   3    -0.353417968738E+03   -0.58517E-03   -0.17727E-03  8928   0.170E-01    0.224E-01
DAV:   4    -0.353417868410E+03    0.10033E-03   -0.22613E-04  9520   0.576E-02    0.161E-01
DAV:   5    -0.353417762864E+03    0.10555E-03   -0.19271E-04  8520   0.248E-02    0.114E-01
DAV:   6    -0.353417744664E+03    0.18200E-04   -0.17444E-04  9168   0.342E-02    0.459E-02
DAV:   7    -0.353417752229E+03   -0.75651E-05   -0.31304E-05  9352   0.273E-02    0.178E-02
DAV:   8    -0.353417768293E+03   -0.16064E-04   -0.64469E-06  7456   0.161E-02    0.862E-03
DAV:   9    -0.353417786352E+03   -0.18059E-04   -0.18663E-06  4928   0.824E-03    0.552E-03
DAV:  10    -0.353417805085E+03   -0.18733E-04   -0.67351E-07  3712   0.299E-03    0.335E-03
DAV:  11    -0.353417824980E+03   -0.19895E-04   -0.69902E-07  3792   0.185E-03    0.183E-03
DAV:  12    -0.353417840109E+03   -0.15128E-04   -0.40517E-07  3720   0.168E-03    0.126E-03
DAV:  13    -0.353417853275E+03   -0.13166E-04   -0.29803E-07  3584   0.128E-03    0.851E-04
DAV:  14    -0.353417859864E+03   -0.65894E-05   -0.15643E-07  3616   0.121E-03    0.705E-04
DAV:  15    -0.353417867346E+03   -0.74817E-05   -0.13626E-07  3576   0.641E-04    0.465E-04
DAV:  16    -0.353417871875E+03   -0.45286E-05   -0.77665E-08  3600   0.667E-04    0.460E-04
DAV:  17    -0.353417878595E+03   -0.67207E-05   -0.10705E-07  3656   0.434E-04    0.380E-04
DAV:  18    -0.353417882411E+03   -0.38152E-05   -0.59815E-08  3600   0.536E-04    0.341E-04
DAV:  19    -0.353417887670E+03   -0.52591E-05   -0.11926E-07  3720   0.411E-04    0.268E-04
DAV:  20    -0.353417888659E+03   -0.98940E-06   -0.43476E-08  3632   0.526E-04
  16 F= -.35341789E+03 E0= -.35341789E+03  d E =-.248946E-02  mag=    53.0000
       N       E                     dE             d eps       ncg     rms          rms(c)
DAV:   1    -0.353409587394E+03    0.83003E-02   -0.12030E+00  6424   0.152E+00    0.705E-01
DAV:   2    -0.353418192597E+03   -0.86052E-02   -0.92020E-02  9064   0.728E-01    0.336E-01
DAV:   3    -0.353418776370E+03   -0.58377E-03   -0.17840E-03  8896   0.170E-01    0.225E-01
DAV:   4    -0.353418674848E+03    0.10152E-03   -0.22623E-04  9512   0.572E-02    0.161E-01
DAV:   5    -0.353418565548E+03    0.10930E-03   -0.19140E-04  8216   0.242E-02    0.115E-01
DAV:   6    -0.353418546017E+03    0.19531E-04   -0.17950E-04  9088   0.282E-02    0.426E-02
DAV:   7    -0.353418558190E+03   -0.12173E-04   -0.26599E-05  9352   0.217E-02    0.162E-02
DAV:   8    -0.353418575749E+03   -0.17559E-04   -0.60658E-06  7192   0.162E-02    0.950E-03
DAV:   9    -0.353418592813E+03   -0.17064E-04   -0.19678E-06  5128   0.935E-03    0.568E-03
DAV:  10    -0.353418613315E+03   -0.20502E-04   -0.64919E-07  3760   0.328E-03    0.341E-03
DAV:  11    -0.353418635256E+03   -0.21941E-04   -0.80001E-07  3808   0.182E-03    0.178E-03
DAV:  12    -0.353418650228E+03   -0.14972E-04   -0.40936E-07  3752   0.173E-03    0.124E-03
DAV:  13    -0.353418661814E+03   -0.11586E-04   -0.27281E-07  3520   0.125E-03    0.920E-04
DAV:  14    -0.353418669443E+03   -0.76286E-05   -0.15246E-07  3600   0.119E-03    0.701E-04
DAV:  15    -0.353418678353E+03   -0.89106E-05   -0.15267E-07  3608   0.680E-04    0.509E-04
DAV:  16    -0.353418683058E+03   -0.47046E-05   -0.85167E-08  3592   0.718E-04    0.457E-04
DAV:  17    -0.353418689605E+03   -0.65470E-05   -0.10687E-07  3680   0.442E-04    0.382E-04
DAV:  18    -0.353418694587E+03   -0.49821E-05   -0.73489E-08  3592   0.543E-04    0.353E-04
DAV:  19    -0.353418700218E+03   -0.56306E-05   -0.13824E-07  3792   0.469E-04    0.328E-04
DAV:  20    -0.353418701223E+03   -0.10053E-05   -0.54555E-08  3632   0.572E-04    0.223E-04
DAV:  21    -0.353418702077E+03   -0.85420E-06   -0.40804E-08  3488   0.264E-04
  17 F= -.35341870E+03 E0= -.35341870E+03  d E =-.330288E-02  mag=    53.0000
       N       E                     dE             d eps       ncg     rms          rms(c)
DAV:   1    -0.353410678722E+03    0.80225E-02   -0.12191E+00  6432   0.155E+00    0.721E-01
DAV:   2    -0.353419507926E+03   -0.88292E-02   -0.90538E-02  9104   0.704E-01    0.345E-01
DAV:   3    -0.353420436994E+03   -0.92907E-03   -0.19821E-03  9216   0.192E-01    0.225E-01
DAV:   4    -0.353420253149E+03    0.18385E-03   -0.31303E-04  9576   0.893E-02    0.160E-01
DAV:   5    -0.353420057610E+03    0.19554E-03   -0.19402E-04  9368   0.514E-02    0.125E-01
DAV:   6    -0.353419902926E+03    0.15468E-03   -0.30540E-04  9216   0.500E-02    0.486E-02
DAV:   7    -0.353419962277E+03   -0.59352E-04   -0.44404E-05  9192   0.218E-02    0.160E-02
DAV:   8    -0.353420066491E+03   -0.10421E-03   -0.49646E-06  6568   0.701E-03    0.905E-03
DAV:   9    -0.353420174894E+03   -0.10840E-03   -0.22956E-06  5264   0.539E-03    0.530E-03
DAV:  10    -0.353420256071E+03   -0.81177E-04   -0.17793E-06  4224   0.429E-03    0.284E-03
DAV:  11    -0.353420329526E+03   -0.73454E-04   -0.23298E-06  4784   0.287E-03    0.220E-03
DAV:  12    -0.353420378791E+03   -0.49265E-04   -0.60326E-07  3800   0.242E-03    0.168E-03
DAV:  13    -0.353420428942E+03   -0.50151E-04   -0.52127E-07  3952   0.145E-03    0.132E-03
DAV:  14    -0.353420472268E+03   -0.43326E-04   -0.41940E-07  3976   0.151E-03    0.112E-03
DAV:  15    -0.353420508416E+03   -0.36149E-04   -0.44009E-07  3960   0.118E-03    0.944E-04
DAV:  16    -0.353420536179E+03   -0.27763E-04   -0.36644E-07  3824   0.126E-03    0.877E-04
DAV:  17    -0.353420551633E+03   -0.15453E-04   -0.27688E-07  3616   0.926E-04    0.556E-04
DAV:  18    -0.353420574746E+03   -0.23113E-04   -0.37215E-07  4104   0.868E-04    0.622E-04
DAV:  19    -0.353420586162E+03   -0.11416E-04   -0.23972E-07  3656   0.967E-04    0.446E-04
DAV:  20    -0.353420596750E+03   -0.10589E-04   -0.30590E-07  3848   0.778E-04    0.563E-04
DAV:  21    -0.353420599793E+03   -0.30424E-05   -0.15456E-07  3616   0.872E-04    0.252E-04
DAV:  22    -0.353420602457E+03   -0.26646E-05   -0.14481E-07  3560   0.491E-04    0.392E-04
DAV:  23    -0.353420603451E+03   -0.99433E-06   -0.72583E-08  3600   0.597E-04
  18 F= -.35342060E+03 E0= -.35342060E+03  d E =-.190137E-02  mag=    53.0000
       N       E                     dE             d eps       ncg     rms          rms(c)
DAV:   1    -0.353417288215E+03    0.33142E-02   -0.44810E-01  6440   0.942E-01    0.437E-01
DAV:   2    -0.353420424259E+03   -0.31360E-02   -0.33266E-02  9048   0.426E-01    0.207E-01
DAV:   3    -0.353420842224E+03   -0.41797E-03   -0.72005E-04  9216   0.114E-01    0.136E-01
DAV:   4    -0.353420768391E+03    0.73833E-04   -0.11233E-04  9552   0.527E-02    0.965E-02
DAV:   5    -0.353420680457E+03    0.87935E-04   -0.72068E-05  9352   0.312E-02    0.757E-02
DAV:   6    -0.353420597929E+03    0.82528E-04   -0.11141E-04  9264   0.307E-02    0.295E-02
DAV:   7    -0.353420623374E+03   -0.25445E-04   -0.16206E-05  9184   0.133E-02    0.985E-03
DAV:   8    -0.353420673919E+03   -0.50545E-04   -0.14272E-06  4728   0.433E-03    0.578E-03
DAV:   9    -0.353420726177E+03   -0.52257E-04   -0.12398E-06  4096   0.372E-03    0.375E-03
DAV:  10    -0.353420765734E+03   -0.39558E-04   -0.95753E-07  4288   0.302E-03    0.194E-03
DAV:  11    -0.353420800351E+03   -0.34617E-04   -0.10009E-06  3832   0.213E-03    0.183E-03
DAV:  12    -0.353420825131E+03   -0.24780E-04   -0.50646E-07  3632   0.216E-03    0.133E-03
DAV:  13    -0.353420849368E+03   -0.24237E-04   -0.41110E-07  3752   0.122E-03    0.102E-03
DAV:  14    -0.353420869524E+03   -0.20155E-04   -0.26774E-07  3656   0.129E-03    0.820E-04
DAV:  15    -0.353420886577E+03   -0.17054E-04   -0.25156E-07  3656   0.839E-04    0.641E-04
DAV:  16    -0.353420897516E+03   -0.10938E-04   -0.16314E-07  3616   0.916E-04    0.647E-04
DAV:  17    -0.353420906412E+03   -0.88964E-05   -0.14579E-07  3640   0.586E-04    0.365E-04
DAV:  18    -0.353420921884E+03   -0.15472E-04   -0.22247E-07  4064   0.668E-04    0.546E-04
DAV:  19    -0.353420926681E+03   -0.47971E-05   -0.11780E-07  3608   0.732E-04    0.272E-04
DAV:  20    -0.353420932565E+03   -0.58842E-05   -0.15009E-07  3584   0.505E-04    0.453E-04
DAV:  21    -0.353420934313E+03   -0.17473E-05   -0.71509E-08  3600   0.606E-04    0.160E-04
DAV:  22    -0.353420936508E+03   -0.21952E-05   -0.88700E-08  3624   0.337E-04    0.317E-04
DAV:  23    -0.353420937128E+03   -0.62009E-06   -0.39343E-08  3584   0.455E-04
  19 F= -.35342094E+03 E0= -.35342094E+03  d E =-.223505E-02  mag=    53.0000
       N       E                     dE             d eps       ncg     rms          rms(c)
DAV:   1    -0.353414197624E+03    0.67389E-02   -0.10766E+00  6408   0.146E+00    0.659E-01
DAV:   2    -0.353422082069E+03   -0.78844E-02   -0.81491E-02  9064   0.712E-01    0.348E-01
DAV:   3    -0.353422997641E+03   -0.91557E-03   -0.29152E-03  9160   0.304E-01    0.244E-01
DAV:   4    -0.353422814210E+03    0.18343E-03   -0.40885E-04  9632   0.131E-01    0.159E-01
DAV:   5    -0.353422758684E+03    0.55526E-04   -0.16070E-04  9392   0.359E-02    0.124E-01
DAV:   6    -0.353422792964E+03   -0.34280E-04   -0.20498E-04  9288   0.346E-02    0.586E-02
DAV:   7    -0.353422827320E+03   -0.34356E-04   -0.34337E-05  9160   0.200E-02    0.145E-02
DAV:   8    -0.353422849418E+03   -0.22098E-04   -0.60718E-06  6976   0.692E-03    0.627E-03
DAV:   9    -0.353422860760E+03   -0.11342E-04   -0.11476E-06  4152   0.512E-03    0.580E-03
DAV:  10    -0.353422866745E+03   -0.59849E-05   -0.38673E-07  3568   0.260E-03    0.369E-03
DAV:  11    -0.353422873587E+03   -0.68421E-05   -0.50018E-07  3800   0.143E-03    0.255E-03
DAV:  12    -0.353422878807E+03   -0.52197E-05   -0.23340E-07  3576   0.184E-03    0.140E-03
DAV:  13    -0.353422881772E+03   -0.29648E-05   -0.18988E-07  3704   0.978E-04    0.100E-03
DAV:  14    -0.353422883882E+03   -0.21106E-05   -0.95040E-08  3560   0.111E-03    0.500E-04
DAV:  15    -0.353422885035E+03   -0.11528E-05   -0.45582E-08  3600   0.508E-04    0.326E-04
DAV:  16    -0.353422885788E+03   -0.75292E-06   -0.23421E-08  3624   0.480E-04
  20 F= -.35342289E+03 E0= -.35342289E+03  d E =-.194866E-02  mag=    53.0000
       N       E                     dE             d eps       ncg     rms          rms(c)
DAV:   1    -0.353400108440E+03    0.22777E-01   -0.29798E+00  6424   0.243E+00    0.110E+00
DAV:   2    -0.353422468862E+03   -0.22360E-01   -0.22581E-01  9080   0.119E+00    0.585E-01
DAV:   3    -0.353424586662E+03   -0.21178E-02   -0.81987E-03  9144   0.514E-01    0.408E-01
DAV:   4    -0.353424072475E+03    0.51419E-03   -0.11587E-03  9640   0.221E-01    0.265E-01
DAV:   5    -0.353423915656E+03    0.15682E-03   -0.44401E-04  9376   0.605E-02    0.208E-01
DAV:   6    -0.353423964242E+03   -0.48586E-04   -0.56085E-04  9256   0.570E-02    0.991E-02
DAV:   7    -0.353424041040E+03   -0.76798E-04   -0.96515E-05  9200   0.329E-02    0.248E-02
DAV:   8    -0.353424087896E+03   -0.46856E-04   -0.18190E-05  8968   0.119E-02    0.105E-02
DAV:   9    -0.353424112053E+03   -0.24157E-04   -0.30661E-06  5104   0.824E-03    0.966E-03
DAV:  10    -0.353424124585E+03   -0.12532E-04   -0.97199E-07  3696   0.412E-03    0.619E-03
DAV:  11    -0.353424138725E+03   -0.14140E-04   -0.16642E-06  4112   0.246E-03    0.439E-03
DAV:  12    -0.353424148760E+03   -0.10036E-04   -0.58385E-07  3760   0.291E-03    0.235E-03
DAV:  13    -0.353424156042E+03   -0.72815E-05   -0.38290E-07  3632   0.152E-03    0.153E-03
DAV:  14    -0.353424161277E+03   -0.52348E-05   -0.20912E-07  3688   0.164E-03    0.817E-04
DAV:  15    -0.353424164334E+03   -0.30574E-05   -0.13139E-07  3616   0.780E-04    0.550E-04
DAV:  16    -0.353424165800E+03   -0.14656E-05   -0.59882E-08  3632   0.751E-04    0.472E-04
DAV:  17    -0.353424168689E+03   -0.28895E-05   -0.45820E-08  3536   0.444E-04    0.371E-04
DAV:  18    -0.353424170581E+03   -0.18922E-05   -0.34224E-08  3600   0.460E-04    0.304E-04
DAV:  19    -0.353424172128E+03   -0.15469E-05   -0.34657E-08  3560   0.310E-04    0.209E-04
DAV:  20    -0.353424172745E+03   -0.61716E-06   -0.17973E-08  3632   0.308E-04
  21 F= -.35342417E+03 E0= -.35342417E+03  d E =-.323562E-02  mag=    53.0000
       N       E                     dE             d eps       ncg     rms          rms(c)
DAV:   1    -0.353414933615E+03    0.92385E-02   -0.12485E+00  6416   0.156E+00    0.704E-01
DAV:   2    -0.353423719753E+03   -0.87861E-02   -0.83708E-02  9112   0.723E-01    0.401E-01
DAV:   3    -0.353425222539E+03   -0.15028E-02   -0.33956E-03  9296   0.329E-01    0.238E-01
DAV:   4    -0.353424980447E+03    0.24209E-03   -0.51611E-04  9632   0.149E-01    0.154E-01
DAV:   5    -0.353424917566E+03    0.62881E-04   -0.22136E-04  9408   0.542E-02    0.113E-01
DAV:   6    -0.353425007429E+03   -0.89862E-04   -0.29171E-04  9248   0.438E-02    0.432E-02
DAV:   7    -0.353425094466E+03   -0.87038E-04   -0.38524E-05  9136   0.218E-02    0.135E-02
DAV:   8    -0.353425165344E+03   -0.70878E-04   -0.49779E-06  6528   0.891E-03    0.100E-02
DAV:   9    -0.353425196585E+03   -0.31240E-04   -0.12161E-06  4304   0.471E-03    0.693E-03
DAV:  10    -0.353425215658E+03   -0.19073E-04   -0.85749E-07  3792   0.321E-03    0.387E-03
DAV:  11    -0.353425232503E+03   -0.16845E-04   -0.13472E-06  4464   0.234E-03    0.220E-03
DAV:  12    -0.353425239585E+03   -0.70824E-05   -0.60619E-07  3688   0.240E-03    0.135E-03
DAV:  13    -0.353425243828E+03   -0.42427E-05   -0.38031E-07  3680   0.161E-03    0.937E-04
DAV:  14    -0.353425246304E+03   -0.24766E-05   -0.20457E-07  3584   0.121E-03    0.626E-04
DAV:  15    -0.353425247276E+03   -0.97178E-06   -0.97616E-08  3640   0.836E-04
  22 F= -.35342525E+03 E0= -.35342525E+03  d E =-.107453E-02  mag=    53.0000
       N       E                     dE             d eps       ncg     rms          rms(c)
DAV:   1    -0.353425192088E+03    0.54216E-04   -0.77096E-03  6520   0.123E-01    0.551E-02
DAV:   2    -0.353425220761E+03   -0.28672E-04   -0.50798E-04  9024   0.554E-02    0.302E-02
DAV:   3    -0.353425250772E+03   -0.30012E-04   -0.19799E-05  9032   0.245E-02    0.184E-02
DAV:   4    -0.353425249179E+03    0.15934E-05   -0.21554E-06  5168   0.110E-02    0.126E-02
DAV:   5    -0.353425249141E+03    0.38024E-07   -0.13519E-06  3680   0.424E-03
  23 F= -.35342525E+03 E0= -.35342525E+03  d E =-.107640E-02  mag=    53.0000
       N       E                     dE             d eps       ncg     rms          rms(c)
DAV:   1    -0.353419494925E+03    0.57543E-02   -0.88956E-01  6456   0.132E+00    0.588E-01
DAV:   2    -0.353425575173E+03   -0.60802E-02   -0.67124E-02  9056   0.625E-01    0.301E-01
DAV:   3    -0.353426131842E+03   -0.55667E-03   -0.17227E-03  8896   0.202E-01    0.205E-01
DAV:   4    -0.353426010928E+03    0.12091E-03   -0.23465E-04  9576   0.865E-02    0.147E-01
DAV:   5    -0.353425913978E+03    0.96951E-04   -0.10709E-04  9384   0.347E-02    0.115E-01
DAV:   6    -0.353425819581E+03    0.94397E-04   -0.16891E-04  9344   0.444E-02    0.599E-02
DAV:   7    -0.353425824172E+03   -0.45911E-05   -0.41946E-05  9280   0.254E-02    0.148E-02
DAV:   8    -0.353425870966E+03   -0.46794E-04   -0.44008E-06  6240   0.719E-03    0.651E-03
DAV:   9    -0.353425917981E+03   -0.47015E-04   -0.16509E-06  4576   0.593E-03    0.618E-03
DAV:  10    -0.353425951933E+03   -0.33952E-04   -0.59638E-07  3632   0.254E-03    0.363E-03
DAV:  11    -0.353425990214E+03   -0.38281E-04   -0.63389E-07  4000   0.163E-03    0.236E-03
DAV:  12    -0.353426028047E+03   -0.37833E-04   -0.50047E-07  3728   0.161E-03    0.173E-03
DAV:  13    -0.353426064948E+03   -0.36901E-04   -0.53852E-07  4080   0.153E-03    0.113E-03
DAV:  14    -0.353426083279E+03   -0.18331E-04   -0.33469E-07  3584   0.140E-03    0.831E-04
DAV:  15    -0.353426094203E+03   -0.10924E-04   -0.21954E-07  3624   0.942E-04    0.614E-04
DAV:  16    -0.353426105230E+03   -0.11027E-04   -0.16181E-07  3584   0.795E-04    0.609E-04
DAV:  17    -0.353426119910E+03   -0.14680E-04   -0.19232E-07  3720   0.678E-04    0.517E-04
DAV:  18    -0.353426135751E+03   -0.15841E-04   -0.24580E-07  3960   0.822E-04    0.588E-04
DAV:  19    -0.353426146030E+03   -0.10278E-04   -0.25574E-07  3808   0.797E-04    0.447E-04
DAV:  20    -0.353426148603E+03   -0.25730E-05   -0.13593E-07  3600   0.761E-04    0.309E-04
DAV:  21    -0.353426149801E+03   -0.11987E-05   -0.79770E-08  3576   0.474E-04    0.253E-04
DAV:  22    -0.353426151159E+03   -0.13572E-05   -0.56750E-08  3544   0.427E-04    0.178E-04
DAV:  23    -0.353426152271E+03   -0.11125E-05   -0.52761E-08  3608   0.350E-04    0.235E-04
DAV:  24    -0.353426152583E+03   -0.31227E-06   -0.29649E-08  3608   0.351E-04
  24 F= -.35342615E+03 E0= -.35342615E+03  d E =-.903443E-03  mag=    53.0000
