CrCl3 2x2 + Fe | LOBSTER COHP U_all | In-Plane Embedded Interstitial (z=0.00A)
 1.0000000000000000
    12.2092909193533465    0.0111018667517055    0.0000000000000000
    -6.0950311049460471   10.5791850380812260    0.0000000000000000
     0.0000000000000000    0.0000000000000000   17.6887664794999999
 Cr  Cl  Fe 
   8  24   1
Direct
  0.1515034601486381  0.3378302874470885  0.3373399009479212
  0.1588941374646003  0.8411245257244104  0.3373511454974066
  0.6607040807430010  0.3392884405017064  0.3373477657341576
  0.6621436366872491  0.8484640878381864  0.3373875290161489
  0.8249871897455456  0.1750099566345276  0.3373434787469962
  0.8322044172845202  0.6782669437814948  0.3374041957697466
  0.3217531121748122  0.1678251676629786  0.3373176383636801
  0.3231841850546386  0.6768182264037184  0.3373614964382392
  0.1665666082625349  0.5096141419190560  0.2640038221911743
  0.1665119886610346  0.0007438566823487  0.2580162279754736
  0.6584954289329366  0.5012276771789572  0.2586329676688978
  0.6705529991190368  0.0138949780467647  0.2591616174213813
  0.3274745244280933  0.3432955175171549  0.2591007793226096
  0.3143983727502482  0.8287778136037565  0.2604756008055464
  0.8125975915253895  0.3306377627371874  0.2604657203260292
  0.8153707082110537  0.8314294713799069  0.2627717675192244
  0.9841860280330953  0.1824022483474515  0.2578607544507855
  0.9975783263921468  0.6867840397189905  0.2592385896193948
  0.4933722086648072  0.1826764224209116  0.2640012389539732
  0.4848462996891664  0.6743564804715487  0.2585573261334554
  0.9859608326897105  0.3293591712424652  0.4156163726463641
  0.9993010130228932  0.8335193988866347  0.4167439990318992
  0.4987742540966568  0.3415132391838898  0.4161323602114567
  0.4904366250335545  0.8335058431740019  0.4107505392590630
  0.3257384246712228  0.5152634672495287  0.4162226614483990
  0.3132649455735073  0.0024751581672307  0.4154867757464039
  0.8173294229500994  0.5066216526455085  0.4107456076957122
  0.8174949567542694  0.0156560906026499  0.4168395981336426
  0.1685939632091321  0.1845935465368210  0.4119964837964412
  0.1712167497505895  0.6856103743465238  0.4142758445079909
  0.6693146686145305  0.1873608187491305  0.4142718597365055
  0.6567104242877174  0.6726111709085768  0.4156438745795722
  0.4918685743735807  0.5081063542888333  0.3373745073042803
Cartesian
  0.0000000000000000  0.0000000000000000  0.0000000000000000
  0.0000000000000000  0.0000000000000000  0.0000000000000000
  0.0000000000000000  0.0000000000000000  0.0000000000000000
  0.0000000000000000  0.0000000000000000  0.0000000000000000
  0.0000000000000000  0.0000000000000000  0.0000000000000000
  0.0000000000000000  0.0000000000000000  0.0000000000000000
  0.0000000000000000  0.0000000000000000  0.0000000000000000
  0.0000000000000000  0.0000000000000000  0.0000000000000000
  0.0000000000000000  0.0000000000000000  0.0000000000000000
  0.0000000000000000  0.0000000000000000  0.0000000000000000
  0.0000000000000000  0.0000000000000000  0.0000000000000000
  0.0000000000000000  0.0000000000000000  0.0000000000000000
  0.0000000000000000  0.0000000000000000  0.0000000000000000
  0.0000000000000000  0.0000000000000000  0.0000000000000000
  0.0000000000000000  0.0000000000000000  0.0000000000000000
  0.0000000000000000  0.0000000000000000  0.0000000000000000
  0.0000000000000000  0.0000000000000000  0.0000000000000000
  0.0000000000000000  0.0000000000000000  0.0000000000000000
  0.0000000000000000  0.0000000000000000  0.0000000000000000
  0.0000000000000000  0.0000000000000000  0.0000000000000000
  0.0000000000000000  0.0000000000000000  0.0000000000000000
  0.0000000000000000  0.0000000000000000  0.0000000000000000
  0.0000000000000000  0.0000000000000000  0.0000000000000000
  0.0000000000000000  0.0000000000000000  0.0000000000000000
  0.0000000000000000  0.0000000000000000  0.0000000000000000
  0.0000000000000000  0.0000000000000000  0.0000000000000000
  0.0000000000000000  0.0000000000000000  0.0000000000000000
  0.0000000000000000  0.0000000000000000  0.0000000000000000
  0.0000000000000000  0.0000000000000000  0.0000000000000000
  0.0000000000000000  0.0000000000000000  0.0000000000000000
  0.0000000000000000  0.0000000000000000  0.0000000000000000
  0.0000000000000000  0.0000000000000000  0.0000000000000000
  0.0000000000000000  0.0000000000000000  0.0000000000000000
