CrCl3 2x2 + H S2 hollow (no_vdw, U=0) (a
    1.000000000000000     
    12.0925489970493256    0.0000000000000000    0.0000000000000000
    -6.0462744985246628   10.4724546279527502    0.0000000000000000
     0.0000000000000000    0.0000000000000000   20.0000000000000000
   Cr   Cl   H 
     8    24     1
Direct
     0.1664151018828733    0.3332071389767092    0.4998887294897437
     0.3332071389767092    0.1664151018828733    0.4998887294897437
     0.6667928610232908    0.3332079629061500    0.4998887294897437
     0.8333333333333286    0.1666666666666714    0.4999683257971793
     0.1666666666666714    0.8333333333333286    0.4999683257971793
     0.3332079629061500    0.6667928610232908    0.4998887294897437
     0.6667920370938500    0.8335848981171267    0.4998887294897437
     0.8335848981171267    0.6667920370938500    0.4998887294897437
     0.1797347038860973    0.5000000000000000    0.4332145046291389
     0.5000000000000000    0.1797347038860973    0.4332145046291389
     0.3204323004639901    0.3204323004639901    0.4332218529628520
     0.3203798739637118    0.5000000000000000    0.5668702739405397
     0.0000249640658348    0.3203583575992239    0.5668012096931100
     0.1796565051004170    0.1796565051004170    0.5668168951177922
     0.6795676995360098    0.5000000000000000    0.4332218529628520
     0.0000912463692077    0.1797697034256898    0.4332651415847842
     0.8202302965743102    0.3203215429435179    0.4332651415847842
     0.8203434948995830    0.5000000000000000    0.5668168951177922
     0.5000000000000000    0.3203798739637118    0.5668702739405397
     0.6796416424007762    0.1796666064666110    0.5668012096931100
     0.1797697034256898    0.0000912463692077    0.4332651415847842
     0.5000000000000000    0.6795676995360098    0.4332218529628520
     0.3203215429435179    0.8202302965743102    0.4332651415847842
     0.3203583575992239    0.0000249640658348    0.5668012096931100
     0.9999750359341651    0.8203333935333891    0.5668012096931100
     0.1796666064666110    0.6796416424007762    0.5668012096931100
     0.6796784570564821    0.9999087536307922    0.4332651415847842
     0.9999087536307922    0.6796784570564821    0.4332651415847842
     0.8202652961139026    0.8202652961139026    0.4332145046291389
     0.8203333935333891    0.9999750359341651    0.5668012096931100
     0.5000000000000000    0.8203434948995830    0.5668168951177922
     0.6796201260362883    0.6796201260362883    0.5668702739405397
     0.5000000000000000    0.5000000000000000    0.5799622838488440
 
  0.00000000E+00  0.00000000E+00  0.00000000E+00
  0.00000000E+00  0.00000000E+00  0.00000000E+00
  0.00000000E+00  0.00000000E+00  0.00000000E+00
  0.00000000E+00  0.00000000E+00  0.00000000E+00
  0.00000000E+00  0.00000000E+00  0.00000000E+00
  0.00000000E+00  0.00000000E+00  0.00000000E+00
  0.00000000E+00  0.00000000E+00  0.00000000E+00
  0.00000000E+00  0.00000000E+00  0.00000000E+00
  0.00000000E+00  0.00000000E+00  0.00000000E+00
  0.00000000E+00  0.00000000E+00  0.00000000E+00
  0.00000000E+00  0.00000000E+00  0.00000000E+00
  0.00000000E+00  0.00000000E+00  0.00000000E+00
  0.00000000E+00  0.00000000E+00  0.00000000E+00
  0.00000000E+00  0.00000000E+00  0.00000000E+00
  0.00000000E+00  0.00000000E+00  0.00000000E+00
  0.00000000E+00  0.00000000E+00  0.00000000E+00
  0.00000000E+00  0.00000000E+00  0.00000000E+00
  0.00000000E+00  0.00000000E+00  0.00000000E+00
  0.00000000E+00  0.00000000E+00  0.00000000E+00
  0.00000000E+00  0.00000000E+00  0.00000000E+00
  0.00000000E+00  0.00000000E+00  0.00000000E+00
  0.00000000E+00  0.00000000E+00  0.00000000E+00
  0.00000000E+00  0.00000000E+00  0.00000000E+00
  0.00000000E+00  0.00000000E+00  0.00000000E+00
  0.00000000E+00  0.00000000E+00  0.00000000E+00
  0.00000000E+00  0.00000000E+00  0.00000000E+00
  0.00000000E+00  0.00000000E+00  0.00000000E+00
  0.00000000E+00  0.00000000E+00  0.00000000E+00
  0.00000000E+00  0.00000000E+00  0.00000000E+00
  0.00000000E+00  0.00000000E+00  0.00000000E+00
  0.00000000E+00  0.00000000E+00  0.00000000E+00
  0.00000000E+00  0.00000000E+00  0.00000000E+00
  0.00000000E+00  0.00000000E+00  0.00000000E+00
