 vasp.6.5.1 10Mar25 (build Feb 13 2026 23:13:13) complex                        
  
 executed on             LinuxIFC date 2026.09.22  21:35:37
 running   16 mpi-ranks, with    1 threads/rank, on    1 nodes
 distrk:  each k-point on   16 cores,    1 groups
 distr:  one band on NCORE=   4 cores,    4 groups


--------------------------------------------------------------------------------------------------------


 INCAR:
   SYSTEM = CrCl3 1x1 + H (S3 top-Cr) (D3, U\=0eV)
   PREC = Accurate
   ENCUT = 400.0
   ALGO = Normal
   EDIFF = 1.0E-06
   NELM = 100
   ISPIN = 2
   MAGMOM = 2*3.0 6*0.0 1*0.0
   ISMEAR = 0
   SIGMA = 0.05
   NCORE = 4
   LREAL = Auto
   IVDW = 12
   IBRION = 2
   NSW = 100
   ISIF = 2
   EDIFFG = -0.025
   LASPH = .TRUE.
   LMAXMIX = 4
   LDAU = .FALSE.
   LDIPOL = .TRUE.
   IDIPOL = 3
   DIPOL = 0.5 0.5 0.5
   LWAVE = .FALSE.
   LCHARG = .FALSE.

 POTCAR:    PAW_PBE Cr 06Sep2000                  
 POTCAR:    PAW_PBE Cl 06Sep2000                  
 POTCAR:    PAW_PBE H 15Jun2001                   
 POTCAR:    PAW_PBE Cr 06Sep2000                  
   SHA256 =  56e7271fac8042f322b235801e26979132a24da65eb043fa6a03029023cb2fcc Cr/POTCAR             
   COPYR  = (c) Copyright 06Sep2000 Georg Kresse                                                    
   COPYR  = This file is part of the software VASP. Any use, copying, and all other rights are regul
   COPYR  = If you do not have a valid VASP license, you may not use, copy or distribute this file. 
   VRHFIN =Cr : d5 s1                                                                               
   LEXCH  = PE                                                                                      
   EATOM  =   276.8859 eV,   20.3505 Ry                                                             
                                                                                                    
   TITEL  = PAW_PBE Cr 06Sep2000                                                                    
   LULTRA =        F    use ultrasoft PP ?                                                          
   IUNSCR =        1    unscreen: 0-lin 1-nonlin 2-no                                               
   RPACOR =    2.080    partial core radius                                                         
   POMASS =   51.996; ZVAL   =    6.000    mass and valenz                                          
   RCORE  =    2.500    outmost cutoff radius                                                       
   RWIGS  =    2.500; RWIGS  =    1.323    wigner-seitz radius (au A)                               
   ENMAX  =  227.080; ENMIN  =  170.310 eV                                                          
   RCLOC  =    1.721    cutoff for local pot                                                        
   LCOR   =        T    correct aug charges                                                         
   LPAW   =        T    paw PP                                                                      
   EAUG   =  402.108                                                                                
   DEXC   =    0.000                                                                                
   RMAX   =    2.552    core radius for proj-oper                                                   
   RAUG   =    1.300    factor for augmentation sphere                                              
   RDEP   =    2.609    radius for radial grids                                                     
   RDEPT  =    2.065    core radius for aug-charge                                                  
                                                                                                    
   Atomic configuration                                                                             
    9 entries                                                                                       
     n  l   j            E        occ.                                                              
     1  0  0.50     -5880.4963   2.0000                                                             
     2  0  0.50      -667.0865   2.0000                                                             
     2  1  1.50      -560.6250   6.0000                                                             
     3  0  0.50       -73.9860   2.0000                                                             
     3  1  1.50       -45.4378   6.0000                                                             
     3  2  2.50        -2.9137   5.0000                                                             
     4  0  0.50        -4.0071   1.0000                                                             
     4  1  0.50        -1.2789   0.0000                                                             
     4  3  2.50        -1.3606   0.0000                                                             
   Description                                                                                      
     l       E           TYP  RCUT    TYP  RCUT                                                     
     2     -2.9136677     23  2.500                                                                 
     2     -4.2742503     23  2.500                                                                 
     0     -4.0071322     23  2.500                                                                 
     0      9.4498801     23  2.500                                                                 
     1     -5.4423304     23  2.500                                                                 
     1     27.2116520     23  2.500                                                                 
  local pseudopotential read in
  partial core-charges read in
  partial kinetic energy density read in
  atomic valenz-charges read in
  non local Contribution for L=           2  read in
    real space projection operators read in
  non local Contribution for L=           2  read in
    real space projection operators read in
  non local Contribution for L=           0  read in
    real space projection operators read in
  non local Contribution for L=           0  read in
    real space projection operators read in
  non local Contribution for L=           1  read in
    real space projection operators read in
  non local Contribution for L=           1  read in
    real space projection operators read in
    PAW grid and wavefunctions read in
 
   number of l-projection  operators is LMAX  =           6
   number of lm-projection operators is LMMAX =          18
 
 POTCAR:    PAW_PBE Cl 06Sep2000                  
   SHA256 =  9f1b6e6ed4247ac726a768b330d26d7667cc3c95a39ff49c1d064c2d9dcce931 Cl/POTCAR             
   COPYR  = (c) Copyright 06Sep2000 Georg Kresse                                                    
   COPYR  = This file is part of the software VASP. Any use, copying, and all other rights are regul
   COPYR  = If you do not have a valid VASP license, you may not use, copy or distribute this file. 
   VRHFIN =Cl: s2p5                                                                                 
   LEXCH  = PE                                                                                      
   EATOM  =   409.7259 eV,   30.1140 Ry                                                             
                                                                                                    
   TITEL  = PAW_PBE Cl 06Sep2000                                                                    
   LULTRA =        F    use ultrasoft PP ?                                                          
   IUNSCR =        1    unscreen: 0-lin 1-nonlin 2-no                                               
   RPACOR =    1.500    partial core radius                                                         
   POMASS =   35.453; ZVAL   =    7.000    mass and valenz                                          
   RCORE  =    1.900    outmost cutoff radius                                                       
   RWIGS  =    2.100; RWIGS  =    1.111    wigner-seitz radius (au A)                               
   ENMAX  =  262.472; ENMIN  =  196.854 eV                                                          
   ICORE  =        2    local potential                                                             
   LCOR   =        T    correct aug charges                                                         
   LPAW   =        T    paw PP                                                                      
   EAUG   =  356.192                                                                                
   DEXC   =    0.000                                                                                
   RMAX   =    1.945    core radius for proj-oper                                                   
   RAUG   =    1.300    factor for augmentation sphere                                              
   RDEP   =    2.020    radius for radial grids                                                     
   RDEPT  =    1.678    core radius for aug-charge                                                  
                                                                                                    
   Atomic configuration                                                                             
    6 entries                                                                                       
     n  l   j            E        occ.                                                              
     1  0  0.50     -2751.1850   2.0000                                                             
     2  0  0.50      -252.6861   2.0000                                                             
     2  1  1.50      -191.6157   6.0000                                                             
     3  0  0.50       -20.6916   2.0000                                                             
     3  1  0.50        -8.5949   5.0000                                                             
     3  2  1.50        -8.1635   0.0000                                                             
   Description                                                                                      
     l       E           TYP  RCUT    TYP  RCUT                                                     
     0    -20.6915656     23  1.900                                                                 
     0    -22.0521482     23  1.900                                                                 
     1     -8.5948577     23  1.900                                                                 
     1     -5.3847331     23  1.900                                                                 
     2     -8.1634956     23  1.900                                                                 
  local pseudopotential read in
  partial core-charges read in
  partial kinetic energy density read in
  atomic valenz-charges read in
  non local Contribution for L=           0  read in
    real space projection operators read in
  non local Contribution for L=           0  read in
    real space projection operators read in
  non local Contribution for L=           1  read in
    real space projection operators read in
  non local Contribution for L=           1  read in
    real space projection operators read in
    PAW grid and wavefunctions read in
 
   number of l-projection  operators is LMAX  =           4
   number of lm-projection operators is LMMAX =           8
 
 POTCAR:    PAW_PBE H 15Jun2001                   
   SHA256 =  030f79b5d3ab3cf0e668861823c8fb652ff669f3e15e46930bd03bfd63a607b6 H/POTCAR              
   COPYR  = (c) Copyright 15Jun2001 Georg Kresse                                                    
   COPYR  = This file is part of the software VASP. Any use, copying, and all other rights are regul
   COPYR  = If you do not have a valid VASP license, you may not use, copy or distribute this file. 
   VRHFIN =H: ultrasoft test                                                                        
   LEXCH  = PE                                                                                      
   EATOM  =    12.4884 eV,    0.9179 Ry                                                             
                                                                                                    
   TITEL  = PAW_PBE H 15Jun2001                                                                     
   LULTRA =        F    use ultrasoft PP ?                                                          
   IUNSCR =        0    unscreen: 0-lin 1-nonlin 2-no                                               
   RPACOR =    0.000    partial core radius                                                         
   POMASS =    1.000; ZVAL   =    1.000    mass and valenz                                          
   RCORE  =    1.100    outmost cutoff radius                                                       
   RWIGS  =    0.700; RWIGS  =    0.370    wigner-seitz radius (au A)                               
   ENMAX  =  250.000; ENMIN  =  200.000 eV                                                          
   RCLOC  =    0.701    cutoff for local pot                                                        
   LCOR   =        T    correct aug charges                                                         
   LPAW   =        T    paw PP                                                                      
   EAUG   =  400.000                                                                                
   RMAX   =    1.123    core radius for proj-oper                                                   
   RAUG   =    1.200    factor for augmentation sphere                                              
   RDEP   =    1.112    radius for radial grids                                                     
   RDEPT  =    0.926    core radius for aug-charge                                                  
                                                                                                    
   Atomic configuration                                                                             
    2 entries                                                                                       
     n  l   j            E        occ.                                                              
     1  0  0.50        -6.4927   1.0000                                                             
     2  1  0.50        -3.4015   0.0000                                                             
   Description                                                                                      
     l       E           TYP  RCUT    TYP  RCUT                                                     
     0     -6.4927494     23  1.100                                                                 
     0      6.8029130     23  1.100                                                                 
     1     -4.0817478     23  1.100                                                                 
  local pseudopotential read in
  atomic valenz-charges read in
  non local Contribution for L=           0  read in
    real space projection operators read in
  non local Contribution for L=           0  read in
    real space projection operators read in
  non local Contribution for L=           1  read in
    real space projection operators read in
    PAW grid and wavefunctions read in
 
   number of l-projection  operators is LMAX  =           3
   number of lm-projection operators is LMMAX =           5
 
 Optimization of the real space projectors (new method)

 maximal supplied QI-value         = 15.12
 optimisation between [QCUT,QGAM] = [ 10.13, 20.41] = [ 28.73,116.64] Ry 
 Optimized for a Real-space Cutoff    1.55 Angstroem

   l    n(q)    QCUT    max X(q) W(low)/X(q) W(high)/X(q)  e(spline) 
   2      9    10.129    94.395    0.23E-03    0.29E-03    0.30E-06
   2      9    10.129    88.078    0.23E-03    0.29E-03    0.30E-06
   0      9    10.129    50.173    0.57E-04    0.58E-04    0.11E-06
   0      9    10.129    24.906    0.50E-04    0.51E-04    0.96E-07
   1      9    10.129    12.133    0.24E-03    0.21E-04    0.16E-06
   1      9    10.129     7.290    0.17E-03    0.12E-04    0.12E-06
 Optimization of the real space projectors (new method)

 maximal supplied QI-value         = 19.84
 optimisation between [QCUT,QGAM] = [ 10.12, 20.44] = [ 28.68,116.96] Ry 
 Optimized for a Real-space Cutoff    1.42 Angstroem

   l    n(q)    QCUT    max X(q) W(low)/X(q) W(high)/X(q)  e(spline) 
   0      9    10.119   168.010    0.50E-04    0.84E-04    0.57E-07
   0      9    10.119   164.674    0.49E-04    0.82E-04    0.55E-07
   1      8    10.119    69.222    0.16E-03    0.16E-03    0.24E-06
   1      8    10.119    56.786    0.16E-03    0.16E-03    0.23E-06
 Optimization of the real space projectors (new method)

 maximal supplied QI-value         = 34.20
 optimisation between [QCUT,QGAM] = [  9.92, 20.18] = [ 27.55,114.04] Ry 
 Optimized for a Real-space Cutoff    1.34 Angstroem

   l    n(q)    QCUT    max X(q) W(low)/X(q) W(high)/X(q)  e(spline) 
   0      8     9.919    19.460    0.16E-03    0.20E-03    0.36E-06
   0      8     9.919    12.209    0.16E-03    0.20E-03    0.35E-06
   1      8     9.919     4.655    0.19E-03    0.46E-03    0.40E-06
  PAW_PBE Cr 06Sep2000                  :
 energy of atom  1       EATOM= -276.8859
 kinetic energy error for atom=    0.0018 (will be added to EATOM!!)
  PAW_PBE Cl 06Sep2000                  :
 energy of atom  2       EATOM= -409.7259
 kinetic energy error for atom=    0.0089 (will be added to EATOM!!)
  PAW_PBE H 15Jun2001                   :
 energy of atom  3       EATOM=  -12.4884
 kinetic energy error for atom=    0.0098 (will be added to EATOM!!)
 
 
 POSCAR: CrCl3 1x1 + H S3 top-Cr (D3, U=0) (a=6.0
  positions in direct lattice
  velocities in cartesian coordinates
 IVDW         = 12
 VDW_S6       =    1.0000
 VDW_S8       =    0.7875
 VDW_A1       =    0.4289
 VDW_A2       =    4.4407
 VDW_RADIUS   =   50.2022 A
 VDW_CNRADIUS =   21.1671 A


 exchange-correlation table for PE
   RHO(1)=    0.500       N(1)  =     2000
   RHO(2)=  100.500       N(2)  =     4000
 


--------------------------------------------------------------------------------------------------------


 ion  position               nearest neighbor table
   1  0.333  0.667  0.496-   5 2.34   4 2.34   3 2.34   8 2.34   6 2.34   7 2.34
   2  0.667  0.333  0.506-   9 1.55   3 2.38   5 2.38   4 2.38   8 2.38   7 2.38   6 2.38
   3  0.366  0.008  0.434-   1 2.34   2 2.38
   4  0.992  0.358  0.434-   1 2.34   2 2.38
   5  0.642  0.634  0.434-   1 2.34   2 2.38
   6  0.654  0.982  0.564-   1 2.34   2 2.38
   7  0.018  0.672  0.564-   1 2.34   2 2.38
   8  0.328  0.346  0.564-   1 2.34   2 2.38
   9  0.667  0.333  0.583-   2 1.55
 
  LATTYP: Found a hexagonal cell.
 ALAT       =     6.0462744985
 C/A-ratio  =     3.3078220324
  
  Lattice vectors:
  
 A1 = (   6.0462744985,   0.0000000000,   0.0000000000)
 A2 = (  -3.0231372493,   5.2362273140,   0.0000000000)
 A3 = (   0.0000000000,   0.0000000000,  20.0000000000)


Analysis of symmetry for initial positions (statically):
=====================================================================
 Subroutine PRICEL returns:
 Original cell was already a primitive cell.
 

 Routine SETGRP: Setting up the symmetry group for a 
 hexagonal supercell.


 Subroutine GETGRP returns: Found  3 space group operations
 (whereof  3 operations were pure point group operations)
 out of a pool of 24 trial point group operations.


The static configuration has the point symmetry C_3 .


Analysis of symmetry for dynamics (positions and initial velocities):
=====================================================================
 Subroutine PRICEL returns:
 Original cell was already a primitive cell.
 

 Routine SETGRP: Setting up the symmetry group for a 
 hexagonal supercell.


 Subroutine GETGRP returns: Found  3 space group operations
 (whereof  3 operations were pure point group operations)
 out of a pool of 24 trial point group operations.


The dynamic configuration has the point symmetry C_3 .


Analysis of structural, dynamic, and magnetic symmetry:
=====================================================================
 Subroutine PRICEL returns:
 Original cell was already a primitive cell.
 

 Routine SETGRP: Setting up the symmetry group for a 
 hexagonal supercell.


 Subroutine GETGRP returns: Found  3 space group operations
 (whereof  3 operations were pure point group operations)
 out of a pool of 24 trial point group operations.


The overall configuration has the point symmetry C_3 .


 Subroutine INISYM returns: Found  3 space group operations
 (whereof  3 operations are pure point group operations),
 and found     1 'primitive' translations


----------------------------------------------------------------------------------------

                                     Primitive cell                                     

  volume of cell :     633.1934

  direct lattice vectors                    reciprocal lattice vectors
     6.046274499  0.000000000  0.000000000     0.165391102  0.095488597  0.000000000
    -3.023137249  5.236227314  0.000000000     0.000000000  0.190977194  0.000000000
     0.000000000  0.000000000 20.000000000     0.000000000  0.000000000  0.050000000

  length of vectors
     6.046274499  6.046274499 20.000000000     0.190977194  0.190977194  0.050000000

  position of ions in fractional coordinates (direct lattice)
     0.333333333  0.666666667  0.496389561
     0.666666667  0.333333333  0.505904512
     0.366184185  0.007925964  0.433773353
     0.992074036  0.358258221  0.433773353
     0.641741779  0.633815815  0.433773353
     0.653832427  0.982061083  0.563505295
     0.017938917  0.671771344  0.563505295
     0.328228656  0.346167573  0.563505295
     0.666666667  0.333333333  0.583369983

  ion indices of the primitive-cell ions
   primitive index   ion index
                 1           1
                 2           2
                 3           3
                 4           4
                 5           5
                 6           6
                 7           7
                 8           8
                 9           9

----------------------------------------------------------------------------------------

 
 
 KPOINTS: K-Points 5x5x1 Gamma-centered           

Automatic generation of k-mesh.
 Grid dimensions read from file:
 generate k-points for:    5    5    1

 Generating k-lattice:

  Cartesian coordinates                     Fractional coordinates (reciprocal lattice)
     0.033078220  0.019097719  0.000000000     0.200000000  0.000000000  0.000000000
     0.000000000  0.038195439  0.000000000     0.000000000  0.200000000  0.000000000
     0.000000000  0.000000000  0.050000000     0.000000000  0.000000000  1.000000000

  Length of vectors
     0.038195439  0.038195439  0.050000000

  Shift w.r.t. Gamma in fractional coordinates (k-lattice)
     0.000000000  0.000000000  0.000000000

 
 Subroutine IBZKPT returns following result:
 ===========================================
 
 Found      5 irreducible k-points:
 
 Following reciprocal coordinates:
            Coordinates               Weight
  0.000000  0.000000  0.000000      1.000000
  0.200000  0.000000  0.000000      6.000000
  0.400000  0.000000  0.000000      6.000000
  0.200000  0.200000  0.000000      6.000000
  0.400000  0.200000  0.000000      6.000000
 
 Following cartesian coordinates:
            Coordinates               Weight
  0.000000  0.000000  0.000000      1.000000
  0.033078  0.019098  0.000000      6.000000
  0.066156  0.038195  0.000000      6.000000
  0.033078  0.057293  0.000000      6.000000
  0.066156  0.076391  0.000000      6.000000
 


--------------------------------------------------------------------------------------------------------




 Dimension of arrays:
   k-points           NKPTS =      5   k-points in BZ     NKDIM =      5   number of bands    NBANDS=     36
   number of dos      NEDOS =    301   number of ions     NIONS =      9
   non local maximal  LDIM  =      6   non local SUM 2l+1 LMDIM =     18
   total plane-waves  NPLWV = 224000
   max r-space proj   IRMAX =   5608   max aug-charges    IRDMAX=  18270
   dimension x,y,z NGX =    40 NGY =   40 NGZ =  140
   dimension x,y,z NGXF=    80 NGYF=   80 NGZF=  280
   support grid    NGXF=    80 NGYF=   80 NGZF=  280
   ions per type =               2   6   1
   NGX,Y,Z   is equivalent  to a cutoff of  11.00, 11.00, 11.64 a.u.
   NGXF,Y,Z  is equivalent  to a cutoff of  22.00, 22.00, 23.27 a.u.

 SYSTEM =  CrCl3 1x1 + H (S3 top-Cr) (D3, U=0eV)   
 POSCAR =  CrCl3 1x1 + H S3 top-Cr (D3, U=0) (a=6.0

 Startparameter for this run:
   NWRITE =      2    write-flag & timer
   PREC   = accura    normal or accurate (medium, high low for compatibility)
   ISTART =      0    job   : 0-new  1-cont  2-samecut
   ICHARG =      2    charge: 1-file 2-atom 10-const
   ISPIN  =      2    spin polarized calculation?
   LNONCOLLINEAR =      F non collinear calculations
   LSORBIT =      F    spin-orbit coupling
   INIWAV =      1    electr: 0-lowe 1-rand  2-diag
   LASPH  =      T    aspherical Exc in radial PAW
 Electronic Relaxation 1
   ENCUT  =  400.0 eV  29.40 Ry    5.42 a.u.   9.86  9.86 32.61*2*pi/ulx,y,z
   ENINI  =  400.0     initial cutoff
   ENAUG  =  402.1 eV  augmentation charge cutoff
   NELM   =    100;   NELMIN=  2; NELMDL= -5     # of ELM steps 
   EDIFF  = 0.1E-05   stopping-criterion for ELM
   LREAL  =      T    real-space projection
   NLSPLINE    = F    spline interpolate recip. space projectors
   LCOMPAT=      F    compatible to vasp.4.4
   GGA_COMPAT  = T    GGA compatible to vasp.4.4-vasp.4.6
   LMAXPAW     = -100 max onsite density
   LMAXMIX     =    4 max onsite mixed and CHGCAR
   VOSKOWN=      0    Vosko Wilk Nusair interpolation
   ROPT   =   -0.00025  -0.00025  -0.00025
 Ionic relaxation
   EDIFFG = -.3E-01   stopping-criterion for IOM
   NSW    =    100    number of steps for IOM
   NBLOCK =      1;   KBLOCK =    100    inner block; outer block 
   IBRION =      2    ionic relax: 0-MD 1-quasi-New 2-CG
   NFREE  =      1    steps in history (QN), initial steepest desc. (CG)
   ISIF   =      2    stress and relaxation
   IWAVPR =     11    prediction:  0-non 1-charg 2-wave 3-comb
   ISYM   =      2    0-nonsym 1-usesym 2-fastsym
   LCORR  =      T    Harris-Foulkes like correction to forces

   POTIM  = 0.5000    time-step for ionic-motion
   TEIN   =    0.0    initial temperature
   TEBEG  =    0.0;   TEEND  =   0.0 temperature during run
   SMASS  =  -3.00    Nose mass-parameter (am)
   estimated Nose-frequenzy (Omega)   =  0.10E-29 period in steps = 0.13E+47 mass=  -0.835E-27a.u.
   SCALEE = 1.0000    scale energy and forces
   NPACO  =    256;   APACO  = 10.0  distance and # of slots for P.C.
   PSTRESS=    0.0 pullay stress

  Mass of Ions in am
   POMASS =  52.00 35.45  1.00
  Ionic Valenz
   ZVAL   =   6.00  7.00  1.00
  Atomic Wigner-Seitz radii
   RWIGS  =  -1.00 -1.00 -1.00
  virtual crystal weights 
   VCA    =   1.00  1.00  1.00
   NELECT =      55.0000    total number of electrons
   NUPDOWN=      -1.0000    fix difference up-down

 DOS related values:
   EMIN   =  10.00;   EMAX   =-10.00  energy-range for DOS
   EFERMI =   0.00;   METHOD = LEGACY      
   ISMEAR =     0;   SIGMA  =   0.05  broadening in eV -4-tet -1-fermi 0-gaus
   EFERMI_NEDOS =   21; number of points for ismear=-14 and -15

 Electronic relaxation 2 (details)
   IALGO  =     38    algorithm
   LDIAG  =      T    sub-space diagonalisation (order eigenvalues)
   LSUBROT=      F    optimize rotation matrix (better conditioning)
   LROBUST=      F    robust break criterion during scf (extrapolated energy error)
   ISEARCH=      0    line search for conjugate gradient (0, 1=use gradient)
   TURBO    =      0    0=normal 1=particle mesh
   IRESTART =      0    0=no restart 2=restart with 2 vectors
   NREBOOT  =      0    no. of reboots
   NMIN     =      0    reboot dimension
   EREF     =   0.00    reference energy to select bands
   IMIX   =      4    mixing-type and parameters
     AMIX     =   0.40;   BMIX     =  1.00
     AMIX_MAG =   1.60;   BMIX_MAG =  1.00
     AMIN     =   0.10
     WC   =   100.;   INIMIX=   1;  MIXPRE=   1;  MAXMIX= -45

 Intra band minimization:
   WEIMIN = 0.0010     energy-eigenvalue tresh-hold
   EBREAK =  0.69E-08  absolut break condition
   DEPER  =   0.30     relativ break condition  

   TIME   =   0.40     timestep for ELM

  volume/ion in A,a.u.               =      70.35       474.78
  Fermi-wavevector in a.u.,A,eV,Ry     =   0.725020  1.370090  7.151966  0.525655
  Thomas-Fermi vector in A             =   1.815637
 
 Write flags
   LWAVE        =      F    write WAVECAR
   LDOWNSAMPLE  =      F    k-point downsampling of WAVECAR
   LCHARG       =      F    write CHGCAR
   LVTOT        =      F    write LOCPOT, total local potential
   LVHAR        =      F    write LOCPOT, Hartree potential only
   WRT_POTENTIAL= false  ! write potential to hdf5 file
   LELF         =      F    write electronic localiz. function (ELF)
   LORBIT       =      0    0 simple, 1 ext, 2 COOP (PROOUT), +10 PAW based schemes


 Python interface
   PLUGINS active      =      F    recompile with -DPLUGINS to activate
 
 Dipole corrections
   LMONO      =      F    monopole corrections only (constant potential shift)
   LDIPOL     =      T    correct potential (dipole corrections)
   IDIPOL     =      3    1-x, 2-y, 3-z, 4-all directions 
   EPSILON    =  1.0000000 bulk dielectric constant
   LVACPOTAV  =      F  vacuum potentials using an averaging scheme for the charge density
   VACPOTFLAT =  0.1000000 required flatness to determine vacuum potential
 
Coulomb truncation method
  LTRUNCATE          =      F  Coulomb kernel truncation to be used

 
 Exchange correlation treatment:
   GGA     = PE    functional components
   XC_C    = 1    coefficients multiplying the functional components
   LIBXC   =     F    Libxc                    
   VOSKOWN =     0    Vosko Wilk Nusair interpolation
   LHFCALC =     F    Hartree Fock is set to
   LHFONE  =     F    Hartree Fock one center treatment
   AEXX    =    0.0000 exact exchange contribution

 Parameters of functionals:
   PE:
     No parameter
 
 Van der Waals corrections
   IVDW    =    12    specifies the selected vdW correction

 Linear response parameters
   LEPSILON=     F    determine dielectric tensor
   LRPA    =     F    only Hartree local field effects (RPA)
   LNABLA  =     F    use nabla operator in PAW spheres
   LVEL    =     F    velocity operator in full k-point grid
   CSHIFT  =0.1000    complex shift for real part using Kramers Kronig
   OMEGAMAX=  -1.0    maximum frequency
   DEG_THRESHOLD= 0.2000000E-02 threshold for treating states as degnerate
   RTIME   =   -0.100 relaxation time in fs
  (WPLASMAI=    0.000 imaginary part of plasma frequency in eV, 0.658/RTIME)
   DFIELD  = 0.0000000 0.0000000 0.0000000 field for delta impulse in time
 
  Optional k-point grid parameters
   LKPOINTS_OPT  =     F    use optional k-point grid
   KPOINTS_OPT_MODE=     1    mode for optional k-point grid
 
 Orbital magnetization related:
   ORBITALMAG=     F  switch on orbital magnetization
   LCHIMAG   =     F  perturbation theory with respect to B field
   DQ        =  0.001000  dq finite difference perturbation B field
   LLRAUG    =     F  two centre corrections for induced B field
   LBONE     =     F  B-component reconstruction in AE one-centre
   LVGVCALC  =     T  calculate vGv susceptibility
   LVGVAPPL  =     F  apply vGv susceptibility instead of pGv for G=0

 Random number generation:
   RANDOM_GENERATOR = DEFAULT
   PCG_SEED         = not used


--------------------------------------------------------------------------------------------------------


 conjugate gradient relaxation of ions
 charge density and potential will be updated during run
 spin polarized calculation
 Variant of blocked Davidson
 Davidson routine will perform the subspace rotation
 perform sub-space diagonalisation
    after iterative eigenvector-optimisation
 modified Broyden-mixing scheme, WC =      100.0
 initial mixing is a Kerker type mixing with AMIX =  0.4000 and BMIX =      1.0000
 Hartree-type preconditioning will be used
 using additional bands            8
 real space projection scheme for non local part
 use partial core corrections
 calculate Harris-corrections to forces 
   (improved forces if not selfconsistent)
 use gradient corrections 
 use of overlap-Matrix (Vanderbilt PP)
 Gauss-broadening in eV      SIGMA  =   0.05


--------------------------------------------------------------------------------------------------------


  energy-cutoff  :      400.00
  volume of cell :      633.19
      direct lattice vectors                 reciprocal lattice vectors
     6.046274499  0.000000000  0.000000000     0.165391102  0.095488597  0.000000000
    -3.023137249  5.236227314  0.000000000     0.000000000  0.190977194  0.000000000
     0.000000000  0.000000000 20.000000000     0.000000000  0.000000000  0.050000000

  length of vectors
     6.046274499  6.046274499 20.000000000     0.190977194  0.190977194  0.050000000


 
 k-points in units of 2pi/SCALE and weight: K-Points 5x5x1 Gamma-centered           
   0.00000000  0.00000000  0.00000000       0.040
   0.03307822  0.01909772  0.00000000       0.240
   0.06615644  0.03819544  0.00000000       0.240
   0.03307822  0.05729316  0.00000000       0.240
   0.06615644  0.07639088  0.00000000       0.240
 
 k-points in reciprocal lattice and weights: K-Points 5x5x1 Gamma-centered           
   0.00000000  0.00000000  0.00000000       0.040
   0.20000000  0.00000000  0.00000000       0.240
   0.40000000  0.00000000  0.00000000       0.240
   0.20000000  0.20000000  0.00000000       0.240
   0.40000000  0.20000000  0.00000000       0.240
 
 position of ions in fractional coordinates (direct lattice) 
   0.33333333  0.66666667  0.49638956
   0.66666667  0.33333333  0.50590451
   0.36618418  0.00792596  0.43377335
   0.99207404  0.35825822  0.43377335
   0.64174178  0.63381582  0.43377335
   0.65383243  0.98206108  0.56350530
   0.01793892  0.67177134  0.56350530
   0.32822866  0.34616757  0.56350530
   0.66666667  0.33333333  0.58336998
 
 position of ions in cartesian coordinates  (Angst):
   0.00000000  3.49081821  9.92779123
   3.02313725  1.74540910 10.11809023
   2.19008882  0.04150215  8.67546706
   4.91528817  1.87592148  8.67546706
   1.96403475  3.31880368  8.67546706
   0.98434489  5.14229506 11.27010590
  -1.92239335  3.51754746 11.27010590
   0.93804847  1.81261210 11.27010590
   3.02313725  1.74540910 11.66739966
 


--------------------------------------------------------------------------------------------------------


 k-point     1 :   0.0000 0.0000 0.0000  plane waves:   11441
 k-point     2 :   0.2000 0.0000 0.0000  plane waves:   11505
 k-point     3 :   0.4000 0.0000 0.0000  plane waves:   11507
 k-point     4 :   0.2000 0.2000 0.0000  plane waves:   11510
 k-point     5 :   0.4000 0.2000 0.0000  plane waves:   11544

 maximum and minimum number of plane-waves per node :      2906     2836

 maximum number of plane-waves:     11544
 maximum index in each direction: 
   IXMAX=    9   IYMAX=    9   IZMAX=   32
   IXMIN=  -10   IYMIN=  -10   IZMIN=  -32


 real space projection operators:
  total allocation   :       3209.72 KBytes
  max/ min on nodes  :        804.80        800.90


 parallel 3D FFT for wavefunctions:
    minimum data exchange during FFTs selected (reduces bandwidth)
 parallel 3D FFT for charge:
    minimum data exchange during FFTs selected (reduces bandwidth)


 total amount of memory used by VASP MPI-rank0    56042. kBytes
=======================================================================

   base                                    :      30000. kBytes
   nonlr-proj                              :       1846. kBytes
   fftplans                                :       5464. kBytes
   grid                                    :      14406. kBytes
   one-center                              :         93. kBytes
   wavefun                                 :       4233. kBytes
 
     INWAV:  cpu time      0.0000: real time      0.0005
 Broyden mixing: mesh for mixing (old mesh)
   NGX = 19   NGY = 19   NGZ = 65
  (NGX  = 80   NGY  = 80   NGZ  =280)
  gives a total of  23465 points

 initial charge density was supplied:
 charge density of overlapping atoms calculated
 number of electron      55.0000000 magnetization       6.0000000
 keeping initial charge density in first step


--------------------------------------------------------------------------------------------------------


 Maximum index for non-local projection operator         1368
 Maximum index for augmentation-charges         1154 (set IRDMAX)


--------------------------------------------------------------------------------------------------------


 First call to EWALD:  gamma=   0.206
 Maximum number of real-space cells   4x   4x   1
 Maximum number of reciprocal cells   2x   2x   6

    FEWALD:  cpu time      0.0010: real time      0.0010


--------------------------------------- Ionic step        1  -------------------------------------------




--------------------------------------- Iteration      1(   1)  ---------------------------------------


    POTLOK:  cpu time      0.1612: real time      0.1623
    SETDIJ:  cpu time      0.1104: real time      0.1108
     EDDAV:  cpu time      1.0241: real time      1.0331
       DOS:  cpu time      0.0007: real time      0.0007
    --------------------------------------------
      LOOP:  cpu time      1.2963: real time      1.3069

 eigenvalue-minimisations  :   720
 total energy-change (2. order) : 0.5336950E+03  (-0.1570899E+04)
 number of electron      55.0000000 magnetization       6.0000000
 augmentation part       55.0000000 magnetization       6.0000000

 DIPCOR: dipole corrections for dipol
 direction  3 min pos     1,
 dipolmoment           0.000000      0.000000     -0.000006 electrons x Angstroem
 Tr[quadrupol]      -346.540628

 energy correction for charged system         0.000000 eV
 dipol+quadrupol energy correction           -0.000000 eV
 added-field ion interaction          0.000001 eV  (added to PSCEN)


 Free energy of the ion-electron system (eV)
  ---------------------------------------------------
  alpha Z        PSCENC =        27.90262483
  Ewald energy   TEWEN  =      6422.19597870
  -Hartree energ DENC   =     -9105.91352183
  -exchange      EXHF   =         0.00000000
  -V(xc)+E(xc)   XCENC  =        85.43758171
  PAW double counting   =      2506.94697242    -2468.29437008
  entropy T*S    EENTRO =        -0.00956767
  eigenvalues    EBANDS =        40.88056838
  atomic energy  EATOM  =      3024.54869369
  Solvation  Ediel_sol  =         0.00000000
  ---------------------------------------------------
  free energy    TOTEN  =       533.69496016 eV

  energy without entropy =      533.70452783  energy(sigma->0) =      533.69974400


--------------------------------------------------------------------------------------------------------




--------------------------------------- Iteration      1(   2)  ---------------------------------------


     EDDAV:  cpu time      1.2311: real time      1.2424
       DOS:  cpu time      0.0003: real time      0.0003
    --------------------------------------------
      LOOP:  cpu time      1.2314: real time      1.2427

 eigenvalue-minimisations  :   952
 total energy-change (2. order) :-0.4425119E+03  (-0.4227994E+03)
 number of electron      55.0000000 magnetization       6.0000000
 augmentation part       55.0000000 magnetization       6.0000000

 DIPCOR: dipole corrections for dipol
 direction  3 min pos     1,
 dipolmoment           0.000000      0.000000     -0.000006 electrons x Angstroem
 Tr[quadrupol]      -346.540628

 energy correction for charged system         0.000000 eV
 dipol+quadrupol energy correction           -0.000000 eV
 added-field ion interaction          0.000001 eV  (added to PSCEN)


 Free energy of the ion-electron system (eV)
  ---------------------------------------------------
  alpha Z        PSCENC =        27.90262483
  Ewald energy   TEWEN  =      6422.19597870
  -Hartree energ DENC   =     -9105.91352183
  -exchange      EXHF   =         0.00000000
  -V(xc)+E(xc)   XCENC  =        85.43758171
  PAW double counting   =      2506.94697242    -2468.29437008
  entropy T*S    EENTRO =        -0.00594001
  eigenvalues    EBANDS =      -401.63491620
  atomic energy  EATOM  =      3024.54869369
  Solvation  Ediel_sol  =         0.00000000
  ---------------------------------------------------
  free energy    TOTEN  =        91.18310324 eV

  energy without entropy =       91.18904325  energy(sigma->0) =       91.18607324


--------------------------------------------------------------------------------------------------------




--------------------------------------- Iteration      1(   3)  ---------------------------------------


     EDDAV:  cpu time      1.3604: real time      1.3725
       DOS:  cpu time      0.0002: real time      0.0002
    --------------------------------------------
      LOOP:  cpu time      1.3605: real time      1.3726

 eigenvalue-minimisations  :  1080
 total energy-change (2. order) :-0.1279590E+03  (-0.1250447E+03)
 number of electron      55.0000000 magnetization       6.0000000
 augmentation part       55.0000000 magnetization       6.0000000

 DIPCOR: dipole corrections for dipol
 direction  3 min pos     1,
 dipolmoment           0.000000      0.000000     -0.000006 electrons x Angstroem
 Tr[quadrupol]      -346.540628

 energy correction for charged system         0.000000 eV
 dipol+quadrupol energy correction           -0.000000 eV
 added-field ion interaction          0.000001 eV  (added to PSCEN)


 Free energy of the ion-electron system (eV)
  ---------------------------------------------------
  alpha Z        PSCENC =        27.90262483
  Ewald energy   TEWEN  =      6422.19597870
  -Hartree energ DENC   =     -9105.91352183
  -exchange      EXHF   =         0.00000000
  -V(xc)+E(xc)   XCENC  =        85.43758171
  PAW double counting   =      2506.94697242    -2468.29437008
  entropy T*S    EENTRO =        -0.00000000
  eigenvalues    EBANDS =      -529.59982301
  atomic energy  EATOM  =      3024.54869369
  Solvation  Ediel_sol  =         0.00000000
  ---------------------------------------------------
  free energy    TOTEN  =       -36.77586356 eV

  energy without entropy =      -36.77586356  energy(sigma->0) =      -36.77586356


--------------------------------------------------------------------------------------------------------




--------------------------------------- Iteration      1(   4)  ---------------------------------------


     EDDAV:  cpu time      1.2559: real time      1.2673
       DOS:  cpu time      0.0002: real time      0.0002
    --------------------------------------------
      LOOP:  cpu time      1.2560: real time      1.2675

 eigenvalue-minimisations  :   980
 total energy-change (2. order) :-0.8531405E+01  (-0.8418491E+01)
 number of electron      55.0000000 magnetization       6.0000000
 augmentation part       55.0000000 magnetization       6.0000000

 DIPCOR: dipole corrections for dipol
 direction  3 min pos     1,
 dipolmoment           0.000000      0.000000     -0.000006 electrons x Angstroem
 Tr[quadrupol]      -346.540628

 energy correction for charged system         0.000000 eV
 dipol+quadrupol energy correction           -0.000000 eV
 added-field ion interaction          0.000001 eV  (added to PSCEN)


 Free energy of the ion-electron system (eV)
  ---------------------------------------------------
  alpha Z        PSCENC =        27.90262483
  Ewald energy   TEWEN  =      6422.19597870
  -Hartree energ DENC   =     -9105.91352183
  -exchange      EXHF   =         0.00000000
  -V(xc)+E(xc)   XCENC  =        85.43758171
  PAW double counting   =      2506.94697242    -2468.29437008
  entropy T*S    EENTRO =        -0.00000000
  eigenvalues    EBANDS =      -538.13122761
  atomic energy  EATOM  =      3024.54869369
  Solvation  Ediel_sol  =         0.00000000
  ---------------------------------------------------
  free energy    TOTEN  =       -45.30726815 eV

  energy without entropy =      -45.30726815  energy(sigma->0) =      -45.30726815


--------------------------------------------------------------------------------------------------------




--------------------------------------- Iteration      1(   5)  ---------------------------------------


     EDDAV:  cpu time      1.3246: real time      1.3364
       DOS:  cpu time      0.0002: real time      0.0002
    CHARGE:  cpu time      0.0732: real time      0.0736
    MIXING:  cpu time      0.0066: real time      0.0066
    --------------------------------------------
      LOOP:  cpu time      1.4045: real time      1.4169

 eigenvalue-minimisations  :  1048
 total energy-change (2. order) :-0.2618357E+00  (-0.2610086E+00)
 number of electron      55.0000011 magnetization       5.8562717
 augmentation part       -2.2821826 magnetization       3.7657182

 DIPCOR: dipole corrections for dipol
 direction  3 min pos     1,
 dipolmoment           0.000000      0.000000     -0.000006 electrons x Angstroem
 Tr[quadrupol]      -346.540628

 energy correction for charged system         0.000000 eV
 dipol+quadrupol energy correction           -0.000000 eV
 added-field ion interaction          0.000001 eV  (added to PSCEN)


 Broyden mixing:
  rms(total) = 0.23278E+01    rms(broyden)= 0.23274E+01
  rms(prec ) = 0.24528E+01
  weight for this iteration     100.00

 Free energy of the ion-electron system (eV)
  ---------------------------------------------------
  alpha Z        PSCENC =        27.90262483
  Ewald energy   TEWEN  =      6422.19597870
  -Hartree energ DENC   =     -9105.91352183
  -exchange      EXHF   =         0.00000000
  -V(xc)+E(xc)   XCENC  =        85.43758171
  PAW double counting   =      2506.94697242    -2468.29437008
  entropy T*S    EENTRO =        -0.00000000
  eigenvalues    EBANDS =      -538.39306329
  atomic energy  EATOM  =      3024.54869369
  Solvation  Ediel_sol  =         0.00000000
  ---------------------------------------------------
  free energy    TOTEN  =       -45.56910383 eV

  energy without entropy =      -45.56910383  energy(sigma->0) =      -45.56910383


--------------------------------------------------------------------------------------------------------




--------------------------------------- Iteration      1(   6)  ---------------------------------------


    POTLOK:  cpu time      0.1559: real time      0.1569
    SETDIJ:  cpu time      0.1083: real time      0.1087
     EDDAV:  cpu time      1.3555: real time      1.3680
       DOS:  cpu time      0.0002: real time      0.0002
    CHARGE:  cpu time      0.0724: real time      0.0729
    MIXING:  cpu time      0.0055: real time      0.0056
    --------------------------------------------
      LOOP:  cpu time      1.6979: real time      1.7123

 eigenvalue-minimisations  :  1076
 total energy-change (2. order) : 0.4214102E+00  (-0.5467738E+01)
 number of electron      55.0000010 magnetization       5.8016382
 augmentation part        1.8607930 magnetization       4.0144769

 DIPCOR: dipole corrections for dipol
 direction  3 min pos     1,
 dipolmoment           0.000000      0.000000      0.060059 electrons x Angstroem
 Tr[quadrupol]      -346.189841

 energy correction for charged system         0.000000 eV
 dipol+quadrupol energy correction           -0.000515 eV
 added-field ion interaction         -0.013726 eV  (added to PSCEN)


 Broyden mixing:
  rms(total) = 0.26097E+01    rms(broyden)= 0.26095E+01
  rms(prec ) = 0.27966E+01
  weight for this iteration     100.00

 eigenvalues of (default mixing * dielectric matrix)
  average eigenvalue GAMMA=   0.3422
  0.3422

 Free energy of the ion-electron system (eV)
  ---------------------------------------------------
  alpha Z        PSCENC =        27.88838199
  Ewald energy   TEWEN  =      6422.19597870
  -Hartree energ DENC   =     -9089.00440609
  -exchange      EXHF   =         0.00000000
  -V(xc)+E(xc)   XCENC  =        87.82285934
  PAW double counting   =      2898.60648547    -2854.79629302
  entropy T*S    EENTRO =        -0.00000000
  eigenvalues    EBANDS =      -562.40939378
  atomic energy  EATOM  =      3024.54869369
  Solvation  Ediel_sol  =         0.00000000
  ---------------------------------------------------
  free energy    TOTEN  =       -45.14769368 eV

  energy without entropy =      -45.14769368  energy(sigma->0) =      -45.14769368


--------------------------------------------------------------------------------------------------------




--------------------------------------- Iteration      1(   7)  ---------------------------------------


    POTLOK:  cpu time      0.1537: real time      0.1547
    SETDIJ:  cpu time      0.1107: real time      0.1111
     EDDAV:  cpu time      1.2752: real time      1.2867
       DOS:  cpu time      0.0003: real time      0.0003
    CHARGE:  cpu time      0.0722: real time      0.0726
    MIXING:  cpu time      0.0056: real time      0.0056
    --------------------------------------------
      LOOP:  cpu time      1.6177: real time      1.6311

 eigenvalue-minimisations  :  1000
 total energy-change (2. order) : 0.4183200E+01  (-0.1731223E+01)
 number of electron      55.0000010 magnetization       5.6785249
 augmentation part       -0.9336470 magnetization       4.0231364

 DIPCOR: dipole corrections for dipol
 direction  3 min pos     1,
 dipolmoment           0.000000      0.000000      0.002654 electrons x Angstroem
 Tr[quadrupol]      -346.591974

 energy correction for charged system         0.000000 eV
 dipol+quadrupol energy correction           -0.000001 eV
 added-field ion interaction         -0.000607 eV  (added to PSCEN)


 Broyden mixing:
  rms(total) = 0.11463E+01    rms(broyden)= 0.11461E+01
  rms(prec ) = 0.11833E+01
  weight for this iteration     100.00

 eigenvalues of (default mixing * dielectric matrix)
  average eigenvalue GAMMA=   0.6891
  1.0356  0.3427

 Free energy of the ion-electron system (eV)
  ---------------------------------------------------
  alpha Z        PSCENC =        27.90201605
  Ewald energy   TEWEN  =      6422.19597870
  -Hartree energ DENC   =     -9105.85396778
  -exchange      EXHF   =         0.00000000
  -V(xc)+E(xc)   XCENC  =        87.15410602
  PAW double counting   =      3083.25921344    -3044.00327670
  entropy T*S    EENTRO =        -0.00000000
  eigenvalues    EBANDS =      -536.16725727
  atomic energy  EATOM  =      3024.54869369
  Solvation  Ediel_sol  =         0.00000000
  ---------------------------------------------------
  free energy    TOTEN  =       -40.96449385 eV

  energy without entropy =      -40.96449385  energy(sigma->0) =      -40.96449385


--------------------------------------------------------------------------------------------------------




--------------------------------------- Iteration      1(   8)  ---------------------------------------


    POTLOK:  cpu time      0.1534: real time      0.1544
    SETDIJ:  cpu time      0.1086: real time      0.1089
     EDDAV:  cpu time      1.3788: real time      1.3913
       DOS:  cpu time      0.0002: real time      0.0002
    CHARGE:  cpu time      0.0713: real time      0.0717
    MIXING:  cpu time      0.0056: real time      0.0056
    --------------------------------------------
      LOOP:  cpu time      1.7179: real time      1.7322

 eigenvalue-minimisations  :  1104
 total energy-change (2. order) : 0.2400014E+00  (-0.5809026E+00)
 number of electron      55.0000010 magnetization       5.5784145
 augmentation part       -0.8351499 magnetization       3.9714558

 DIPCOR: dipole corrections for dipol
 direction  3 min pos     1,
 dipolmoment           0.000000      0.000000     -0.021520 electrons x Angstroem
 Tr[quadrupol]      -346.702586

 energy correction for charged system         0.000000 eV
 dipol+quadrupol energy correction           -0.000066 eV
 added-field ion interaction          0.004918 eV  (added to PSCEN)


 Broyden mixing:
  rms(total) = 0.68860E+00    rms(broyden)= 0.68856E+00
  rms(prec ) = 0.71712E+00
  weight for this iteration     100.00

 eigenvalues of (default mixing * dielectric matrix)
  average eigenvalue GAMMA=   0.7183
  1.3186  0.4181  0.4181

 Free energy of the ion-electron system (eV)
  ---------------------------------------------------
  alpha Z        PSCENC =        27.90747555
  Ewald energy   TEWEN  =      6422.19597870
  -Hartree energ DENC   =     -9106.44849391
  -exchange      EXHF   =         0.00000000
  -V(xc)+E(xc)   XCENC  =        87.83854131
  PAW double counting   =      3485.38486509    -3447.28043805
  entropy T*S    EENTRO =        -0.00000000
  eigenvalues    EBANDS =      -534.87111485
  atomic energy  EATOM  =      3024.54869369
  Solvation  Ediel_sol  =         0.00000000
  ---------------------------------------------------
  free energy    TOTEN  =       -40.72449247 eV

  energy without entropy =      -40.72449247  energy(sigma->0) =      -40.72449247


--------------------------------------------------------------------------------------------------------




--------------------------------------- Iteration      1(   9)  ---------------------------------------


    POTLOK:  cpu time      0.1544: real time      0.1554
    SETDIJ:  cpu time      0.1103: real time      0.1106
     EDDAV:  cpu time      1.3964: real time      1.4092
       DOS:  cpu time      0.0003: real time      0.0003
    CHARGE:  cpu time      0.0728: real time      0.0733
    MIXING:  cpu time      0.0056: real time      0.0057
    --------------------------------------------
      LOOP:  cpu time      1.7397: real time      1.7544

 eigenvalue-minimisations  :  1120
 total energy-change (2. order) : 0.2963660E+00  (-0.1373768E+00)
 number of electron      55.0000010 magnetization       5.4809978
 augmentation part       -0.7006734 magnetization       3.9536131

 DIPCOR: dipole corrections for dipol
 direction  3 min pos     1,
 dipolmoment           0.000000      0.000000     -0.040494 electrons x Angstroem
 Tr[quadrupol]      -346.786853

 energy correction for charged system         0.000000 eV
 dipol+quadrupol energy correction           -0.000234 eV
 added-field ion interaction          0.009255 eV  (added to PSCEN)


 Broyden mixing:
  rms(total) = 0.38152E+00    rms(broyden)= 0.38151E+00
  rms(prec ) = 0.39578E+00
  weight for this iteration     100.00

 eigenvalues of (default mixing * dielectric matrix)
  average eigenvalue GAMMA=   0.8756
  1.9874  0.6856  0.3637  0.4660

 Free energy of the ion-electron system (eV)
  ---------------------------------------------------
  alpha Z        PSCENC =        27.91164395
  Ewald energy   TEWEN  =      6422.19597870
  -Hartree energ DENC   =     -9109.06235728
  -exchange      EXHF   =         0.00000000
  -V(xc)+E(xc)   XCENC  =        88.21411385
  PAW double counting   =      3648.14075737    -3610.18153470
  entropy T*S    EENTRO =        -0.00000000
  eigenvalues    EBANDS =      -532.19542205
  atomic energy  EATOM  =      3024.54869369
  Solvation  Ediel_sol  =         0.00000000
  ---------------------------------------------------
  free energy    TOTEN  =       -40.42812646 eV

  energy without entropy =      -40.42812646  energy(sigma->0) =      -40.42812646


--------------------------------------------------------------------------------------------------------




--------------------------------------- Iteration      1(  10)  ---------------------------------------


    POTLOK:  cpu time      0.1527: real time      0.1537
    SETDIJ:  cpu time      0.1083: real time      0.1086
     EDDAV:  cpu time      1.3636: real time      1.3760
       DOS:  cpu time      0.0005: real time      0.0005
    CHARGE:  cpu time      0.0710: real time      0.0715
    MIXING:  cpu time      0.0062: real time      0.0063
    --------------------------------------------
      LOOP:  cpu time      1.7024: real time      1.7166

 eigenvalue-minimisations  :  1088
 total energy-change (2. order) : 0.3448765E-01  (-0.2796644E-01)
 number of electron      55.0000010 magnetization       5.3791191
 augmentation part       -0.4836149 magnetization       3.8999599

 DIPCOR: dipole corrections for dipol
 direction  3 min pos     1,
 dipolmoment           0.000000      0.000000     -0.045528 electrons x Angstroem
 Tr[quadrupol]      -346.877016

 energy correction for charged system         0.000000 eV
 dipol+quadrupol energy correction           -0.000296 eV
 added-field ion interaction          0.010405 eV  (added to PSCEN)


 Broyden mixing:
  rms(total) = 0.13399E+00    rms(broyden)= 0.13397E+00
  rms(prec ) = 0.13738E+00
  weight for this iteration     100.00

 eigenvalues of (default mixing * dielectric matrix)
  average eigenvalue GAMMA=   0.9370
  2.1876  1.0238  0.5989  0.3543  0.5202

 Free energy of the ion-electron system (eV)
  ---------------------------------------------------
  alpha Z        PSCENC =        27.91273253
  Ewald energy   TEWEN  =      6422.19597870
  -Hartree energ DENC   =     -9111.73700919
  -exchange      EXHF   =         0.00000000
  -V(xc)+E(xc)   XCENC  =        88.52349127
  PAW double counting   =      3747.57060274    -3709.76088416
  entropy T*S    EENTRO =        -0.00000000
  eigenvalues    EBANDS =      -529.64724441
  atomic energy  EATOM  =      3024.54869369
  Solvation  Ediel_sol  =         0.00000000
  ---------------------------------------------------
  free energy    TOTEN  =       -40.39363881 eV

  energy without entropy =      -40.39363881  energy(sigma->0) =      -40.39363881


--------------------------------------------------------------------------------------------------------




--------------------------------------- Iteration      1(  11)  ---------------------------------------


    POTLOK:  cpu time      0.1533: real time      0.1543
    SETDIJ:  cpu time      0.1094: real time      0.1097
     EDDAV:  cpu time      1.3502: real time      1.3625
       DOS:  cpu time      0.0002: real time      0.0002
    CHARGE:  cpu time      0.0727: real time      0.0731
    MIXING:  cpu time      0.0057: real time      0.0058
    --------------------------------------------
      LOOP:  cpu time      1.6915: real time      1.7057

 eigenvalue-minimisations  :  1072
 total energy-change (2. order) :-0.1234919E+00  (-0.5338117E-02)
 number of electron      55.0000010 magnetization       5.3057379
 augmentation part       -0.4977400 magnetization       3.8345222

 DIPCOR: dipole corrections for dipol
 direction  3 min pos     1,
 dipolmoment           0.000000      0.000000     -0.048791 electrons x Angstroem
 Tr[quadrupol]      -346.989490

 energy correction for charged system         0.000000 eV
 dipol+quadrupol energy correction           -0.000340 eV
 added-field ion interaction          0.011151 eV  (added to PSCEN)


 Broyden mixing:
  rms(total) = 0.75588E-01    rms(broyden)= 0.75585E-01
  rms(prec ) = 0.80926E-01
  weight for this iteration     100.00

 eigenvalues of (default mixing * dielectric matrix)
  average eigenvalue GAMMA=   1.0193
  2.4838  1.4846  0.3575  0.5102  0.6399  0.6399

 Free energy of the ion-electron system (eV)
  ---------------------------------------------------
  alpha Z        PSCENC =        27.91343434
  Ewald energy   TEWEN  =      6422.19597870
  -Hartree energ DENC   =     -9114.94674238
  -exchange      EXHF   =         0.00000000
  -V(xc)+E(xc)   XCENC  =        88.59383544
  PAW double counting   =      3769.48917902    -3731.91239670
  entropy T*S    EENTRO =        -0.00000000
  eigenvalues    EBANDS =      -526.39911286
  atomic energy  EATOM  =      3024.54869369
  Solvation  Ediel_sol  =         0.00000000
  ---------------------------------------------------
  free energy    TOTEN  =       -40.51713075 eV

  energy without entropy =      -40.51713075  energy(sigma->0) =      -40.51713075


--------------------------------------------------------------------------------------------------------




--------------------------------------- Iteration      1(  12)  ---------------------------------------


    POTLOK:  cpu time      0.1528: real time      0.1539
    SETDIJ:  cpu time      0.1078: real time      0.1081
     EDDAV:  cpu time      1.3582: real time      1.3706
       DOS:  cpu time      0.0004: real time      0.0004
    CHARGE:  cpu time      0.0714: real time      0.0719
    MIXING:  cpu time      0.0060: real time      0.0060
    --------------------------------------------
      LOOP:  cpu time      1.6966: real time      1.7109

 eigenvalue-minimisations  :  1080
 total energy-change (2. order) :-0.7930797E-01  (-0.2054810E-02)
 number of electron      55.0000010 magnetization       5.2579691
 augmentation part       -0.5239714 magnetization       3.7897853

 DIPCOR: dipole corrections for dipol
 direction  3 min pos     1,
 dipolmoment           0.000000      0.000000     -0.054297 electrons x Angstroem
 Tr[quadrupol]      -347.058775

 energy correction for charged system         0.000000 eV
 dipol+quadrupol energy correction           -0.000421 eV
 added-field ion interaction          0.012409 eV  (added to PSCEN)


 Broyden mixing:
  rms(total) = 0.32709E-01    rms(broyden)= 0.32703E-01
  rms(prec ) = 0.34095E-01
  weight for this iteration     100.00

 eigenvalues of (default mixing * dielectric matrix)
  average eigenvalue GAMMA=   1.0257
  2.5593  1.5845  0.3578  0.7992  0.7729  0.5532  0.5532

 Free energy of the ion-electron system (eV)
  ---------------------------------------------------
  alpha Z        PSCENC =        27.91461152
  Ewald energy   TEWEN  =      6422.19597870
  -Hartree energ DENC   =     -9116.51789035
  -exchange      EXHF   =         0.00000000
  -V(xc)+E(xc)   XCENC  =        88.53023858
  PAW double counting   =      3782.00255104    -3744.50451833
  entropy T*S    EENTRO =        -0.00000000
  eigenvalues    EBANDS =      -524.76610357
  atomic energy  EATOM  =      3024.54869369
  Solvation  Ediel_sol  =         0.00000000
  ---------------------------------------------------
  free energy    TOTEN  =       -40.59643872 eV

  energy without entropy =      -40.59643872  energy(sigma->0) =      -40.59643872


--------------------------------------------------------------------------------------------------------




--------------------------------------- Iteration      1(  13)  ---------------------------------------


    POTLOK:  cpu time      0.1531: real time      0.1542
    SETDIJ:  cpu time      0.1097: real time      0.1100
     EDDAV:  cpu time      1.3249: real time      1.3369
       DOS:  cpu time      0.0002: real time      0.0002
    CHARGE:  cpu time      0.0712: real time      0.0716
    MIXING:  cpu time      0.0059: real time      0.0060
    --------------------------------------------
      LOOP:  cpu time      1.6650: real time      1.6789

 eigenvalue-minimisations  :  1044
 total energy-change (2. order) :-0.5669808E-01  (-0.5186120E-03)
 number of electron      55.0000010 magnetization       5.1814077
 augmentation part       -0.5276466 magnetization       3.7099025

 DIPCOR: dipole corrections for dipol
 direction  3 min pos     1,
 dipolmoment           0.000000      0.000000     -0.056993 electrons x Angstroem
 Tr[quadrupol]      -347.096321

 energy correction for charged system         0.000000 eV
 dipol+quadrupol energy correction           -0.000464 eV
 added-field ion interaction          0.013025 eV  (added to PSCEN)


 Broyden mixing:
  rms(total) = 0.20458E-01    rms(broyden)= 0.20457E-01
  rms(prec ) = 0.21292E-01
  weight for this iteration     100.00

 eigenvalues of (default mixing * dielectric matrix)
  average eigenvalue GAMMA=   1.1006
  2.5481  1.8229  1.4866  0.3579  0.7482  0.7482  0.5464  0.5464

 Free energy of the ion-electron system (eV)
  ---------------------------------------------------
  alpha Z        PSCENC =        27.91518480
  Ewald energy   TEWEN  =      6422.19597870
  -Hartree energ DENC   =     -9117.15830158
  -exchange      EXHF   =         0.00000000
  -V(xc)+E(xc)   XCENC  =        88.46443696
  PAW double counting   =      3778.98967596    -3741.48798477
  entropy T*S    EENTRO =        -0.00000000
  eigenvalues    EBANDS =      -524.12082057
  atomic energy  EATOM  =      3024.54869369
  Solvation  Ediel_sol  =         0.00000000
  ---------------------------------------------------
  free energy    TOTEN  =       -40.65313679 eV

  energy without entropy =      -40.65313679  energy(sigma->0) =      -40.65313679


--------------------------------------------------------------------------------------------------------




--------------------------------------- Iteration      1(  14)  ---------------------------------------


    POTLOK:  cpu time      0.1528: real time      0.1538
    SETDIJ:  cpu time      0.1090: real time      0.1094
     EDDAV:  cpu time      1.2430: real time      1.2545
       DOS:  cpu time      0.0005: real time      0.0005
    CHARGE:  cpu time      0.0717: real time      0.0722
    MIXING:  cpu time      0.0060: real time      0.0061
    --------------------------------------------
      LOOP:  cpu time      1.5831: real time      1.5965

 eigenvalue-minimisations  :   964
 total energy-change (2. order) :-0.7279781E-01  (-0.6735995E-03)
 number of electron      55.0000010 magnetization       5.1456951
 augmentation part       -0.5316009 magnetization       3.6730417

 DIPCOR: dipole corrections for dipol
 direction  3 min pos     1,
 dipolmoment           0.000000      0.000000     -0.058672 electrons x Angstroem
 Tr[quadrupol]      -347.153080

 energy correction for charged system         0.000000 eV
 dipol+quadrupol energy correction           -0.000492 eV
 added-field ion interaction          0.013409 eV  (added to PSCEN)


 Broyden mixing:
  rms(total) = 0.13426E-01    rms(broyden)= 0.13425E-01
  rms(prec ) = 0.13957E-01
  weight for this iteration     100.00

 eigenvalues of (default mixing * dielectric matrix)
  average eigenvalue GAMMA=   1.1076
  2.6830  2.0877  1.3090  1.0138  0.3579  0.5467  0.5467  0.7119  0.7119

 Free energy of the ion-electron system (eV)
  ---------------------------------------------------
  alpha Z        PSCENC =        27.91554080
  Ewald energy   TEWEN  =      6422.19597870
  -Hartree energ DENC   =     -9118.16957176
  -exchange      EXHF   =         0.00000000
  -V(xc)+E(xc)   XCENC  =        88.39807590
  PAW double counting   =      3772.18230471    -3734.66083192
  entropy T*S    EENTRO =        -0.00000000
  eigenvalues    EBANDS =      -523.13612474
  atomic energy  EATOM  =      3024.54869369
  Solvation  Ediel_sol  =         0.00000000
  ---------------------------------------------------
  free energy    TOTEN  =       -40.72593460 eV

  energy without entropy =      -40.72593460  energy(sigma->0) =      -40.72593460


--------------------------------------------------------------------------------------------------------




--------------------------------------- Iteration      1(  15)  ---------------------------------------


    POTLOK:  cpu time      0.1534: real time      0.1544
    SETDIJ:  cpu time      0.1090: real time      0.1094
     EDDAV:  cpu time      1.2393: real time      1.2506
       DOS:  cpu time      0.0002: real time      0.0002
    CHARGE:  cpu time      0.0706: real time      0.0710
    MIXING:  cpu time      0.0065: real time      0.0065
    --------------------------------------------
      LOOP:  cpu time      1.5790: real time      1.5922

 eigenvalue-minimisations  :   960
 total energy-change (2. order) :-0.2552500E-01  (-0.1424971E-03)
 number of electron      55.0000010 magnetization       5.1058817
 augmentation part       -0.5311792 magnetization       3.6333153

 DIPCOR: dipole corrections for dipol
 direction  3 min pos     1,
 dipolmoment           0.000000      0.000000     -0.058969 electrons x Angstroem
 Tr[quadrupol]      -347.180251

 energy correction for charged system         0.000000 eV
 dipol+quadrupol energy correction           -0.000497 eV
 added-field ion interaction          0.013477 eV  (added to PSCEN)


 Broyden mixing:
  rms(total) = 0.10631E-01    rms(broyden)= 0.10631E-01
  rms(prec ) = 0.10974E-01
  weight for this iteration     100.00

 eigenvalues of (default mixing * dielectric matrix)
  average eigenvalue GAMMA=   1.1157
  2.6312  2.2899  1.2039  1.2039  0.9919  0.3579  0.5412  0.5412  0.6979  0.6979

 Free energy of the ion-electron system (eV)
  ---------------------------------------------------
  alpha Z        PSCENC =        27.91560354
  Ewald energy   TEWEN  =      6422.19597870
  -Hartree energ DENC   =     -9118.72696920
  -exchange      EXHF   =         0.00000000
  -V(xc)+E(xc)   XCENC  =        88.38160012
  PAW double counting   =      3770.44437300    -3732.92488163
  entropy T*S    EENTRO =        -0.00000000
  eigenvalues    EBANDS =      -522.58585783
  atomic energy  EATOM  =      3024.54869369
  Solvation  Ediel_sol  =         0.00000000
  ---------------------------------------------------
  free energy    TOTEN  =       -40.75145960 eV

  energy without entropy =      -40.75145960  energy(sigma->0) =      -40.75145960


--------------------------------------------------------------------------------------------------------




--------------------------------------- Iteration      1(  16)  ---------------------------------------


    POTLOK:  cpu time      0.1523: real time      0.1534
    SETDIJ:  cpu time      0.1090: real time      0.1093
     EDDAV:  cpu time      1.2091: real time      1.2202
       DOS:  cpu time      0.0002: real time      0.0002
    CHARGE:  cpu time      0.0718: real time      0.0723
    MIXING:  cpu time      0.0062: real time      0.0063
    --------------------------------------------
      LOOP:  cpu time      1.5486: real time      1.5616

 eigenvalue-minimisations  :   932
 total energy-change (2. order) :-0.2589417E-01  (-0.1474331E-03)
 number of electron      55.0000010 magnetization       5.0363857
 augmentation part       -0.5310821 magnetization       3.5638429

 DIPCOR: dipole corrections for dipol
 direction  3 min pos     1,
 dipolmoment           0.000000      0.000000     -0.059928 electrons x Angstroem
 Tr[quadrupol]      -347.208029

 energy correction for charged system         0.000000 eV
 dipol+quadrupol energy correction           -0.000513 eV
 added-field ion interaction          0.013696 eV  (added to PSCEN)


 Broyden mixing:
  rms(total) = 0.72917E-02    rms(broyden)= 0.72916E-02
  rms(prec ) = 0.75445E-02
  weight for this iteration     100.00

 eigenvalues of (default mixing * dielectric matrix)
  average eigenvalue GAMMA=   1.3125
  3.8910  2.7198  1.8639  1.2107  1.2107  0.3579  0.5412  0.5412  0.7372  0.7372
  0.6266

 Free energy of the ion-electron system (eV)
  ---------------------------------------------------
  alpha Z        PSCENC =        27.91580646
  Ewald energy   TEWEN  =      6422.19597870
  -Hartree energ DENC   =     -9119.23849082
  -exchange      EXHF   =         0.00000000
  -V(xc)+E(xc)   XCENC  =        88.35847902
  PAW double counting   =      3767.83000677    -3730.30634789
  entropy T*S    EENTRO =        -0.00000000
  eigenvalues    EBANDS =      -522.08147970
  atomic energy  EATOM  =      3024.54869369
  Solvation  Ediel_sol  =         0.00000000
  ---------------------------------------------------
  free energy    TOTEN  =       -40.77735377 eV

  energy without entropy =      -40.77735377  energy(sigma->0) =      -40.77735377


--------------------------------------------------------------------------------------------------------




--------------------------------------- Iteration      1(  17)  ---------------------------------------


    POTLOK:  cpu time      0.1531: real time      0.1542
    SETDIJ:  cpu time      0.1097: real time      0.1100
     EDDAV:  cpu time      1.1062: real time      1.1162
       DOS:  cpu time      0.0002: real time      0.0002
    CHARGE:  cpu time      0.0704: real time      0.0708
    MIXING:  cpu time      0.0063: real time      0.0064
    --------------------------------------------
      LOOP:  cpu time      1.4459: real time      1.4578

 eigenvalue-minimisations  :   824
 total energy-change (2. order) :-0.3133558E-01  (-0.3135727E-03)
 number of electron      55.0000010 magnetization       5.0189163
 augmentation part       -0.5295056 magnetization       3.5468214

 DIPCOR: dipole corrections for dipol
 direction  3 min pos     1,
 dipolmoment           0.000000      0.000000     -0.061896 electrons x Angstroem
 Tr[quadrupol]      -347.257081

 energy correction for charged system         0.000000 eV
 dipol+quadrupol energy correction           -0.000547 eV
 added-field ion interaction          0.014146 eV  (added to PSCEN)


 Broyden mixing:
  rms(total) = 0.36015E-02    rms(broyden)= 0.36014E-02
  rms(prec ) = 0.37014E-02
  weight for this iteration     100.00

 eigenvalues of (default mixing * dielectric matrix)
  average eigenvalue GAMMA=   1.3675
  5.0851  2.5416  1.8704  1.1338  1.1338  1.1320  0.3579  0.7325  0.7325  0.5422
  0.5422  0.6063

 Free energy of the ion-electron system (eV)
  ---------------------------------------------------
  alpha Z        PSCENC =        27.91622201
  Ewald energy   TEWEN  =      6422.19597870
  -Hartree energ DENC   =     -9120.11147638
  -exchange      EXHF   =         0.00000000
  -V(xc)+E(xc)   XCENC  =        88.33419205
  PAW double counting   =      3764.95876071    -3727.42866010
  entropy T*S    EENTRO =        -0.00000000
  eigenvalues    EBANDS =      -521.22240005
  atomic energy  EATOM  =      3024.54869369
  Solvation  Ediel_sol  =         0.00000000
  ---------------------------------------------------
  free energy    TOTEN  =       -40.80868935 eV

  energy without entropy =      -40.80868935  energy(sigma->0) =      -40.80868935


--------------------------------------------------------------------------------------------------------




--------------------------------------- Iteration      1(  18)  ---------------------------------------


    POTLOK:  cpu time      0.1531: real time      0.1542
    SETDIJ:  cpu time      0.1086: real time      0.1089
     EDDAV:  cpu time      1.1628: real time      1.1733
       DOS:  cpu time      0.0002: real time      0.0002
    CHARGE:  cpu time      0.0722: real time      0.0726
    MIXING:  cpu time      0.0064: real time      0.0065
    --------------------------------------------
      LOOP:  cpu time      1.5032: real time      1.5157

 eigenvalue-minimisations  :   884
 total energy-change (2. order) :-0.3442910E-02  (-0.2939028E-04)
 number of electron      55.0000010 magnetization       5.0089634
 augmentation part       -0.5295558 magnetization       3.5372167

 DIPCOR: dipole corrections for dipol
 direction  3 min pos     1,
 dipolmoment           0.000000      0.000000     -0.062454 electrons x Angstroem
 Tr[quadrupol]      -347.270679

 energy correction for charged system         0.000000 eV
 dipol+quadrupol energy correction           -0.000557 eV
 added-field ion interaction          0.014273 eV  (added to PSCEN)


 Broyden mixing:
  rms(total) = 0.23050E-02    rms(broyden)= 0.23050E-02
  rms(prec ) = 0.23992E-02
  weight for this iteration     100.00

 eigenvalues of (default mixing * dielectric matrix)
  average eigenvalue GAMMA=   1.3912
  5.6041  2.5348  1.9474  1.2679  1.2679  1.2055  0.3579  0.7833  0.7833  0.5402
  0.5402  0.6390  0.6141

 Free energy of the ion-electron system (eV)
  ---------------------------------------------------
  alpha Z        PSCENC =        27.91633955
  Ewald energy   TEWEN  =      6422.19597870
  -Hartree energ DENC   =     -9120.32759039
  -exchange      EXHF   =         0.00000000
  -V(xc)+E(xc)   XCENC  =        88.33261045
  PAW double counting   =      3765.75420784    -3728.22701901
  entropy T*S    EENTRO =        -0.00000000
  eigenvalues    EBANDS =      -521.00535310
  atomic energy  EATOM  =      3024.54869369
  Solvation  Ediel_sol  =         0.00000000
  ---------------------------------------------------
  free energy    TOTEN  =       -40.81213226 eV

  energy without entropy =      -40.81213226  energy(sigma->0) =      -40.81213226


--------------------------------------------------------------------------------------------------------




--------------------------------------- Iteration      1(  19)  ---------------------------------------


    POTLOK:  cpu time      0.1536: real time      0.1546
    SETDIJ:  cpu time      0.1098: real time      0.1101
     EDDAV:  cpu time      1.1912: real time      1.2021
       DOS:  cpu time      0.0002: real time      0.0002
    CHARGE:  cpu time      0.0707: real time      0.0712
    MIXING:  cpu time      0.0067: real time      0.0068
    --------------------------------------------
      LOOP:  cpu time      1.5321: real time      1.5449

 eigenvalue-minimisations  :   912
 total energy-change (2. order) :-0.1040468E-02  (-0.8650167E-05)
 number of electron      55.0000010 magnetization       5.0027753
 augmentation part       -0.5298124 magnetization       3.5309967

 DIPCOR: dipole corrections for dipol
 direction  3 min pos     1,
 dipolmoment           0.000000      0.000000     -0.062749 electrons x Angstroem
 Tr[quadrupol]      -347.278976

 energy correction for charged system         0.000000 eV
 dipol+quadrupol energy correction           -0.000563 eV
 added-field ion interaction          0.014341 eV  (added to PSCEN)


 Broyden mixing:
  rms(total) = 0.10442E-02    rms(broyden)= 0.10441E-02
  rms(prec ) = 0.11242E-02
  weight for this iteration     100.00

 eigenvalues of (default mixing * dielectric matrix)
  average eigenvalue GAMMA=   1.4813
  6.4558  2.5016  2.5016  1.4513  1.4513  1.0906  1.0906  0.3579  0.7542  0.7542
  0.5408  0.5408  0.6481  0.5997

 Free energy of the ion-electron system (eV)
  ---------------------------------------------------
  alpha Z        PSCENC =        27.91640180
  Ewald energy   TEWEN  =      6422.19597870
  -Hartree energ DENC   =     -9120.40250371
  -exchange      EXHF   =         0.00000000
  -V(xc)+E(xc)   XCENC  =        88.33004457
  PAW double counting   =      3766.71869399    -3729.19266012
  entropy T*S    EENTRO =        -0.00000000
  eigenvalues    EBANDS =      -520.92782165
  atomic energy  EATOM  =      3024.54869369
  Solvation  Ediel_sol  =         0.00000000
  ---------------------------------------------------
  free energy    TOTEN  =       -40.81317273 eV

  energy without entropy =      -40.81317273  energy(sigma->0) =      -40.81317273


--------------------------------------------------------------------------------------------------------




--------------------------------------- Iteration      1(  20)  ---------------------------------------


    POTLOK:  cpu time      0.1539: real time      0.1549
    SETDIJ:  cpu time      0.1083: real time      0.1087
     EDDAV:  cpu time      1.1339: real time      1.1440
       DOS:  cpu time      0.0002: real time      0.0002
    CHARGE:  cpu time      0.0727: real time      0.0731
    MIXING:  cpu time      0.0073: real time      0.0074
    --------------------------------------------
      LOOP:  cpu time      1.4763: real time      1.4883

 eigenvalue-minimisations  :   860
 total energy-change (2. order) :-0.3450953E-03  (-0.3003943E-05)
 number of electron      55.0000010 magnetization       5.0014002
 augmentation part       -0.5299048 magnetization       3.5296356

 DIPCOR: dipole corrections for dipol
 direction  3 min pos     1,
 dipolmoment           0.000000      0.000000     -0.063078 electrons x Angstroem
 Tr[quadrupol]      -347.285175

 energy correction for charged system         0.000000 eV
 dipol+quadrupol energy correction           -0.000569 eV
 added-field ion interaction          0.014416 eV  (added to PSCEN)


 Broyden mixing:
  rms(total) = 0.63083E-03    rms(broyden)= 0.63080E-03
  rms(prec ) = 0.69526E-03
  weight for this iteration     100.00

 eigenvalues of (default mixing * dielectric matrix)
  average eigenvalue GAMMA=   1.4772
  6.7371  2.5984  2.5984  1.6239  1.2013  1.2013  1.2677  0.3579  0.7795  0.7795
  0.5408  0.5408  0.6891  0.6212  0.6212

 Free energy of the ion-electron system (eV)
  ---------------------------------------------------
  alpha Z        PSCENC =        27.91647104
  Ewald energy   TEWEN  =      6422.19597870
  -Hartree energ DENC   =     -9120.44504322
  -exchange      EXHF   =         0.00000000
  -V(xc)+E(xc)   XCENC  =        88.32841666
  PAW double counting   =      3767.47218225    -3729.94736595
  entropy T*S    EENTRO =        -0.00000000
  eigenvalues    EBANDS =      -520.88285100
  atomic energy  EATOM  =      3024.54869369
  Solvation  Ediel_sol  =         0.00000000
  ---------------------------------------------------
  free energy    TOTEN  =       -40.81351783 eV

  energy without entropy =      -40.81351783  energy(sigma->0) =      -40.81351783


--------------------------------------------------------------------------------------------------------




--------------------------------------- Iteration      1(  21)  ---------------------------------------


    POTLOK:  cpu time      0.1542: real time      0.1556
    SETDIJ:  cpu time      0.1101: real time      0.1105
     EDDAV:  cpu time      1.0835: real time      1.0934
       DOS:  cpu time      0.0002: real time      0.0002
    CHARGE:  cpu time      0.0704: real time      0.0708
    MIXING:  cpu time      0.0067: real time      0.0067
    --------------------------------------------
      LOOP:  cpu time      1.4250: real time      1.4371

 eigenvalue-minimisations  :   804
 total energy-change (2. order) :-0.6824679E-04  (-0.4613501E-06)
 number of electron      55.0000010 magnetization       5.0008489
 augmentation part       -0.5299903 magnetization       3.5290627

 DIPCOR: dipole corrections for dipol
 direction  3 min pos     1,
 dipolmoment           0.000000      0.000000     -0.063287 electrons x Angstroem
 Tr[quadrupol]      -347.287709

 energy correction for charged system         0.000000 eV
 dipol+quadrupol energy correction           -0.000572 eV
 added-field ion interaction          0.014464 eV  (added to PSCEN)


 Broyden mixing:
  rms(total) = 0.30462E-03    rms(broyden)= 0.30461E-03
  rms(prec ) = 0.37992E-03
  weight for this iteration     100.00

 eigenvalues of (default mixing * dielectric matrix)
  average eigenvalue GAMMA=   1.4717
  6.8307  2.6166  2.6166  1.7098  1.3246  1.3246  1.3195  0.3579  0.8492  0.8492
  0.7207  0.7207  0.5408  0.5408  0.6132  0.6132

 Free energy of the ion-electron system (eV)
  ---------------------------------------------------
  alpha Z        PSCENC =        27.91651514
  Ewald energy   TEWEN  =      6422.19597870
  -Hartree energ DENC   =     -9120.45845429
  -exchange      EXHF   =         0.00000000
  -V(xc)+E(xc)   XCENC  =        88.32818810
  PAW double counting   =      3767.49065025    -3729.96624615
  entropy T*S    EENTRO =        -0.00000000
  eigenvalues    EBANDS =      -520.86891153
  atomic energy  EATOM  =      3024.54869369
  Solvation  Ediel_sol  =         0.00000000
  ---------------------------------------------------
  free energy    TOTEN  =       -40.81358607 eV

  energy without entropy =      -40.81358607  energy(sigma->0) =      -40.81358607


--------------------------------------------------------------------------------------------------------




--------------------------------------- Iteration      1(  22)  ---------------------------------------


    POTLOK:  cpu time      0.1528: real time      0.1539
    SETDIJ:  cpu time      0.1087: real time      0.1090
     EDDAV:  cpu time      0.9404: real time      0.9490
       DOS:  cpu time      0.0002: real time      0.0002
    CHARGE:  cpu time      0.0710: real time      0.0715
    MIXING:  cpu time      0.0069: real time      0.0069
    --------------------------------------------
      LOOP:  cpu time      1.2800: real time      1.2906

 eigenvalue-minimisations  :   656
 total energy-change (2. order) :-0.6062580E-04  (-0.2639819E-06)
 number of electron      55.0000010 magnetization       5.0005214
 augmentation part       -0.5299831 magnetization       3.5287063

 DIPCOR: dipole corrections for dipol
 direction  3 min pos     1,
 dipolmoment           0.000000      0.000000     -0.063543 electrons x Angstroem
 Tr[quadrupol]      -347.290386

 energy correction for charged system         0.000000 eV
 dipol+quadrupol energy correction           -0.000577 eV
 added-field ion interaction          0.014522 eV  (added to PSCEN)


 Broyden mixing:
  rms(total) = 0.14997E-03    rms(broyden)= 0.14995E-03
  rms(prec ) = 0.22468E-03
  weight for this iteration     100.00

 eigenvalues of (default mixing * dielectric matrix)
  average eigenvalue GAMMA=   1.4647
  6.8522  2.6780  2.6780  1.9212  1.3673  1.3673  1.1024  1.1024  0.9417  0.3579
  0.7733  0.7733  0.5408  0.5408  0.6912  0.6058  0.6058

 Free energy of the ion-electron system (eV)
  ---------------------------------------------------
  alpha Z        PSCENC =        27.91656889
  Ewald energy   TEWEN  =      6422.19597870
  -Hartree energ DENC   =     -9120.46139382
  -exchange      EXHF   =         0.00000000
  -V(xc)+E(xc)   XCENC  =        88.32794066
  PAW double counting   =      3767.46490152    -3729.94061263
  entropy T*S    EENTRO =        -0.00000000
  eigenvalues    EBANDS =      -520.86572371
  atomic energy  EATOM  =      3024.54869369
  Solvation  Ediel_sol  =         0.00000000
  ---------------------------------------------------
  free energy    TOTEN  =       -40.81364670 eV

  energy without entropy =      -40.81364670  energy(sigma->0) =      -40.81364670


--------------------------------------------------------------------------------------------------------




--------------------------------------- Iteration      1(  23)  ---------------------------------------


    POTLOK:  cpu time      0.1537: real time      0.1548
    SETDIJ:  cpu time      0.1097: real time      0.1100
     EDDAV:  cpu time      0.9422: real time      0.9506
       DOS:  cpu time      0.0002: real time      0.0002
    CHARGE:  cpu time      0.0704: real time      0.0708
    MIXING:  cpu time      0.0069: real time      0.0069
    --------------------------------------------
      LOOP:  cpu time      1.2830: real time      1.2934

 eigenvalue-minimisations  :   664
 total energy-change (2. order) :-0.4321445E-04  (-0.1657724E-06)
 number of electron      55.0000010 magnetization       5.0003441
 augmentation part       -0.5299897 magnetization       3.5285121

 DIPCOR: dipole corrections for dipol
 direction  3 min pos     1,
 dipolmoment           0.000000      0.000000     -0.063807 electrons x Angstroem
 Tr[quadrupol]      -347.293349

 energy correction for charged system         0.000000 eV
 dipol+quadrupol energy correction           -0.000582 eV
 added-field ion interaction          0.014583 eV  (added to PSCEN)


 Broyden mixing:
  rms(total) = 0.14085E-03    rms(broyden)= 0.14084E-03
  rms(prec ) = 0.18049E-03
  weight for this iteration     100.00

 eigenvalues of (default mixing * dielectric matrix)
  average eigenvalue GAMMA=   1.4609
  6.8600  2.7479  2.7479  2.1475  1.3155  1.3155  1.3478  1.3478  0.3579  0.8272
  0.8110  0.8110  0.5409  0.5409  0.6914  0.6914  0.6086  0.5852

 Free energy of the ion-electron system (eV)
  ---------------------------------------------------
  alpha Z        PSCENC =        27.91662437
  Ewald energy   TEWEN  =      6422.19597870
  -Hartree energ DENC   =     -9120.46217892
  -exchange      EXHF   =         0.00000000
  -V(xc)+E(xc)   XCENC  =        88.32767666
  PAW double counting   =      3767.46709115    -3729.94287737
  entropy T*S    EENTRO =        -0.00000000
  eigenvalues    EBANDS =      -520.86469819
  atomic energy  EATOM  =      3024.54869369
  Solvation  Ediel_sol  =         0.00000000
  ---------------------------------------------------
  free energy    TOTEN  =       -40.81368991 eV

  energy without entropy =      -40.81368991  energy(sigma->0) =      -40.81368991


--------------------------------------------------------------------------------------------------------




--------------------------------------- Iteration      1(  24)  ---------------------------------------


    POTLOK:  cpu time      0.1525: real time      0.1535
    SETDIJ:  cpu time      0.1085: real time      0.1089
     EDDAV:  cpu time      0.8178: real time      0.8253
       DOS:  cpu time      0.0002: real time      0.0002
    CHARGE:  cpu time      0.0714: real time      0.0718
    MIXING:  cpu time      0.0072: real time      0.0072
    --------------------------------------------
      LOOP:  cpu time      1.1576: real time      1.1669

 eigenvalue-minimisations  :   540
 total energy-change (2. order) :-0.2076999E-04  (-0.4652084E-07)
 number of electron      55.0000010 magnetization       5.0001927
 augmentation part       -0.5299786 magnetization       3.5283679

 DIPCOR: dipole corrections for dipol
 direction  3 min pos     1,
 dipolmoment           0.000000      0.000000     -0.063979 electrons x Angstroem
 Tr[quadrupol]      -347.295434

 energy correction for charged system         0.000000 eV
 dipol+quadrupol energy correction           -0.000585 eV
 added-field ion interaction          0.014622 eV  (added to PSCEN)


 Broyden mixing:
  rms(total) = 0.10618E-03    rms(broyden)= 0.10618E-03
  rms(prec ) = 0.13460E-03
  weight for this iteration     100.00

 eigenvalues of (default mixing * dielectric matrix)
  average eigenvalue GAMMA=   1.4538
  6.8615  2.8847  2.5838  2.1912  1.3976  1.3976  1.4994  1.4994  0.3579  0.9192
  0.9192  0.7830  0.7830  0.5406  0.5406  0.6691  0.6361  0.5825  0.5748

 Free energy of the ion-electron system (eV)
  ---------------------------------------------------
  alpha Z        PSCENC =        27.91666059
  Ewald energy   TEWEN  =      6422.19597870
  -Hartree energ DENC   =     -9120.46391695
  -exchange      EXHF   =         0.00000000
  -V(xc)+E(xc)   XCENC  =        88.32751106
  PAW double counting   =      3767.46950172    -3729.94526115
  entropy T*S    EENTRO =        -0.00000000
  eigenvalues    EBANDS =      -520.86287835
  atomic energy  EATOM  =      3024.54869369
  Solvation  Ediel_sol  =         0.00000000
  ---------------------------------------------------
  free energy    TOTEN  =       -40.81371068 eV

  energy without entropy =      -40.81371068  energy(sigma->0) =      -40.81371068


--------------------------------------------------------------------------------------------------------




--------------------------------------- Iteration      1(  25)  ---------------------------------------


    POTLOK:  cpu time      0.1535: real time      0.1546
    SETDIJ:  cpu time      0.1102: real time      0.1105
     EDDAV:  cpu time      0.8466: real time      0.8542
       DOS:  cpu time      0.0002: real time      0.0002
    CHARGE:  cpu time      0.0708: real time      0.0712
    MIXING:  cpu time      0.0075: real time      0.0076
    --------------------------------------------
      LOOP:  cpu time      1.1887: real time      1.1982

 eigenvalue-minimisations  :   568
 total energy-change (2. order) :-0.1641470E-04  (-0.6538931E-07)
 number of electron      55.0000010 magnetization       5.0000828
 augmentation part       -0.5299757 magnetization       3.5282575

 DIPCOR: dipole corrections for dipol
 direction  3 min pos     1,
 dipolmoment           0.000000      0.000000     -0.064167 electrons x Angstroem
 Tr[quadrupol]      -347.297904

 energy correction for charged system         0.000000 eV
 dipol+quadrupol energy correction           -0.000588 eV
 added-field ion interaction          0.014665 eV  (added to PSCEN)


 Broyden mixing:
  rms(total) = 0.55849E-04    rms(broyden)= 0.55848E-04
  rms(prec ) = 0.78852E-04
  weight for this iteration     100.00

 eigenvalues of (default mixing * dielectric matrix)
  average eigenvalue GAMMA=   1.5083
  6.8671  3.8892  2.5913  2.5913  1.8057  1.3903  1.3903  1.3375  1.0741  1.0741
  0.3579  0.7898  0.7898  0.7251  0.5408  0.5408  0.6823  0.6066  0.6066  0.5159

 Free energy of the ion-electron system (eV)
  ---------------------------------------------------
  alpha Z        PSCENC =        27.91670008
  Ewald energy   TEWEN  =      6422.19597870
  -Hartree energ DENC   =     -9120.46806993
  -exchange      EXHF   =         0.00000000
  -V(xc)+E(xc)   XCENC  =        88.32742437
  PAW double counting   =      3767.45139848    -3729.92712656
  entropy T*S    EENTRO =        -0.00000000
  eigenvalues    EBANDS =      -520.85872593
  atomic energy  EATOM  =      3024.54869369
  Solvation  Ediel_sol  =         0.00000000
  ---------------------------------------------------
  free energy    TOTEN  =       -40.81372710 eV

  energy without entropy =      -40.81372710  energy(sigma->0) =      -40.81372710


--------------------------------------------------------------------------------------------------------




--------------------------------------- Iteration      1(  26)  ---------------------------------------


    POTLOK:  cpu time      0.1529: real time      0.1540
    SETDIJ:  cpu time      0.1086: real time      0.1089
     EDDAV:  cpu time      0.8017: real time      0.8087
       DOS:  cpu time      0.0002: real time      0.0002
    CHARGE:  cpu time      0.0708: real time      0.0713
    MIXING:  cpu time      0.0074: real time      0.0074
    --------------------------------------------
      LOOP:  cpu time      1.1415: real time      1.1505

 eigenvalue-minimisations  :   524
 total energy-change (2. order) :-0.9757141E-05  (-0.3565930E-07)
 number of electron      55.0000010 magnetization       5.0000432
 augmentation part       -0.5299676 magnetization       3.5282206

 DIPCOR: dipole corrections for dipol
 direction  3 min pos     1,
 dipolmoment           0.000000      0.000000     -0.064322 electrons x Angstroem
 Tr[quadrupol]      -347.299957

 energy correction for charged system         0.000000 eV
 dipol+quadrupol energy correction           -0.000591 eV
 added-field ion interaction          0.014700 eV  (added to PSCEN)


 Broyden mixing:
  rms(total) = 0.36834E-04    rms(broyden)= 0.36833E-04
  rms(prec ) = 0.52439E-04
  weight for this iteration     100.00

 eigenvalues of (default mixing * dielectric matrix)
  average eigenvalue GAMMA=   1.5108
  6.8668  4.5694  2.6173  2.6173  1.8765  1.3835  1.3835  1.2456  1.2456  1.0473
  0.3579  0.8232  0.8232  0.7335  0.7335  0.5406  0.5406  0.6262  0.6000  0.5472
  0.5472

 Free energy of the ion-electron system (eV)
  ---------------------------------------------------
  alpha Z        PSCENC =        27.91673279
  Ewald energy   TEWEN  =      6422.19597870
  -Hartree energ DENC   =     -9120.47153622
  -exchange      EXHF   =         0.00000000
  -V(xc)+E(xc)   XCENC  =        88.32733041
  PAW double counting   =      3767.44683291    -3729.92256703
  entropy T*S    EENTRO =        -0.00000000
  eigenvalues    EBANDS =      -520.85520211
  atomic energy  EATOM  =      3024.54869369
  Solvation  Ediel_sol  =         0.00000000
  ---------------------------------------------------
  free energy    TOTEN  =       -40.81373685 eV

  energy without entropy =      -40.81373685  energy(sigma->0) =      -40.81373685


--------------------------------------------------------------------------------------------------------




--------------------------------------- Iteration      1(  27)  ---------------------------------------


    POTLOK:  cpu time      0.1539: real time      0.1550
    SETDIJ:  cpu time      0.1104: real time      0.1107
     EDDAV:  cpu time      0.7567: real time      0.7633
       DOS:  cpu time      0.0002: real time      0.0002
    CHARGE:  cpu time      0.0709: real time      0.0713
    MIXING:  cpu time      0.0074: real time      0.0075
    --------------------------------------------
      LOOP:  cpu time      1.0994: real time      1.1080

 eigenvalue-minimisations  :   480
 total energy-change (2. order) :-0.4034211E-05  (-0.1319777E-07)
 number of electron      55.0000010 magnetization       5.0000183
 augmentation part       -0.5299707 magnetization       3.5281924

 DIPCOR: dipole corrections for dipol
 direction  3 min pos     1,
 dipolmoment           0.000000      0.000000     -0.064402 electrons x Angstroem
 Tr[quadrupol]      -347.301151

 energy correction for charged system         0.000000 eV
 dipol+quadrupol energy correction           -0.000593 eV
 added-field ion interaction          0.014718 eV  (added to PSCEN)


 Broyden mixing:
  rms(total) = 0.32639E-04    rms(broyden)= 0.32639E-04
  rms(prec ) = 0.43023E-04
  weight for this iteration     100.00

 eigenvalues of (default mixing * dielectric matrix)
  average eigenvalue GAMMA=   1.5207
  6.8598  5.1098  2.5495  2.5495  2.0033  1.4179  1.4179  1.4278  1.4278  0.9874
  0.9874  0.3579  0.8057  0.8057  0.6997  0.6997  0.5407  0.5407  0.6114  0.6114
  0.5500  0.4937

 Free energy of the ion-electron system (eV)
  ---------------------------------------------------
  alpha Z        PSCENC =        27.91674943
  Ewald energy   TEWEN  =      6422.19597870
  -Hartree energ DENC   =     -9120.47469556
  -exchange      EXHF   =         0.00000000
  -V(xc)+E(xc)   XCENC  =        88.32731631
  PAW double counting   =      3767.44635916    -3729.92211690
  entropy T*S    EENTRO =        -0.00000000
  eigenvalues    EBANDS =      -520.85202573
  atomic energy  EATOM  =      3024.54869369
  Solvation  Ediel_sol  =         0.00000000
  ---------------------------------------------------
  free energy    TOTEN  =       -40.81374089 eV

  energy without entropy =      -40.81374089  energy(sigma->0) =      -40.81374089


--------------------------------------------------------------------------------------------------------




--------------------------------------- Iteration      1(  28)  ---------------------------------------


    POTLOK:  cpu time      0.1528: real time      0.1539
    SETDIJ:  cpu time      0.1087: real time      0.1091
     EDDAV:  cpu time      0.7367: real time      0.7434
       DOS:  cpu time      0.0002: real time      0.0002
    CHARGE:  cpu time      0.0712: real time      0.0716
    MIXING:  cpu time      0.0076: real time      0.0077
    --------------------------------------------
      LOOP:  cpu time      1.0773: real time      1.0859

 eigenvalue-minimisations  :   460
 total energy-change (2. order) :-0.2785920E-05  (-0.9321183E-08)
 number of electron      55.0000010 magnetization       4.9999882
 augmentation part       -0.5299695 magnetization       3.5281642

 DIPCOR: dipole corrections for dipol
 direction  3 min pos     1,
 dipolmoment           0.000000      0.000000     -0.064452 electrons x Angstroem
 Tr[quadrupol]      -347.302066

 energy correction for charged system         0.000000 eV
 dipol+quadrupol energy correction           -0.000594 eV
 added-field ion interaction          0.014730 eV  (added to PSCEN)


 Broyden mixing:
  rms(total) = 0.17677E-04    rms(broyden)= 0.17677E-04
  rms(prec ) = 0.27312E-04
  weight for this iteration     100.00

 eigenvalues of (default mixing * dielectric matrix)
  average eigenvalue GAMMA=   1.5384
  6.8483  5.6508  2.6989  2.4100  2.4100  1.4174  1.4174  1.5014  1.5014  1.0715
  1.0715  0.3579  0.8015  0.8015  0.7276  0.7232  0.5407  0.5407  0.6198  0.6198
  0.5838  0.5838  0.4852

 Free energy of the ion-electron system (eV)
  ---------------------------------------------------
  alpha Z        PSCENC =        27.91676010
  Ewald energy   TEWEN  =      6422.19597870
  -Hartree energ DENC   =     -9120.47753749
  -exchange      EXHF   =         0.00000000
  -V(xc)+E(xc)   XCENC  =        88.32730613
  PAW double counting   =      3767.45392450    -3729.92969544
  entropy T*S    EENTRO =        -0.00000000
  eigenvalues    EBANDS =      -520.84917386
  atomic energy  EATOM  =      3024.54869369
  Solvation  Ediel_sol  =         0.00000000
  ---------------------------------------------------
  free energy    TOTEN  =       -40.81374367 eV

  energy without entropy =      -40.81374367  energy(sigma->0) =      -40.81374367


--------------------------------------------------------------------------------------------------------




--------------------------------------- Iteration      1(  29)  ---------------------------------------


    POTLOK:  cpu time      0.1537: real time      0.1547
    SETDIJ:  cpu time      0.1101: real time      0.1105
     EDDAV:  cpu time      0.7465: real time      0.7533
       DOS:  cpu time      0.0002: real time      0.0002
    CHARGE:  cpu time      0.0707: real time      0.0711
    MIXING:  cpu time      0.0078: real time      0.0078
    --------------------------------------------
      LOOP:  cpu time      1.0890: real time      1.0976

 eigenvalue-minimisations  :   464
 total energy-change (2. order) :-0.3495014E-05  (-0.1280232E-07)
 number of electron      55.0000010 magnetization       4.9999785
 augmentation part       -0.5299746 magnetization       3.5281531

 DIPCOR: dipole corrections for dipol
 direction  3 min pos     1,
 dipolmoment           0.000000      0.000000     -0.064518 electrons x Angstroem
 Tr[quadrupol]      -347.303381

 energy correction for charged system         0.000000 eV
 dipol+quadrupol energy correction           -0.000595 eV
 added-field ion interaction          0.014745 eV  (added to PSCEN)


 Broyden mixing:
  rms(total) = 0.15242E-04    rms(broyden)= 0.15242E-04
  rms(prec ) = 0.18903E-04
  weight for this iteration     100.00

 eigenvalues of (default mixing * dielectric matrix)
  average eigenvalue GAMMA=   1.5508
  6.8362  6.1563  2.9092  2.5027  2.5027  1.6670  1.4159  1.4159  1.3852  1.1293
  1.1293  0.3579  0.8677  0.8677  0.7661  0.7661  0.6778  0.5407  0.5407  0.6156
  0.6156  0.5769  0.5386  0.4384

 Free energy of the ion-electron system (eV)
  ---------------------------------------------------
  alpha Z        PSCENC =        27.91677386
  Ewald energy   TEWEN  =      6422.19597870
  -Hartree energ DENC   =     -9120.48215231
  -exchange      EXHF   =         0.00000000
  -V(xc)+E(xc)   XCENC  =        88.32731513
  PAW double counting   =      3767.45158086    -3729.92734592
  entropy T*S    EENTRO =        -0.00000000
  eigenvalues    EBANDS =      -520.84459119
  atomic energy  EATOM  =      3024.54869369
  Solvation  Ediel_sol  =         0.00000000
  ---------------------------------------------------
  free energy    TOTEN  =       -40.81374717 eV

  energy without entropy =      -40.81374717  energy(sigma->0) =      -40.81374717


--------------------------------------------------------------------------------------------------------




--------------------------------------- Iteration      1(  30)  ---------------------------------------


    POTLOK:  cpu time      0.1523: real time      0.1534
    SETDIJ:  cpu time      0.1090: real time      0.1093
     EDDAV:  cpu time      0.7421: real time      0.7487
       DOS:  cpu time      0.0002: real time      0.0002
    CHARGE:  cpu time      0.0714: real time      0.0718
    MIXING:  cpu time      0.0080: real time      0.0080
    --------------------------------------------
      LOOP:  cpu time      1.0829: real time      1.0914

 eigenvalue-minimisations  :   468
 total energy-change (2. order) :-0.1101166E-05  (-0.6515424E-08)
 number of electron      55.0000010 magnetization       4.9999764
 augmentation part       -0.5299718 magnetization       3.5281516

 DIPCOR: dipole corrections for dipol
 direction  3 min pos     1,
 dipolmoment           0.000000      0.000000     -0.064536 electrons x Angstroem
 Tr[quadrupol]      -347.303924

 energy correction for charged system         0.000000 eV
 dipol+quadrupol energy correction           -0.000595 eV
 added-field ion interaction          0.014749 eV  (added to PSCEN)


 Broyden mixing:
  rms(total) = 0.14523E-04    rms(broyden)= 0.14523E-04
  rms(prec ) = 0.16255E-04
  weight for this iteration     100.00

 eigenvalues of (default mixing * dielectric matrix)
  average eigenvalue GAMMA=   1.5507
  6.8097  6.4889  3.0625  2.5455  2.5455  1.8275  1.4301  1.4301  1.2463  1.2463
  1.1851  0.9264  0.9264  0.3579  0.7592  0.7592  0.6523  0.6523  0.5408  0.5408
  0.6323  0.6323  0.5976  0.5188  0.4527

 Free energy of the ion-electron system (eV)
  ---------------------------------------------------
  alpha Z        PSCENC =        27.91677763
  Ewald energy   TEWEN  =      6422.19597870
  -Hartree energ DENC   =     -9120.48428268
  -exchange      EXHF   =         0.00000000
  -V(xc)+E(xc)   XCENC  =        88.32731557
  PAW double counting   =      3767.45034282    -3729.92609548
  entropy T*S    EENTRO =        -0.00000000
  eigenvalues    EBANDS =      -520.84247853
  atomic energy  EATOM  =      3024.54869369
  Solvation  Ediel_sol  =         0.00000000
  ---------------------------------------------------
  free energy    TOTEN  =       -40.81374827 eV

  energy without entropy =      -40.81374827  energy(sigma->0) =      -40.81374827


--------------------------------------------------------------------------------------------------------




--------------------------------------- Iteration      1(  31)  ---------------------------------------


    POTLOK:  cpu time      0.1531: real time      0.1541
    SETDIJ:  cpu time      0.1098: real time      0.1101
     EDDAV:  cpu time      0.7155: real time      0.7220
       DOS:  cpu time      0.0002: real time      0.0002
    --------------------------------------------
      LOOP:  cpu time      0.9786: real time      0.9864

 eigenvalue-minimisations  :   432
 total energy-change (2. order) :-0.5708803E-06  (-0.4246977E-08)
 number of electron      55.0000010 magnetization       4.9999764
 augmentation part       -0.5299718 magnetization       3.5281516

 DIPCOR: dipole corrections for dipol
 direction  3 min pos     1,
 dipolmoment           0.000000      0.000000     -0.064541 electrons x Angstroem
 Tr[quadrupol]      -347.304275

 energy correction for charged system         0.000000 eV
 dipol+quadrupol energy correction           -0.000595 eV
 added-field ion interaction          0.014750 eV  (added to PSCEN)


 Free energy of the ion-electron system (eV)
  ---------------------------------------------------
  alpha Z        PSCENC =        27.91677866
  Ewald energy   TEWEN  =      6422.19597870
  -Hartree energ DENC   =     -9120.48577401
  -exchange      EXHF   =         0.00000000
  -V(xc)+E(xc)   XCENC  =        88.32731927
  PAW double counting   =      3767.44953382    -3729.92527985
  entropy T*S    EENTRO =        -0.00000000
  eigenvalues    EBANDS =      -520.84099912
  atomic energy  EATOM  =      3024.54869369
  Solvation  Ediel_sol  =         0.00000000
  ---------------------------------------------------
  free energy    TOTEN  =       -40.81374884 eV

  energy without entropy =      -40.81374884  energy(sigma->0) =      -40.81374884


--------------------------------------------------------------------------------------------------------




 average (electrostatic) potential at core
  the test charge radii are     1.1394  0.9406  0.5201
  (the norm of the test charge is              1.0000)
       1 -52.6855       2 -52.7151       3 -99.1165       4 -99.1165       5 -99.1165
       6 -99.3688       7 -99.3688       8 -99.3688       9 -40.6432
 
 
 
 E-fermi :  -3.9481     XC(G=0):  -2.9798     alpha+bet : -2.4254

 val. band max:       -4.2389418497   @ k =   0.4000   0.0000   0.0000
 cond. band min:      -2.4503257651   @ k =   0.4000   0.0000   0.0000
 fundamental gap:      1.7886160846
 Fermi energy:        -3.9481304509

 spin component 1

 k-point     1 :       0.0000    0.0000    0.0000
  band No.  band energies     occupation 
      1     -19.6345      1.00000
      2     -18.7098      1.00000
      3     -18.6654      1.00000
      4     -18.6654      1.00000
      5     -18.3962      1.00000
      6     -18.3962      1.00000
      7      -9.9271      1.00000
      8      -8.7880      1.00000
      9      -8.5081      1.00000
     10      -8.5081      1.00000
     11      -8.2887      1.00000
     12      -8.2887      1.00000
     13      -8.2163      1.00000
     14      -7.8135      1.00000
     15      -7.8135      1.00000
     16      -7.7404      1.00000
     17      -7.0548      1.00000
     18      -7.0548      1.00000
     19      -6.4055      1.00000
     20      -6.0583      1.00000
     21      -5.9114      1.00000
     22      -5.9114      1.00000
     23      -5.5411      1.00000
     24      -5.5411      1.00000
     25      -5.1643      1.00000
     26      -4.7159      1.00000
     27      -4.6771      1.00000
     28      -4.6771      1.00000
     29      -4.3619      1.00000
     30      -4.3619      1.00000
     31      -2.3914      0.00000
     32      -2.3914      0.00000
     33      -2.1387      0.00000
     34      -2.1387      0.00000
     35      -0.7051      0.00000
     36       1.7027      0.00000

 k-point     2 :       0.2000    0.0000    0.0000
  band No.  band energies     occupation 
      1     -19.5492      1.00000
      2     -18.7443      1.00000
      3     -18.7023      1.00000
      4     -18.6663      1.00000
      5     -18.4271      1.00000
      6     -18.4087      1.00000
      7      -9.9106      1.00000
      8      -8.8298      1.00000
      9      -8.6199      1.00000
     10      -8.4675      1.00000
     11      -8.3436      1.00000
     12      -8.2593      1.00000
     13      -7.9907      1.00000
     14      -7.8749      1.00000
     15      -7.7576      1.00000
     16      -7.4212      1.00000
     17      -7.1016      1.00000
     18      -6.8706      1.00000
     19      -6.3988      1.00000
     20      -6.2557      1.00000
     21      -6.1431      1.00000
     22      -5.9908      1.00000
     23      -5.7427      1.00000
     24      -5.6384      1.00000
     25      -5.0575      1.00000
     26      -4.7242      1.00000
     27      -4.6268      1.00000
     28      -4.5221      1.00000
     29      -4.3792      1.00000
     30      -4.3156      1.00000
     31      -2.3943      0.00000
     32      -2.3815      0.00000
     33      -2.3022      0.00000
     34      -2.1666      0.00000
     35      -0.5492      0.00000
     36       1.9245      0.00000

 k-point     3 :       0.4000    0.0000    0.0000
  band No.  band energies     occupation 
      1     -19.3338      1.00000
      2     -18.9608      1.00000
      3     -18.7355      1.00000
      4     -18.5983      1.00000
      5     -18.4883      1.00000
      6     -18.4312      1.00000
      7      -9.8728      1.00000
      8      -8.8713      1.00000
      9      -8.6051      1.00000
     10      -8.4385      1.00000
     11      -8.3193      1.00000
     12      -8.1103      1.00000
     13      -8.0265      1.00000
     14      -7.8200      1.00000
     15      -7.5144      1.00000
     16      -7.3712      1.00000
     17      -7.0397      1.00000
     18      -6.8116      1.00000
     19      -6.6291      1.00000
     20      -6.5491      1.00000
     21      -6.1290      1.00000
     22      -6.1158      1.00000
     23      -5.6656      1.00000
     24      -5.6302      1.00000
     25      -5.1290      1.00000
     26      -4.7373      1.00000
     27      -4.6438      1.00000
     28      -4.4366      1.00000
     29      -4.3920      1.00000
     30      -4.2389      1.00000
     31      -2.4503      0.00000
     32      -2.3700      0.00000
     33      -2.3146      0.00000
     34      -2.2510      0.00000
     35      -0.4685      0.00000
     36       2.4870      0.00000

 k-point     4 :       0.2000    0.2000    0.0000
  band No.  band energies     occupation 
      1     -19.3954      1.00000
      2     -18.8671      1.00000
      3     -18.7652      1.00000
      4     -18.6167      1.00000
      5     -18.4646      1.00000
      6     -18.4296      1.00000
      7      -9.8439      1.00000
      8      -8.9130      1.00000
      9      -8.6069      1.00000
     10      -8.4767      1.00000
     11      -8.3463      1.00000
     12      -8.1297      1.00000
     13      -8.0256      1.00000
     14      -7.9207      1.00000
     15      -7.4225      1.00000
     16      -7.2941      1.00000
     17      -7.0716      1.00000
     18      -6.7997      1.00000
     19      -6.7095      1.00000
     20      -6.2238      1.00000
     21      -6.1993      1.00000
     22      -6.1164      1.00000
     23      -5.8998      1.00000
     24      -5.6693      1.00000
     25      -4.9662      1.00000
     26      -4.7687      1.00000
     27      -4.6012      1.00000
     28      -4.4584      1.00000
     29      -4.3676      1.00000
     30      -4.2935      1.00000
     31      -2.4395      0.00000
     32      -2.3781      0.00000
     33      -2.3356      0.00000
     34      -2.1908      0.00000
     35      -0.4894      0.00000
     36       2.3052      0.00000

 k-point     5 :       0.4000    0.2000    0.0000
  band No.  band energies     occupation 
      1     -19.2044      1.00000
      2     -19.0440      1.00000
      3     -18.8051      1.00000
      4     -18.5638      1.00000
      5     -18.5002      1.00000
      6     -18.4466      1.00000
      7      -9.7711      1.00000
      8      -8.9021      1.00000
      9      -8.5989      1.00000
     10      -8.5193      1.00000
     11      -8.3167      1.00000
     12      -8.1071      1.00000
     13      -8.0411      1.00000
     14      -7.8852      1.00000
     15      -7.6518      1.00000
     16      -7.1036      1.00000
     17      -7.0118      1.00000
     18      -6.6865      1.00000
     19      -6.6266      1.00000
     20      -6.5185      1.00000
     21      -6.1442      1.00000
     22      -6.0625      1.00000
     23      -5.8990      1.00000
     24      -5.7817      1.00000
     25      -4.9519      1.00000
     26      -4.7454      1.00000
     27      -4.6142      1.00000
     28      -4.4430      1.00000
     29      -4.3800      1.00000
     30      -4.2889      1.00000
     31      -2.4449      0.00000
     32      -2.3674      0.00000
     33      -2.3328      0.00000
     34      -2.1782      0.00000
     35      -0.5336      0.00000
     36       2.8132      0.00000
 Fermi energy:        -3.9481304509

 spin component 2

 k-point     1 :       0.0000    0.0000    0.0000
  band No.  band energies     occupation 
      1     -19.6284      1.00000
      2     -18.7320      1.00000
      3     -18.6903      1.00000
      4     -18.6903      1.00000
      5     -18.4111      1.00000
      6     -18.4111      1.00000
      7      -9.8859      1.00000
      8      -8.5586      1.00000
      9      -8.3189      1.00000
     10      -8.3189      1.00000
     11      -8.1748      1.00000
     12      -8.0472      1.00000
     13      -8.0472      1.00000
     14      -7.5865      1.00000
     15      -7.4465      1.00000
     16      -7.4465      1.00000
     17      -6.7915      1.00000
     18      -6.7915      1.00000
     19      -6.3523      1.00000
     20      -6.0393      1.00000
     21      -5.7445      1.00000
     22      -5.7445      1.00000
     23      -5.4619      1.00000
     24      -5.4619      1.00000
     25      -4.4105      1.00000
     26      -2.1041      0.00000
     27      -2.1041      0.00000
     28      -1.8393      0.00000
     29      -1.7331      0.00000
     30      -1.7331      0.00000
     31      -1.2493      0.00000
     32      -1.2493      0.00000
     33      -0.9380      0.00000
     34      -0.9380      0.00000
     35      -0.3109      0.00000
     36       1.7651      0.00000

 k-point     2 :       0.2000    0.0000    0.0000
  band No.  band energies     occupation 
      1     -19.5452      1.00000
      2     -18.7664      1.00000
      3     -18.7256      1.00000
      4     -18.6901      1.00000
      5     -18.4418      1.00000
      6     -18.4233      1.00000
      7      -9.8751      1.00000
      8      -8.6276      1.00000
      9      -8.4468      1.00000
     10      -8.2886      1.00000
     11      -8.1362      1.00000
     12      -8.0462      1.00000
     13      -7.7130      1.00000
     14      -7.5936      1.00000
     15      -7.4544      1.00000
     16      -7.2209      1.00000
     17      -6.8537      1.00000
     18      -6.6820      1.00000
     19      -6.2815      1.00000
     20      -6.1121      1.00000
     21      -6.0026      1.00000
     22      -5.7973      1.00000
     23      -5.6450      1.00000
     24      -5.5336      1.00000
     25      -4.3098      1.00000
     26      -2.1195      0.00000
     27      -2.0555      0.00000
     28      -1.7929      0.00000
     29      -1.7630      0.00000
     30      -1.7396      0.00000
     31      -1.2868      0.00000
     32      -1.2698      0.00000
     33      -1.0692      0.00000
     34      -0.9625      0.00000
     35      -0.1310      0.00000
     36       1.9755      0.00000

 k-point     3 :       0.4000    0.0000    0.0000
  band No.  band energies     occupation 
      1     -19.3345      1.00000
      2     -18.9762      1.00000
      3     -18.7595      1.00000
      4     -18.6198      1.00000
      5     -18.5042      1.00000
      6     -18.4453      1.00000
      7      -9.8414      1.00000
      8      -8.6894      1.00000
      9      -8.4268      1.00000
     10      -8.2309      1.00000
     11      -8.1006      1.00000
     12      -7.8921      1.00000
     13      -7.7598      1.00000
     14      -7.5679      1.00000
     15      -7.2043      1.00000
     16      -7.1017      1.00000
     17      -6.8040      1.00000
     18      -6.6371      1.00000
     19      -6.5166      1.00000
     20      -6.3163      1.00000
     21      -6.0842      1.00000
     22      -5.9018      1.00000
     23      -5.5936      1.00000
     24      -5.5322      1.00000
     25      -4.3249      1.00000
     26      -2.2173      0.00000
     27      -2.0223      0.00000
     28      -1.8196      0.00000
     29      -1.7824      0.00000
     30      -1.6870      0.00000
     31      -1.3487      0.00000
     32      -1.2760      0.00000
     33      -1.0894      0.00000
     34      -1.0035      0.00000
     35      -0.0130      0.00000
     36       2.5370      0.00000

 k-point     4 :       0.2000    0.2000    0.0000
  band No.  band energies     occupation 
      1     -19.3950      1.00000
      2     -18.8842      1.00000
      3     -18.7886      1.00000
      4     -18.6388      1.00000
      5     -18.4803      1.00000
      6     -18.4440      1.00000
      7      -9.8216      1.00000
      8      -8.7112      1.00000
      9      -8.4396      1.00000
     10      -8.2725      1.00000
     11      -8.1245      1.00000
     12      -7.8977      1.00000
     13      -7.7819      1.00000
     14      -7.6078      1.00000
     15      -7.1595      1.00000
     16      -7.0345      1.00000
     17      -6.8389      1.00000
     18      -6.6835      1.00000
     19      -6.5503      1.00000
     20      -6.1846      1.00000
     21      -5.9844      1.00000
     22      -5.8691      1.00000
     23      -5.6671      1.00000
     24      -5.6156      1.00000
     25      -4.3012      1.00000
     26      -2.1751      0.00000
     27      -2.0450      0.00000
     28      -1.8475      0.00000
     29      -1.7599      0.00000
     30      -1.6968      0.00000
     31      -1.3217      0.00000
     32      -1.2615      0.00000
     33      -1.0963      0.00000
     34      -0.9890      0.00000
     35      -0.0421      0.00000
     36       2.3518      0.00000

 k-point     5 :       0.4000    0.2000    0.0000
  band No.  band energies     occupation 
      1     -19.2077      1.00000
      2     -19.0561      1.00000
      3     -18.8282      1.00000
      4     -18.5853      1.00000
      5     -18.5170      1.00000
      6     -18.4607      1.00000
      7      -9.7610      1.00000
      8      -8.7054      1.00000
      9      -8.4030      1.00000
     10      -8.2777      1.00000
     11      -8.1505      1.00000
     12      -7.8970      1.00000
     13      -7.7623      1.00000
     14      -7.5875      1.00000
     15      -7.3831      1.00000
     16      -6.9259      1.00000
     17      -6.8104      1.00000
     18      -6.5408      1.00000
     19      -6.4270      1.00000
     20      -6.2327      1.00000
     21      -6.0712      1.00000
     22      -5.8882      1.00000
     23      -5.6955      1.00000
     24      -5.6091      1.00000
     25      -4.3382      1.00000
     26      -2.2298      0.00000
     27      -2.0608      0.00000
     28      -1.8746      0.00000
     29      -1.7578      0.00000
     30      -1.6996      0.00000
     31      -1.3080      0.00000
     32      -1.2309      0.00000
     33      -1.1012      0.00000
     34      -0.9736      0.00000
     35      -0.0586      0.00000
     36       2.9500      0.00000


--------------------------------------------------------------------------------------------------------


 soft charge-density along one line, spin component           1
         0         1         2         3         4         5         6         7         8         9
 total charge-density along one line
 
 soft charge-density along one line, spin component           2
         0         1         2         3         4         5         6         7         8         9
 total charge-density along one line
 
 pseudopotential strength for first ion, spin component:           1
 -9.612   0.195  -0.000   0.035   0.000  -9.940   0.189  -0.000
  0.195  -9.470  -0.000   0.000   0.035   0.189  -9.803  -0.000
 -0.000  -0.000  -9.754  -0.000   0.000  -0.000  -0.000 -10.078
  0.035   0.000  -0.000  -9.470  -0.195   0.034   0.000  -0.000
  0.000   0.035   0.000  -0.195  -9.612   0.000   0.034   0.000
 -9.940   0.189  -0.000   0.034   0.000 -10.231   0.182  -0.000
  0.189  -9.803  -0.000   0.000   0.034   0.182 -10.098  -0.000
 -0.000  -0.000 -10.078  -0.000   0.000  -0.000  -0.000 -10.364
  0.034   0.000  -0.000  -9.803  -0.189   0.033   0.000  -0.000
  0.000   0.034   0.000  -0.189  -9.940   0.000   0.033   0.000
 -0.000  -0.000  -0.001  -0.000   0.000  -0.000  -0.000  -0.000
 -0.000  -0.000  -0.001  -0.000   0.000  -0.000  -0.000  -0.001
 -0.000   0.002  -0.000   0.000  -0.001  -0.000   0.002  -0.000
  0.000   0.000   0.002  -0.000   0.000   0.000   0.000   0.002
 -0.001   0.000   0.000   0.002   0.000  -0.001   0.000   0.000
  0.000   0.002  -0.000   0.000  -0.001   0.000   0.002  -0.000
  0.000   0.000   0.003  -0.000   0.000   0.000   0.000   0.003
 -0.001   0.000   0.000   0.002  -0.000  -0.001   0.000   0.000
 pseudopotential strength for first ion, spin component:           2
 -7.960  -0.258   0.000  -0.045   0.000  -8.343  -0.249   0.000
 -0.258  -8.142  -0.000   0.000  -0.045  -0.249  -8.518  -0.000
  0.000  -0.000  -7.769  -0.000  -0.000   0.000  -0.000  -8.158
 -0.045   0.000  -0.000  -8.142   0.258  -0.044   0.000  -0.000
  0.000  -0.045  -0.000   0.258  -7.960   0.000  -0.044  -0.000
 -8.343  -0.249   0.000  -0.044   0.000  -8.687  -0.241   0.000
 -0.249  -8.518  -0.000   0.000  -0.044  -0.241  -8.856  -0.000
  0.000  -0.000  -8.158  -0.000  -0.000   0.000  -0.000  -8.509
 -0.044   0.000  -0.000  -8.518   0.249  -0.042   0.000  -0.000
  0.000  -0.044  -0.000   0.249  -8.343   0.000  -0.042  -0.000
  0.000  -0.000  -0.003  -0.000  -0.000   0.000  -0.000  -0.003
  0.000  -0.000  -0.006  -0.000  -0.000   0.000  -0.000  -0.007
 -0.000   0.000  -0.000   0.000  -0.001  -0.000   0.000  -0.000
  0.000   0.000  -0.000   0.000   0.000   0.000   0.000   0.000
 -0.001   0.000  -0.000   0.000   0.000  -0.001   0.000  -0.000
 -0.000  -0.000  -0.000   0.000  -0.001  -0.000  -0.000  -0.000
  0.000   0.000  -0.001   0.000   0.000   0.000   0.000  -0.001
 -0.001   0.000  -0.000  -0.000   0.000  -0.001   0.000  -0.000
 total augmentation occupancy for first ion, spin component:           1
  3.894  -1.153   0.000  -0.234   0.000  -2.974  -0.030  -0.000   0.042  -0.000   0.000   0.000   0.018  -0.000   0.056  -0.002
 -1.153   2.902   0.000  -0.000  -0.234  -0.027  -2.766  -0.000  -0.000   0.042   0.000   0.000  -0.010   0.000  -0.025   0.001
  0.000   0.000   4.614  -0.000  -0.000  -0.000  -0.000  -2.806  -0.000   0.000   0.146  -0.017  -0.000  -0.055   0.000   0.000
 -0.234   0.000  -0.000   2.902   1.153   0.042   0.000  -0.000  -2.766   0.027   0.000   0.000   0.025   0.000  -0.010  -0.001
  0.000  -0.234  -0.000   1.153   3.894   0.000   0.042   0.000   0.030  -2.974  -0.000   0.000   0.056   0.000  -0.018  -0.003
 -2.974  -0.027  -0.000   0.042   0.000   3.006   0.954   0.000   0.115  -0.000   0.000  -0.000  -0.026   0.000  -0.061   0.001
 -0.030  -2.766  -0.000   0.000   0.042   0.954   3.410  -0.000   0.000   0.115   0.000   0.000   0.002   0.000   0.016   0.000
 -0.000  -0.000  -2.806   0.000   0.000   0.000  -0.000   2.126   0.000  -0.000  -0.159   0.022   0.000   0.056  -0.000  -0.000
  0.042  -0.000  -0.000  -2.766   0.030   0.115  -0.000   0.000   3.410  -0.954   0.000   0.000  -0.016   0.000   0.002   0.001
 -0.000   0.042   0.000   0.027  -2.974   0.000   0.115  -0.000  -0.954   3.006   0.000  -0.000  -0.061  -0.000   0.026   0.003
  0.000   0.000   0.146   0.000  -0.000   0.000   0.000  -0.159   0.000   0.000   1.910  -0.233  -0.000   0.001  -0.000   0.000
  0.000   0.000  -0.017   0.000   0.000  -0.000   0.000   0.022   0.000  -0.000  -0.233   0.037  -0.000  -0.002  -0.000   0.000
  0.018  -0.010  -0.000   0.025   0.056  -0.026   0.002   0.000  -0.016  -0.061  -0.000  -0.000   0.298   0.000   0.000  -0.009
 -0.000   0.000  -0.055  -0.000   0.000   0.000  -0.000   0.056   0.000  -0.000   0.001  -0.002   0.000   0.278   0.000   0.000
  0.056  -0.025   0.000  -0.010  -0.018  -0.061   0.016  -0.000   0.002   0.026  -0.000  -0.000  -0.000   0.000   0.298  -0.000
 -0.002   0.001   0.000  -0.001  -0.003   0.001   0.000  -0.000   0.001   0.003   0.000   0.000  -0.009   0.000  -0.000   0.000
  0.000   0.000   0.003  -0.000  -0.000   0.000   0.000  -0.002   0.000   0.000  -0.000   0.000   0.000  -0.008  -0.000  -0.000
 -0.003   0.001  -0.000   0.001   0.002   0.003  -0.001   0.000   0.000  -0.001   0.000  -0.000   0.000  -0.000  -0.009  -0.000
 total augmentation occupancy for first ion, spin component:           2
  2.505  -2.094   0.000  -0.363   0.000  -1.095   1.217  -0.000   0.214  -0.003   0.000   0.000  -0.001   0.000   0.003  -0.001
 -2.094   1.051   0.000   0.000  -0.363   1.223  -0.254  -0.000  -0.003   0.213   0.000  -0.000  -0.010   0.000  -0.016   0.001
  0.000   0.000   4.013  -0.000  -0.000  -0.000  -0.000  -1.973   0.000   0.000   0.007   0.007   0.000  -0.021  -0.000   0.000
 -0.363   0.000  -0.000   1.051   2.094   0.213   0.003   0.000  -0.254  -1.223   0.000   0.000   0.016   0.000  -0.010  -0.000
  0.000  -0.363  -0.000   2.094   2.505   0.003   0.214   0.000  -1.217  -1.095  -0.000  -0.000   0.003   0.000   0.001  -0.001
 -1.095   1.223  -0.000   0.213   0.003   0.407  -0.756   0.000  -0.136  -0.000   0.000   0.000   0.003   0.000  -0.002   0.000
  1.217  -0.254  -0.000   0.003   0.214  -0.756  -0.108   0.000  -0.000  -0.136   0.000  -0.000   0.006   0.000   0.009  -0.001
 -0.000  -0.000  -1.973   0.000   0.000   0.000   0.000   0.964  -0.000  -0.000   0.009  -0.006   0.000   0.011   0.000   0.000
  0.214  -0.003   0.000  -0.254  -1.217  -0.136  -0.000  -0.000  -0.108   0.756   0.000   0.000  -0.009   0.000   0.006   0.000
 -0.003   0.213   0.000  -1.223  -1.095  -0.000  -0.136  -0.000   0.756   0.407  -0.000   0.000  -0.002  -0.000  -0.003   0.000
  0.000   0.000   0.007   0.000  -0.000   0.000   0.000   0.009   0.000  -0.000  -0.053   0.050  -0.000  -0.001   0.000   0.000
  0.000  -0.000   0.007   0.000  -0.000   0.000  -0.000  -0.006   0.000   0.000   0.050  -0.009   0.000  -0.000   0.000   0.000
 -0.001  -0.010  -0.000   0.016   0.003   0.003   0.006   0.000  -0.009  -0.002  -0.000   0.000   0.015   0.000  -0.000   0.002
  0.000   0.000  -0.021   0.000   0.000   0.000   0.000   0.011   0.000  -0.000  -0.001  -0.000  -0.000   0.013   0.000   0.000
  0.003  -0.016  -0.000  -0.010   0.001  -0.002   0.009   0.000   0.006  -0.003   0.000   0.000  -0.000   0.000   0.015   0.000
 -0.001   0.001   0.000  -0.000  -0.001   0.000  -0.001  -0.000   0.000   0.000   0.000   0.000   0.002   0.000   0.000  -0.000
  0.000  -0.000   0.002   0.000  -0.000   0.000  -0.000  -0.001   0.000   0.000   0.000  -0.000   0.000   0.001   0.000  -0.000
 -0.001   0.000  -0.000   0.001   0.001   0.000  -0.000   0.000  -0.001  -0.000  -0.000   0.000  -0.000   0.000   0.002   0.000


------------------------ aborting loop because EDIFF is reached ----------------------------------------


    CHARGE:  cpu time      0.0709: real time      0.0714
    FORLOC:  cpu time      0.0074: real time      0.0075
    FORNL :  cpu time      0.2688: real time      0.2713
    STRESS:  cpu time      0.8087: real time      0.8165
    FORCOR:  cpu time      0.1415: real time      0.1423
    FORHAR:  cpu time      0.0204: real time      0.0205
    MIXING:  cpu time      0.0083: real time      0.0084
    OFIELD:  cpu time      0.0001: real time      0.0001

 ---------------------------------------------------------------------------------------------

         DFTD3 V3.0 Rev 1        
 DF pbe       
 parameters
 k1-k3        =   16.0000    1.3333   -4.0000
 Edisp (eV)   -1.42537

 E6    (eV) :    -0.8687
 E8    (eV) :    -0.5567
 % E8        : 39.06
    FORVDW:  cpu time      0.0125: real time      0.0126

  FORCE on cell =-STRESS in cart. coord.  units (eV):
  Direction    XX          YY          ZZ          XY          YZ          ZX
  --------------------------------------------------------------------------------------
  Alpha Z    27.90262    27.90262    27.90262
  Ewald    8146.53059  8146.53059 -9870.86795    -0.00000    -0.00000    -0.00000
  Hartree  8754.16939  8754.16939 -8387.84879    -0.00000     0.00000     0.00000
  E(xc)    -211.77780  -211.77780  -213.19457    -0.00000    -0.00000    -0.00000
  Local  -17930.29159-17930.29149 17219.95568     0.00008     0.00000     0.00000
  n-local   473.14403   473.42731   474.46727    -0.25918     0.16619     0.07809
  augment   -59.53442   -59.53451   -59.66786    -0.00092    -0.00000    -0.00000
  Kinetic   801.41942   800.86784   809.19874     0.33030    -0.10310    -0.12094
  Fock        0.00000     0.00000     0.00000     0.00000     0.00000     0.00000
  vdW        -1.56125    -1.56125    -0.47456    -0.00000     0.00000    -0.00000
  -------------------------------------------------------------------------------------
  Total      -0.13317    -0.13317    -0.52941     0.00001    -0.00000     0.00000
  in kB      -0.33695    -0.33695    -1.33958     0.00002    -0.00000     0.00000
  external pressure =       -0.67 kB  Pullay stress =        0.00 kB


 VOLUME and BASIS-vectors are now :
 -----------------------------------------------------------------------------
  energy-cutoff  :      400.00
  volume of cell :      633.19
      direct lattice vectors                 reciprocal lattice vectors
     6.046274499  0.000000000  0.000000000     0.165391102  0.095488597  0.000000000
    -3.023137249  5.236227314  0.000000000     0.000000000  0.190977194  0.000000000
     0.000000000  0.000000000 20.000000000     0.000000000  0.000000000  0.050000000

  length of vectors
     6.046274499  6.046274499 20.000000000     0.190977194  0.190977194  0.050000000


 FORCES acting on ions
    electron-ion (+dipol)            ewald-force                    non-local-force                 convergence-correction
 -----------------------------------------------------------------------------------------------
   0.505E-07 -.367E-06 0.317E+02   -.671E-11 -.427E-12 -.322E+02   0.639E-17 -.310E-17 0.458E+00   0.649E-10 0.815E-10 0.935E-04
   0.396E-06 0.144E-05 -.197E+02   0.397E-11 -.228E-11 0.189E+02   0.205E-17 -.878E-18 0.795E+00   0.239E-09 0.399E-09 0.123E-03
   0.691E+02 -.141E+01 0.497E+03   -.710E+02 0.162E+01 -.500E+03   0.202E+01 -.199E+00 0.299E+01   -.156E-04 -.263E-04 0.231E-04
   -.333E+02 0.605E+02 0.497E+03   0.341E+02 -.623E+02 -.500E+03   -.840E+00 0.185E+01 0.299E+01   0.306E-04 -.324E-06 0.231E-04
   -.358E+02 -.591E+02 0.497E+03   0.369E+02 0.607E+02 -.500E+03   -.119E+01 -.165E+01 0.299E+01   -.150E-04 0.266E-04 0.231E-04
   -.756E+02 0.338E+01 -.466E+03   0.785E+02 -.461E+01 0.468E+03   -.289E+01 0.121E+01 -.278E+01   -.147E-05 -.697E-05 0.151E-03
   0.349E+02 -.672E+02 -.466E+03   -.352E+02 0.703E+02 0.468E+03   0.394E+00 -.310E+01 -.278E+01   0.677E-05 0.222E-05 0.151E-03
   0.407E+02 0.638E+02 -.466E+03   -.432E+02 -.657E+02 0.468E+03   0.249E+01 0.189E+01 -.278E+01   -.530E-05 0.476E-05 0.151E-03
   -.106E-08 -.162E-06 -.107E+03   0.107E-11 -.615E-12 0.109E+03   -.202E-18 -.252E-18 -.245E+01   0.198E-09 0.332E-09 0.256E-04
 -----------------------------------------------------------------------------------------------
   0.342E-06 0.439E-06 0.546E+00   0.186E-13 -.358E-14 -.256E-12   -.202E-18 -.252E-18 -.547E+00   0.388E-09 0.107E-08 0.763E-03
 
 
 POSITION                                       TOTAL-FORCE (eV/Angst)
 -----------------------------------------------------------------------------------
      0.00000      3.49082      9.92779        -0.000000      0.000000      0.010059
      3.02314      1.74541     10.11809        -0.000000      0.000000      0.007580
      2.19009      0.04150      8.67547         0.050118      0.010948      0.043532
      4.91529      1.87592      8.67547        -0.034540      0.037929      0.043532
      1.96403      3.31880      8.67547        -0.015578     -0.048877      0.043532
      0.98434      5.14230     11.27011        -0.007908     -0.014689     -0.032959
     -1.92239      3.51755     11.27011         0.016675      0.000496     -0.032959
      0.93805      1.81261     11.27011        -0.008767      0.014193     -0.032959
      3.02314      1.74541     11.66740        -0.000000      0.000000     -0.049356
 -----------------------------------------------------------------------------------
    total drift:                                0.000000      0.000000     -0.000605


--------------------------------------------------------------------------------------------------------



  FREE ENERGIE OF THE ION-ELECTRON SYSTEM (eV)
  ---------------------------------------------------
  free  energy   TOTEN  =       -42.23911858 eV

  energy  without entropy=      -42.23911858  energy(sigma->0) =      -42.23911858
 


--------------------------------------------------------------------------------------------------------


    POTLOK:  cpu time      0.2615: real time      0.2628


--------------------------------------------------------------------------------------------------------




--------------------------------------------------------------------------------------------------------


      MLFF:  cpu time      0.0008: real time      0.0025
    WAVPRE:  cpu time      0.0167: real time      0.0170
    FEWALD:  cpu time      0.0008: real time      0.0008

 real space projection operators:
  total allocation   :       3208.83 KBytes
  max/ min on nodes  :        804.79        800.52

    ORTHCH:  cpu time      0.0943: real time      0.0952
     LOOP+:  cpu time     45.3744: real time     45.7551


--------------------------------------- Ionic step        2  -------------------------------------------




--------------------------------------- Iteration      2(   1)  ---------------------------------------


    POTLOK:  cpu time      0.1533: real time      0.1544
    SETDIJ:  cpu time      0.1100: real time      0.1104
     EDDAV:  cpu time      1.0012: real time      1.0104
       DOS:  cpu time      0.0002: real time      0.0002
    CHARGE:  cpu time      0.0705: real time      0.0710
    MIXING:  cpu time      0.0055: real time      0.0056
    --------------------------------------------
      LOOP:  cpu time      1.3408: real time      1.3520

 eigenvalue-minimisations  :   720
 total energy-change (2. order) : 0.2738003E-03  (-0.8162886E-02)
 number of electron      55.0000011 magnetization       4.9999814
 augmentation part       -0.5259356 magnetization       3.5267843

 DIPCOR: dipole corrections for dipol
 direction  3 min pos     1,
 dipolmoment           0.000000      0.000000     -0.064539 electrons x Angstroem
 Tr[quadrupol]      -347.649764

 energy correction for charged system         0.000000 eV
 dipol+quadrupol energy correction           -0.000595 eV
 added-field ion interaction          0.014998 eV  (added to PSCEN)


 Broyden mixing:
  rms(total) = 0.18004E-01    rms(broyden)= 0.18002E-01
  rms(prec ) = 0.18159E-01
  weight for this iteration     100.00

 Free energy of the ion-electron system (eV)
  ---------------------------------------------------
  alpha Z        PSCENC =        27.91702608
  Ewald energy   TEWEN  =      6428.44464912
  -Hartree energ DENC   =     -9126.52406053
  -exchange      EXHF   =         0.00000000
  -V(xc)+E(xc)   XCENC  =        88.35386900
  PAW double counting   =      3767.44873748    -3729.92448187
  entropy T*S    EENTRO =        -0.00000000
  eigenvalues    EBANDS =      -521.07790744
  atomic energy  EATOM  =      3024.54869369
  Solvation  Ediel_sol  =         0.00000000
  ---------------------------------------------------
  free energy    TOTEN  =       -40.81347447 eV

  energy without entropy =      -40.81347447  energy(sigma->0) =      -40.81347447


--------------------------------------------------------------------------------------------------------




--------------------------------------- Iteration      2(   2)  ---------------------------------------


    POTLOK:  cpu time      0.1527: real time      0.1537
    SETDIJ:  cpu time      0.1094: real time      0.1097
     EDDAV:  cpu time      1.3562: real time      1.3686
       DOS:  cpu time      0.0002: real time      0.0002
    CHARGE:  cpu time      0.0696: real time      0.0700
    MIXING:  cpu time      0.0056: real time      0.0056
    --------------------------------------------
      LOOP:  cpu time      1.6937: real time      1.7080

 eigenvalue-minimisations  :  1076
 total energy-change (2. order) :-0.5244570E-03  (-0.6022752E-03)
 number of electron      55.0000011 magnetization       4.9999830
 augmentation part       -0.5357774 magnetization       3.5243790

 DIPCOR: dipole corrections for dipol
 direction  3 min pos     1,
 dipolmoment           0.000000      0.000000     -0.064222 electrons x Angstroem
 Tr[quadrupol]      -347.650077

 energy correction for charged system         0.000000 eV
 dipol+quadrupol energy correction           -0.000589 eV
 added-field ion interaction          0.014924 eV  (added to PSCEN)


 Broyden mixing:
  rms(total) = 0.12616E-01    rms(broyden)= 0.12614E-01
  rms(prec ) = 0.12858E-01
  weight for this iteration     100.00

 eigenvalues of (default mixing * dielectric matrix)
  average eigenvalue GAMMA=   0.5243
  0.5243

 Free energy of the ion-electron system (eV)
  ---------------------------------------------------
  alpha Z        PSCENC =        27.91695823
  Ewald energy   TEWEN  =      6428.44464912
  -Hartree energ DENC   =     -9126.58031732
  -exchange      EXHF   =         0.00000000
  -V(xc)+E(xc)   XCENC  =        88.34949101
  PAW double counting   =      3771.20948995    -3733.70954618
  entropy T*S    EENTRO =        -0.00000000
  eigenvalues    EBANDS =      -520.99341744
  atomic energy  EATOM  =      3024.54869369
  Solvation  Ediel_sol  =         0.00000000
  ---------------------------------------------------
  free energy    TOTEN  =       -40.81399893 eV

  energy without entropy =      -40.81399893  energy(sigma->0) =      -40.81399893


--------------------------------------------------------------------------------------------------------




--------------------------------------- Iteration      2(   3)  ---------------------------------------


    POTLOK:  cpu time      0.1528: real time      0.1538
    SETDIJ:  cpu time      0.1094: real time      0.1097
     EDDAV:  cpu time      1.3811: real time      1.3937
       DOS:  cpu time      0.0002: real time      0.0002
    CHARGE:  cpu time      0.0705: real time      0.0709
    MIXING:  cpu time      0.0056: real time      0.0057
    --------------------------------------------
      LOOP:  cpu time      1.7195: real time      1.7341

 eigenvalue-minimisations  :  1116
 total energy-change (2. order) : 0.3424004E-04  (-0.2110827E-04)
 number of electron      55.0000011 magnetization       4.9999842
 augmentation part       -0.5288977 magnetization       3.5252580

 DIPCOR: dipole corrections for dipol
 direction  3 min pos     1,
 dipolmoment           0.000000      0.000000     -0.063950 electrons x Angstroem
 Tr[quadrupol]      -347.650038

 energy correction for charged system         0.000000 eV
 dipol+quadrupol energy correction           -0.000584 eV
 added-field ion interaction          0.014861 eV  (added to PSCEN)


 Broyden mixing:
  rms(total) = 0.68369E-02    rms(broyden)= 0.68365E-02
  rms(prec ) = 0.70051E-02
  weight for this iteration     100.00

 eigenvalues of (default mixing * dielectric matrix)
  average eigenvalue GAMMA=   0.5699
  0.5699  0.5699

 Free energy of the ion-electron system (eV)
  ---------------------------------------------------
  alpha Z        PSCENC =        27.91690008
  Ewald energy   TEWEN  =      6428.44464912
  -Hartree energ DENC   =     -9126.54785515
  -exchange      EXHF   =         0.00000000
  -V(xc)+E(xc)   XCENC  =        88.34870475
  PAW double counting   =      3771.49697103    -3733.98287765
  entropy T*S    EENTRO =        -0.00000000
  eigenvalues    EBANDS =      -521.03915057
  atomic energy  EATOM  =      3024.54869369
  Solvation  Ediel_sol  =         0.00000000
  ---------------------------------------------------
  free energy    TOTEN  =       -40.81396469 eV

  energy without entropy =      -40.81396469  energy(sigma->0) =      -40.81396469


--------------------------------------------------------------------------------------------------------




--------------------------------------- Iteration      2(   4)  ---------------------------------------


    POTLOK:  cpu time      0.1518: real time      0.1528
    SETDIJ:  cpu time      0.1094: real time      0.1098
     EDDAV:  cpu time      1.3235: real time      1.3355
       DOS:  cpu time      0.0002: real time      0.0002
    CHARGE:  cpu time      0.0700: real time      0.0704
    MIXING:  cpu time      0.0057: real time      0.0058
    --------------------------------------------
      LOOP:  cpu time      1.6605: real time      1.6744

 eigenvalue-minimisations  :  1056
 total energy-change (2. order) : 0.1232061E-04  (-0.5356731E-05)
 number of electron      55.0000011 magnetization       4.9999859
 augmentation part       -0.5320868 magnetization       3.5249962

 DIPCOR: dipole corrections for dipol
 direction  3 min pos     1,
 dipolmoment           0.000000      0.000000     -0.063981 electrons x Angstroem
 Tr[quadrupol]      -347.651092

 energy correction for charged system         0.000000 eV
 dipol+quadrupol energy correction           -0.000585 eV
 added-field ion interaction          0.014868 eV  (added to PSCEN)


 Broyden mixing:
  rms(total) = 0.61107E-02    rms(broyden)= 0.61106E-02
  rms(prec ) = 0.62092E-02
  weight for this iteration     100.00

 eigenvalues of (default mixing * dielectric matrix)
  average eigenvalue GAMMA=   0.6042
  0.7183  0.7183  0.3761

 Free energy of the ion-electron system (eV)
  ---------------------------------------------------
  alpha Z        PSCENC =        27.91690668
  Ewald energy   TEWEN  =      6428.44464912
  -Hartree energ DENC   =     -9126.58525111
  -exchange      EXHF   =         0.00000000
  -V(xc)+E(xc)   XCENC  =        88.34817387
  PAW double counting   =      3771.44923086    -3733.94061991
  entropy T*S    EENTRO =        -0.00000000
  eigenvalues    EBANDS =      -520.99573556
  atomic energy  EATOM  =      3024.54869369
  Solvation  Ediel_sol  =         0.00000000
  ---------------------------------------------------
  free energy    TOTEN  =       -40.81395237 eV

  energy without entropy =      -40.81395237  energy(sigma->0) =      -40.81395237


--------------------------------------------------------------------------------------------------------




--------------------------------------- Iteration      2(   5)  ---------------------------------------


    POTLOK:  cpu time      0.1530: real time      0.1540
    SETDIJ:  cpu time      0.1095: real time      0.1098
     EDDAV:  cpu time      1.3836: real time      1.3966
       DOS:  cpu time      0.0002: real time      0.0002
    CHARGE:  cpu time      0.0703: real time      0.0707
    MIXING:  cpu time      0.0057: real time      0.0058
    --------------------------------------------
      LOOP:  cpu time      1.7222: real time      1.7371

 eigenvalue-minimisations  :  1120
 total energy-change (2. order) : 0.1124997E-04  (-0.2910485E-05)
 number of electron      55.0000011 magnetization       4.9999894
 augmentation part       -0.5311195 magnetization       3.5250961

 DIPCOR: dipole corrections for dipol
 direction  3 min pos     1,
 dipolmoment           0.000000      0.000000     -0.063916 electrons x Angstroem
 Tr[quadrupol]      -347.651512

 energy correction for charged system         0.000000 eV
 dipol+quadrupol energy correction           -0.000584 eV
 added-field ion interaction          0.014853 eV  (added to PSCEN)


 Broyden mixing:
  rms(total) = 0.44010E-02    rms(broyden)= 0.44009E-02
  rms(prec ) = 0.44350E-02
  weight for this iteration     100.00

 eigenvalues of (default mixing * dielectric matrix)
  average eigenvalue GAMMA=   0.9065
  1.3777  1.3777  0.4353  0.4353

 Free energy of the ion-electron system (eV)
  ---------------------------------------------------
  alpha Z        PSCENC =        27.91689270
  Ewald energy   TEWEN  =      6428.44464912
  -Hartree energ DENC   =     -9126.59473243
  -exchange      EXHF   =         0.00000000
  -V(xc)+E(xc)   XCENC  =        88.34828330
  PAW double counting   =      3771.38603266    -3733.87635186
  entropy T*S    EENTRO =        -0.00000000
  eigenvalues    EBANDS =      -520.98740829
  atomic energy  EATOM  =      3024.54869369
  Solvation  Ediel_sol  =         0.00000000
  ---------------------------------------------------
  free energy    TOTEN  =       -40.81394112 eV

  energy without entropy =      -40.81394112  energy(sigma->0) =      -40.81394112


--------------------------------------------------------------------------------------------------------




--------------------------------------- Iteration      2(   6)  ---------------------------------------


    POTLOK:  cpu time      0.1527: real time      0.1537
    SETDIJ:  cpu time      0.1095: real time      0.1099
     EDDAV:  cpu time      1.3780: real time      1.3906
       DOS:  cpu time      0.0002: real time      0.0002
    CHARGE:  cpu time      0.0699: real time      0.0703
    MIXING:  cpu time      0.0057: real time      0.0058
    --------------------------------------------
      LOOP:  cpu time      1.7160: real time      1.7304

 eigenvalue-minimisations  :  1108
 total energy-change (2. order) : 0.8080691E-05  (-0.2280672E-05)
 number of electron      55.0000011 magnetization       4.9999915
 augmentation part       -0.5307797 magnetization       3.5252440

 DIPCOR: dipole corrections for dipol
 direction  3 min pos     1,
 dipolmoment           0.000000      0.000000     -0.063842 electrons x Angstroem
 Tr[quadrupol]      -347.652172

 energy correction for charged system         0.000000 eV
 dipol+quadrupol energy correction           -0.000582 eV
 added-field ion interaction          0.014836 eV  (added to PSCEN)


 Broyden mixing:
  rms(total) = 0.14957E-02    rms(broyden)= 0.14957E-02
  rms(prec ) = 0.15158E-02
  weight for this iteration     100.00

 eigenvalues of (default mixing * dielectric matrix)
  average eigenvalue GAMMA=   0.9836
  1.9433  1.3281  0.7243  0.5359  0.3863

 Free energy of the ion-electron system (eV)
  ---------------------------------------------------
  alpha Z        PSCENC =        27.91687695
  Ewald energy   TEWEN  =      6428.44464912
  -Hartree energ DENC   =     -9126.61502491
  -exchange      EXHF   =         0.00000000
  -V(xc)+E(xc)   XCENC  =        88.34814521
  PAW double counting   =      3771.25551274    -3733.74542932
  entropy T*S    EENTRO =        -0.00000000
  eigenvalues    EBANDS =      -520.96735651
  atomic energy  EATOM  =      3024.54869369
  Solvation  Ediel_sol  =         0.00000000
  ---------------------------------------------------
  free energy    TOTEN  =       -40.81393304 eV

  energy without entropy =      -40.81393304  energy(sigma->0) =      -40.81393304


--------------------------------------------------------------------------------------------------------




--------------------------------------- Iteration      2(   7)  ---------------------------------------


    POTLOK:  cpu time      0.1523: real time      0.1533
    SETDIJ:  cpu time      0.1096: real time      0.1099
     EDDAV:  cpu time      0.8937: real time      0.9020
       DOS:  cpu time      0.0002: real time      0.0002
    CHARGE:  cpu time      0.0702: real time      0.0707
    MIXING:  cpu time      0.0058: real time      0.0058
    --------------------------------------------
      LOOP:  cpu time      1.2319: real time      1.2420

 eigenvalue-minimisations  :   616
 total energy-change (2. order) :-0.1553281E-05  (-0.2588534E-06)
 number of electron      55.0000011 magnetization       4.9999933
 augmentation part       -0.5302754 magnetization       3.5253240

 DIPCOR: dipole corrections for dipol
 direction  3 min pos     1,
 dipolmoment           0.000000      0.000000     -0.063788 electrons x Angstroem
 Tr[quadrupol]      -347.652053

 energy correction for charged system         0.000000 eV
 dipol+quadrupol energy correction           -0.000581 eV
 added-field ion interaction          0.014823 eV  (added to PSCEN)


 Broyden mixing:
  rms(total) = 0.34468E-03    rms(broyden)= 0.34461E-03
  rms(prec ) = 0.35172E-03
  weight for this iteration     100.00

 eigenvalues of (default mixing * dielectric matrix)
  average eigenvalue GAMMA=   1.0472
  2.3769  1.1519  1.1519  0.6876  0.5273  0.3874

 Free energy of the ion-electron system (eV)
  ---------------------------------------------------
  alpha Z        PSCENC =        27.91686547
  Ewald energy   TEWEN  =      6428.44464912
  -Hartree energ DENC   =     -9126.61098022
  -exchange      EXHF   =         0.00000000
  -V(xc)+E(xc)   XCENC  =        88.34820279
  PAW double counting   =      3771.25228776    -3733.74187976
  entropy T*S    EENTRO =        -0.00000000
  eigenvalues    EBANDS =      -520.97177344
  atomic energy  EATOM  =      3024.54869369
  Solvation  Ediel_sol  =         0.00000000
  ---------------------------------------------------
  free energy    TOTEN  =       -40.81393459 eV

  energy without entropy =      -40.81393459  energy(sigma->0) =      -40.81393459


--------------------------------------------------------------------------------------------------------




--------------------------------------- Iteration      2(   8)  ---------------------------------------


    POTLOK:  cpu time      0.1518: real time      0.1529
    SETDIJ:  cpu time      0.1095: real time      0.1098
     EDDAV:  cpu time      0.7248: real time      0.7313
       DOS:  cpu time      0.0002: real time      0.0002
    CHARGE:  cpu time      0.0699: real time      0.0703
    MIXING:  cpu time      0.0059: real time      0.0060
    --------------------------------------------
      LOOP:  cpu time      1.0621: real time      1.0705

 eigenvalue-minimisations  :   448
 total energy-change (2. order) :-0.4073514E-05  (-0.6651250E-07)
 number of electron      55.0000011 magnetization       4.9999946
 augmentation part       -0.5304404 magnetization       3.5252956

 DIPCOR: dipole corrections for dipol
 direction  3 min pos     1,
 dipolmoment           0.000000      0.000000     -0.063771 electrons x Angstroem
 Tr[quadrupol]      -347.652070

 energy correction for charged system         0.000000 eV
 dipol+quadrupol energy correction           -0.000581 eV
 added-field ion interaction          0.014819 eV  (added to PSCEN)


 Broyden mixing:
  rms(total) = 0.31080E-03    rms(broyden)= 0.31080E-03
  rms(prec ) = 0.31601E-03
  weight for this iteration     100.00

 eigenvalues of (default mixing * dielectric matrix)
  average eigenvalue GAMMA=   1.1208
  2.9652  1.2774  1.2774  0.3876  0.5261  0.7059  0.7059

 Free energy of the ion-electron system (eV)
  ---------------------------------------------------
  alpha Z        PSCENC =        27.91686172
  Ewald energy   TEWEN  =      6428.44464912
  -Hartree energ DENC   =     -9126.61150756
  -exchange      EXHF   =         0.00000000
  -V(xc)+E(xc)   XCENC  =        88.34812566
  PAW double counting   =      3771.37493558    -3733.86491582
  entropy T*S    EENTRO =        -0.00000000
  eigenvalues    EBANDS =      -520.97078105
  atomic energy  EATOM  =      3024.54869369
  Solvation  Ediel_sol  =         0.00000000
  ---------------------------------------------------
  free energy    TOTEN  =       -40.81393866 eV

  energy without entropy =      -40.81393866  energy(sigma->0) =      -40.81393866


--------------------------------------------------------------------------------------------------------




--------------------------------------- Iteration      2(   9)  ---------------------------------------


    POTLOK:  cpu time      0.1521: real time      0.1531
    SETDIJ:  cpu time      0.1093: real time      0.1096
     EDDAV:  cpu time      0.7434: real time      0.7501
       DOS:  cpu time      0.0002: real time      0.0002
    CHARGE:  cpu time      0.0701: real time      0.0706
    MIXING:  cpu time      0.0060: real time      0.0061
    --------------------------------------------
      LOOP:  cpu time      1.0811: real time      1.0897

 eigenvalue-minimisations  :   472
 total energy-change (2. order) :-0.3738370E-05  (-0.3248246E-07)
 number of electron      55.0000011 magnetization       4.9999952
 augmentation part       -0.5302824 magnetization       3.5253226

 DIPCOR: dipole corrections for dipol
 direction  3 min pos     1,
 dipolmoment           0.000000      0.000000     -0.063768 electrons x Angstroem
 Tr[quadrupol]      -347.652099

 energy correction for charged system         0.000000 eV
 dipol+quadrupol energy correction           -0.000581 eV
 added-field ion interaction          0.014818 eV  (added to PSCEN)


 Broyden mixing:
  rms(total) = 0.39495E-03    rms(broyden)= 0.39495E-03
  rms(prec ) = 0.39778E-03
  weight for this iteration     100.00

 eigenvalues of (default mixing * dielectric matrix)
  average eigenvalue GAMMA=   1.0987
  2.6720  1.4967  1.4967  0.8032  0.8032  0.3869  0.5655  0.5655

 Free energy of the ion-electron system (eV)
  ---------------------------------------------------
  alpha Z        PSCENC =        27.91686099
  Ewald energy   TEWEN  =      6428.44464912
  -Hartree energ DENC   =     -9126.61143981
  -exchange      EXHF   =         0.00000000
  -V(xc)+E(xc)   XCENC  =        88.34803980
  PAW double counting   =      3771.46546573    -3733.95509830
  entropy T*S    EENTRO =        -0.00000000
  eigenvalues    EBANDS =      -520.97111363
  atomic energy  EATOM  =      3024.54869369
  Solvation  Ediel_sol  =         0.00000000
  ---------------------------------------------------
  free energy    TOTEN  =       -40.81394240 eV

  energy without entropy =      -40.81394240  energy(sigma->0) =      -40.81394240


--------------------------------------------------------------------------------------------------------




--------------------------------------- Iteration      2(  10)  ---------------------------------------


    POTLOK:  cpu time      0.1520: real time      0.1543
    SETDIJ:  cpu time      0.1096: real time      0.1099
     EDDAV:  cpu time      0.7481: real time      0.7546
       DOS:  cpu time      0.0002: real time      0.0002
    CHARGE:  cpu time      0.0697: real time      0.0701
    MIXING:  cpu time      0.0062: real time      0.0063
    --------------------------------------------
      LOOP:  cpu time      1.0857: real time      1.0953

 eigenvalue-minimisations  :   476
 total energy-change (2. order) :-0.4065844E-05  (-0.2368783E-07)
 number of electron      55.0000011 magnetization       4.9999961
 augmentation part       -0.5303542 magnetization       3.5253121

 DIPCOR: dipole corrections for dipol
 direction  3 min pos     1,
 dipolmoment           0.000000      0.000000     -0.063777 electrons x Angstroem
 Tr[quadrupol]      -347.652091

 energy correction for charged system         0.000000 eV
 dipol+quadrupol energy correction           -0.000581 eV
 added-field ion interaction          0.014821 eV  (added to PSCEN)


 Broyden mixing:
  rms(total) = 0.18999E-03    rms(broyden)= 0.18999E-03
  rms(prec ) = 0.19133E-03
  weight for this iteration     100.00

 eigenvalues of (default mixing * dielectric matrix)
  average eigenvalue GAMMA=   1.1151
  2.6903  1.7408  1.7408  0.9227  0.9227  0.3871  0.5601  0.5601  0.5113

 Free energy of the ion-electron system (eV)
  ---------------------------------------------------
  alpha Z        PSCENC =        27.91686309
  Ewald energy   TEWEN  =      6428.44464912
  -Hartree energ DENC   =     -9126.61115270
  -exchange      EXHF   =         0.00000000
  -V(xc)+E(xc)   XCENC  =        88.34803438
  PAW double counting   =      3771.52983848    -3734.01950199
  entropy T*S    EENTRO =        -0.00000000
  eigenvalues    EBANDS =      -520.97137053
  atomic energy  EATOM  =      3024.54869369
  Solvation  Ediel_sol  =         0.00000000
  ---------------------------------------------------
  free energy    TOTEN  =       -40.81394647 eV

  energy without entropy =      -40.81394647  energy(sigma->0) =      -40.81394647


--------------------------------------------------------------------------------------------------------




--------------------------------------- Iteration      2(  11)  ---------------------------------------


    POTLOK:  cpu time      0.1519: real time      0.1529
    SETDIJ:  cpu time      0.1091: real time      0.1094
     EDDAV:  cpu time      0.7509: real time      0.7575
       DOS:  cpu time      0.0002: real time      0.0002
    CHARGE:  cpu time      0.0703: real time      0.0708
    MIXING:  cpu time      0.0061: real time      0.0062
    --------------------------------------------
      LOOP:  cpu time      1.0886: real time      1.0970

 eigenvalue-minimisations  :   480
 total energy-change (2. order) :-0.3524899E-05  (-0.1512357E-07)
 number of electron      55.0000011 magnetization       4.9999971
 augmentation part       -0.5303385 magnetization       3.5253256

 DIPCOR: dipole corrections for dipol
 direction  3 min pos     1,
 dipolmoment           0.000000      0.000000     -0.063778 electrons x Angstroem
 Tr[quadrupol]      -347.652120

 energy correction for charged system         0.000000 eV
 dipol+quadrupol energy correction           -0.000581 eV
 added-field ion interaction          0.014821 eV  (added to PSCEN)


 Broyden mixing:
  rms(total) = 0.13639E-03    rms(broyden)= 0.13639E-03
  rms(prec ) = 0.13729E-03
  weight for this iteration     100.00

 eigenvalues of (default mixing * dielectric matrix)
  average eigenvalue GAMMA=   1.1648
  2.4597  2.1228  2.1228  1.1198  1.1198  0.6595  0.6595  0.3868  0.5078  0.4895

 Free energy of the ion-electron system (eV)
  ---------------------------------------------------
  alpha Z        PSCENC =        27.91686315
  Ewald energy   TEWEN  =      6428.44464912
  -Hartree energ DENC   =     -9126.61176931
  -exchange      EXHF   =         0.00000000
  -V(xc)+E(xc)   XCENC  =        88.34801854
  PAW double counting   =      3771.59251313    -3734.08214195
  entropy T*S    EENTRO =        -0.00000000
  eigenvalues    EBANDS =      -520.97077637
  atomic energy  EATOM  =      3024.54869369
  Solvation  Ediel_sol  =         0.00000000
  ---------------------------------------------------
  free energy    TOTEN  =       -40.81394999 eV

  energy without entropy =      -40.81394999  energy(sigma->0) =      -40.81394999


--------------------------------------------------------------------------------------------------------




--------------------------------------- Iteration      2(  12)  ---------------------------------------


    POTLOK:  cpu time      0.1519: real time      0.1529
    SETDIJ:  cpu time      0.1094: real time      0.1097
     EDDAV:  cpu time      0.7422: real time      0.7485
       DOS:  cpu time      0.0002: real time      0.0002
    CHARGE:  cpu time      0.0696: real time      0.0700
    MIXING:  cpu time      0.0063: real time      0.0064
    --------------------------------------------
      LOOP:  cpu time      1.0795: real time      1.0878

 eigenvalue-minimisations  :   468
 total energy-change (2. order) :-0.3497010E-05  (-0.1126412E-07)
 number of electron      55.0000011 magnetization       4.9999976
 augmentation part       -0.5303618 magnetization       3.5253200

 DIPCOR: dipole corrections for dipol
 direction  3 min pos     1,
 dipolmoment           0.000000      0.000000     -0.063776 electrons x Angstroem
 Tr[quadrupol]      -347.652143

 energy correction for charged system         0.000000 eV
 dipol+quadrupol energy correction           -0.000581 eV
 added-field ion interaction          0.014820 eV  (added to PSCEN)


 Broyden mixing:
  rms(total) = 0.61273E-04    rms(broyden)= 0.61270E-04
  rms(prec ) = 0.62062E-04
  weight for this iteration     100.00

 eigenvalues of (default mixing * dielectric matrix)
  average eigenvalue GAMMA=   1.1757
  2.9901  2.1308  2.1308  1.1757  1.1757  0.6979  0.6979  0.5911  0.5524  0.3870
  0.4032

 Free energy of the ion-electron system (eV)
  ---------------------------------------------------
  alpha Z        PSCENC =        27.91686276
  Ewald energy   TEWEN  =      6428.44464912
  -Hartree energ DENC   =     -9126.61258778
  -exchange      EXHF   =         0.00000000
  -V(xc)+E(xc)   XCENC  =        88.34804151
  PAW double counting   =      3771.64058431    -3734.13024782
  entropy T*S    EENTRO =        -0.00000000
  eigenvalues    EBANDS =      -520.96994928
  atomic energy  EATOM  =      3024.54869369
  Solvation  Ediel_sol  =         0.00000000
  ---------------------------------------------------
  free energy    TOTEN  =       -40.81395349 eV

  energy without entropy =      -40.81395349  energy(sigma->0) =      -40.81395349


--------------------------------------------------------------------------------------------------------




--------------------------------------- Iteration      2(  13)  ---------------------------------------


    POTLOK:  cpu time      0.1523: real time      0.1534
    SETDIJ:  cpu time      0.1088: real time      0.1091
     EDDAV:  cpu time      0.7530: real time      0.7597
       DOS:  cpu time      0.0002: real time      0.0002
    CHARGE:  cpu time      0.0703: real time      0.0707
    MIXING:  cpu time      0.0065: real time      0.0066
    --------------------------------------------
      LOOP:  cpu time      1.0910: real time      1.0997

 eigenvalue-minimisations  :   480
 total energy-change (2. order) :-0.1609790E-05  (-0.5965753E-08)
 number of electron      55.0000011 magnetization       4.9999979
 augmentation part       -0.5303570 magnetization       3.5253239

 DIPCOR: dipole corrections for dipol
 direction  3 min pos     1,
 dipolmoment           0.000000      0.000000     -0.063773 electrons x Angstroem
 Tr[quadrupol]      -347.652169

 energy correction for charged system         0.000000 eV
 dipol+quadrupol energy correction           -0.000581 eV
 added-field ion interaction          0.014820 eV  (added to PSCEN)


 Broyden mixing:
  rms(total) = 0.31849E-04    rms(broyden)= 0.31847E-04
  rms(prec ) = 0.32454E-04
  weight for this iteration     100.00

 eigenvalues of (default mixing * dielectric matrix)
  average eigenvalue GAMMA=   1.1534
  2.4446  2.4446  2.4155  1.2105  1.2105  0.7892  0.7892  0.6079  0.6079  0.5357
  0.3868  0.3980

 Free energy of the ion-electron system (eV)
  ---------------------------------------------------
  alpha Z        PSCENC =        27.91686218
  Ewald energy   TEWEN  =      6428.44464912
  -Hartree energ DENC   =     -9126.61350686
  -exchange      EXHF   =         0.00000000
  -V(xc)+E(xc)   XCENC  =        88.34804404
  PAW double counting   =      3771.65116221    -3734.14084281
  entropy T*S    EENTRO =        -0.00000000
  eigenvalues    EBANDS =      -520.96901668
  atomic energy  EATOM  =      3024.54869369
  Solvation  Ediel_sol  =         0.00000000
  ---------------------------------------------------
  free energy    TOTEN  =       -40.81395510 eV

  energy without entropy =      -40.81395510  energy(sigma->0) =      -40.81395510


--------------------------------------------------------------------------------------------------------




--------------------------------------- Iteration      2(  14)  ---------------------------------------


    POTLOK:  cpu time      0.1517: real time      0.1527
    SETDIJ:  cpu time      0.1096: real time      0.1099
     EDDAV:  cpu time      0.7522: real time      0.7588
       DOS:  cpu time      0.0002: real time      0.0002
    --------------------------------------------
      LOOP:  cpu time      1.0135: real time      1.0215

 eigenvalue-minimisations  :   480
 total energy-change (2. order) :-0.7930225E-06  (-0.3037651E-08)
 number of electron      55.0000011 magnetization       4.9999979
 augmentation part       -0.5303570 magnetization       3.5253239

 DIPCOR: dipole corrections for dipol
 direction  3 min pos     1,
 dipolmoment           0.000000      0.000000     -0.063772 electrons x Angstroem
 Tr[quadrupol]      -347.652186

 energy correction for charged system         0.000000 eV
 dipol+quadrupol energy correction           -0.000581 eV
 added-field ion interaction          0.014819 eV  (added to PSCEN)


 Free energy of the ion-electron system (eV)
  ---------------------------------------------------
  alpha Z        PSCENC =        27.91686188
  Ewald energy   TEWEN  =      6428.44464912
  -Hartree energ DENC   =     -9126.61414546
  -exchange      EXHF   =         0.00000000
  -V(xc)+E(xc)   XCENC  =        88.34805468
  PAW double counting   =      3771.64793661    -3734.13763958
  entropy T*S    EENTRO =        -0.00000000
  eigenvalues    EBANDS =      -520.96836682
  atomic energy  EATOM  =      3024.54869369
  Solvation  Ediel_sol  =         0.00000000
  ---------------------------------------------------
  free energy    TOTEN  =       -40.81395589 eV

  energy without entropy =      -40.81395589  energy(sigma->0) =      -40.81395589


--------------------------------------------------------------------------------------------------------




 average (electrostatic) potential at core
  the test charge radii are     1.1394  0.9406  0.5201
  (the norm of the test charge is              1.0000)
       1 -52.6813       2 -52.7124       3 -99.1190       4 -99.1190       5 -99.1190
       6 -99.3678       7 -99.3678       8 -99.3678       9 -40.6474
 
 
 
 E-fermi :  -3.9527     XC(G=0):  -2.9617     alpha+bet : -2.4254

 val. band max:       -4.2332558891   @ k =   0.4000   0.0000   0.0000
 cond. band min:      -2.4434563291   @ k =   0.4000   0.0000   0.0000
 fundamental gap:      1.7897995601
 Fermi energy:        -3.9526908319

 spin component 1

 k-point     1 :       0.0000    0.0000    0.0000
  band No.  band energies     occupation 
      1     -19.6399      1.00000
      2     -18.7115      1.00000
      3     -18.6669      1.00000
      4     -18.6669      1.00000
      5     -18.4008      1.00000
      6     -18.4008      1.00000
      7      -9.9320      1.00000
      8      -8.7918      1.00000
      9      -8.5118      1.00000
     10      -8.5118      1.00000
     11      -8.2960      1.00000
     12      -8.2960      1.00000
     13      -8.2216      1.00000
     14      -7.8202      1.00000
     15      -7.8202      1.00000
     16      -7.7435      1.00000
     17      -7.0544      1.00000
     18      -7.0544      1.00000
     19      -6.4007      1.00000
     20      -6.0576      1.00000
     21      -5.9123      1.00000
     22      -5.9123      1.00000
     23      -5.5437      1.00000
     24      -5.5437      1.00000
     25      -5.1699      1.00000
     26      -4.7124      1.00000
     27      -4.6735      1.00000
     28      -4.6735      1.00000
     29      -4.3580      1.00000
     30      -4.3580      1.00000
     31      -2.3843      0.00000
     32      -2.3843      0.00000
     33      -2.1281      0.00000
     34      -2.1281      0.00000
     35      -0.6974      0.00000
     36       1.7110      0.00000

 k-point     2 :       0.2000    0.0000    0.0000
  band No.  band energies     occupation 
      1     -19.5546      1.00000
      2     -18.7466      1.00000
      3     -18.7040      1.00000
      4     -18.6679      1.00000
      5     -18.4312      1.00000
      6     -18.4131      1.00000
      7      -9.9145      1.00000
      8      -8.8335      1.00000
      9      -8.6241      1.00000
     10      -8.4733      1.00000
     11      -8.3504      1.00000
     12      -8.2641      1.00000
     13      -7.9982      1.00000
     14      -7.8810      1.00000
     15      -7.7639      1.00000
     16      -7.4238      1.00000
     17      -7.1017      1.00000
     18      -6.8699      1.00000
     19      -6.3968      1.00000
     20      -6.2574      1.00000
     21      -6.1429      1.00000
     22      -5.9928      1.00000
     23      -5.7425      1.00000
     24      -5.6403      1.00000
     25      -5.0600      1.00000
     26      -4.7221      1.00000
     27      -4.6241      1.00000
     28      -4.5194      1.00000
     29      -4.3746      1.00000
     30      -4.3110      1.00000
     31      -2.3869      0.00000
     32      -2.3740      0.00000
     33      -2.2929      0.00000
     34      -2.1565      0.00000
     35      -0.5413      0.00000
     36       1.9351      0.00000

 k-point     3 :       0.4000    0.0000    0.0000
  band No.  band energies     occupation 
      1     -19.3389      1.00000
      2     -18.9641      1.00000
      3     -18.7371      1.00000
      4     -18.6007      1.00000
      5     -18.4913      1.00000
      6     -18.4354      1.00000
      7      -9.8755      1.00000
      8      -8.8754      1.00000
      9      -8.6099      1.00000
     10      -8.4440      1.00000
     11      -8.3246      1.00000
     12      -8.1166      1.00000
     13      -8.0344      1.00000
     14      -7.8254      1.00000
     15      -7.5198      1.00000
     16      -7.3755      1.00000
     17      -7.0394      1.00000
     18      -6.8127      1.00000
     19      -6.6293      1.00000
     20      -6.5517      1.00000
     21      -6.1299      1.00000
     22      -6.1143      1.00000
     23      -5.6655      1.00000
     24      -5.6309      1.00000
     25      -5.1295      1.00000
     26      -4.7358      1.00000
     27      -4.6410      1.00000
     28      -4.4325      1.00000
     29      -4.3893      1.00000
     30      -4.2333      1.00000
     31      -2.4435      0.00000
     32      -2.3619      0.00000
     33      -2.3063      0.00000
     34      -2.2414      0.00000
     35      -0.4604      0.00000
     36       2.4979      0.00000

 k-point     4 :       0.2000    0.2000    0.0000
  band No.  band energies     occupation 
      1     -19.4006      1.00000
      2     -18.8704      1.00000
      3     -18.7669      1.00000
      4     -18.6188      1.00000
      5     -18.4679      1.00000
      6     -18.4336      1.00000
      7      -9.8467      1.00000
      8      -8.9171      1.00000
      9      -8.6118      1.00000
     10      -8.4824      1.00000
     11      -8.3519      1.00000
     12      -8.1361      1.00000
     13      -8.0323      1.00000
     14      -7.9272      1.00000
     15      -7.4280      1.00000
     16      -7.2979      1.00000
     17      -7.0715      1.00000
     18      -6.8006      1.00000
     19      -6.7096      1.00000
     20      -6.2220      1.00000
     21      -6.1992      1.00000
     22      -6.1196      1.00000
     23      -5.9024      1.00000
     24      -5.6682      1.00000
     25      -4.9678      1.00000
     26      -4.7658      1.00000
     27      -4.5993      1.00000
     28      -4.4552      1.00000
     29      -4.3624      1.00000
     30      -4.2889      1.00000
     31      -2.4308      0.00000
     32      -2.3712      0.00000
     33      -2.3285      0.00000
     34      -2.1804      0.00000
     35      -0.4814      0.00000
     36       2.3161      0.00000

 k-point     5 :       0.4000    0.2000    0.0000
  band No.  band energies     occupation 
      1     -19.2095      1.00000
      2     -19.0479      1.00000
      3     -18.8067      1.00000
      4     -18.5666      1.00000
      5     -18.5028      1.00000
      6     -18.4504      1.00000
      7      -9.7733      1.00000
      8      -8.9060      1.00000
      9      -8.6042      1.00000
     10      -8.5249      1.00000
     11      -8.3215      1.00000
     12      -8.1154      1.00000
     13      -8.0475      1.00000
     14      -7.8917      1.00000
     15      -7.6559      1.00000
     16      -7.1023      1.00000
     17      -7.0151      1.00000
     18      -6.6865      1.00000
     19      -6.6300      1.00000
     20      -6.5215      1.00000
     21      -6.1434      1.00000
     22      -6.0634      1.00000
     23      -5.9004      1.00000
     24      -5.7811      1.00000
     25      -4.9524      1.00000
     26      -4.7449      1.00000
     27      -4.6098      1.00000
     28      -4.4377      1.00000
     29      -4.3773      1.00000
     30      -4.2840      1.00000
     31      -2.4383      0.00000
     32      -2.3597      0.00000
     33      -2.3253      0.00000
     34      -2.1677      0.00000
     35      -0.5254      0.00000
     36       2.8182      0.00000
 Fermi energy:        -3.9526908319

 spin component 2

 k-point     1 :       0.0000    0.0000    0.0000
  band No.  band energies     occupation 
      1     -19.6332      1.00000
      2     -18.7332      1.00000
      3     -18.6913      1.00000
      4     -18.6913      1.00000
      5     -18.4152      1.00000
      6     -18.4152      1.00000
      7      -9.8885      1.00000
      8      -8.5619      1.00000
      9      -8.3219      1.00000
     10      -8.3219      1.00000
     11      -8.1808      1.00000
     12      -8.0538      1.00000
     13      -8.0538      1.00000
     14      -7.5888      1.00000
     15      -7.4531      1.00000
     16      -7.4531      1.00000
     17      -6.7904      1.00000
     18      -6.7904      1.00000
     19      -6.3465      1.00000
     20      -6.0388      1.00000
     21      -5.7448      1.00000
     22      -5.7448      1.00000
     23      -5.4644      1.00000
     24      -5.4644      1.00000
     25      -4.4187      1.00000
     26      -2.1028      0.00000
     27      -2.1028      0.00000
     28      -1.8381      0.00000
     29      -1.7307      0.00000
     30      -1.7307      0.00000
     31      -1.2438      0.00000
     32      -1.2438      0.00000
     33      -0.9289      0.00000
     34      -0.9289      0.00000
     35      -0.3020      0.00000
     36       1.7588      0.00000

 k-point     2 :       0.2000    0.0000    0.0000
  band No.  band energies     occupation 
      1     -19.5498      1.00000
      2     -18.7680      1.00000
      3     -18.7267      1.00000
      4     -18.6913      1.00000
      5     -18.4454      1.00000
      6     -18.4272      1.00000
      7      -9.8768      1.00000
      8      -8.6309      1.00000
      9      -8.4512      1.00000
     10      -8.2933      1.00000
     11      -8.1416      1.00000
     12      -8.0512      1.00000
     13      -7.7201      1.00000
     14      -7.5994      1.00000
     15      -7.4604      1.00000
     16      -7.2232      1.00000
     17      -6.8531      1.00000
     18      -6.6806      1.00000
     19      -6.2771      1.00000
     20      -6.1133      1.00000
     21      -6.0040      1.00000
     22      -5.7981      1.00000
     23      -5.6452      1.00000
     24      -5.5357      1.00000
     25      -4.3169      1.00000
     26      -2.1182      0.00000
     27      -2.0540      0.00000
     28      -1.7912      0.00000
     29      -1.7604      0.00000
     30      -1.7373      0.00000
     31      -1.2807      0.00000
     32      -1.2638      0.00000
     33      -1.0620      0.00000
     34      -0.9540      0.00000
     35      -0.1214      0.00000
     36       1.9669      0.00000

 k-point     3 :       0.4000    0.0000    0.0000
  band No.  band energies     occupation 
      1     -19.3389      1.00000
      2     -18.9788      1.00000
      3     -18.7606      1.00000
      4     -18.6218      1.00000
      5     -18.5068      1.00000
      6     -18.4489      1.00000
      7      -9.8421      1.00000
      8      -8.6933      1.00000
      9      -8.4311      1.00000
     10      -8.2353      1.00000
     11      -8.1060      1.00000
     12      -7.8978      1.00000
     13      -7.7674      1.00000
     14      -7.5727      1.00000
     15      -7.2097      1.00000
     16      -7.1057      1.00000
     17      -6.8030      1.00000
     18      -6.6373      1.00000
     19      -6.5159      1.00000
     20      -6.3194      1.00000
     21      -6.0806      1.00000
     22      -5.9040      1.00000
     23      -5.5922      1.00000
     24      -5.5334      1.00000
     25      -4.3309      1.00000
     26      -2.2157      0.00000
     27      -2.0211      0.00000
     28      -1.8167      0.00000
     29      -1.7805      0.00000
     30      -1.6845      0.00000
     31      -1.3434      0.00000
     32      -1.2697      0.00000
     33      -1.0825      0.00000
     34      -0.9959      0.00000
     35      -0.0027      0.00000
     36       2.5275      0.00000

 k-point     4 :       0.2000    0.2000    0.0000
  band No.  band energies     occupation 
      1     -19.3994      1.00000
      2     -18.8868      1.00000
      3     -18.7896      1.00000
      4     -18.6405      1.00000
      5     -18.4832      1.00000
      6     -18.4475      1.00000
      7      -9.8223      1.00000
      8      -8.7148      1.00000
      9      -8.4443      1.00000
     10      -8.2769      1.00000
     11      -8.1302      1.00000
     12      -7.9036      1.00000
     13      -7.7883      1.00000
     14      -7.6137      1.00000
     15      -7.1651      1.00000
     16      -7.0371      1.00000
     17      -6.8395      1.00000
     18      -6.6838      1.00000
     19      -6.5492      1.00000
     20      -6.1810      1.00000
     21      -5.9852      1.00000
     22      -5.8715      1.00000
     23      -5.6698      1.00000
     24      -5.6142      1.00000
     25      -4.3071      1.00000
     26      -2.1735      0.00000
     27      -2.0431      0.00000
     28      -1.8458      0.00000
     29      -1.7574      0.00000
     30      -1.6946      0.00000
     31      -1.3156      0.00000
     32      -1.2557      0.00000
     33      -1.0902      0.00000
     34      -0.9804      0.00000
     35      -0.0321      0.00000
     36       2.3424      0.00000

 k-point     5 :       0.4000    0.2000    0.0000
  band No.  band energies     occupation 
      1     -19.2120      1.00000
      2     -19.0593      1.00000
      3     -18.8293      1.00000
      4     -18.5875      1.00000
      5     -18.5191      1.00000
      6     -18.4640      1.00000
      7      -9.7611      1.00000
      8      -8.7090      1.00000
      9      -8.4076      1.00000
     10      -8.2828      1.00000
     11      -8.1550      1.00000
     12      -7.9045      1.00000
     13      -7.7685      1.00000
     14      -7.5938      1.00000
     15      -7.3873      1.00000
     16      -6.9230      1.00000
     17      -6.8148      1.00000
     18      -6.5402      1.00000
     19      -6.4281      1.00000
     20      -6.2346      1.00000
     21      -6.0687      1.00000
     22      -5.8902      1.00000
     23      -5.6954      1.00000
     24      -5.6110      1.00000
     25      -4.3433      1.00000
     26      -2.2275      0.00000
     27      -2.0587      0.00000
     28      -1.8729      0.00000
     29      -1.7557      0.00000
     30      -1.6974      0.00000
     31      -1.3028      0.00000
     32      -1.2252      0.00000
     33      -1.0947      0.00000
     34      -0.9651      0.00000
     35      -0.0483      0.00000
     36       2.9459      0.00000


--------------------------------------------------------------------------------------------------------


 soft charge-density along one line, spin component           1
         0         1         2         3         4         5         6         7         8         9
 total charge-density along one line
 
 soft charge-density along one line, spin component           2
         0         1         2         3         4         5         6         7         8         9
 total charge-density along one line
 
 pseudopotential strength for first ion, spin component:           1
 -9.609   0.195  -0.000   0.035   0.000  -9.937   0.189  -0.000
  0.195  -9.467  -0.000   0.000   0.035   0.189  -9.800  -0.000
 -0.000  -0.000  -9.751  -0.000   0.000  -0.000  -0.000 -10.074
  0.035   0.000  -0.000  -9.467  -0.195   0.034   0.000  -0.000
  0.000   0.035   0.000  -0.195  -9.609   0.000   0.034   0.000
 -9.937   0.189  -0.000   0.034   0.000 -10.228   0.182  -0.000
  0.189  -9.800  -0.000   0.000   0.034   0.182 -10.096  -0.000
 -0.000  -0.000 -10.074  -0.000   0.000  -0.000  -0.000 -10.361
  0.034   0.000  -0.000  -9.800  -0.189   0.033   0.000  -0.000
  0.000   0.034   0.000  -0.189  -9.937   0.000   0.033   0.000
 -0.000  -0.000  -0.001  -0.000   0.000  -0.000  -0.000  -0.001
 -0.000  -0.000  -0.001  -0.000   0.000  -0.000  -0.000  -0.001
 -0.000   0.002  -0.000   0.000  -0.001  -0.000   0.002  -0.000
  0.000   0.000   0.002   0.000   0.000   0.000   0.000   0.002
 -0.001   0.000   0.000   0.002   0.000  -0.001   0.000   0.000
  0.000   0.002  -0.000   0.000  -0.001   0.000   0.002  -0.000
  0.000   0.000   0.003  -0.000   0.000   0.000   0.000   0.003
 -0.001   0.000   0.000   0.002  -0.000  -0.001   0.000   0.000
 pseudopotential strength for first ion, spin component:           2
 -7.958  -0.258   0.000  -0.046   0.000  -8.341  -0.250   0.000
 -0.258  -8.139  -0.000   0.000  -0.046  -0.250  -8.516  -0.000
  0.000  -0.000  -7.766  -0.000  -0.000   0.000  -0.000  -8.156
 -0.046   0.000  -0.000  -8.139   0.258  -0.044   0.000  -0.000
  0.000  -0.046  -0.000   0.258  -7.958   0.000  -0.044  -0.000
 -8.341  -0.250   0.000  -0.044   0.000  -8.685  -0.241   0.000
 -0.250  -8.516  -0.000   0.000  -0.044  -0.241  -8.854  -0.000
  0.000  -0.000  -8.156  -0.000  -0.000   0.000  -0.000  -8.507
 -0.044   0.000  -0.000  -8.516   0.250  -0.042   0.000  -0.000
  0.000  -0.044  -0.000   0.250  -8.341   0.000  -0.042  -0.000
  0.000  -0.000  -0.003  -0.000  -0.000   0.000  -0.000  -0.003
  0.000  -0.000  -0.006  -0.000  -0.000   0.000  -0.000  -0.007
 -0.000   0.000  -0.000   0.000  -0.001  -0.000   0.000  -0.000
  0.000   0.000  -0.000   0.000   0.000   0.000   0.000   0.000
 -0.001   0.000  -0.000   0.000   0.000  -0.001   0.000  -0.000
 -0.000  -0.000  -0.000   0.000  -0.001  -0.000  -0.000  -0.000
  0.000   0.000  -0.001   0.000   0.000   0.000   0.000  -0.001
 -0.001   0.000  -0.000  -0.000   0.000  -0.001   0.000  -0.000
 total augmentation occupancy for first ion, spin component:           1
  3.900  -1.146   0.000  -0.235   0.000  -2.985  -0.039  -0.000   0.040  -0.000   0.000   0.000   0.018   0.000   0.057  -0.002
 -1.146   2.914   0.000   0.000  -0.235  -0.036  -2.781  -0.000  -0.000   0.041  -0.000   0.000  -0.011   0.000  -0.025   0.001
  0.000   0.000   4.611  -0.000  -0.000  -0.000  -0.000  -2.807  -0.000   0.000   0.149  -0.017  -0.000  -0.055   0.000   0.000
 -0.235  -0.000  -0.000   2.914   1.146   0.041   0.000  -0.000  -2.781   0.036   0.000   0.000   0.025  -0.000  -0.011  -0.001
 -0.000  -0.235  -0.000   1.146   3.900   0.000   0.040   0.000   0.039  -2.985  -0.000   0.000   0.057   0.000  -0.018  -0.004
 -2.985  -0.036  -0.000   0.041   0.000   3.021   0.964   0.000   0.118   0.000   0.000   0.000  -0.025   0.000  -0.063   0.001
 -0.039  -2.781  -0.000   0.000   0.040   0.964   3.428  -0.000  -0.000   0.118   0.000   0.000   0.002   0.000   0.016   0.000
 -0.000  -0.000  -2.807  -0.000   0.000   0.000  -0.000   2.130   0.000  -0.000  -0.162   0.023   0.000   0.056  -0.000  -0.000
  0.040  -0.000  -0.000  -2.781   0.039   0.118   0.000   0.000   3.428  -0.964   0.000   0.000  -0.016   0.000   0.002   0.001
 -0.000   0.041   0.000   0.036  -2.985  -0.000   0.118  -0.000  -0.964   3.021   0.000  -0.000  -0.063  -0.000   0.025   0.003
  0.000  -0.000   0.149   0.000  -0.000   0.000   0.000  -0.162   0.000   0.000   1.917  -0.234   0.000   0.001   0.000   0.000
  0.000   0.000  -0.017   0.000   0.000   0.000   0.000   0.023   0.000  -0.000  -0.234   0.037  -0.000  -0.002   0.000   0.000
  0.018  -0.011  -0.000   0.025   0.057  -0.025   0.002   0.000  -0.016  -0.063   0.000  -0.000   0.300   0.000  -0.000  -0.009
  0.000   0.000  -0.055  -0.000   0.000   0.000   0.000   0.056   0.000  -0.000   0.001  -0.002   0.000   0.279   0.000   0.000
  0.057  -0.025   0.000  -0.011  -0.018  -0.063   0.016  -0.000   0.002   0.025   0.000   0.000   0.000   0.000   0.300  -0.000
 -0.002   0.001   0.000  -0.001  -0.004   0.001   0.000  -0.000   0.001   0.003   0.000   0.000  -0.009   0.000  -0.000   0.000
  0.000   0.000   0.003  -0.000  -0.000  -0.000   0.000  -0.002   0.000   0.000  -0.000   0.000   0.000  -0.008   0.000   0.000
 -0.004   0.001  -0.000   0.001   0.002   0.003  -0.001   0.000   0.000  -0.001   0.000  -0.000   0.000  -0.000  -0.009  -0.000
 total augmentation occupancy for first ion, spin component:           2
  2.499  -2.093   0.000  -0.366   0.000  -1.091   1.217  -0.000   0.216  -0.003   0.000   0.000  -0.001   0.000   0.004  -0.001
 -2.093   1.050   0.000   0.000  -0.366   1.222  -0.253  -0.000  -0.003   0.215   0.000   0.000  -0.010   0.000  -0.016   0.001
  0.000   0.000   4.006  -0.000  -0.000  -0.000  -0.000  -1.968   0.000   0.000   0.007   0.007   0.000  -0.021  -0.000   0.000
 -0.366   0.000  -0.000   1.050   2.093   0.215   0.003   0.000  -0.253  -1.222   0.000   0.000   0.016   0.000  -0.010  -0.000
  0.000  -0.366  -0.000   2.093   2.499   0.003   0.216   0.000  -1.217  -1.091  -0.000  -0.000   0.004   0.000   0.001  -0.001
 -1.091   1.222  -0.000   0.215   0.003   0.405  -0.756   0.000  -0.137  -0.000  -0.000   0.000   0.003   0.000  -0.002   0.000
  1.217  -0.253  -0.000   0.003   0.216  -0.756  -0.109   0.000  -0.000  -0.137   0.000   0.000   0.006   0.000   0.009  -0.000
 -0.000  -0.000  -1.968   0.000   0.000   0.000   0.000   0.961  -0.000  -0.000   0.009  -0.006   0.000   0.011   0.000   0.000
  0.216  -0.003   0.000  -0.253  -1.217  -0.137  -0.000  -0.000  -0.109   0.756   0.000   0.000  -0.009   0.000   0.006   0.000
 -0.003   0.215   0.000  -1.222  -1.091  -0.000  -0.137  -0.000   0.756   0.405  -0.000   0.000  -0.002  -0.000  -0.003  -0.000
  0.000   0.000   0.007   0.000  -0.000  -0.000   0.000   0.009   0.000  -0.000  -0.054   0.050  -0.000  -0.001   0.000   0.000
  0.000   0.000   0.007   0.000  -0.000   0.000   0.000  -0.006   0.000   0.000   0.050  -0.009   0.000  -0.000   0.000  -0.000
 -0.001  -0.010  -0.000   0.016   0.004   0.003   0.006   0.000  -0.009  -0.002  -0.000   0.000   0.015   0.000   0.000   0.002
 -0.000   0.000  -0.021   0.000   0.000  -0.000  -0.000   0.011   0.000  -0.000  -0.001  -0.000   0.000   0.013   0.000   0.000
  0.004  -0.016  -0.000  -0.010   0.001  -0.002   0.009   0.000   0.006  -0.003   0.000   0.000  -0.000   0.000   0.015   0.000
 -0.001   0.001   0.000  -0.000  -0.001   0.000  -0.000  -0.000   0.000  -0.000   0.000  -0.000   0.002   0.000   0.000  -0.000
  0.000  -0.000   0.002   0.000  -0.000  -0.000   0.000  -0.001   0.000   0.000   0.000  -0.000   0.000   0.001  -0.000   0.000
 -0.001   0.000  -0.000   0.001   0.001  -0.000  -0.000   0.000  -0.000  -0.000  -0.000   0.000  -0.000   0.000   0.002   0.000


------------------------ aborting loop because EDIFF is reached ----------------------------------------


    CHARGE:  cpu time      0.0701: real time      0.0705
    FORLOC:  cpu time      0.0072: real time      0.0073
    FORNL :  cpu time      0.2719: real time      0.2745
    STRESS:  cpu time      0.8179: real time      0.8257
    FORCOR:  cpu time      0.1402: real time      0.1410
    FORHAR:  cpu time      0.0199: real time      0.0200
    MIXING:  cpu time      0.0064: real time      0.0065
    OFIELD:  cpu time      0.0001: real time      0.0001

 ---------------------------------------------------------------------------------------------

         DFTD3 V3.0 Rev 1        
 Edisp (eV)   -1.42593

 E6    (eV) :    -0.8690
 E8    (eV) :    -0.5569
 % E8        : 39.06
    FORVDW:  cpu time      0.0126: real time      0.0127

  FORCE on cell =-STRESS in cart. coord.  units (eV):
  Direction    XX          YY          ZZ          XY          YZ          ZX
  --------------------------------------------------------------------------------------
  Alpha Z    27.90262    27.90262    27.90262
  Ewald    8152.68321  8152.68321 -9876.92458    -0.00000    -0.00000     0.00000
  Hartree  8759.91734  8759.91734 -8393.21583    -0.00000     0.00000     0.00000
  E(xc)    -211.80954  -211.80955  -213.22993    -0.00000    -0.00000    -0.00000
  Local  -17942.22567-17942.22557 17231.32773     0.00008     0.00000     0.00000
  n-local   473.21173   473.49583   474.54210    -0.25903     0.16837     0.07742
  augment   -59.53956   -59.53964   -59.68141    -0.00092    -0.00000    -0.00000
  Kinetic   801.51747   800.96988   809.42209     0.32716    -0.10372    -0.12047
  Fock        0.00000     0.00000     0.00000     0.00000     0.00000     0.00000
  vdW        -1.56168    -1.56168    -0.47339    -0.00000     0.00000    -0.00000
  -------------------------------------------------------------------------------------
  Total      -0.03581    -0.03581    -0.33059     0.00001    -0.00000     0.00000
  in kB      -0.09060    -0.09060    -0.83650     0.00002    -0.00000     0.00000
  external pressure =       -0.34 kB  Pullay stress =        0.00 kB


 VOLUME and BASIS-vectors are now :
 -----------------------------------------------------------------------------
  energy-cutoff  :      400.00
  volume of cell :      633.19
      direct lattice vectors                 reciprocal lattice vectors
     6.046274499  0.000000000  0.000000000     0.165391102  0.095488597  0.000000000
    -3.023137249  5.236227314  0.000000000     0.000000000  0.190977194  0.000000000
     0.000000000  0.000000000 20.000000000     0.000000000  0.000000000  0.050000000

  length of vectors
     6.046274499  6.046274499 20.000000000     0.190977194  0.190977194  0.050000000


 FORCES acting on ions
    electron-ion (+dipol)            ewald-force                    non-local-force                 convergence-correction
 -----------------------------------------------------------------------------------------------
   0.533E-07 -.377E-06 0.318E+02   -.319E-11 0.185E-11 -.323E+02   -.232E-17 0.115E-17 0.449E+00   -.334E-09 -.126E-09 -.425E-04
   0.437E-06 0.143E-05 -.200E+02   0.272E-11 -.160E-11 0.192E+02   0.158E-18 0.734E-18 0.798E+00   0.362E-09 0.317E-09 0.240E-04
   0.693E+02 -.130E+01 0.497E+03   -.712E+02 0.151E+01 -.500E+03   0.201E+01 -.201E+00 0.298E+01   -.124E-03 0.345E-04 -.268E-03
   -.335E+02 0.606E+02 0.497E+03   0.343E+02 -.624E+02 -.500E+03   -.831E+00 0.184E+01 0.298E+01   0.322E-04 -.125E-03 -.268E-03
   -.358E+02 -.593E+02 0.497E+03   0.369E+02 0.609E+02 -.500E+03   -.118E+01 -.164E+01 0.298E+01   0.920E-04 0.903E-04 -.268E-03
   -.759E+02 0.322E+01 -.466E+03   0.787E+02 -.445E+01 0.468E+03   -.288E+01 0.122E+01 -.276E+01   0.374E-04 0.859E-04 0.179E-03
   0.351E+02 -.673E+02 -.466E+03   -.355E+02 0.704E+02 0.468E+03   0.386E+00 -.310E+01 -.276E+01   -.931E-04 -.105E-04 0.179E-03
   0.407E+02 0.641E+02 -.466E+03   -.432E+02 -.660E+02 0.468E+03   0.249E+01 0.188E+01 -.276E+01   0.557E-04 -.753E-04 0.179E-03
   -.371E-08 -.163E-06 -.107E+03   0.850E-13 -.501E-13 0.109E+03   -.333E-18 0.245E-18 -.247E+01   0.127E-09 0.214E-09 0.740E-05
 -----------------------------------------------------------------------------------------------
   0.378E-06 0.360E-06 0.572E+00   -.732E-14 0.209E-13 0.995E-13   -.333E-18 -.222E-15 -.573E+00   0.176E-08 0.341E-08 -.280E-03
 
 
 POSITION                                       TOTAL-FORCE (eV/Angst)
 -----------------------------------------------------------------------------------
      0.00000      3.49082      9.92828         0.000000     -0.000000      0.009850
      3.02314      1.74541     10.11846         0.000000     -0.000000     -0.012823
      2.19251      0.04203      8.67757         0.035260      0.009331      0.022637
      4.91362      1.87775      8.67757        -0.025710      0.025871      0.022637
      1.96328      3.31645      8.67757        -0.009549     -0.035201      0.022637
      0.98396      5.14159     11.26852         0.002322     -0.007694     -0.017050
     -1.92159      3.51757     11.26852         0.005502      0.005858     -0.017050
      0.93763      1.81330     11.26852        -0.007824      0.001836     -0.017050
      3.02314      1.74541     11.66502         0.000000     -0.000000     -0.013787
 -----------------------------------------------------------------------------------
    total drift:                                0.000000      0.000000     -0.000877


--------------------------------------------------------------------------------------------------------



  FREE ENERGIE OF THE ION-ELECTRON SYSTEM (eV)
  ---------------------------------------------------
  free  energy   TOTEN  =       -42.23988693 eV

  energy  without entropy=      -42.23988693  energy(sigma->0) =      -42.23988693
 d Force = 0.7594576E-03[ 0.541E-03, 0.978E-03]  d Energy = 0.7683477E-03-0.889E-05
 d Force =-0.6248671E+01[-0.625E+01,-0.625E+01]  d Ewald  =-0.6248670E+01-0.703E-06
 


--------------------------------------------------------------------------------------------------------


    POTLOK:  cpu time      0.2632: real time      0.2644


--------------------------------------------------------------------------------------------------------


 Steepest descent step on ions:
 trial-energy change:   -0.000768  1 .order   -0.000759   -0.000978   -0.000541
  (g-gl).g = 0.978E-03      g.g   = 0.978E-03  gl.gl    = 0.000E+00
 g(Force)  = 0.978E-03   g(Stress)= 0.000E+00 ortho     = 0.000E+00
 gamma     =   0.00000
 trial     =   1.00000
 opt step  =   1.99619  (harmonic =   2.23908) maximal distance =0.00482642
 next E    =   -42.240165   (d E  =  -0.00105)


--------------------------------------------------------------------------------------------------------


      MLFF:  cpu time      0.0008: real time      0.0028
    WAVPRE:  cpu time      0.0168: real time      0.0171
    FEWALD:  cpu time      0.0008: real time      0.0008

 real space projection operators:
  total allocation   :       3209.81 KBytes
  max/ min on nodes  :        804.93        800.96

    ORTHCH:  cpu time      0.0953: real time      0.0962
     LOOP+:  cpu time     20.4231: real time     20.5951


--------------------------------------- Ionic step        3  -------------------------------------------




--------------------------------------- Iteration      3(   1)  ---------------------------------------


    POTLOK:  cpu time      0.1532: real time      0.1544
    SETDIJ:  cpu time      0.1104: real time      0.1107
     EDDAV:  cpu time      1.0028: real time      1.0119
       DOS:  cpu time      0.0002: real time      0.0002
    CHARGE:  cpu time      0.0716: real time      0.0720
    MIXING:  cpu time      0.0054: real time      0.0054
    --------------------------------------------
      LOOP:  cpu time      1.3435: real time      1.3547

 eigenvalue-minimisations  :   720
 total energy-change (2. order) : 0.7051945E-03  (-0.8102773E-02)
 number of electron      55.0000012 magnetization       4.9999984
 augmentation part       -0.5263364 magnetization       3.5239495

 DIPCOR: dipole corrections for dipol
 direction  3 min pos     1,
 dipolmoment           0.000000      0.000000     -0.063770 electrons x Angstroem
 Tr[quadrupol]      -347.996509

 energy correction for charged system         0.000000 eV
 dipol+quadrupol energy correction           -0.000581 eV
 added-field ion interaction          0.015063 eV  (added to PSCEN)


 Broyden mixing:
  rms(total) = 0.17952E-01    rms(broyden)= 0.17950E-01
  rms(prec ) = 0.18107E-01
  weight for this iteration     100.00

 Free energy of the ion-electron system (eV)
  ---------------------------------------------------
  alpha Z        PSCENC =        27.91710544
  Ewald energy   TEWEN  =      6434.67355956
  -Hartree energ DENC   =     -9132.63203928
  -exchange      EXHF   =         0.00000000
  -V(xc)+E(xc)   XCENC  =        88.37454664
  PAW double counting   =      3771.64778019    -3734.13746950
  entropy T*S    EENTRO =        -0.00000000
  eigenvalues    EBANDS =      -521.20542664
  atomic energy  EATOM  =      3024.54869369
  Solvation  Ediel_sol  =         0.00000000
  ---------------------------------------------------
  free energy    TOTEN  =       -40.81324990 eV

  energy without entropy =      -40.81324990  energy(sigma->0) =      -40.81324990


--------------------------------------------------------------------------------------------------------




--------------------------------------- Iteration      3(   2)  ---------------------------------------


    POTLOK:  cpu time      0.1518: real time      0.1529
    SETDIJ:  cpu time      0.1098: real time      0.1102
     EDDAV:  cpu time      1.3668: real time      1.3791
       DOS:  cpu time      0.0002: real time      0.0002
    CHARGE:  cpu time      0.0697: real time      0.0701
    MIXING:  cpu time      0.0055: real time      0.0056
    --------------------------------------------
      LOOP:  cpu time      1.7039: real time      1.7181

 eigenvalue-minimisations  :  1088
 total energy-change (2. order) :-0.5211648E-03  (-0.5980313E-03)
 number of electron      55.0000012 magnetization       4.9999986
 augmentation part       -0.5361551 magnetization       3.5215577

 DIPCOR: dipole corrections for dipol
 direction  3 min pos     1,
 dipolmoment           0.000000      0.000000     -0.063461 electrons x Angstroem
 Tr[quadrupol]      -347.996800

 energy correction for charged system         0.000000 eV
 dipol+quadrupol energy correction           -0.000575 eV
 added-field ion interaction          0.014990 eV  (added to PSCEN)


 Broyden mixing:
  rms(total) = 0.12572E-01    rms(broyden)= 0.12570E-01
  rms(prec ) = 0.12815E-01
  weight for this iteration     100.00

 eigenvalues of (default mixing * dielectric matrix)
  average eigenvalue GAMMA=   0.5255
  0.5255

 Free energy of the ion-electron system (eV)
  ---------------------------------------------------
  alpha Z        PSCENC =        27.91703813
  Ewald energy   TEWEN  =      6434.67355956
  -Hartree energ DENC   =     -9132.68854438
  -exchange      EXHF   =         0.00000000
  -V(xc)+E(xc)   XCENC  =        88.37017091
  PAW double counting   =      3775.40680401    -3737.92077081
  entropy T*S    EENTRO =        -0.00000000
  eigenvalues    EBANDS =      -521.12072218
  atomic energy  EATOM  =      3024.54869369
  Solvation  Ediel_sol  =         0.00000000
  ---------------------------------------------------
  free energy    TOTEN  =       -40.81377107 eV

  energy without entropy =      -40.81377107  energy(sigma->0) =      -40.81377107


--------------------------------------------------------------------------------------------------------




--------------------------------------- Iteration      3(   3)  ---------------------------------------


    POTLOK:  cpu time      0.1528: real time      0.1540
    SETDIJ:  cpu time      0.1103: real time      0.1107
     EDDAV:  cpu time      1.3764: real time      1.3888
       DOS:  cpu time      0.0002: real time      0.0002
    CHARGE:  cpu time      0.0707: real time      0.0711
    MIXING:  cpu time      0.0056: real time      0.0057
    --------------------------------------------
      LOOP:  cpu time      1.7161: real time      1.7304

 eigenvalue-minimisations  :  1104
 total energy-change (2. order) : 0.3493148E-04  (-0.2110969E-04)
 number of electron      55.0000012 magnetization       4.9999986
 augmentation part       -0.5292898 magnetization       3.5224326

 DIPCOR: dipole corrections for dipol
 direction  3 min pos     1,
 dipolmoment           0.000000      0.000000     -0.063191 electrons x Angstroem
 Tr[quadrupol]      -347.996742

 energy correction for charged system         0.000000 eV
 dipol+quadrupol energy correction           -0.000571 eV
 added-field ion interaction          0.014926 eV  (added to PSCEN)


 Broyden mixing:
  rms(total) = 0.68232E-02    rms(broyden)= 0.68229E-02
  rms(prec ) = 0.69911E-02
  weight for this iteration     100.00

 eigenvalues of (default mixing * dielectric matrix)
  average eigenvalue GAMMA=   0.5700
  0.5700  0.5700

 Free energy of the ion-electron system (eV)
  ---------------------------------------------------
  alpha Z        PSCENC =        27.91697913
  Ewald energy   TEWEN  =      6434.67355956
  -Hartree energ DENC   =     -9132.65621481
  -exchange      EXHF   =         0.00000000
  -V(xc)+E(xc)   XCENC  =        88.36941092
  PAW double counting   =      3775.70004310    -3738.19990044
  entropy T*S    EENTRO =        -0.00000000
  eigenvalues    EBANDS =      -521.16630728
  atomic energy  EATOM  =      3024.54869369
  Solvation  Ediel_sol  =         0.00000000
  ---------------------------------------------------
  free energy    TOTEN  =       -40.81373614 eV

  energy without entropy =      -40.81373614  energy(sigma->0) =      -40.81373614


--------------------------------------------------------------------------------------------------------




--------------------------------------- Iteration      3(   4)  ---------------------------------------


    POTLOK:  cpu time      0.1522: real time      0.1532
    SETDIJ:  cpu time      0.1092: real time      0.1095
     EDDAV:  cpu time      1.3255: real time      1.3377
       DOS:  cpu time      0.0002: real time      0.0002
    CHARGE:  cpu time      0.0697: real time      0.0702
    MIXING:  cpu time      0.0056: real time      0.0057
    --------------------------------------------
      LOOP:  cpu time      1.6624: real time      1.6764

 eigenvalue-minimisations  :  1052
 total energy-change (2. order) : 0.1294941E-04  (-0.5365992E-05)
 number of electron      55.0000012 magnetization       4.9999988
 augmentation part       -0.5324752 magnetization       3.5221706

 DIPCOR: dipole corrections for dipol
 direction  3 min pos     1,
 dipolmoment           0.000000      0.000000     -0.063222 electrons x Angstroem
 Tr[quadrupol]      -347.997781

 energy correction for charged system         0.000000 eV
 dipol+quadrupol energy correction           -0.000571 eV
 added-field ion interaction          0.014933 eV  (added to PSCEN)


 Broyden mixing:
  rms(total) = 0.61046E-02    rms(broyden)= 0.61045E-02
  rms(prec ) = 0.62031E-02
  weight for this iteration     100.00

 eigenvalues of (default mixing * dielectric matrix)
  average eigenvalue GAMMA=   0.6063
  0.7212  0.7212  0.3765

 Free energy of the ion-electron system (eV)
  ---------------------------------------------------
  alpha Z        PSCENC =        27.91698593
  Ewald energy   TEWEN  =      6434.67355956
  -Hartree energ DENC   =     -9132.69370997
  -exchange      EXHF   =         0.00000000
  -V(xc)+E(xc)   XCENC  =        88.36888535
  PAW double counting   =      3775.65612623    -3738.16147751
  entropy T*S    EENTRO =        -0.00000000
  eigenvalues    EBANDS =      -521.12278647
  atomic energy  EATOM  =      3024.54869369
  Solvation  Ediel_sol  =         0.00000000
  ---------------------------------------------------
  free energy    TOTEN  =       -40.81372319 eV

  energy without entropy =      -40.81372319  energy(sigma->0) =      -40.81372319


--------------------------------------------------------------------------------------------------------




--------------------------------------- Iteration      3(   5)  ---------------------------------------


    POTLOK:  cpu time      0.1523: real time      0.1533
    SETDIJ:  cpu time      0.1101: real time      0.1104
     EDDAV:  cpu time      1.3870: real time      1.3997
       DOS:  cpu time      0.0002: real time      0.0003
    CHARGE:  cpu time      0.0708: real time      0.0712
    MIXING:  cpu time      0.0057: real time      0.0057
    --------------------------------------------
      LOOP:  cpu time      1.7260: real time      1.7405

 eigenvalue-minimisations  :  1120
 total energy-change (2. order) : 0.1131677E-04  (-0.2916606E-05)
 number of electron      55.0000012 magnetization       4.9999990
 augmentation part       -0.5315190 magnetization       3.5222661

 DIPCOR: dipole corrections for dipol
 direction  3 min pos     1,
 dipolmoment           0.000000      0.000000     -0.063158 electrons x Angstroem
 Tr[quadrupol]      -347.998190

 energy correction for charged system         0.000000 eV
 dipol+quadrupol energy correction           -0.000570 eV
 added-field ion interaction          0.014918 eV  (added to PSCEN)


 Broyden mixing:
  rms(total) = 0.43876E-02    rms(broyden)= 0.43876E-02
  rms(prec ) = 0.44213E-02
  weight for this iteration     100.00

 eigenvalues of (default mixing * dielectric matrix)
  average eigenvalue GAMMA=   0.9071
  1.3787  1.3787  0.4356  0.4356

 Free energy of the ion-electron system (eV)
  ---------------------------------------------------
  alpha Z        PSCENC =        27.91697194
  Ewald energy   TEWEN  =      6434.67355956
  -Hartree energ DENC   =     -9132.70352776
  -exchange      EXHF   =         0.00000000
  -V(xc)+E(xc)   XCENC  =        88.36900207
  PAW double counting   =      3775.59642681    -3738.10073999
  entropy T*S    EENTRO =        -0.00000000
  eigenvalues    EBANDS =      -521.11409820
  atomic energy  EATOM  =      3024.54869369
  Solvation  Ediel_sol  =         0.00000000
  ---------------------------------------------------
  free energy    TOTEN  =       -40.81371187 eV

  energy without entropy =      -40.81371187  energy(sigma->0) =      -40.81371187


--------------------------------------------------------------------------------------------------------




--------------------------------------- Iteration      3(   6)  ---------------------------------------


    POTLOK:  cpu time      0.1521: real time      0.1531
    SETDIJ:  cpu time      0.1090: real time      0.1094
     EDDAV:  cpu time      1.3751: real time      1.3876
       DOS:  cpu time      0.0002: real time      0.0002
    CHARGE:  cpu time      0.0697: real time      0.0701
    MIXING:  cpu time      0.0057: real time      0.0058
    --------------------------------------------
      LOOP:  cpu time      1.7118: real time      1.7261

 eigenvalue-minimisations  :  1100
 total energy-change (2. order) : 0.7514185E-05  (-0.2248372E-05)
 number of electron      55.0000012 magnetization       4.9999992
 augmentation part       -0.5311738 magnetization       3.5224123

 DIPCOR: dipole corrections for dipol
 direction  3 min pos     1,
 dipolmoment           0.000000      0.000000     -0.063087 electrons x Angstroem
 Tr[quadrupol]      -347.998806

 energy correction for charged system         0.000000 eV
 dipol+quadrupol energy correction           -0.000569 eV
 added-field ion interaction          0.014902 eV  (added to PSCEN)


 Broyden mixing:
  rms(total) = 0.14860E-02    rms(broyden)= 0.14859E-02
  rms(prec ) = 0.15066E-02
  weight for this iteration     100.00

 eigenvalues of (default mixing * dielectric matrix)
  average eigenvalue GAMMA=   0.9843
  1.9549  1.3185  0.7254  0.5354  0.3871

 Free energy of the ion-electron system (eV)
  ---------------------------------------------------
  alpha Z        PSCENC =        27.91695650
  Ewald energy   TEWEN  =      6434.67355956
  -Hartree energ DENC   =     -9132.72379252
  -exchange      EXHF   =         0.00000000
  -V(xc)+E(xc)   XCENC  =        88.36887711
  PAW double counting   =      3775.47280189    -3737.97671929
  entropy T*S    EENTRO =        -0.00000000
  eigenvalues    EBANDS =      -521.09408130
  atomic energy  EATOM  =      3024.54869369
  Solvation  Ediel_sol  =         0.00000000
  ---------------------------------------------------
  free energy    TOTEN  =       -40.81370436 eV

  energy without entropy =      -40.81370436  energy(sigma->0) =      -40.81370436


--------------------------------------------------------------------------------------------------------




--------------------------------------- Iteration      3(   7)  ---------------------------------------


    POTLOK:  cpu time      0.1521: real time      0.1532
    SETDIJ:  cpu time      0.1105: real time      0.1108
     EDDAV:  cpu time      0.8793: real time      0.8871
       DOS:  cpu time      0.0002: real time      0.0002
    CHARGE:  cpu time      0.0708: real time      0.0713
    MIXING:  cpu time      0.0058: real time      0.0059
    --------------------------------------------
      LOOP:  cpu time      1.2187: real time      1.2285

 eigenvalue-minimisations  :   596
 total energy-change (2. order) :-0.2141651E-05  (-0.2565181E-06)
 number of electron      55.0000012 magnetization       4.9999993
 augmentation part       -0.5306609 magnetization       3.5224915

 DIPCOR: dipole corrections for dipol
 direction  3 min pos     1,
 dipolmoment           0.000000      0.000000     -0.063035 electrons x Angstroem
 Tr[quadrupol]      -347.998665

 energy correction for charged system         0.000000 eV
 dipol+quadrupol energy correction           -0.000568 eV
 added-field ion interaction          0.014889 eV  (added to PSCEN)


 Broyden mixing:
  rms(total) = 0.34201E-03    rms(broyden)= 0.34194E-03
  rms(prec ) = 0.34936E-03
  weight for this iteration     100.00

 eigenvalues of (default mixing * dielectric matrix)
  average eigenvalue GAMMA=   1.0474
  2.3788  1.1516  1.1516  0.6870  0.5275  0.3880

 Free energy of the ion-electron system (eV)
  ---------------------------------------------------
  alpha Z        PSCENC =        27.91694514
  Ewald energy   TEWEN  =      6434.67355956
  -Hartree energ DENC   =     -9132.71979228
  -exchange      EXHF   =         0.00000000
  -V(xc)+E(xc)   XCENC  =        88.36893815
  PAW double counting   =      3775.47287577    -3737.97644999
  entropy T*S    EENTRO =        -0.00000000
  eigenvalues    EBANDS =      -521.09847655
  atomic energy  EATOM  =      3024.54869369
  Solvation  Ediel_sol  =         0.00000000
  ---------------------------------------------------
  free energy    TOTEN  =       -40.81370650 eV

  energy without entropy =      -40.81370650  energy(sigma->0) =      -40.81370650


--------------------------------------------------------------------------------------------------------




--------------------------------------- Iteration      3(   8)  ---------------------------------------


    POTLOK:  cpu time      0.1521: real time      0.1532
    SETDIJ:  cpu time      0.1094: real time      0.1098
     EDDAV:  cpu time      0.7258: real time      0.7323
       DOS:  cpu time      0.0002: real time      0.0002
    CHARGE:  cpu time      0.0701: real time      0.0705
    MIXING:  cpu time      0.0059: real time      0.0060
    --------------------------------------------
      LOOP:  cpu time      1.0636: real time      1.0719

 eigenvalue-minimisations  :   448
 total energy-change (2. order) :-0.4693625E-05  (-0.6741031E-07)
 number of electron      55.0000012 magnetization       4.9999994
 augmentation part       -0.5308322 magnetization       3.5224606

 DIPCOR: dipole corrections for dipol
 direction  3 min pos     1,
 dipolmoment           0.000000      0.000000     -0.063019 electrons x Angstroem
 Tr[quadrupol]      -347.998659

 energy correction for charged system         0.000000 eV
 dipol+quadrupol energy correction           -0.000567 eV
 added-field ion interaction          0.014885 eV  (added to PSCEN)


 Broyden mixing:
  rms(total) = 0.31031E-03    rms(broyden)= 0.31030E-03
  rms(prec ) = 0.31560E-03
  weight for this iteration     100.00

 eigenvalues of (default mixing * dielectric matrix)
  average eigenvalue GAMMA=   1.1228
  2.9692  1.2804  1.2804  0.3881  0.5266  0.7073  0.7073

 Free energy of the ion-electron system (eV)
  ---------------------------------------------------
  alpha Z        PSCENC =        27.91694160
  Ewald energy   TEWEN  =      6434.67355956
  -Hartree energ DENC   =     -9132.72033490
  -exchange      EXHF   =         0.00000000
  -V(xc)+E(xc)   XCENC  =        88.36886267
  PAW double counting   =      3775.59661492    -3738.10058814
  entropy T*S    EENTRO =        -0.00000000
  eigenvalues    EBANDS =      -521.09746060
  atomic energy  EATOM  =      3024.54869369
  Solvation  Ediel_sol  =         0.00000000
  ---------------------------------------------------
  free energy    TOTEN  =       -40.81371119 eV

  energy without entropy =      -40.81371119  energy(sigma->0) =      -40.81371119


--------------------------------------------------------------------------------------------------------




--------------------------------------- Iteration      3(   9)  ---------------------------------------


    POTLOK:  cpu time      0.1526: real time      0.1536
    SETDIJ:  cpu time      0.1112: real time      0.1115
     EDDAV:  cpu time      0.7465: real time      0.7531
       DOS:  cpu time      0.0002: real time      0.0002
    CHARGE:  cpu time      0.0717: real time      0.0721
    MIXING:  cpu time      0.0059: real time      0.0060
    --------------------------------------------
      LOOP:  cpu time      1.0881: real time      1.0966

 eigenvalue-minimisations  :   472
 total energy-change (2. order) :-0.4242276E-05  (-0.3378685E-07)
 number of electron      55.0000012 magnetization       4.9999995
 augmentation part       -0.5306732 magnetization       3.5224879

 DIPCOR: dipole corrections for dipol
 direction  3 min pos     1,
 dipolmoment           0.000000      0.000000     -0.063016 electrons x Angstroem
 Tr[quadrupol]      -347.998672

 energy correction for charged system         0.000000 eV
 dipol+quadrupol energy correction           -0.000567 eV
 added-field ion interaction          0.014885 eV  (added to PSCEN)


 Broyden mixing:
  rms(total) = 0.39492E-03    rms(broyden)= 0.39491E-03
  rms(prec ) = 0.39771E-03
  weight for this iteration     100.00

 eigenvalues of (default mixing * dielectric matrix)
  average eigenvalue GAMMA=   1.0975
  2.6885  1.4902  1.4902  0.7967  0.7967  0.3875  0.5653  0.5653

 Free energy of the ion-electron system (eV)
  ---------------------------------------------------
  alpha Z        PSCENC =        27.91694101
  Ewald energy   TEWEN  =      6434.67355956
  -Hartree energ DENC   =     -9132.72029599
  -exchange      EXHF   =         0.00000000
  -V(xc)+E(xc)   XCENC  =        88.36877536
  PAW double counting   =      3775.68872160    -3738.19234262
  entropy T*S    EENTRO =        -0.00000000
  eigenvalues    EBANDS =      -521.09776805
  atomic energy  EATOM  =      3024.54869369
  Solvation  Ediel_sol  =         0.00000000
  ---------------------------------------------------
  free energy    TOTEN  =       -40.81371543 eV

  energy without entropy =      -40.81371543  energy(sigma->0) =      -40.81371543


--------------------------------------------------------------------------------------------------------




--------------------------------------- Iteration      3(  10)  ---------------------------------------


    POTLOK:  cpu time      0.1521: real time      0.1533
    SETDIJ:  cpu time      0.1110: real time      0.1113
     EDDAV:  cpu time      0.7511: real time      0.7579
       DOS:  cpu time      0.0002: real time      0.0002
    CHARGE:  cpu time      0.0701: real time      0.0705
    MIXING:  cpu time      0.0061: real time      0.0061
    --------------------------------------------
      LOOP:  cpu time      1.0905: real time      1.0992

 eigenvalue-minimisations  :   476
 total energy-change (2. order) :-0.4169591E-05  (-0.2478578E-07)
 number of electron      55.0000012 magnetization       4.9999995
 augmentation part       -0.5307391 magnetization       3.5224775

 DIPCOR: dipole corrections for dipol
 direction  3 min pos     1,
 dipolmoment           0.000000      0.000000     -0.063025 electrons x Angstroem
 Tr[quadrupol]      -347.998656

 energy correction for charged system         0.000000 eV
 dipol+quadrupol energy correction           -0.000568 eV
 added-field ion interaction          0.014887 eV  (added to PSCEN)


 Broyden mixing:
  rms(total) = 0.19491E-03    rms(broyden)= 0.19491E-03
  rms(prec ) = 0.19635E-03
  weight for this iteration     100.00

 eigenvalues of (default mixing * dielectric matrix)
  average eigenvalue GAMMA=   1.1130
  2.6973  1.7336  1.7336  0.9197  0.9197  0.3877  0.5621  0.5621  0.5011

 Free energy of the ion-electron system (eV)
  ---------------------------------------------------
  alpha Z        PSCENC =        27.91694306
  Ewald energy   TEWEN  =      6434.67355956
  -Hartree energ DENC   =     -9132.71999523
  -exchange      EXHF   =         0.00000000
  -V(xc)+E(xc)   XCENC  =        88.36877227
  PAW double counting   =      3775.75027787    -3738.25392400
  entropy T*S    EENTRO =        -0.00000000
  eigenvalues    EBANDS =      -521.09804683
  atomic energy  EATOM  =      3024.54869369
  Solvation  Ediel_sol  =         0.00000000
  ---------------------------------------------------
  free energy    TOTEN  =       -40.81371960 eV

  energy without entropy =      -40.81371960  energy(sigma->0) =      -40.81371960


--------------------------------------------------------------------------------------------------------




--------------------------------------- Iteration      3(  11)  ---------------------------------------


    POTLOK:  cpu time      0.1529: real time      0.1540
    SETDIJ:  cpu time      0.1106: real time      0.1110
     EDDAV:  cpu time      0.7464: real time      0.7530
       DOS:  cpu time      0.0002: real time      0.0002
    CHARGE:  cpu time      0.0712: real time      0.0716
    MIXING:  cpu time      0.0063: real time      0.0063
    --------------------------------------------
      LOOP:  cpu time      1.0876: real time      1.0961

 eigenvalue-minimisations  :   472
 total energy-change (2. order) :-0.3860045E-05  (-0.1544870E-07)
 number of electron      55.0000012 magnetization       4.9999996
 augmentation part       -0.5307291 magnetization       3.5224887

 DIPCOR: dipole corrections for dipol
 direction  3 min pos     1,
 dipolmoment           0.000000      0.000000     -0.063026 electrons x Angstroem
 Tr[quadrupol]      -347.998672

 energy correction for charged system         0.000000 eV
 dipol+quadrupol energy correction           -0.000568 eV
 added-field ion interaction          0.014887 eV  (added to PSCEN)


 Broyden mixing:
  rms(total) = 0.13607E-03    rms(broyden)= 0.13607E-03
  rms(prec ) = 0.13699E-03
  weight for this iteration     100.00

 eigenvalues of (default mixing * dielectric matrix)
  average eigenvalue GAMMA=   1.1699
  2.3168  2.1980  2.1980  1.1353  1.1353  0.6653  0.6653  0.3875  0.5128  0.4848

 Free energy of the ion-electron system (eV)
  ---------------------------------------------------
  alpha Z        PSCENC =        27.91694327
  Ewald energy   TEWEN  =      6434.67355956
  -Hartree energ DENC   =     -9132.72067832
  -exchange      EXHF   =         0.00000000
  -V(xc)+E(xc)   XCENC  =        88.36875676
  PAW double counting   =      3775.81361451    -3738.31723230
  entropy T*S    EENTRO =        -0.00000000
  eigenvalues    EBANDS =      -521.09738063
  atomic energy  EATOM  =      3024.54869369
  Solvation  Ediel_sol  =         0.00000000
  ---------------------------------------------------
  free energy    TOTEN  =       -40.81372346 eV

  energy without entropy =      -40.81372346  energy(sigma->0) =      -40.81372346


--------------------------------------------------------------------------------------------------------




--------------------------------------- Iteration      3(  12)  ---------------------------------------


    POTLOK:  cpu time      0.1540: real time      0.1551
    SETDIJ:  cpu time      0.1093: real time      0.1096
     EDDAV:  cpu time      0.7443: real time      0.7510
       DOS:  cpu time      0.0002: real time      0.0002
    CHARGE:  cpu time      0.0703: real time      0.0707
    MIXING:  cpu time      0.0063: real time      0.0063
    --------------------------------------------
      LOOP:  cpu time      1.0843: real time      1.0929

 eigenvalue-minimisations  :   472
 total energy-change (2. order) :-0.3962081E-05  (-0.1163885E-07)
 number of electron      55.0000012 magnetization       4.9999996
 augmentation part       -0.5307553 magnetization       3.5224827

 DIPCOR: dipole corrections for dipol
 direction  3 min pos     1,
 dipolmoment           0.000000      0.000000     -0.063025 electrons x Angstroem
 Tr[quadrupol]      -347.998683

 energy correction for charged system         0.000000 eV
 dipol+quadrupol energy correction           -0.000568 eV
 added-field ion interaction          0.014887 eV  (added to PSCEN)


 Broyden mixing:
  rms(total) = 0.60188E-04    rms(broyden)= 0.60184E-04
  rms(prec ) = 0.60730E-04
  weight for this iteration     100.00

 eigenvalues of (default mixing * dielectric matrix)
  average eigenvalue GAMMA=   1.1691
  2.9297  2.1405  2.1405  1.1641  1.1641  0.6922  0.6922  0.5880  0.5518  0.3879
  0.4093

 Free energy of the ion-electron system (eV)
  ---------------------------------------------------
  alpha Z        PSCENC =        27.91694295
  Ewald energy   TEWEN  =      6434.67355956
  -Hartree energ DENC   =     -9132.72162902
  -exchange      EXHF   =         0.00000000
  -V(xc)+E(xc)   XCENC  =        88.36877864
  PAW double counting   =      3775.86350913    -3738.36716569
  entropy T*S    EENTRO =        -0.00000000
  eigenvalues    EBANDS =      -521.09641669
  atomic energy  EATOM  =      3024.54869369
  Solvation  Ediel_sol  =         0.00000000
  ---------------------------------------------------
  free energy    TOTEN  =       -40.81372743 eV

  energy without entropy =      -40.81372743  energy(sigma->0) =      -40.81372743


--------------------------------------------------------------------------------------------------------




--------------------------------------- Iteration      3(  13)  ---------------------------------------


    POTLOK:  cpu time      0.1526: real time      0.1536
    SETDIJ:  cpu time      0.1101: real time      0.1104
     EDDAV:  cpu time      0.7546: real time      0.7614
       DOS:  cpu time      0.0002: real time      0.0002
    CHARGE:  cpu time      0.0711: real time      0.0715
    MIXING:  cpu time      0.0063: real time      0.0064
    --------------------------------------------
      LOOP:  cpu time      1.0950: real time      1.1035

 eigenvalue-minimisations  :   480
 total energy-change (2. order) :-0.1459237E-05  (-0.6141818E-08)
 number of electron      55.0000012 magnetization       4.9999997
 augmentation part       -0.5307432 magnetization       3.5224871

 DIPCOR: dipole corrections for dipol
 direction  3 min pos     1,
 dipolmoment           0.000000      0.000000     -0.063022 electrons x Angstroem
 Tr[quadrupol]      -347.998698

 energy correction for charged system         0.000000 eV
 dipol+quadrupol energy correction           -0.000568 eV
 added-field ion interaction          0.014886 eV  (added to PSCEN)


 Broyden mixing:
  rms(total) = 0.34983E-04    rms(broyden)= 0.34981E-04
  rms(prec ) = 0.35848E-04
  weight for this iteration     100.00

 eigenvalues of (default mixing * dielectric matrix)
  average eigenvalue GAMMA=   1.1542
  2.4834  2.4290  2.4290  1.2119  1.2119  0.7922  0.7922  0.5900  0.5900  0.5362
  0.3875  0.3969

 Free energy of the ion-electron system (eV)
  ---------------------------------------------------
  alpha Z        PSCENC =        27.91694239
  Ewald energy   TEWEN  =      6434.67355956
  -Hartree energ DENC   =     -9132.72240231
  -exchange      EXHF   =         0.00000000
  -V(xc)+E(xc)   XCENC  =        88.36878062
  PAW double counting   =      3775.87166817    -3738.37533056
  entropy T*S    EENTRO =        -0.00000000
  eigenvalues    EBANDS =      -521.09564045
  atomic energy  EATOM  =      3024.54869369
  Solvation  Ediel_sol  =         0.00000000
  ---------------------------------------------------
  free energy    TOTEN  =       -40.81372889 eV

  energy without entropy =      -40.81372889  energy(sigma->0) =      -40.81372889


--------------------------------------------------------------------------------------------------------




--------------------------------------- Iteration      3(  14)  ---------------------------------------


    POTLOK:  cpu time      0.1528: real time      0.1538
    SETDIJ:  cpu time      0.1093: real time      0.1096
     EDDAV:  cpu time      0.7500: real time      0.7566
       DOS:  cpu time      0.0002: real time      0.0002
    CHARGE:  cpu time      0.0707: real time      0.0711
    MIXING:  cpu time      0.0065: real time      0.0065
    --------------------------------------------
      LOOP:  cpu time      1.0895: real time      1.0979

 eigenvalue-minimisations  :   476
 total energy-change (2. order) :-0.1034707E-05  (-0.3247809E-08)
 number of electron      55.0000012 magnetization       4.9999997
 augmentation part       -0.5307615 magnetization       3.5224828

 DIPCOR: dipole corrections for dipol
 direction  3 min pos     1,
 dipolmoment           0.000000      0.000000     -0.063021 electrons x Angstroem
 Tr[quadrupol]      -347.998712

 energy correction for charged system         0.000000 eV
 dipol+quadrupol energy correction           -0.000568 eV
 added-field ion interaction          0.014886 eV  (added to PSCEN)


 Broyden mixing:
  rms(total) = 0.30019E-04    rms(broyden)= 0.30017E-04
  rms(prec ) = 0.30615E-04
  weight for this iteration     100.00

 eigenvalues of (default mixing * dielectric matrix)
  average eigenvalue GAMMA=   1.1624
  2.7536  2.7536  2.2169  1.1690  1.1690  0.9814  0.9814  0.6397  0.6397  0.5275
  0.5275  0.3878  0.3636

 Free energy of the ion-electron system (eV)
  ---------------------------------------------------
  alpha Z        PSCENC =        27.91694203
  Ewald energy   TEWEN  =      6434.67355956
  -Hartree energ DENC   =     -9132.72313506
  -exchange      EXHF   =         0.00000000
  -V(xc)+E(xc)   XCENC  =        88.36879152
  PAW double counting   =      3775.87016519    -3738.37385612
  entropy T*S    EENTRO =        -0.00000000
  eigenvalues    EBANDS =      -521.09489074
  atomic energy  EATOM  =      3024.54869369
  Solvation  Ediel_sol  =         0.00000000
  ---------------------------------------------------
  free energy    TOTEN  =       -40.81372992 eV

  energy without entropy =      -40.81372992  energy(sigma->0) =      -40.81372992


--------------------------------------------------------------------------------------------------------




--------------------------------------- Iteration      3(  15)  ---------------------------------------


    POTLOK:  cpu time      0.1526: real time      0.1536
    SETDIJ:  cpu time      0.1102: real time      0.1105
     EDDAV:  cpu time      0.7436: real time      0.7502
       DOS:  cpu time      0.0002: real time      0.0002
    CHARGE:  cpu time      0.0710: real time      0.0715
    MIXING:  cpu time      0.0067: real time      0.0067
    --------------------------------------------
      LOOP:  cpu time      1.0843: real time      1.0927

 eigenvalue-minimisations  :   468
 total energy-change (2. order) :-0.1232245E-05  (-0.2334863E-08)
 number of electron      55.0000012 magnetization       4.9999997
 augmentation part       -0.5307524 magnetization       3.5224868

 DIPCOR: dipole corrections for dipol
 direction  3 min pos     1,
 dipolmoment           0.000000      0.000000     -0.063019 electrons x Angstroem
 Tr[quadrupol]      -347.998736

 energy correction for charged system         0.000000 eV
 dipol+quadrupol energy correction           -0.000567 eV
 added-field ion interaction          0.014885 eV  (added to PSCEN)


 Broyden mixing:
  rms(total) = 0.13785E-04    rms(broyden)= 0.13783E-04
  rms(prec ) = 0.14393E-04
  weight for this iteration     100.00

 eigenvalues of (default mixing * dielectric matrix)
  average eigenvalue GAMMA=   1.1761
  2.9804  2.9804  2.3000  1.3039  1.3039  1.1603  0.8073  0.7018  0.5969  0.5969
  0.5252  0.3878  0.4660  0.3550

 Free energy of the ion-electron system (eV)
  ---------------------------------------------------
  alpha Z        PSCENC =        27.91694156
  Ewald energy   TEWEN  =      6434.67355956
  -Hartree energ DENC   =     -9132.72412650
  -exchange      EXHF   =         0.00000000
  -V(xc)+E(xc)   XCENC  =        88.36879903
  PAW double counting   =      3775.87115017    -3738.37482834
  entropy T*S    EENTRO =        -0.00000000
  eigenvalues    EBANDS =      -521.09392032
  atomic energy  EATOM  =      3024.54869369
  Solvation  Ediel_sol  =         0.00000000
  ---------------------------------------------------
  free energy    TOTEN  =       -40.81373115 eV

  energy without entropy =      -40.81373115  energy(sigma->0) =      -40.81373115


--------------------------------------------------------------------------------------------------------




--------------------------------------- Iteration      3(  16)  ---------------------------------------


    POTLOK:  cpu time      0.1530: real time      0.1540
    SETDIJ:  cpu time      0.1098: real time      0.1102
     EDDAV:  cpu time      0.7457: real time      0.7522
       DOS:  cpu time      0.0002: real time      0.0002
    CHARGE:  cpu time      0.0699: real time      0.0703
    MIXING:  cpu time      0.0067: real time      0.0067
    --------------------------------------------
      LOOP:  cpu time      1.0852: real time      1.0937

 eigenvalue-minimisations  :   472
 total energy-change (2. order) :-0.1168259E-05  (-0.2213522E-08)
 number of electron      55.0000012 magnetization       4.9999998
 augmentation part       -0.5307585 magnetization       3.5224845

 DIPCOR: dipole corrections for dipol
 direction  3 min pos     1,
 dipolmoment           0.000000      0.000000     -0.063016 electrons x Angstroem
 Tr[quadrupol]      -347.998755

 energy correction for charged system         0.000000 eV
 dipol+quadrupol energy correction           -0.000567 eV
 added-field ion interaction          0.014885 eV  (added to PSCEN)


 Broyden mixing:
  rms(total) = 0.18680E-04    rms(broyden)= 0.18680E-04
  rms(prec ) = 0.18992E-04
  weight for this iteration     100.00

 eigenvalues of (default mixing * dielectric matrix)
  average eigenvalue GAMMA=   1.1875
  3.1197  3.1197  1.8710  1.8710  1.3365  1.3365  0.7872  0.7872  0.6376  0.6376
  0.5824  0.5386  0.3877  0.4573  0.3425

 Free energy of the ion-electron system (eV)
  ---------------------------------------------------
  alpha Z        PSCENC =        27.91694109
  Ewald energy   TEWEN  =      6434.67355956
  -Hartree energ DENC   =     -9132.72496760
  -exchange      EXHF   =         0.00000000
  -V(xc)+E(xc)   XCENC  =        88.36880694
  PAW double counting   =      3775.87954609    -3738.38322427
  entropy T*S    EENTRO =        -0.00000000
  eigenvalues    EBANDS =      -521.09308782
  atomic energy  EATOM  =      3024.54869369
  Solvation  Ediel_sol  =         0.00000000
  ---------------------------------------------------
  free energy    TOTEN  =       -40.81373232 eV

  energy without entropy =      -40.81373232  energy(sigma->0) =      -40.81373232


--------------------------------------------------------------------------------------------------------




--------------------------------------- Iteration      3(  17)  ---------------------------------------


    POTLOK:  cpu time      0.1520: real time      0.1531
    SETDIJ:  cpu time      0.1104: real time      0.1107
     EDDAV:  cpu time      0.7552: real time      0.7618
       DOS:  cpu time      0.0002: real time      0.0002
    --------------------------------------------
      LOOP:  cpu time      1.0177: real time      1.0257

 eigenvalue-minimisations  :   480
 total energy-change (2. order) :-0.5375550E-06  (-0.1326612E-08)
 number of electron      55.0000012 magnetization       4.9999998
 augmentation part       -0.5307585 magnetization       3.5224845

 DIPCOR: dipole corrections for dipol
 direction  3 min pos     1,
 dipolmoment           0.000000      0.000000     -0.063015 electrons x Angstroem
 Tr[quadrupol]      -347.998766

 energy correction for charged system         0.000000 eV
 dipol+quadrupol energy correction           -0.000567 eV
 added-field ion interaction          0.014885 eV  (added to PSCEN)


 Free energy of the ion-electron system (eV)
  ---------------------------------------------------
  alpha Z        PSCENC =        27.91694077
  Ewald energy   TEWEN  =      6434.67355956
  -Hartree energ DENC   =     -9132.72536529
  -exchange      EXHF   =         0.00000000
  -V(xc)+E(xc)   XCENC  =        88.36880610
  PAW double counting   =      3775.88159491    -3738.38526103
  entropy T*S    EENTRO =        -0.00000000
  eigenvalues    EBANDS =      -521.09270157
  atomic energy  EATOM  =      3024.54869369
  Solvation  Ediel_sol  =         0.00000000
  ---------------------------------------------------
  free energy    TOTEN  =       -40.81373286 eV

  energy without entropy =      -40.81373286  energy(sigma->0) =      -40.81373286


--------------------------------------------------------------------------------------------------------




 average (electrostatic) potential at core
  the test charge radii are     1.1394  0.9406  0.5201
  (the norm of the test charge is              1.0000)
       1 -52.6770       2 -52.7097       3 -99.1214       4 -99.1214       5 -99.1214
       6 -99.3668       7 -99.3668       8 -99.3668       9 -40.6517
 
 
 
 E-fermi :  -3.9517     XC(G=0):  -2.9642     alpha+bet : -2.4254

 val. band max:       -4.2275233664   @ k =   0.4000   0.0000   0.0000
 cond. band min:      -2.4365973339   @ k =   0.4000   0.0000   0.0000
 fundamental gap:      1.7909260325
 Fermi energy:        -3.9517164914

 spin component 1

 k-point     1 :       0.0000    0.0000    0.0000
  band No.  band energies     occupation 
      1     -19.6454      1.00000
      2     -18.7131      1.00000
      3     -18.6684      1.00000
      4     -18.6684      1.00000
      5     -18.4053      1.00000
      6     -18.4053      1.00000
      7      -9.9369      1.00000
      8      -8.7956      1.00000
      9      -8.5154      1.00000
     10      -8.5154      1.00000
     11      -8.3032      1.00000
     12      -8.3032      1.00000
     13      -8.2269      1.00000
     14      -7.8268      1.00000
     15      -7.8268      1.00000
     16      -7.7466      1.00000
     17      -7.0540      1.00000
     18      -7.0540      1.00000
     19      -6.3958      1.00000
     20      -6.0568      1.00000
     21      -5.9132      1.00000
     22      -5.9132      1.00000
     23      -5.5462      1.00000
     24      -5.5462      1.00000
     25      -5.1756      1.00000
     26      -4.7088      1.00000
     27      -4.6698      1.00000
     28      -4.6698      1.00000
     29      -4.3541      1.00000
     30      -4.3541      1.00000
     31      -2.3772      0.00000
     32      -2.3772      0.00000
     33      -2.1176      0.00000
     34      -2.1176      0.00000
     35      -0.6898      0.00000
     36       1.7089      0.00000

 k-point     2 :       0.2000    0.0000    0.0000
  band No.  band energies     occupation 
      1     -19.5599      1.00000
      2     -18.7489      1.00000
      3     -18.7057      1.00000
      4     -18.6695      1.00000
      5     -18.4352      1.00000
      6     -18.4174      1.00000
      7      -9.9183      1.00000
      8      -8.8373      1.00000
      9      -8.6283      1.00000
     10      -8.4790      1.00000
     11      -8.3571      1.00000
     12      -8.2689      1.00000
     13      -8.0055      1.00000
     14      -7.8871      1.00000
     15      -7.7701      1.00000
     16      -7.4263      1.00000
     17      -7.1017      1.00000
     18      -6.8692      1.00000
     19      -6.3949      1.00000
     20      -6.2591      1.00000
     21      -6.1425      1.00000
     22      -5.9947      1.00000
     23      -5.7422      1.00000
     24      -5.6421      1.00000
     25      -5.0625      1.00000
     26      -4.7198      1.00000
     27      -4.6213      1.00000
     28      -4.5166      1.00000
     29      -4.3700      1.00000
     30      -4.3063      1.00000
     31      -2.3794      0.00000
     32      -2.3664      0.00000
     33      -2.2836      0.00000
     34      -2.1464      0.00000
     35      -0.5334      0.00000
     36       1.9316      0.00000

 k-point     3 :       0.4000    0.0000    0.0000
  band No.  band energies     occupation 
      1     -19.3441      1.00000
      2     -18.9674      1.00000
      3     -18.7387      1.00000
      4     -18.6030      1.00000
      5     -18.4943      1.00000
      6     -18.4394      1.00000
      7      -9.8782      1.00000
      8      -8.8795      1.00000
      9      -8.6146      1.00000
     10      -8.4494      1.00000
     11      -8.3298      1.00000
     12      -8.1229      1.00000
     13      -8.0422      1.00000
     14      -7.8308      1.00000
     15      -7.5251      1.00000
     16      -7.3798      1.00000
     17      -7.0389      1.00000
     18      -6.8139      1.00000
     19      -6.6295      1.00000
     20      -6.5541      1.00000
     21      -6.1316      1.00000
     22      -6.1120      1.00000
     23      -5.6655      1.00000
     24      -5.6314      1.00000
     25      -5.1301      1.00000
     26      -4.7343      1.00000
     27      -4.6381      1.00000
     28      -4.4284      1.00000
     29      -4.3865      1.00000
     30      -4.2275      1.00000
     31      -2.4366      0.00000
     32      -2.3538      0.00000
     33      -2.2981      0.00000
     34      -2.2317      0.00000
     35      -0.4522      0.00000
     36       2.4942      0.00000

 k-point     4 :       0.2000    0.2000    0.0000
  band No.  band energies     occupation 
      1     -19.4057      1.00000
      2     -18.8737      1.00000
      3     -18.7685      1.00000
      4     -18.6208      1.00000
      5     -18.4712      1.00000
      6     -18.4376      1.00000
      7      -9.8494      1.00000
      8      -8.9211      1.00000
      9      -8.6166      1.00000
     10      -8.4881      1.00000
     11      -8.3575      1.00000
     12      -8.1425      1.00000
     13      -8.0390      1.00000
     14      -7.9336      1.00000
     15      -7.4334      1.00000
     16      -7.3016      1.00000
     17      -7.0713      1.00000
     18      -6.8015      1.00000
     19      -6.7096      1.00000
     20      -6.2204      1.00000
     21      -6.1987      1.00000
     22      -6.1226      1.00000
     23      -5.9050      1.00000
     24      -5.6669      1.00000
     25      -4.9693      1.00000
     26      -4.7629      1.00000
     27      -4.5974      1.00000
     28      -4.4519      1.00000
     29      -4.3571      1.00000
     30      -4.2842      1.00000
     31      -2.4220      0.00000
     32      -2.3642      0.00000
     33      -2.3214      0.00000
     34      -2.1699      0.00000
     35      -0.4733      0.00000
     36       2.3122      0.00000

 k-point     5 :       0.4000    0.2000    0.0000
  band No.  band energies     occupation 
      1     -19.2145      1.00000
      2     -19.0518      1.00000
      3     -18.8083      1.00000
      4     -18.5691      1.00000
      5     -18.5053      1.00000
      6     -18.4541      1.00000
      7      -9.7754      1.00000
      8      -8.9100      1.00000
      9      -8.6095      1.00000
     10      -8.5305      1.00000
     11      -8.3262      1.00000
     12      -8.1236      1.00000
     13      -8.0539      1.00000
     14      -7.8983      1.00000
     15      -7.6600      1.00000
     16      -7.1010      1.00000
     17      -7.0182      1.00000
     18      -6.6866      1.00000
     19      -6.6333      1.00000
     20      -6.5243      1.00000
     21      -6.1427      1.00000
     22      -6.0641      1.00000
     23      -5.9017      1.00000
     24      -5.7804      1.00000
     25      -4.9528      1.00000
     26      -4.7443      1.00000
     27      -4.6053      1.00000
     28      -4.4322      1.00000
     29      -4.3746      1.00000
     30      -4.2791      1.00000
     31      -2.4317      0.00000
     32      -2.3520      0.00000
     33      -2.3178      0.00000
     34      -2.1572      0.00000
     35      -0.5172      0.00000
     36       2.8192      0.00000
 Fermi energy:        -3.9517164914

 spin component 2

 k-point     1 :       0.0000    0.0000    0.0000
  band No.  band energies     occupation 
      1     -19.6379      1.00000
      2     -18.7344      1.00000
      3     -18.6922      1.00000
      4     -18.6922      1.00000
      5     -18.4192      1.00000
      6     -18.4192      1.00000
      7      -9.8911      1.00000
      8      -8.5652      1.00000
      9      -8.3249      1.00000
     10      -8.3249      1.00000
     11      -8.1866      1.00000
     12      -8.0604      1.00000
     13      -8.0604      1.00000
     14      -7.5911      1.00000
     15      -7.4597      1.00000
     16      -7.4597      1.00000
     17      -6.7892      1.00000
     18      -6.7892      1.00000
     19      -6.3407      1.00000
     20      -6.0383      1.00000
     21      -5.7452      1.00000
     22      -5.7452      1.00000
     23      -5.4668      1.00000
     24      -5.4668      1.00000
     25      -4.4269      1.00000
     26      -2.1014      0.00000
     27      -2.1014      0.00000
     28      -1.8369      0.00000
     29      -1.7283      0.00000
     30      -1.7283      0.00000
     31      -1.2383      0.00000
     32      -1.2383      0.00000
     33      -0.9198      0.00000
     34      -0.9198      0.00000
     35      -0.2930      0.00000
     36       1.7646      0.00000

 k-point     2 :       0.2000    0.0000    0.0000
  band No.  band energies     occupation 
      1     -19.5545      1.00000
      2     -18.7697      1.00000
      3     -18.7278      1.00000
      4     -18.6924      1.00000
      5     -18.4489      1.00000
      6     -18.4310      1.00000
      7      -9.8784      1.00000
      8      -8.6343      1.00000
      9      -8.4556      1.00000
     10      -8.2979      1.00000
     11      -8.1470      1.00000
     12      -8.0562      1.00000
     13      -7.7272      1.00000
     14      -7.6052      1.00000
     15      -7.4664      1.00000
     16      -7.2255      1.00000
     17      -6.8524      1.00000
     18      -6.6791      1.00000
     19      -6.2728      1.00000
     20      -6.1144      1.00000
     21      -6.0054      1.00000
     22      -5.7989      1.00000
     23      -5.6454      1.00000
     24      -5.5377      1.00000
     25      -4.3239      1.00000
     26      -2.1168      0.00000
     27      -2.0525      0.00000
     28      -1.7896      0.00000
     29      -1.7578      0.00000
     30      -1.7349      0.00000
     31      -1.2746      0.00000
     32      -1.2579      0.00000
     33      -1.0547      0.00000
     34      -0.9454      0.00000
     35      -0.1117      0.00000
     36       1.9735      0.00000

 k-point     3 :       0.4000    0.0000    0.0000
  band No.  band energies     occupation 
      1     -19.3433      1.00000
      2     -18.9815      1.00000
      3     -18.7616      1.00000
      4     -18.6236      1.00000
      5     -18.5093      1.00000
      6     -18.4524      1.00000
      7      -9.8427      1.00000
      8      -8.6971      1.00000
      9      -8.4353      1.00000
     10      -8.2396      1.00000
     11      -8.1114      1.00000
     12      -7.9034      1.00000
     13      -7.7749      1.00000
     14      -7.5775      1.00000
     15      -7.2151      1.00000
     16      -7.1097      1.00000
     17      -6.8019      1.00000
     18      -6.6376      1.00000
     19      -6.5151      1.00000
     20      -6.3223      1.00000
     21      -6.0769      1.00000
     22      -5.9061      1.00000
     23      -5.5907      1.00000
     24      -5.5345      1.00000
     25      -4.3369      1.00000
     26      -2.2141      0.00000
     27      -2.0199      0.00000
     28      -1.8138      0.00000
     29      -1.7786      0.00000
     30      -1.6819      0.00000
     31      -1.3381      0.00000
     32      -1.2634      0.00000
     33      -1.0755      0.00000
     34      -0.9882      0.00000
     35       0.0076      0.00000
     36       2.5341      0.00000

 k-point     4 :       0.2000    0.2000    0.0000
  band No.  band energies     occupation 
      1     -19.4039      1.00000
      2     -18.8895      1.00000
      3     -18.7907      1.00000
      4     -18.6420      1.00000
      5     -18.4860      1.00000
      6     -18.4509      1.00000
      7      -9.8230      1.00000
      8      -8.7184      1.00000
      9      -8.4490      1.00000
     10      -8.2813      1.00000
     11      -8.1358      1.00000
     12      -7.9094      1.00000
     13      -7.7947      1.00000
     14      -7.6195      1.00000
     15      -7.1705      1.00000
     16      -7.0397      1.00000
     17      -6.8401      1.00000
     18      -6.6839      1.00000
     19      -6.5480      1.00000
     20      -6.1774      1.00000
     21      -5.9859      1.00000
     22      -5.8739      1.00000
     23      -5.6725      1.00000
     24      -5.6128      1.00000
     25      -4.3130      1.00000
     26      -2.1719      0.00000
     27      -2.0413      0.00000
     28      -1.8440      0.00000
     29      -1.7548      0.00000
     30      -1.6924      0.00000
     31      -1.3095      0.00000
     32      -1.2499      0.00000
     33      -1.0841      0.00000
     34      -0.9718      0.00000
     35      -0.0220      0.00000
     36       2.3490      0.00000

 k-point     5 :       0.4000    0.2000    0.0000
  band No.  band energies     occupation 
      1     -19.2163      1.00000
      2     -19.0625      1.00000
      3     -18.8303      1.00000
      4     -18.5897      1.00000
      5     -18.5212      1.00000
      6     -18.4672      1.00000
      7      -9.7612      1.00000
      8      -8.7125      1.00000
      9      -8.4122      1.00000
     10      -8.2877      1.00000
     11      -8.1595      1.00000
     12      -7.9120      1.00000
     13      -7.7746      1.00000
     14      -7.5999      1.00000
     15      -7.3914      1.00000
     16      -6.9201      1.00000
     17      -6.8192      1.00000
     18      -6.5397      1.00000
     19      -6.4291      1.00000
     20      -6.2365      1.00000
     21      -6.0662      1.00000
     22      -5.8921      1.00000
     23      -5.6953      1.00000
     24      -5.6128      1.00000
     25      -4.3483      1.00000
     26      -2.2253      0.00000
     27      -2.0566      0.00000
     28      -1.8711      0.00000
     29      -1.7536      0.00000
     30      -1.6952      0.00000
     31      -1.2976      0.00000
     32      -1.2195      0.00000
     33      -1.0881      0.00000
     34      -0.9564      0.00000
     35      -0.0381      0.00000
     36       2.9497      0.00000


--------------------------------------------------------------------------------------------------------


 soft charge-density along one line, spin component           1
         0         1         2         3         4         5         6         7         8         9
 total charge-density along one line
 
 soft charge-density along one line, spin component           2
         0         1         2         3         4         5         6         7         8         9
 total charge-density along one line
 
 pseudopotential strength for first ion, spin component:           1
 -9.606   0.195  -0.000   0.036   0.000  -9.934   0.188  -0.000
  0.195  -9.464  -0.000   0.000   0.036   0.188  -9.797  -0.000
 -0.000  -0.000  -9.748  -0.000   0.000  -0.000  -0.000 -10.071
  0.036   0.000  -0.000  -9.464  -0.195   0.035   0.000  -0.000
  0.000   0.036   0.000  -0.195  -9.606   0.000   0.035   0.000
 -9.934   0.188  -0.000   0.035   0.000 -10.225   0.182  -0.000
  0.188  -9.797  -0.000   0.000   0.035   0.182 -10.093  -0.000
 -0.000  -0.000 -10.071  -0.000   0.000  -0.000  -0.000 -10.358
  0.035   0.000  -0.000  -9.797  -0.188   0.033   0.000  -0.000
  0.000   0.035   0.000  -0.188  -9.934   0.000   0.033   0.000
 -0.000  -0.000  -0.001  -0.000   0.000  -0.000  -0.000  -0.001
 -0.000  -0.000  -0.001  -0.000   0.000  -0.000  -0.000  -0.001
 -0.000   0.002  -0.000   0.000  -0.001  -0.000   0.002  -0.000
  0.000   0.000   0.002   0.000   0.000   0.000   0.000   0.002
 -0.001   0.000   0.000   0.002   0.000  -0.001   0.000   0.000
  0.000   0.002  -0.000   0.000  -0.001   0.000   0.002  -0.000
  0.000   0.000   0.003  -0.000   0.000   0.000   0.000   0.003
 -0.001   0.000   0.000   0.002  -0.000  -0.001   0.000   0.000
 pseudopotential strength for first ion, spin component:           2
 -7.956  -0.258   0.000  -0.046   0.000  -8.339  -0.250   0.000
 -0.258  -8.136  -0.000   0.000  -0.046  -0.250  -8.513  -0.000
  0.000  -0.000  -7.764  -0.000  -0.000   0.000  -0.000  -8.153
 -0.046   0.000  -0.000  -8.136   0.258  -0.044   0.000  -0.000
  0.000  -0.046  -0.000   0.258  -7.956   0.000  -0.044  -0.000
 -8.339  -0.250   0.000  -0.044   0.000  -8.683  -0.241   0.000
 -0.250  -8.513  -0.000   0.000  -0.044  -0.241  -8.851  -0.000
  0.000  -0.000  -8.153  -0.000  -0.000   0.000  -0.000  -8.504
 -0.044   0.000  -0.000  -8.513   0.250  -0.043   0.000  -0.000
  0.000  -0.044  -0.000   0.250  -8.339   0.000  -0.043  -0.000
  0.000  -0.000  -0.003  -0.000  -0.000   0.000  -0.000  -0.004
  0.000  -0.000  -0.007  -0.000  -0.000   0.000  -0.000  -0.007
 -0.000   0.000  -0.000   0.000  -0.001  -0.000   0.000  -0.000
  0.000   0.000  -0.000   0.000   0.000   0.000   0.000   0.000
 -0.001   0.000  -0.000   0.000   0.000  -0.001   0.000  -0.000
 -0.000  -0.000  -0.000   0.000  -0.001  -0.000   0.000  -0.000
  0.000   0.000  -0.001   0.000   0.000   0.000   0.000  -0.001
 -0.001   0.000  -0.000  -0.000   0.000  -0.001   0.000  -0.000
 total augmentation occupancy for first ion, spin component:           1
  3.905  -1.138   0.000  -0.235   0.000  -2.996  -0.047  -0.000   0.038  -0.000  -0.000  -0.000   0.017   0.000   0.058  -0.002
 -1.138   2.926   0.000  -0.000  -0.235  -0.045  -2.796  -0.000  -0.000   0.039   0.000   0.000  -0.011   0.000  -0.025   0.001
  0.000   0.000   4.609  -0.000  -0.000  -0.000  -0.000  -2.807  -0.000   0.000   0.152  -0.017  -0.000  -0.055   0.000   0.000
 -0.235  -0.000  -0.000   2.926   1.138   0.039   0.000  -0.000  -2.796   0.045   0.000   0.000   0.025  -0.000  -0.011  -0.001
  0.000  -0.235  -0.000   1.138   3.905   0.000   0.038   0.000   0.047  -2.996  -0.000   0.000   0.058   0.000  -0.017  -0.004
 -2.996  -0.045  -0.000   0.039   0.000   3.036   0.974   0.000   0.122  -0.000   0.000   0.000  -0.024   0.000  -0.064   0.001
 -0.047  -2.796  -0.000   0.000   0.038   0.974   3.448  -0.000  -0.000   0.122   0.000   0.000   0.003   0.000   0.017  -0.000
 -0.000  -0.000  -2.807  -0.000   0.000   0.000  -0.000   2.134   0.000  -0.000  -0.166   0.023   0.000   0.056  -0.000  -0.000
  0.038  -0.000  -0.000  -2.796   0.047   0.122  -0.000   0.000   3.448  -0.974   0.000   0.000  -0.017   0.000   0.003   0.001
 -0.000   0.039   0.000   0.045  -2.996   0.000   0.122  -0.000  -0.974   3.036   0.000  -0.000  -0.064  -0.000   0.024   0.003
 -0.000   0.000   0.152   0.000  -0.000   0.000   0.000  -0.166   0.000   0.000   1.923  -0.236  -0.000   0.002   0.000   0.000
 -0.000   0.000  -0.017   0.000   0.000   0.000   0.000   0.023   0.000  -0.000  -0.236   0.037   0.000  -0.002   0.000   0.000
  0.017  -0.011  -0.000   0.025   0.058  -0.024   0.003   0.000  -0.017  -0.064  -0.000   0.000   0.301   0.000   0.000  -0.009
 -0.000   0.000  -0.055  -0.000   0.000   0.000   0.000   0.056   0.000  -0.000   0.002  -0.002   0.000   0.280   0.000   0.000
  0.058  -0.025   0.000  -0.011  -0.017  -0.064   0.017  -0.000   0.003   0.024   0.000   0.000  -0.000   0.000   0.301  -0.000
 -0.002   0.001   0.000  -0.001  -0.004   0.001  -0.000  -0.000   0.001   0.003   0.000   0.000  -0.009   0.000  -0.000   0.000
  0.000   0.000   0.003  -0.000  -0.000   0.000   0.000  -0.002   0.000   0.000  -0.000   0.000   0.000  -0.008  -0.000  -0.000
 -0.004   0.001  -0.000   0.001   0.002   0.003  -0.001   0.000  -0.000  -0.001   0.000  -0.000   0.000  -0.000  -0.009   0.000
 total augmentation occupancy for first ion, spin component:           2
  2.493  -2.092   0.000  -0.369   0.000  -1.087   1.216  -0.000   0.218  -0.003   0.000   0.000  -0.001   0.000   0.004  -0.001
 -2.092   1.049   0.000   0.000  -0.369   1.221  -0.252  -0.000  -0.003   0.216   0.000   0.000  -0.009   0.000  -0.016   0.001
  0.000   0.000   3.999  -0.000  -0.000  -0.000  -0.000  -1.963   0.000   0.000   0.008   0.007   0.000  -0.021  -0.000   0.000
 -0.369   0.000  -0.000   1.049   2.092   0.216   0.003   0.000  -0.252  -1.221   0.000   0.000   0.016   0.000  -0.009  -0.000
 -0.000  -0.369  -0.000   2.092   2.493   0.003   0.218   0.000  -1.216  -1.087  -0.000  -0.000   0.004   0.000   0.001  -0.001
 -1.087   1.221  -0.000   0.216   0.003   0.402  -0.755   0.000  -0.138  -0.000   0.000  -0.000   0.003   0.000  -0.002   0.000
  1.216  -0.252  -0.000   0.003   0.218  -0.755  -0.110   0.000   0.000  -0.138   0.000   0.000   0.006  -0.000   0.009  -0.000
 -0.000  -0.000  -1.963   0.000   0.000   0.000   0.000   0.958  -0.000  -0.000   0.009  -0.006   0.000   0.011   0.000   0.000
  0.218  -0.003   0.000  -0.252  -1.216  -0.138  -0.000  -0.000  -0.110   0.755   0.000   0.000  -0.009   0.000   0.006   0.000
 -0.003   0.216   0.000  -1.221  -1.087  -0.000  -0.138  -0.000   0.755   0.402  -0.000   0.000  -0.002  -0.000  -0.003  -0.000
  0.000   0.000   0.008   0.000  -0.000   0.000   0.000   0.009   0.000  -0.000  -0.054   0.051  -0.000  -0.001   0.000   0.000
  0.000   0.000   0.007   0.000  -0.000  -0.000   0.000  -0.006   0.000   0.000   0.051  -0.009   0.000  -0.000   0.000   0.000
 -0.001  -0.009   0.000   0.016   0.004   0.003   0.006   0.000  -0.009  -0.002  -0.000   0.000   0.015   0.000  -0.000   0.002
  0.000   0.000  -0.021   0.000   0.000  -0.000  -0.000   0.011   0.000  -0.000  -0.001  -0.000   0.000   0.013   0.000   0.000
  0.004  -0.016  -0.000  -0.009   0.001  -0.002   0.009   0.000   0.006  -0.003   0.000   0.000  -0.000   0.000   0.015   0.000
 -0.001   0.001   0.000  -0.000  -0.001   0.000  -0.000   0.000   0.000  -0.000   0.000   0.000   0.002   0.000   0.000  -0.000
  0.000  -0.000   0.001   0.000  -0.000   0.000  -0.000  -0.001   0.000   0.000   0.000  -0.000   0.000   0.001   0.000   0.000
 -0.001   0.000  -0.000   0.001   0.001  -0.000  -0.000   0.000  -0.000  -0.000   0.000  -0.000  -0.000   0.000   0.002   0.000


------------------------ aborting loop because EDIFF is reached ----------------------------------------


    CHARGE:  cpu time      0.0715: real time      0.0720
    FORLOC:  cpu time      0.0070: real time      0.0071
    FORNL :  cpu time      0.2695: real time      0.2722
    STRESS:  cpu time      0.8228: real time      0.8309
    FORCOR:  cpu time      0.1393: real time      0.1401
    FORHAR:  cpu time      0.0202: real time      0.0203
    MIXING:  cpu time      0.0069: real time      0.0070
    OFIELD:  cpu time      0.0000: real time      0.0000

 ---------------------------------------------------------------------------------------------

         DFTD3 V3.0 Rev 1        
 Edisp (eV)   -1.42649

 E6    (eV) :    -0.8694
 E8    (eV) :    -0.5571
 % E8        : 39.05
    FORVDW:  cpu time      0.0125: real time      0.0126

  FORCE on cell =-STRESS in cart. coord.  units (eV):
  Direction    XX          YY          ZZ          XY          YZ          ZX
  --------------------------------------------------------------------------------------
  Alpha Z    27.90262    27.90262    27.90262
  Ewald    8158.81536  8158.81536 -9882.95990    -0.00000    -0.00000    -0.00000
  Hartree  8765.64415  8765.64415 -8398.56106    -0.00000     0.00000     0.00000
  E(xc)    -211.84127  -211.84127  -213.26527    -0.00000    -0.00000    -0.00000
  Local  -17954.11748-17954.11738 17242.65716     0.00008     0.00000     0.00000
  n-local   473.28040   473.56533   474.61831    -0.25889     0.17051     0.07677
  augment   -59.54448   -59.54457   -59.69474    -0.00093    -0.00000    -0.00000
  Kinetic   801.61536   801.07172   809.64521     0.32401    -0.10436    -0.12000
  Fock        0.00000     0.00000     0.00000     0.00000     0.00000     0.00000
  vdW        -1.56209    -1.56209    -0.47223    -0.00000    -0.00000    -0.00000
  -------------------------------------------------------------------------------------
  Total       0.06323     0.06323    -0.12990     0.00001    -0.00000     0.00000
  in kB       0.15999     0.15999    -0.32869     0.00002    -0.00000     0.00000
  external pressure =       -0.00 kB  Pullay stress =        0.00 kB


 VOLUME and BASIS-vectors are now :
 -----------------------------------------------------------------------------
  energy-cutoff  :      400.00
  volume of cell :      633.19
      direct lattice vectors                 reciprocal lattice vectors
     6.046274499  0.000000000  0.000000000     0.165391102  0.095488597  0.000000000
    -3.023137249  5.236227314  0.000000000     0.000000000  0.190977194  0.000000000
     0.000000000  0.000000000 20.000000000     0.000000000  0.000000000  0.050000000

  length of vectors
     6.046274499  6.046274499 20.000000000     0.190977194  0.190977194  0.050000000


 FORCES acting on ions
    electron-ion (+dipol)            ewald-force                    non-local-force                 convergence-correction
 -----------------------------------------------------------------------------------------------
   0.715E-07 -.366E-06 0.319E+02   -.687E-11 -.390E-12 -.323E+02   0.224E-17 -.103E-17 0.440E+00   -.245E-09 -.540E-09 -.964E-06
   0.414E-06 0.149E-05 -.204E+02   -.170E-12 0.240E-11 0.196E+02   0.721E-19 0.504E-18 0.802E+00   -.522E-09 -.695E-09 -.319E-04
   0.695E+02 -.118E+01 0.498E+03   -.714E+02 0.139E+01 -.501E+03   0.200E+01 -.202E+00 0.296E+01   0.364E-04 0.232E-05 -.283E-04
   -.337E+02 0.608E+02 0.498E+03   0.345E+02 -.626E+02 -.501E+03   -.823E+00 0.183E+01 0.296E+01   -.202E-04 0.303E-04 -.283E-04
   -.358E+02 -.596E+02 0.498E+03   0.369E+02 0.612E+02 -.501E+03   -.117E+01 -.163E+01 0.296E+01   -.162E-04 -.326E-04 -.283E-04
   -.761E+02 0.306E+01 -.466E+03   0.790E+02 -.429E+01 0.469E+03   -.287E+01 0.122E+01 -.275E+01   -.106E-04 -.217E-04 -.161E-04
   0.354E+02 -.674E+02 -.466E+03   -.358E+02 0.705E+02 0.469E+03   0.378E+00 -.310E+01 -.275E+01   0.241E-04 0.170E-05 -.161E-04
   0.407E+02 0.644E+02 -.466E+03   -.432E+02 -.663E+02 0.469E+03   0.249E+01 0.187E+01 -.275E+01   -.135E-04 0.200E-04 -.161E-04
   -.634E-08 -.165E-06 -.107E+03   0.251E-13 0.131E-13 0.109E+03   0.253E-18 -.112E-18 -.248E+01   -.559E-10 -.854E-10 0.322E-05
 -----------------------------------------------------------------------------------------------
   0.307E-06 0.424E-06 0.597E+00   0.109E-13 -.113E-14 0.341E-12   0.253E-18 -.112E-18 -.598E+00   -.304E-09 -.162E-09 -.163E-03
 
 
 POSITION                                       TOTAL-FORCE (eV/Angst)
 -----------------------------------------------------------------------------------
      0.00000      3.49082      9.92876         0.000000     -0.000000      0.009549
      3.02314      1.74541     10.11882         0.000000     -0.000000     -0.033467
      2.19492      0.04256      8.67966         0.020889      0.007655      0.001934
      4.91196      1.87957      8.67966        -0.017074      0.014263      0.001934
      1.96253      3.31410      8.67966        -0.003815     -0.021918      0.001934
      0.98358      5.14088     11.26693         0.012503     -0.000806     -0.001346
     -1.92079      3.51760     11.26693        -0.005554      0.011230     -0.001346
      0.93720      1.81398     11.26693        -0.006949     -0.010425     -0.001346
      3.02314      1.74541     11.66265         0.000000     -0.000000      0.022153
 -----------------------------------------------------------------------------------
    total drift:                                0.000000      0.000000     -0.001092


--------------------------------------------------------------------------------------------------------



  FREE ENERGIE OF THE ION-ELECTRON SYSTEM (eV)
  ---------------------------------------------------
  free  energy   TOTEN  =       -42.24022203 eV

  energy  without entropy=      -42.24022203  energy(sigma->0) =      -42.24022203
 d Force = 0.3239657E-03[ 0.109E-03, 0.539E-03]  d Energy = 0.3351043E-03-0.111E-04
 d Force =-0.6228908E+01[-0.623E+01,-0.623E+01]  d Ewald  =-0.6228910E+01 0.242E-05
 


--------------------------------------------------------------------------------------------------------


    POTLOK:  cpu time      0.2631: real time      0.2644


--------------------------------------------------------------------------------------------------------




--------------------------------------------------------------------------------------------------------


      MLFF:  cpu time      0.0008: real time      0.0028
    WAVPRE:  cpu time      0.0168: real time      0.0170
    FEWALD:  cpu time      0.0008: real time      0.0008

 real space projection operators:
  total allocation   :       3210.19 KBytes
  max/ min on nodes  :        804.93        800.96

    ORTHCH:  cpu time      0.0962: real time      0.0971
     LOOP+:  cpu time     23.7083: real time     23.9043


--------------------------------------- Ionic step        4  -------------------------------------------




--------------------------------------- Iteration      4(   1)  ---------------------------------------


    POTLOK:  cpu time      0.1526: real time      0.1537
    SETDIJ:  cpu time      0.1090: real time      0.1094
     EDDAV:  cpu time      1.0364: real time      1.0459
       DOS:  cpu time      0.0002: real time      0.0002
    CHARGE:  cpu time      0.0699: real time      0.0704
    MIXING:  cpu time      0.0057: real time      0.0057
    --------------------------------------------
      LOOP:  cpu time      1.3738: real time      1.3853

 eigenvalue-minimisations  :   764
 total energy-change (2. order) : 0.1568838E-03  (-0.5191087E-03)
 number of electron      55.0000012 magnetization       4.9999998
 augmentation part       -0.5297334 magnetization       3.5221439

 DIPCOR: dipole corrections for dipol
 direction  3 min pos     1,
 dipolmoment           0.000000      0.000000     -0.063013 electrons x Angstroem
 Tr[quadrupol]      -348.085986

 energy correction for charged system         0.000000 eV
 dipol+quadrupol energy correction           -0.000567 eV
 added-field ion interaction          0.014945 eV  (added to PSCEN)


 Broyden mixing:
  rms(total) = 0.45056E-02    rms(broyden)= 0.45051E-02
  rms(prec ) = 0.45453E-02
  weight for this iteration     100.00

 Free energy of the ion-electron system (eV)
  ---------------------------------------------------
  alpha Z        PSCENC =        27.91700135
  Ewald energy   TEWEN  =      6436.25089543
  -Hartree energ DENC   =     -9134.24935137
  -exchange      EXHF   =         0.00000000
  -V(xc)+E(xc)   XCENC  =        88.37552272
  PAW double counting   =      3775.88503479    -3738.38870011
  entropy T*S    EENTRO =        -0.00000000
  eigenvalues    EBANDS =      -521.15267193
  atomic energy  EATOM  =      3024.54869369
  Solvation  Ediel_sol  =         0.00000000
  ---------------------------------------------------
  free energy    TOTEN  =       -40.81357544 eV

  energy without entropy =      -40.81357544  energy(sigma->0) =      -40.81357544


--------------------------------------------------------------------------------------------------------




--------------------------------------- Iteration      4(   2)  ---------------------------------------


    POTLOK:  cpu time      0.1523: real time      0.1536
    SETDIJ:  cpu time      0.1090: real time      0.1093
     EDDAV:  cpu time      1.3572: real time      1.3698
       DOS:  cpu time      0.0002: real time      0.0002
    CHARGE:  cpu time      0.0709: real time      0.0713
    MIXING:  cpu time      0.0054: real time      0.0055
    --------------------------------------------
      LOOP:  cpu time      1.6950: real time      1.7097

 eigenvalue-minimisations  :  1076
 total energy-change (2. order) :-0.3316858E-04  (-0.3861480E-04)
 number of electron      55.0000012 magnetization       4.9999998
 augmentation part       -0.5322259 magnetization       3.5215319

 DIPCOR: dipole corrections for dipol
 direction  3 min pos     1,
 dipolmoment           0.000000      0.000000     -0.062935 electrons x Angstroem
 Tr[quadrupol]      -348.086059

 energy correction for charged system         0.000000 eV
 dipol+quadrupol energy correction           -0.000566 eV
 added-field ion interaction          0.014927 eV  (added to PSCEN)


 Broyden mixing:
  rms(total) = 0.32117E-02    rms(broyden)= 0.32112E-02
  rms(prec ) = 0.32730E-02
  weight for this iteration     100.00

 eigenvalues of (default mixing * dielectric matrix)
  average eigenvalue GAMMA=   0.5177
  0.5177

 Free energy of the ion-electron system (eV)
  ---------------------------------------------------
  alpha Z        PSCENC =        27.91698420
  Ewald energy   TEWEN  =      6436.25089543
  -Hartree energ DENC   =     -9134.26401149
  -exchange      EXHF   =         0.00000000
  -V(xc)+E(xc)   XCENC  =        88.37443604
  PAW double counting   =      3776.82478561    -3739.33466157
  entropy T*S    EENTRO =        -0.00000000
  eigenvalues    EBANDS =      -521.13073050
  atomic energy  EATOM  =      3024.54869369
  Solvation  Ediel_sol  =         0.00000000
  ---------------------------------------------------
  free energy    TOTEN  =       -40.81360861 eV

  energy without entropy =      -40.81360861  energy(sigma->0) =      -40.81360861


--------------------------------------------------------------------------------------------------------




--------------------------------------- Iteration      4(   3)  ---------------------------------------


    POTLOK:  cpu time      0.1518: real time      0.1529
    SETDIJ:  cpu time      0.1093: real time      0.1096
     EDDAV:  cpu time      1.3613: real time      1.3738
       DOS:  cpu time      0.0002: real time      0.0002
    CHARGE:  cpu time      0.0701: real time      0.0705
    MIXING:  cpu time      0.0055: real time      0.0056
    --------------------------------------------
      LOOP:  cpu time      1.6982: real time      1.7126

 eigenvalue-minimisations  :  1088
 total energy-change (2. order) : 0.1390344E-05  (-0.1346647E-05)
 number of electron      55.0000012 magnetization       4.9999998
 augmentation part       -0.5304957 magnetization       3.5217518

 DIPCOR: dipole corrections for dipol
 direction  3 min pos     1,
 dipolmoment           0.000000      0.000000     -0.062866 electrons x Angstroem
 Tr[quadrupol]      -348.086044

 energy correction for charged system         0.000000 eV
 dipol+quadrupol energy correction           -0.000565 eV
 added-field ion interaction          0.014910 eV  (added to PSCEN)


 Broyden mixing:
  rms(total) = 0.17241E-02    rms(broyden)= 0.17240E-02
  rms(prec ) = 0.17662E-02
  weight for this iteration     100.00

 eigenvalues of (default mixing * dielectric matrix)
  average eigenvalue GAMMA=   0.5696
  0.5696  0.5696

 Free energy of the ion-electron system (eV)
  ---------------------------------------------------
  alpha Z        PSCENC =        27.91696916
  Ewald energy   TEWEN  =      6436.25089543
  -Hartree energ DENC   =     -9134.25576658
  -exchange      EXHF   =         0.00000000
  -V(xc)+E(xc)   XCENC  =        88.37423552
  PAW double counting   =      3776.90153491    -3739.40784381
  entropy T*S    EENTRO =        -0.00000000
  eigenvalues    EBANDS =      -521.14232553
  atomic energy  EATOM  =      3024.54869369
  Solvation  Ediel_sol  =         0.00000000
  ---------------------------------------------------
  free energy    TOTEN  =       -40.81360721 eV

  energy without entropy =      -40.81360721  energy(sigma->0) =      -40.81360721


--------------------------------------------------------------------------------------------------------




--------------------------------------- Iteration      4(   4)  ---------------------------------------


    POTLOK:  cpu time      0.1525: real time      0.1536
    SETDIJ:  cpu time      0.1088: real time      0.1091
     EDDAV:  cpu time      0.8916: real time      0.8997
       DOS:  cpu time      0.0002: real time      0.0002
    CHARGE:  cpu time      0.0718: real time      0.0722
    MIXING:  cpu time      0.0056: real time      0.0057
    --------------------------------------------
      LOOP:  cpu time      1.2306: real time      1.2405

 eigenvalue-minimisations  :   620
 total energy-change (2. order) : 0.1057168E-05  (-0.2765403E-06)
 number of electron      55.0000012 magnetization       4.9999998
 augmentation part       -0.5312953 magnetization       3.5216900

 DIPCOR: dipole corrections for dipol
 direction  3 min pos     1,
 dipolmoment           0.000000      0.000000     -0.062873 electrons x Angstroem
 Tr[quadrupol]      -348.086307

 energy correction for charged system         0.000000 eV
 dipol+quadrupol energy correction           -0.000565 eV
 added-field ion interaction          0.014912 eV  (added to PSCEN)


 Broyden mixing:
  rms(total) = 0.15685E-02    rms(broyden)= 0.15685E-02
  rms(prec ) = 0.15944E-02
  weight for this iteration     100.00

 eigenvalues of (default mixing * dielectric matrix)
  average eigenvalue GAMMA=   0.5998
  0.7138  0.7138  0.3720

 Free energy of the ion-electron system (eV)
  ---------------------------------------------------
  alpha Z        PSCENC =        27.91697072
  Ewald energy   TEWEN  =      6436.25089543
  -Hartree energ DENC   =     -9134.26517930
  -exchange      EXHF   =         0.00000000
  -V(xc)+E(xc)   XCENC  =        88.37409793
  PAW double counting   =      3776.89175489    -3739.39942678
  entropy T*S    EENTRO =        -0.00000000
  eigenvalues    EBANDS =      -521.13141273
  atomic energy  EATOM  =      3024.54869369
  Solvation  Ediel_sol  =         0.00000000
  ---------------------------------------------------
  free energy    TOTEN  =       -40.81360616 eV

  energy without entropy =      -40.81360616  energy(sigma->0) =      -40.81360616


--------------------------------------------------------------------------------------------------------




--------------------------------------- Iteration      4(   5)  ---------------------------------------


    POTLOK:  cpu time      0.1527: real time      0.1537
    SETDIJ:  cpu time      0.1097: real time      0.1101
     EDDAV:  cpu time      0.7768: real time      0.7837
       DOS:  cpu time      0.0002: real time      0.0002
    CHARGE:  cpu time      0.0700: real time      0.0704
    MIXING:  cpu time      0.0056: real time      0.0056
    --------------------------------------------
      LOOP:  cpu time      1.1150: real time      1.1238

 eigenvalue-minimisations  :   504
 total energy-change (2. order) : 0.1048575E-05  (-0.1547511E-06)
 number of electron      55.0000012 magnetization       4.9999998
 augmentation part       -0.5310859 magnetization       3.5217091

 DIPCOR: dipole corrections for dipol
 direction  3 min pos     1,
 dipolmoment           0.000000      0.000000     -0.062856 electrons x Angstroem
 Tr[quadrupol]      -348.086448

 energy correction for charged system         0.000000 eV
 dipol+quadrupol energy correction           -0.000565 eV
 added-field ion interaction          0.014908 eV  (added to PSCEN)


 Broyden mixing:
  rms(total) = 0.11268E-02    rms(broyden)= 0.11268E-02
  rms(prec ) = 0.11375E-02
  weight for this iteration     100.00

 eigenvalues of (default mixing * dielectric matrix)
  average eigenvalue GAMMA=   0.9086
  1.3851  1.3851  0.4322  0.4322

 Free energy of the ion-electron system (eV)
  ---------------------------------------------------
  alpha Z        PSCENC =        27.91696694
  Ewald energy   TEWEN  =      6436.25089543
  -Hartree energ DENC   =     -9134.26887391
  -exchange      EXHF   =         0.00000000
  -V(xc)+E(xc)   XCENC  =        88.37413408
  PAW double counting   =      3776.87257021    -3739.37999449
  entropy T*S    EENTRO =        -0.00000000
  eigenvalues    EBANDS =      -521.12799706
  atomic energy  EATOM  =      3024.54869369
  Solvation  Ediel_sol  =         0.00000000
  ---------------------------------------------------
  free energy    TOTEN  =       -40.81360511 eV

  energy without entropy =      -40.81360511  energy(sigma->0) =      -40.81360511


--------------------------------------------------------------------------------------------------------




--------------------------------------- Iteration      4(   6)  ---------------------------------------


    POTLOK:  cpu time      0.1522: real time      0.1533
    SETDIJ:  cpu time      0.1096: real time      0.1099
     EDDAV:  cpu time      1.0676: real time      1.0771
       DOS:  cpu time      0.0002: real time      0.0002
    --------------------------------------------
      LOOP:  cpu time      1.3295: real time      1.3405

 eigenvalue-minimisations  :   796
 total energy-change (2. order) : 0.5853985E-06  (-0.5899544E-06)
 number of electron      55.0000012 magnetization       4.9999998
 augmentation part       -0.5310859 magnetization       3.5217091

 DIPCOR: dipole corrections for dipol
 direction  3 min pos     1,
 dipolmoment           0.000000      0.000000     -0.062833 electrons x Angstroem
 Tr[quadrupol]      -348.086714

 energy correction for charged system         0.000000 eV
 dipol+quadrupol energy correction           -0.000564 eV
 added-field ion interaction          0.014902 eV  (added to PSCEN)


 Free energy of the ion-electron system (eV)
  ---------------------------------------------------
  alpha Z        PSCENC =        27.91696190
  Ewald energy   TEWEN  =      6436.25089543
  -Hartree energ DENC   =     -9134.27695761
  -exchange      EXHF   =         0.00000000
  -V(xc)+E(xc)   XCENC  =        88.37409389
  PAW double counting   =      3776.84108426    -3739.34833171
  entropy T*S    EENTRO =        -0.00000000
  eigenvalues    EBANDS =      -521.12004438
  atomic energy  EATOM  =      3024.54869369
  Solvation  Ediel_sol  =         0.00000000
  ---------------------------------------------------
  free energy    TOTEN  =       -40.81360452 eV

  energy without entropy =      -40.81360452  energy(sigma->0) =      -40.81360452


--------------------------------------------------------------------------------------------------------




 average (electrostatic) potential at core
  the test charge radii are     1.1394  0.9406  0.5201
  (the norm of the test charge is              1.0000)
       1 -52.6757       2 -52.7088       3 -99.1219       4 -99.1219       5 -99.1219
       6 -99.3665       7 -99.3665       8 -99.3665       9 -40.6530
 
 
 
 E-fermi :  -3.9541     XC(G=0):  -2.9586     alpha+bet : -2.4254

 val. band max:       -4.2259260750   @ k =   0.4000   0.0000   0.0000
 cond. band min:      -2.4346911741   @ k =   0.4000   0.0000   0.0000
 fundamental gap:      1.7912349009
 Fermi energy:        -3.9541310285

 spin component 1

 k-point     1 :       0.0000    0.0000    0.0000
  band No.  band energies     occupation 
      1     -19.6467      1.00000
      2     -18.7134      1.00000
      3     -18.6688      1.00000
      4     -18.6688      1.00000
      5     -18.4063      1.00000
      6     -18.4063      1.00000
      7      -9.9381      1.00000
      8      -8.7965      1.00000
      9      -8.5163      1.00000
     10      -8.5163      1.00000
     11      -8.3049      1.00000
     12      -8.3049      1.00000
     13      -8.2281      1.00000
     14      -7.8284      1.00000
     15      -7.8284      1.00000
     16      -7.7473      1.00000
     17      -7.0538      1.00000
     18      -7.0538      1.00000
     19      -6.3945      1.00000
     20      -6.0565      1.00000
     21      -5.9133      1.00000
     22      -5.9133      1.00000
     23      -5.5468      1.00000
     24      -5.5468      1.00000
     25      -5.1769      1.00000
     26      -4.7077      1.00000
     27      -4.6687      1.00000
     28      -4.6687      1.00000
     29      -4.3530      1.00000
     30      -4.3530      1.00000
     31      -2.3752      0.00000
     32      -2.3752      0.00000
     33      -2.1148      0.00000
     34      -2.1148      0.00000
     35      -0.6878      0.00000
     36       1.7161      0.00000

 k-point     2 :       0.2000    0.0000    0.0000
  band No.  band energies     occupation 
      1     -19.5612      1.00000
      2     -18.7495      1.00000
      3     -18.7061      1.00000
      4     -18.6698      1.00000
      5     -18.4361      1.00000
      6     -18.4184      1.00000
      7      -9.9193      1.00000
      8      -8.8382      1.00000
      9      -8.6293      1.00000
     10      -8.4804      1.00000
     11      -8.3588      1.00000
     12      -8.2700      1.00000
     13      -8.0073      1.00000
     14      -7.8885      1.00000
     15      -7.7716      1.00000
     16      -7.4269      1.00000
     17      -7.1016      1.00000
     18      -6.8690      1.00000
     19      -6.3943      1.00000
     20      -6.2594      1.00000
     21      -6.1424      1.00000
     22      -5.9951      1.00000
     23      -5.7421      1.00000
     24      -5.6425      1.00000
     25      -5.0630      1.00000
     26      -4.7191      1.00000
     27      -4.6204      1.00000
     28      -4.5157      1.00000
     29      -4.3686      1.00000
     30      -4.3049      1.00000
     31      -2.3773      0.00000
     32      -2.3644      0.00000
     33      -2.2810      0.00000
     34      -2.1437      0.00000
     35      -0.5314      0.00000
     36       1.9404      0.00000

 k-point     3 :       0.4000    0.0000    0.0000
  band No.  band energies     occupation 
      1     -19.3453      1.00000
      2     -18.9682      1.00000
      3     -18.7391      1.00000
      4     -18.6035      1.00000
      5     -18.4949      1.00000
      6     -18.4403      1.00000
      7      -9.8789      1.00000
      8      -8.8804      1.00000
      9      -8.6158      1.00000
     10      -8.4507      1.00000
     11      -8.3311      1.00000
     12      -8.1244      1.00000
     13      -8.0441      1.00000
     14      -7.8320      1.00000
     15      -7.5264      1.00000
     16      -7.3808      1.00000
     17      -7.0388      1.00000
     18      -6.8141      1.00000
     19      -6.6295      1.00000
     20      -6.5546      1.00000
     21      -6.1320      1.00000
     22      -6.1113      1.00000
     23      -5.6655      1.00000
     24      -5.6314      1.00000
     25      -5.1301      1.00000
     26      -4.7338      1.00000
     27      -4.6372      1.00000
     28      -4.4272      1.00000
     29      -4.3856      1.00000
     30      -4.2259      1.00000
     31      -2.4347      0.00000
     32      -2.3517      0.00000
     33      -2.2958      0.00000
     34      -2.2291      0.00000
     35      -0.4500      0.00000
     36       2.5033      0.00000

 k-point     4 :       0.2000    0.2000    0.0000
  band No.  band energies     occupation 
      1     -19.4070      1.00000
      2     -18.8745      1.00000
      3     -18.7688      1.00000
      4     -18.6212      1.00000
      5     -18.4719      1.00000
      6     -18.4385      1.00000
      7      -9.8501      1.00000
      8      -8.9221      1.00000
      9      -8.6177      1.00000
     10      -8.4894      1.00000
     11      -8.3588      1.00000
     12      -8.1440      1.00000
     13      -8.0406      1.00000
     14      -7.9351      1.00000
     15      -7.4346      1.00000
     16      -7.3024      1.00000
     17      -7.0712      1.00000
     18      -6.8017      1.00000
     19      -6.7096      1.00000
     20      -6.2200      1.00000
     21      -6.1984      1.00000
     22      -6.1233      1.00000
     23      -5.9056      1.00000
     24      -5.6666      1.00000
     25      -4.9696      1.00000
     26      -4.7620      1.00000
     27      -4.5967      1.00000
     28      -4.4509      1.00000
     29      -4.3556      1.00000
     30      -4.2829      1.00000
     31      -2.4197      0.00000
     32      -2.3623      0.00000
     33      -2.3194      0.00000
     34      -2.1671      0.00000
     35      -0.4712      0.00000
     36       2.3215      0.00000

 k-point     5 :       0.4000    0.2000    0.0000
  band No.  band energies     occupation 
      1     -19.2157      1.00000
      2     -19.0527      1.00000
      3     -18.8087      1.00000
      4     -18.5697      1.00000
      5     -18.5059      1.00000
      6     -18.4549      1.00000
      7      -9.7759      1.00000
      8      -8.9109      1.00000
      9      -8.6107      1.00000
     10      -8.5318      1.00000
     11      -8.3273      1.00000
     12      -8.1256      1.00000
     13      -8.0554      1.00000
     14      -7.8998      1.00000
     15      -7.6609      1.00000
     16      -7.1007      1.00000
     17      -7.0188      1.00000
     18      -6.6866      1.00000
     19      -6.6341      1.00000
     20      -6.5249      1.00000
     21      -6.1424      1.00000
     22      -6.0643      1.00000
     23      -5.9019      1.00000
     24      -5.7802      1.00000
     25      -4.9528      1.00000
     26      -4.7441      1.00000
     27      -4.6040      1.00000
     28      -4.4307      1.00000
     29      -4.3737      1.00000
     30      -4.2777      1.00000
     31      -2.4299      0.00000
     32      -2.3499      0.00000
     33      -2.3157      0.00000
     34      -2.1544      0.00000
     35      -0.5150      0.00000
     36       2.8226      0.00000
 Fermi energy:        -3.9541310285

 spin component 2

 k-point     1 :       0.0000    0.0000    0.0000
  band No.  band energies     occupation 
      1     -19.6391      1.00000
      2     -18.7346      1.00000
      3     -18.6924      1.00000
      4     -18.6924      1.00000
      5     -18.4201      1.00000
      6     -18.4201      1.00000
      7      -9.8918      1.00000
      8      -8.5661      1.00000
      9      -8.3256      1.00000
     10      -8.3256      1.00000
     11      -8.1879      1.00000
     12      -8.0620      1.00000
     13      -8.0620      1.00000
     14      -7.5916      1.00000
     15      -7.4613      1.00000
     16      -7.4613      1.00000
     17      -6.7889      1.00000
     18      -6.7889      1.00000
     19      -6.3392      1.00000
     20      -6.0381      1.00000
     21      -5.7452      1.00000
     22      -5.7452      1.00000
     23      -5.4673      1.00000
     24      -5.4673      1.00000
     25      -4.4289      1.00000
     26      -2.1008      0.00000
     27      -2.1008      0.00000
     28      -1.8363      0.00000
     29      -1.7275      0.00000
     30      -1.7275      0.00000
     31      -1.2367      0.00000
     32      -1.2367      0.00000
     33      -0.9173      0.00000
     34      -0.9173      0.00000
     35      -0.2908      0.00000
     36       1.7600      0.00000

 k-point     2 :       0.2000    0.0000    0.0000
  band No.  band energies     occupation 
      1     -19.5556      1.00000
      2     -18.7701      1.00000
      3     -18.7280      1.00000
      4     -18.6926      1.00000
      5     -18.4497      1.00000
      6     -18.4318      1.00000
      7      -9.8788      1.00000
      8      -8.6351      1.00000
      9      -8.4567      1.00000
     10      -8.2990      1.00000
     11      -8.1483      1.00000
     12      -8.0574      1.00000
     13      -7.7289      1.00000
     14      -7.6066      1.00000
     15      -7.4678      1.00000
     16      -7.2261      1.00000
     17      -6.8521      1.00000
     18      -6.6787      1.00000
     19      -6.2716      1.00000
     20      -6.1146      1.00000
     21      -6.0056      1.00000
     22      -5.7991      1.00000
     23      -5.6454      1.00000
     24      -5.5381      1.00000
     25      -4.3256      1.00000
     26      -2.1163      0.00000
     27      -2.0519      0.00000
     28      -1.7890      0.00000
     29      -1.7569      0.00000
     30      -1.7341      0.00000
     31      -1.2729      0.00000
     32      -1.2562      0.00000
     33      -1.0527      0.00000
     34      -0.9430      0.00000
     35      -0.1093      0.00000
     36       1.9679      0.00000

 k-point     3 :       0.4000    0.0000    0.0000
  band No.  band energies     occupation 
      1     -19.3444      1.00000
      2     -18.9821      1.00000
      3     -18.7618      1.00000
      4     -18.6240      1.00000
      5     -18.5098      1.00000
      6     -18.4532      1.00000
      7      -9.8429      1.00000
      8      -8.6980      1.00000
      9      -8.4363      1.00000
     10      -8.2406      1.00000
     11      -8.1126      1.00000
     12      -7.9048      1.00000
     13      -7.7767      1.00000
     14      -7.5786      1.00000
     15      -7.2164      1.00000
     16      -7.1106      1.00000
     17      -6.8016      1.00000
     18      -6.6376      1.00000
     19      -6.5149      1.00000
     20      -6.3230      1.00000
     21      -6.0759      1.00000
     22      -5.9066      1.00000
     23      -5.5903      1.00000
     24      -5.5347      1.00000
     25      -4.3384      1.00000
     26      -2.2136      0.00000
     27      -2.0195      0.00000
     28      -1.8128      0.00000
     29      -1.7779      0.00000
     30      -1.6811      0.00000
     31      -1.3365      0.00000
     32      -1.2616      0.00000
     33      -1.0736      0.00000
     34      -0.9861      0.00000
     35       0.0103      0.00000
     36       2.5283      0.00000

 k-point     4 :       0.2000    0.2000    0.0000
  band No.  band energies     occupation 
      1     -19.4049      1.00000
      2     -18.8901      1.00000
      3     -18.7909      1.00000
      4     -18.6423      1.00000
      5     -18.4866      1.00000
      6     -18.4517      1.00000
      7      -9.8232      1.00000
      8      -8.7193      1.00000
      9      -8.4501      1.00000
     10      -8.2824      1.00000
     11      -8.1372      1.00000
     12      -7.9108      1.00000
     13      -7.7962      1.00000
     14      -7.6209      1.00000
     15      -7.1718      1.00000
     16      -7.0403      1.00000
     17      -6.8402      1.00000
     18      -6.6839      1.00000
     19      -6.5477      1.00000
     20      -6.1764      1.00000
     21      -5.9860      1.00000
     22      -5.8745      1.00000
     23      -5.6731      1.00000
     24      -5.6124      1.00000
     25      -4.3144      1.00000
     26      -2.1713      0.00000
     27      -2.0406      0.00000
     28      -1.8433      0.00000
     29      -1.7539      0.00000
     30      -1.6916      0.00000
     31      -1.3078      0.00000
     32      -1.2483      0.00000
     33      -1.0823      0.00000
     34      -0.9694      0.00000
     35      -0.0194      0.00000
     36       2.3431      0.00000

 k-point     5 :       0.4000    0.2000    0.0000
  band No.  band energies     occupation 
      1     -19.2173      1.00000
      2     -19.0633      1.00000
      3     -18.8305      1.00000
      4     -18.5902      1.00000
      5     -18.5216      1.00000
      6     -18.4679      1.00000
      7      -9.7613      1.00000
      8      -8.7133      1.00000
      9      -8.4133      1.00000
     10      -8.2889      1.00000
     11      -8.1605      1.00000
     12      -7.9139      1.00000
     13      -7.7760      1.00000
     14      -7.6014      1.00000
     15      -7.3923      1.00000
     16      -6.9194      1.00000
     17      -6.8202      1.00000
     18      -6.5396      1.00000
     19      -6.4293      1.00000
     20      -6.2369      1.00000
     21      -6.0655      1.00000
     22      -5.8925      1.00000
     23      -5.6952      1.00000
     24      -5.6131      1.00000
     25      -4.3495      1.00000
     26      -2.2245      0.00000
     27      -2.0559      0.00000
     28      -1.8704      0.00000
     29      -1.7529      0.00000
     30      -1.6944      0.00000
     31      -1.2961      0.00000
     32      -1.2178      0.00000
     33      -1.0863      0.00000
     34      -0.9540      0.00000
     35      -0.0354      0.00000
     36       2.9468      0.00000


--------------------------------------------------------------------------------------------------------


 soft charge-density along one line, spin component           1
         0         1         2         3         4         5         6         7         8         9
 total charge-density along one line
 
 soft charge-density along one line, spin component           2
         0         1         2         3         4         5         6         7         8         9
 total charge-density along one line
 
 pseudopotential strength for first ion, spin component:           1
 -9.605   0.195  -0.000   0.036   0.000  -9.933   0.188  -0.000
  0.195  -9.463  -0.000   0.000   0.036   0.188  -9.796  -0.000
 -0.000  -0.000  -9.747  -0.000   0.000  -0.000  -0.000 -10.070
  0.036   0.000  -0.000  -9.463  -0.195   0.035   0.000  -0.000
  0.000   0.036   0.000  -0.195  -9.605   0.000   0.035   0.000
 -9.933   0.188  -0.000   0.035   0.000 -10.224   0.182  -0.000
  0.188  -9.796  -0.000   0.000   0.035   0.182 -10.092  -0.000
 -0.000  -0.000 -10.070  -0.000   0.000  -0.000  -0.000 -10.357
  0.035   0.000  -0.000  -9.796  -0.188   0.033   0.000  -0.000
  0.000   0.035   0.000  -0.188  -9.933   0.000   0.033   0.000
 -0.000  -0.000  -0.001  -0.000   0.000  -0.000  -0.000  -0.001
 -0.000  -0.000  -0.001  -0.000   0.000  -0.000  -0.000  -0.001
 -0.000   0.002  -0.000   0.000  -0.001  -0.000   0.002  -0.000
  0.000   0.000   0.002   0.000  -0.000   0.000   0.000   0.002
 -0.001   0.000   0.000   0.002   0.000  -0.001   0.000   0.000
  0.000   0.002  -0.000   0.000  -0.001   0.000   0.002  -0.000
  0.000   0.000   0.003  -0.000  -0.000   0.000   0.000   0.003
 -0.001   0.000   0.000   0.002  -0.000  -0.001   0.000   0.000
 pseudopotential strength for first ion, spin component:           2
 -7.955  -0.258   0.000  -0.046   0.000  -8.338  -0.250   0.000
 -0.258  -8.136  -0.000  -0.000  -0.046  -0.250  -8.512  -0.000
  0.000  -0.000  -7.763  -0.000  -0.000   0.000  -0.000  -8.152
 -0.046  -0.000  -0.000  -8.136   0.258  -0.044  -0.000  -0.000
  0.000  -0.046  -0.000   0.258  -7.955   0.000  -0.044  -0.000
 -8.338  -0.250   0.000  -0.044   0.000  -8.682  -0.241   0.000
 -0.250  -8.512  -0.000  -0.000  -0.044  -0.241  -8.851  -0.000
  0.000  -0.000  -8.152  -0.000  -0.000   0.000  -0.000  -8.504
 -0.044  -0.000  -0.000  -8.512   0.250  -0.043  -0.000  -0.000
  0.000  -0.044  -0.000   0.250  -8.338   0.000  -0.043  -0.000
  0.000  -0.000  -0.003  -0.000  -0.000   0.000  -0.000  -0.004
  0.000  -0.000  -0.007  -0.000  -0.000   0.000  -0.000  -0.007
 -0.000   0.000  -0.000   0.000  -0.001  -0.000   0.000  -0.000
  0.000   0.000  -0.000   0.000   0.000   0.000   0.000   0.000
 -0.001   0.000  -0.000   0.000   0.000  -0.001   0.000  -0.000
 -0.000  -0.000  -0.000   0.000  -0.001  -0.000   0.000  -0.000
  0.000   0.000  -0.001   0.000   0.000   0.000   0.000  -0.001
 -0.001   0.000  -0.000  -0.000   0.000  -0.001   0.000  -0.000
 total augmentation occupancy for first ion, spin component:           1
  3.907  -1.135   0.000  -0.235   0.000  -2.998  -0.050  -0.000   0.038  -0.000   0.000   0.000   0.017   0.000   0.058  -0.002
 -1.135   2.929   0.000   0.000  -0.235  -0.047  -2.801  -0.000  -0.000   0.038   0.000   0.000  -0.011   0.000  -0.025   0.001
  0.000   0.000   4.608  -0.000  -0.000  -0.000  -0.000  -2.807  -0.000   0.000   0.153  -0.017  -0.000  -0.055   0.000   0.000
 -0.235   0.000  -0.000   2.929   1.135   0.038   0.000  -0.000  -2.801   0.047   0.000   0.000   0.025  -0.000  -0.011  -0.001
 -0.000  -0.235  -0.000   1.135   3.907   0.000   0.038   0.000   0.050  -2.998  -0.000   0.000   0.058   0.000  -0.017  -0.004
 -2.998  -0.047  -0.000   0.038   0.000   3.040   0.977   0.000   0.123  -0.000  -0.000  -0.000  -0.024   0.000  -0.064   0.001
 -0.050  -2.801  -0.000   0.000   0.038   0.977   3.453  -0.000  -0.000   0.123   0.000   0.000   0.003   0.000   0.017  -0.000
 -0.000  -0.000  -2.807  -0.000   0.000   0.000  -0.000   2.135   0.000  -0.000  -0.166   0.023   0.000   0.056  -0.000  -0.000
  0.038  -0.000  -0.000  -2.801   0.050   0.123  -0.000   0.000   3.453  -0.977   0.000   0.000  -0.017   0.000   0.003   0.001
 -0.000   0.038   0.000   0.047  -2.998  -0.000   0.123  -0.000  -0.977   3.040   0.000  -0.000  -0.064  -0.000   0.024   0.003
  0.000   0.000   0.153   0.000  -0.000  -0.000   0.000  -0.166   0.000   0.000   1.925  -0.236   0.000   0.002  -0.000   0.000
  0.000   0.000  -0.017   0.000   0.000  -0.000   0.000   0.023   0.000  -0.000  -0.236   0.037   0.000  -0.002   0.000   0.000
  0.017  -0.011  -0.000   0.025   0.058  -0.024   0.003   0.000  -0.017  -0.064   0.000   0.000   0.301   0.000  -0.000  -0.009
 -0.000   0.000  -0.055  -0.000   0.000   0.000   0.000   0.056   0.000  -0.000   0.002  -0.002   0.000   0.280   0.000   0.000
  0.058  -0.025   0.000  -0.011  -0.017  -0.064   0.017  -0.000   0.003   0.024  -0.000   0.000   0.000   0.000   0.301  -0.000
 -0.002   0.001   0.000  -0.001  -0.004   0.001  -0.000  -0.000   0.001   0.003   0.000   0.000  -0.009   0.000  -0.000   0.000
  0.000   0.000   0.003  -0.000  -0.000   0.000   0.000  -0.002  -0.000   0.000  -0.000   0.000   0.000  -0.008  -0.000  -0.000
 -0.004   0.001  -0.000   0.001   0.002   0.003  -0.001   0.000  -0.000  -0.001   0.000  -0.000   0.000  -0.000  -0.009  -0.000
 total augmentation occupancy for first ion, spin component:           2
  2.491  -2.092   0.000  -0.370   0.000  -1.086   1.215  -0.000   0.218  -0.003   0.000  -0.000  -0.001  -0.000   0.004  -0.001
 -2.092   1.048   0.000   0.000  -0.370   1.221  -0.251  -0.000  -0.003   0.217   0.000  -0.000  -0.009  -0.000  -0.016   0.001
  0.000   0.000   3.997  -0.000  -0.000  -0.000  -0.000  -1.962   0.000   0.000   0.008   0.007   0.000  -0.021  -0.000   0.000
 -0.370  -0.000  -0.000   1.048   2.092   0.217   0.003   0.000  -0.251  -1.221   0.000   0.000   0.016   0.000  -0.009  -0.000
 -0.000  -0.370  -0.000   2.092   2.491   0.003   0.218   0.000  -1.215  -1.086  -0.000  -0.000   0.004   0.000   0.001  -0.001
 -1.086   1.221  -0.000   0.217   0.003   0.401  -0.755   0.000  -0.139  -0.000   0.000  -0.000   0.003   0.000  -0.002   0.000
  1.215  -0.251  -0.000   0.003   0.218  -0.755  -0.111   0.000  -0.000  -0.139   0.000   0.000   0.006  -0.000   0.009  -0.000
 -0.000  -0.000  -1.962   0.000   0.000   0.000   0.000   0.957  -0.000  -0.000   0.009  -0.006   0.000   0.011   0.000   0.000
  0.218  -0.003   0.000  -0.251  -1.215  -0.139  -0.000  -0.000  -0.111   0.755   0.000   0.000  -0.009   0.000   0.006   0.000
 -0.003   0.217   0.000  -1.221  -1.086  -0.000  -0.139  -0.000   0.755   0.401  -0.000   0.000  -0.002  -0.000  -0.003  -0.000
  0.000   0.000   0.008   0.000  -0.000   0.000   0.000   0.009   0.000  -0.000  -0.054   0.051  -0.000  -0.001   0.000   0.000
 -0.000  -0.000   0.007   0.000  -0.000  -0.000   0.000  -0.006   0.000   0.000   0.051  -0.009   0.000  -0.000   0.000   0.000
 -0.001  -0.009  -0.000   0.016   0.004   0.003   0.006   0.000  -0.009  -0.002  -0.000   0.000   0.015  -0.000   0.000   0.002
  0.000  -0.000  -0.021   0.000   0.000   0.000   0.000   0.011   0.000  -0.000  -0.001  -0.000  -0.000   0.013   0.000   0.000
  0.004  -0.016  -0.000  -0.009   0.001  -0.002   0.009   0.000   0.006  -0.003   0.000   0.000   0.000   0.000   0.015   0.000
 -0.001   0.001   0.000  -0.000  -0.001   0.000  -0.000   0.000   0.000  -0.000   0.000   0.000   0.002   0.000   0.000  -0.000
  0.000   0.000   0.001   0.000  -0.000  -0.000   0.000  -0.001   0.000   0.000   0.000  -0.000   0.000   0.001   0.000   0.000
 -0.001   0.000  -0.000   0.001   0.001  -0.000  -0.000   0.000  -0.000  -0.000  -0.000   0.000  -0.000   0.000   0.002   0.000


------------------------ aborting loop because EDIFF is reached ----------------------------------------


    CHARGE:  cpu time      0.0718: real time      0.0722
    FORLOC:  cpu time      0.0069: real time      0.0070
    FORNL :  cpu time      0.2702: real time      0.2728
    STRESS:  cpu time      0.8268: real time      0.8348
    FORCOR:  cpu time      0.1389: real time      0.1397
    FORHAR:  cpu time      0.0199: real time      0.0200
    MIXING:  cpu time      0.0059: real time      0.0059
    OFIELD:  cpu time      0.0001: real time      0.0001

 ---------------------------------------------------------------------------------------------

         DFTD3 V3.0 Rev 1        
 Edisp (eV)   -1.42663

 E6    (eV) :    -0.8695
 E8    (eV) :    -0.5572
 % E8        : 39.05
    FORVDW:  cpu time      0.0127: real time      0.0128

  FORCE on cell =-STRESS in cart. coord.  units (eV):
  Direction    XX          YY          ZZ          XY          YZ          ZX
  --------------------------------------------------------------------------------------
  Alpha Z    27.90262    27.90262    27.90262
  Ewald    8160.36802  8160.36802 -9884.48787    -0.00000     0.00000    -0.00000
  Hartree  8767.06448  8767.06448 -8399.88772    -0.00000     0.00000     0.00000
  E(xc)    -211.84949  -211.84949  -213.27446    -0.00000    -0.00000    -0.00000
  Local  -17957.10073-17957.10063 17245.49414     0.00008     0.00000     0.00000
  n-local   473.29565   473.58080   474.63566    -0.25885     0.17102     0.07662
  augment   -59.54679   -59.54687   -59.69941    -0.00093    -0.00000    -0.00000
  Kinetic   801.64167   801.09899   809.70198     0.32321    -0.10451    -0.11987
  Fock        0.00000     0.00000     0.00000     0.00000     0.00000     0.00000
  vdW        -1.56220    -1.56220    -0.47193    -0.00000     0.00000    -0.00000
  -------------------------------------------------------------------------------------
  Total       0.08448     0.08448    -0.08700     0.00001     0.00000     0.00000
  in kB       0.21375     0.21375    -0.22014     0.00002     0.00000     0.00000
  external pressure =        0.07 kB  Pullay stress =        0.00 kB


 VOLUME and BASIS-vectors are now :
 -----------------------------------------------------------------------------
  energy-cutoff  :      400.00
  volume of cell :      633.19
      direct lattice vectors                 reciprocal lattice vectors
     6.046274499  0.000000000  0.000000000     0.165391102  0.095488597  0.000000000
    -3.023137249  5.236227314  0.000000000     0.000000000  0.190977194  0.000000000
     0.000000000  0.000000000 20.000000000     0.000000000  0.000000000  0.050000000

  length of vectors
     6.046274499  6.046274499 20.000000000     0.190977194  0.190977194  0.050000000


 FORCES acting on ions
    electron-ion (+dipol)            ewald-force                    non-local-force                 convergence-correction
 -----------------------------------------------------------------------------------------------
   0.439E-07 -.381E-06 0.319E+02   -.496E-11 -.148E-11 -.323E+02   -.661E-17 0.397E-18 0.437E+00   -.293E-07 -.550E-07 0.280E-03
   0.415E-06 0.147E-05 -.205E+02   0.270E-11 0.802E-12 0.197E+02   0.239E-17 -.289E-18 0.803E+00   -.315E-07 -.522E-07 -.281E-02
   0.695E+02 -.116E+01 0.498E+03   -.715E+02 0.136E+01 -.501E+03   0.199E+01 -.202E+00 0.296E+01   0.375E-02 0.531E-03 0.562E-02
   -.338E+02 0.608E+02 0.498E+03   0.346E+02 -.626E+02 -.501E+03   -.822E+00 0.183E+01 0.296E+01   -.234E-02 0.299E-02 0.562E-02
   -.358E+02 -.596E+02 0.498E+03   0.369E+02 0.612E+02 -.501E+03   -.117E+01 -.163E+01 0.296E+01   -.142E-02 -.352E-02 0.562E-02
   -.762E+02 0.303E+01 -.466E+03   0.790E+02 -.425E+01 0.469E+03   -.287E+01 0.122E+01 -.275E+01   -.200E-02 -.203E-02 -.622E-02
   0.355E+02 -.675E+02 -.466E+03   -.358E+02 0.706E+02 0.469E+03   0.376E+00 -.309E+01 -.275E+01   0.276E-02 -.712E-03 -.622E-02
   0.407E+02 0.645E+02 -.466E+03   -.432E+02 -.663E+02 0.469E+03   0.249E+01 0.187E+01 -.275E+01   -.762E-03 0.274E-02 -.622E-02
   -.700E-08 -.165E-06 -.107E+03   0.101E-11 -.565E-12 0.109E+03   0.375E-19 -.322E-18 -.248E+01   0.440E-08 0.798E-08 -.765E-03
 -----------------------------------------------------------------------------------------------
   0.220E-06 0.361E-06 0.608E+00   -.579E-14 0.392E-14 -.284E-12   0.375E-19 0.444E-15 -.604E+00   -.141E-06 -.246E-06 -.509E-02
 
 
 POSITION                                       TOTAL-FORCE (eV/Angst)
 -----------------------------------------------------------------------------------
      0.00000      3.49082      9.92888         0.000000      0.000000      0.009626
      3.02314      1.74541     10.11891         0.000000      0.000000     -0.038355
      2.19552      0.04269      8.68019         0.017179      0.007304     -0.003488
      4.91154      1.88004      8.68019        -0.014915      0.011226     -0.003488
      1.96235      3.31350      8.68019        -0.002264     -0.018529     -0.003488
      0.98349      5.14070     11.26653         0.015166      0.000946      0.002605
     -1.92058      3.51760     11.26653        -0.008403      0.012661      0.002605
      0.93710      1.81415     11.26653        -0.006763     -0.013607      0.002605
      3.02314      1.74541     11.66205         0.000000      0.000000      0.031377
 -----------------------------------------------------------------------------------
    total drift:                                0.000000      0.000000     -0.000859


--------------------------------------------------------------------------------------------------------



  FREE ENERGIE OF THE ION-ELECTRON SYSTEM (eV)
  ---------------------------------------------------
  free  energy   TOTEN  =       -42.24023482 eV

  energy  without entropy=      -42.24023482  energy(sigma->0) =      -42.24023482
 d Force = 0.1357194E-04[-0.418E-06, 0.276E-04]  d Energy = 0.1278448E-04 0.787E-06
 d Force =-0.1577336E+01[-0.158E+01,-0.158E+01]  d Ewald  =-0.1577336E+01 0.117E-07
 


--------------------------------------------------------------------------------------------------------


    POTLOK:  cpu time      0.2625: real time      0.2638


--------------------------------------------------------------------------------------------------------




--------------------------------------------------------------------------------------------------------


      MLFF:  cpu time      0.0008: real time      0.0029
    WAVPRE:  cpu time      0.0168: real time      0.0171
    FEWALD:  cpu time      0.0008: real time      0.0008

 real space projection operators:
  total allocation   :       3210.38 KBytes
  max/ min on nodes  :        805.30        801.17

    ORTHCH:  cpu time      0.0954: real time      0.0963
     LOOP+:  cpu time     10.2841: real time     10.3729


--------------------------------------- Ionic step        5  -------------------------------------------




--------------------------------------- Iteration      5(   1)  ---------------------------------------


    POTLOK:  cpu time      0.1522: real time      0.1534
    SETDIJ:  cpu time      0.1104: real time      0.1107
     EDDAV:  cpu time      1.0074: real time      1.0165
       DOS:  cpu time      0.0002: real time      0.0002
    CHARGE:  cpu time      0.0706: real time      0.0710
    MIXING:  cpu time      0.0054: real time      0.0055
    --------------------------------------------
      LOOP:  cpu time      1.3462: real time      1.3573

 eigenvalue-minimisations  :   720
 total energy-change (2. order) : 0.1665841E-03  (-0.3640343E-02)
 number of electron      55.0000012 magnetization       4.9999998
 augmentation part       -0.5300454 magnetization       3.5222557

 DIPCOR: dipole corrections for dipol
 direction  3 min pos     1,
 dipolmoment           0.000000      0.000000     -0.062831 electrons x Angstroem
 Tr[quadrupol]      -348.203752

 energy correction for charged system         0.000000 eV
 dipol+quadrupol energy correction           -0.000564 eV
 added-field ion interaction          0.014794 eV  (added to PSCEN)


 Broyden mixing:
  rms(total) = 0.12010E-01    rms(broyden)= 0.12003E-01
  rms(prec ) = 0.12103E-01
  weight for this iteration     100.00

 Free energy of the ion-electron system (eV)
  ---------------------------------------------------
  alpha Z        PSCENC =        27.91685388
  Ewald energy   TEWEN  =      6437.26528696
  -Hartree energ DENC   =     -9135.28297417
  -exchange      EXHF   =         0.00000000
  -V(xc)+E(xc)   XCENC  =        88.37763322
  PAW double counting   =      3776.83588700    -3739.34310494
  entropy T*S    EENTRO =        -0.00000000
  eigenvalues    EBANDS =      -521.13171415
  atomic energy  EATOM  =      3024.54869369
  Solvation  Ediel_sol  =         0.00000000
  ---------------------------------------------------
  free energy    TOTEN  =       -40.81343853 eV

  energy without entropy =      -40.81343853  energy(sigma->0) =      -40.81343853


--------------------------------------------------------------------------------------------------------




--------------------------------------- Iteration      5(   2)  ---------------------------------------


    POTLOK:  cpu time      0.1522: real time      0.1533
    SETDIJ:  cpu time      0.1103: real time      0.1107
     EDDAV:  cpu time      1.2920: real time      1.3038
       DOS:  cpu time      0.0002: real time      0.0002
    CHARGE:  cpu time      0.0712: real time      0.0716
    MIXING:  cpu time      0.0055: real time      0.0056
    --------------------------------------------
      LOOP:  cpu time      1.6315: real time      1.6452

 eigenvalue-minimisations  :  1012
 total energy-change (2. order) :-0.1969779E-03  (-0.1992140E-03)
 number of electron      55.0000012 magnetization       4.9999998
 augmentation part       -0.5321094 magnetization       3.5222382

 DIPCOR: dipole corrections for dipol
 direction  3 min pos     1,
 dipolmoment           0.000000      0.000000     -0.062219 electrons x Angstroem
 Tr[quadrupol]      -348.203615

 energy correction for charged system         0.000000 eV
 dipol+quadrupol energy correction           -0.000553 eV
 added-field ion interaction          0.014650 eV  (added to PSCEN)


 Broyden mixing:
  rms(total) = 0.59216E-02    rms(broyden)= 0.59194E-02
  rms(prec ) = 0.60177E-02
  weight for this iteration     100.00

 eigenvalues of (default mixing * dielectric matrix)
  average eigenvalue GAMMA=   0.6653
  0.6653

 Free energy of the ion-electron system (eV)
  ---------------------------------------------------
  alpha Z        PSCENC =        27.91672076
  Ewald energy   TEWEN  =      6437.26528696
  -Hartree energ DENC   =     -9135.29191413
  -exchange      EXHF   =         0.00000000
  -V(xc)+E(xc)   XCENC  =        88.37712671
  PAW double counting   =      3777.61223411    -3740.12360627
  entropy T*S    EENTRO =        -0.00000000
  eigenvalues    EBANDS =      -521.11817733
  atomic energy  EATOM  =      3024.54869369
  Solvation  Ediel_sol  =         0.00000000
  ---------------------------------------------------
  free energy    TOTEN  =       -40.81363550 eV

  energy without entropy =      -40.81363550  energy(sigma->0) =      -40.81363550


--------------------------------------------------------------------------------------------------------




--------------------------------------- Iteration      5(   3)  ---------------------------------------


    POTLOK:  cpu time      0.1525: real time      0.1536
    SETDIJ:  cpu time      0.1101: real time      0.1104
     EDDAV:  cpu time      1.3858: real time      1.3984
       DOS:  cpu time      0.0002: real time      0.0002
    CHARGE:  cpu time      0.0703: real time      0.0707
    MIXING:  cpu time      0.0057: real time      0.0057
    --------------------------------------------
      LOOP:  cpu time      1.7246: real time      1.7391

 eigenvalue-minimisations  :  1112
 total energy-change (2. order) :-0.2489995E-04  (-0.6024434E-05)
 number of electron      55.0000012 magnetization       4.9999998
 augmentation part       -0.5302765 magnetization       3.5225878

 DIPCOR: dipole corrections for dipol
 direction  3 min pos     1,
 dipolmoment           0.000000      0.000000     -0.062071 electrons x Angstroem
 Tr[quadrupol]      -348.203663

 energy correction for charged system         0.000000 eV
 dipol+quadrupol energy correction           -0.000551 eV
 added-field ion interaction          0.014615 eV  (added to PSCEN)


 Broyden mixing:
  rms(total) = 0.35014E-02    rms(broyden)= 0.35013E-02
  rms(prec ) = 0.35964E-02
  weight for this iteration     100.00

 eigenvalues of (default mixing * dielectric matrix)
  average eigenvalue GAMMA=   0.5876
  0.5876  0.5876

 Free energy of the ion-electron system (eV)
  ---------------------------------------------------
  alpha Z        PSCENC =        27.91668849
  Ewald energy   TEWEN  =      6437.26528696
  -Hartree energ DENC   =     -9135.28759765
  -exchange      EXHF   =         0.00000000
  -V(xc)+E(xc)   XCENC  =        88.37717206
  PAW double counting   =      3777.64008652    -3740.14783127
  entropy T*S    EENTRO =        -0.00000000
  eigenvalues    EBANDS =      -521.12615921
  atomic energy  EATOM  =      3024.54869369
  Solvation  Ediel_sol  =         0.00000000
  ---------------------------------------------------
  free energy    TOTEN  =       -40.81366040 eV

  energy without entropy =      -40.81366040  energy(sigma->0) =      -40.81366040


--------------------------------------------------------------------------------------------------------




--------------------------------------- Iteration      5(   4)  ---------------------------------------


    POTLOK:  cpu time      0.1522: real time      0.1533
    SETDIJ:  cpu time      0.1103: real time      0.1107
     EDDAV:  cpu time      1.3783: real time      1.3907
       DOS:  cpu time      0.0002: real time      0.0002
    CHARGE:  cpu time      0.0710: real time      0.0714
    MIXING:  cpu time      0.0056: real time      0.0057
    --------------------------------------------
      LOOP:  cpu time      1.7176: real time      1.7320

 eigenvalue-minimisations  :  1112
 total energy-change (2. order) : 0.8172104E-05  (-0.1277298E-05)
 number of electron      55.0000012 magnetization       4.9999998
 augmentation part       -0.5313321 magnetization       3.5225503

 DIPCOR: dipole corrections for dipol
 direction  3 min pos     1,
 dipolmoment           0.000000      0.000000     -0.062056 electrons x Angstroem
 Tr[quadrupol]      -348.203956

 energy correction for charged system         0.000000 eV
 dipol+quadrupol energy correction           -0.000550 eV
 added-field ion interaction          0.014612 eV  (added to PSCEN)


 Broyden mixing:
  rms(total) = 0.26045E-02    rms(broyden)= 0.26045E-02
  rms(prec ) = 0.26545E-02
  weight for this iteration     100.00

 eigenvalues of (default mixing * dielectric matrix)
  average eigenvalue GAMMA=   0.6906
  0.8010  0.8010  0.4697

 Free energy of the ion-electron system (eV)
  ---------------------------------------------------
  alpha Z        PSCENC =        27.91668524
  Ewald energy   TEWEN  =      6437.26528696
  -Hartree energ DENC   =     -9135.29836332
  -exchange      EXHF   =         0.00000000
  -V(xc)+E(xc)   XCENC  =        88.37706495
  PAW double counting   =      3777.61214704    -3740.12147992
  entropy T*S    EENTRO =        -0.00000000
  eigenvalues    EBANDS =      -521.11368686
  atomic energy  EATOM  =      3024.54869369
  Solvation  Ediel_sol  =         0.00000000
  ---------------------------------------------------
  free energy    TOTEN  =       -40.81365223 eV

  energy without entropy =      -40.81365223  energy(sigma->0) =      -40.81365223


--------------------------------------------------------------------------------------------------------




--------------------------------------- Iteration      5(   5)  ---------------------------------------


    POTLOK:  cpu time      0.1517: real time      0.1528
    SETDIJ:  cpu time      0.1105: real time      0.1108
     EDDAV:  cpu time      1.2755: real time      1.2870
       DOS:  cpu time      0.0002: real time      0.0002
    CHARGE:  cpu time      0.0708: real time      0.0712
    MIXING:  cpu time      0.0058: real time      0.0058
    --------------------------------------------
      LOOP:  cpu time      1.6145: real time      1.6278

 eigenvalue-minimisations  :  1000
 total energy-change (2. order) : 0.1432715E-04  (-0.1113888E-05)
 number of electron      55.0000012 magnetization       4.9999998
 augmentation part       -0.5305704 magnetization       3.5226983

 DIPCOR: dipole corrections for dipol
 direction  3 min pos     1,
 dipolmoment           0.000000      0.000000     -0.061941 electrons x Angstroem
 Tr[quadrupol]      -348.204105

 energy correction for charged system         0.000000 eV
 dipol+quadrupol energy correction           -0.000548 eV
 added-field ion interaction          0.014585 eV  (added to PSCEN)


 Broyden mixing:
  rms(total) = 0.17220E-02    rms(broyden)= 0.17220E-02
  rms(prec ) = 0.17747E-02
  weight for this iteration     100.00

 eigenvalues of (default mixing * dielectric matrix)
  average eigenvalue GAMMA=   0.9996
  1.9082  1.0402  0.6607  0.3893

 Free energy of the ion-electron system (eV)
  ---------------------------------------------------
  alpha Z        PSCENC =        27.91666007
  Ewald energy   TEWEN  =      6437.26528696
  -Hartree energ DENC   =     -9135.29798337
  -exchange      EXHF   =         0.00000000
  -V(xc)+E(xc)   XCENC  =        88.37719726
  PAW double counting   =      3777.60357239    -3740.11166543
  entropy T*S    EENTRO =        -0.00000000
  eigenvalues    EBANDS =      -521.11539947
  atomic energy  EATOM  =      3024.54869369
  Solvation  Ediel_sol  =         0.00000000
  ---------------------------------------------------
  free energy    TOTEN  =       -40.81363790 eV

  energy without entropy =      -40.81363790  energy(sigma->0) =      -40.81363790


--------------------------------------------------------------------------------------------------------




--------------------------------------- Iteration      5(   6)  ---------------------------------------


    POTLOK:  cpu time      0.1534: real time      0.1544
    SETDIJ:  cpu time      0.1103: real time      0.1107
     EDDAV:  cpu time      1.2670: real time      1.2785
       DOS:  cpu time      0.0002: real time      0.0002
    CHARGE:  cpu time      0.0711: real time      0.0715
    MIXING:  cpu time      0.0057: real time      0.0058
    --------------------------------------------
      LOOP:  cpu time      1.6076: real time      1.6211

 eigenvalue-minimisations  :   992
 total energy-change (2. order) : 0.1539827E-04  (-0.7453641E-06)
 number of electron      55.0000012 magnetization       4.9999998
 augmentation part       -0.5309250 magnetization       3.5227710

 DIPCOR: dipole corrections for dipol
 direction  3 min pos     1,
 dipolmoment           0.000000      0.000000     -0.061797 electrons x Angstroem
 Tr[quadrupol]      -348.204409

 energy correction for charged system         0.000000 eV
 dipol+quadrupol energy correction           -0.000546 eV
 added-field ion interaction          0.014551 eV  (added to PSCEN)


 Broyden mixing:
  rms(total) = 0.53830E-03    rms(broyden)= 0.53819E-03
  rms(prec ) = 0.54825E-03
  weight for this iteration     100.00

 eigenvalues of (default mixing * dielectric matrix)
  average eigenvalue GAMMA=   0.9875
  2.3016  0.9930  0.6752  0.5889  0.3788

 Free energy of the ion-electron system (eV)
  ---------------------------------------------------
  alpha Z        PSCENC =        27.91662883
  Ewald energy   TEWEN  =      6437.26528696
  -Hartree energ DENC   =     -9135.30432869
  -exchange      EXHF   =         0.00000000
  -V(xc)+E(xc)   XCENC  =        88.37705107
  PAW double counting   =      3777.59806113    -3740.10641598
  entropy T*S    EENTRO =        -0.00000000
  eigenvalues    EBANDS =      -521.10859952
  atomic energy  EATOM  =      3024.54869369
  Solvation  Ediel_sol  =         0.00000000
  ---------------------------------------------------
  free energy    TOTEN  =       -40.81362251 eV

  energy without entropy =      -40.81362251  energy(sigma->0) =      -40.81362251


--------------------------------------------------------------------------------------------------------




--------------------------------------- Iteration      5(   7)  ---------------------------------------


    POTLOK:  cpu time      0.1523: real time      0.1533
    SETDIJ:  cpu time      0.1105: real time      0.1109
     EDDAV:  cpu time      0.7292: real time      0.7357
       DOS:  cpu time      0.0002: real time      0.0002
    CHARGE:  cpu time      0.0702: real time      0.0706
    MIXING:  cpu time      0.0058: real time      0.0059
    --------------------------------------------
      LOOP:  cpu time      1.0683: real time      1.0767

 eigenvalue-minimisations  :   452
 total energy-change (2. order) :-0.2478598E-05  (-0.1076215E-06)
 number of electron      55.0000012 magnetization       4.9999998
 augmentation part       -0.5309495 magnetization       3.5227643

 DIPCOR: dipole corrections for dipol
 direction  3 min pos     1,
 dipolmoment           0.000000      0.000000     -0.061760 electrons x Angstroem
 Tr[quadrupol]      -348.204457

 energy correction for charged system         0.000000 eV
 dipol+quadrupol energy correction           -0.000545 eV
 added-field ion interaction          0.014542 eV  (added to PSCEN)


 Broyden mixing:
  rms(total) = 0.29356E-03    rms(broyden)= 0.29355E-03
  rms(prec ) = 0.30134E-03
  weight for this iteration     100.00

 eigenvalues of (default mixing * dielectric matrix)
  average eigenvalue GAMMA=   0.9475
  2.3412  0.8545  0.8545  0.3796  0.6995  0.5556

 Free energy of the ion-electron system (eV)
  ---------------------------------------------------
  alpha Z        PSCENC =        27.91662069
  Ewald energy   TEWEN  =      6437.26528696
  -Hartree energ DENC   =     -9135.30534665
  -exchange      EXHF   =         0.00000000
  -V(xc)+E(xc)   XCENC  =        88.37705610
  PAW double counting   =      3777.60048269    -3740.10900519
  entropy T*S    EENTRO =        -0.00000000
  eigenvalues    EBANDS =      -521.10741328
  atomic energy  EATOM  =      3024.54869369
  Solvation  Ediel_sol  =         0.00000000
  ---------------------------------------------------
  free energy    TOTEN  =       -40.81362498 eV

  energy without entropy =      -40.81362498  energy(sigma->0) =      -40.81362498


--------------------------------------------------------------------------------------------------------




--------------------------------------- Iteration      5(   8)  ---------------------------------------


    POTLOK:  cpu time      0.1526: real time      0.1537
    SETDIJ:  cpu time      0.1108: real time      0.1112
     EDDAV:  cpu time      0.7449: real time      0.7516
       DOS:  cpu time      0.0002: real time      0.0002
    CHARGE:  cpu time      0.0712: real time      0.0717
    MIXING:  cpu time      0.0059: real time      0.0060
    --------------------------------------------
      LOOP:  cpu time      1.0857: real time      1.0943

 eigenvalue-minimisations  :   464
 total energy-change (2. order) :-0.6707703E-05  (-0.4584189E-07)
 number of electron      55.0000012 magnetization       4.9999998
 augmentation part       -0.5308919 magnetization       3.5227667

 DIPCOR: dipole corrections for dipol
 direction  3 min pos     1,
 dipolmoment           0.000000      0.000000     -0.061750 electrons x Angstroem
 Tr[quadrupol]      -348.204457

 energy correction for charged system         0.000000 eV
 dipol+quadrupol energy correction           -0.000545 eV
 added-field ion interaction          0.014540 eV  (added to PSCEN)


 Broyden mixing:
  rms(total) = 0.23338E-03    rms(broyden)= 0.23338E-03
  rms(prec ) = 0.23840E-03
  weight for this iteration     100.00

 eigenvalues of (default mixing * dielectric matrix)
  average eigenvalue GAMMA=   1.0559
  2.5022  1.3344  1.3344  0.7385  0.6392  0.3787  0.4637

 Free energy of the ion-electron system (eV)
  ---------------------------------------------------
  alpha Z        PSCENC =        27.91661861
  Ewald energy   TEWEN  =      6437.26528696
  -Hartree energ DENC   =     -9135.30541141
  -exchange      EXHF   =         0.00000000
  -V(xc)+E(xc)   XCENC  =        88.37704975
  PAW double counting   =      3777.61177096    -3740.12023034
  entropy T*S    EENTRO =        -0.00000000
  eigenvalues    EBANDS =      -521.10740990
  atomic energy  EATOM  =      3024.54869369
  Solvation  Ediel_sol  =         0.00000000
  ---------------------------------------------------
  free energy    TOTEN  =       -40.81363169 eV

  energy without entropy =      -40.81363169  energy(sigma->0) =      -40.81363169


--------------------------------------------------------------------------------------------------------




--------------------------------------- Iteration      5(   9)  ---------------------------------------


    POTLOK:  cpu time      0.1523: real time      0.1534
    SETDIJ:  cpu time      0.1103: real time      0.1106
     EDDAV:  cpu time      0.7528: real time      0.7597
       DOS:  cpu time      0.0002: real time      0.0002
    CHARGE:  cpu time      0.0704: real time      0.0708
    MIXING:  cpu time      0.0060: real time      0.0060
    --------------------------------------------
      LOOP:  cpu time      1.0920: real time      1.1008

 eigenvalue-minimisations  :   480
 total energy-change (2. order) :-0.9659612E-05  (-0.2947741E-07)
 number of electron      55.0000012 magnetization       4.9999998
 augmentation part       -0.5309562 magnetization       3.5227450

 DIPCOR: dipole corrections for dipol
 direction  3 min pos     1,
 dipolmoment           0.000000      0.000000     -0.061761 electrons x Angstroem
 Tr[quadrupol]      -348.204470

 energy correction for charged system         0.000000 eV
 dipol+quadrupol energy correction           -0.000545 eV
 added-field ion interaction          0.014542 eV  (added to PSCEN)


 Broyden mixing:
  rms(total) = 0.12994E-03    rms(broyden)= 0.12994E-03
  rms(prec ) = 0.13165E-03
  weight for this iteration     100.00

 eigenvalues of (default mixing * dielectric matrix)
  average eigenvalue GAMMA=   1.0118
  2.4556  1.4228  1.4228  0.6961  0.6961  0.6153  0.3764  0.4096

 Free energy of the ion-electron system (eV)
  ---------------------------------------------------
  alpha Z        PSCENC =        27.91662101
  Ewald energy   TEWEN  =      6437.26528696
  -Hartree energ DENC   =     -9135.30631816
  -exchange      EXHF   =         0.00000000
  -V(xc)+E(xc)   XCENC  =        88.37704681
  PAW double counting   =      3777.62786435    -3740.13646859
  entropy T*S    EENTRO =        -0.00000000
  eigenvalues    EBANDS =      -521.10636742
  atomic energy  EATOM  =      3024.54869369
  Solvation  Ediel_sol  =         0.00000000
  ---------------------------------------------------
  free energy    TOTEN  =       -40.81364135 eV

  energy without entropy =      -40.81364135  energy(sigma->0) =      -40.81364135


--------------------------------------------------------------------------------------------------------




--------------------------------------- Iteration      5(  10)  ---------------------------------------


    POTLOK:  cpu time      0.1526: real time      0.1536
    SETDIJ:  cpu time      0.1107: real time      0.1110
     EDDAV:  cpu time      0.7556: real time      0.7623
       DOS:  cpu time      0.0002: real time      0.0002
    CHARGE:  cpu time      0.0727: real time      0.0731
    MIXING:  cpu time      0.0060: real time      0.0061
    --------------------------------------------
      LOOP:  cpu time      1.0978: real time      1.1064

 eigenvalue-minimisations  :   480
 total energy-change (2. order) :-0.3916992E-05  (-0.1146665E-07)
 number of electron      55.0000012 magnetization       4.9999998
 augmentation part       -0.5309296 magnetization       3.5227520

 DIPCOR: dipole corrections for dipol
 direction  3 min pos     1,
 dipolmoment           0.000000      0.000000     -0.061767 electrons x Angstroem
 Tr[quadrupol]      -348.204474

 energy correction for charged system         0.000000 eV
 dipol+quadrupol energy correction           -0.000545 eV
 added-field ion interaction          0.014544 eV  (added to PSCEN)


 Broyden mixing:
  rms(total) = 0.87826E-04    rms(broyden)= 0.87825E-04
  rms(prec ) = 0.89099E-04
  weight for this iteration     100.00

 eigenvalues of (default mixing * dielectric matrix)
  average eigenvalue GAMMA=   1.0072
  2.4006  1.5170  1.5170  0.7993  0.7993  0.6284  0.6284  0.3873  0.3873

 Free energy of the ion-electron system (eV)
  ---------------------------------------------------
  alpha Z        PSCENC =        27.91662233
  Ewald energy   TEWEN  =      6437.26528696
  -Hartree energ DENC   =     -9135.30645053
  -exchange      EXHF   =         0.00000000
  -V(xc)+E(xc)   XCENC  =        88.37703330
  PAW double counting   =      3777.63412911    -3740.14269040
  entropy T*S    EENTRO =        -0.00000000
  eigenvalues    EBANDS =      -521.10626972
  atomic energy  EATOM  =      3024.54869369
  Solvation  Ediel_sol  =         0.00000000
  ---------------------------------------------------
  free energy    TOTEN  =       -40.81364527 eV

  energy without entropy =      -40.81364527  energy(sigma->0) =      -40.81364527


--------------------------------------------------------------------------------------------------------




--------------------------------------- Iteration      5(  11)  ---------------------------------------


    POTLOK:  cpu time      0.1525: real time      0.1535
    SETDIJ:  cpu time      0.1101: real time      0.1104
     EDDAV:  cpu time      0.7498: real time      0.7565
       DOS:  cpu time      0.0002: real time      0.0002
    CHARGE:  cpu time      0.0702: real time      0.0706
    MIXING:  cpu time      0.0062: real time      0.0062
    --------------------------------------------
      LOOP:  cpu time      1.0889: real time      1.0975

 eigenvalue-minimisations  :   476
 total energy-change (2. order) :-0.4796302E-05  (-0.8718782E-08)
 number of electron      55.0000012 magnetization       4.9999998
 augmentation part       -0.5309352 magnetization       3.5227481

 DIPCOR: dipole corrections for dipol
 direction  3 min pos     1,
 dipolmoment           0.000000      0.000000     -0.061771 electrons x Angstroem
 Tr[quadrupol]      -348.204478

 energy correction for charged system         0.000000 eV
 dipol+quadrupol energy correction           -0.000545 eV
 added-field ion interaction          0.014545 eV  (added to PSCEN)


 Broyden mixing:
  rms(total) = 0.64103E-04    rms(broyden)= 0.64101E-04
  rms(prec ) = 0.65467E-04
  weight for this iteration     100.00

 eigenvalues of (default mixing * dielectric matrix)
  average eigenvalue GAMMA=   1.0455
  2.4331  1.7219  1.7219  1.0051  1.0051  0.6601  0.6321  0.5277  0.3824  0.3658

 Free energy of the ion-electron system (eV)
  ---------------------------------------------------
  alpha Z        PSCENC =        27.91662326
  Ewald energy   TEWEN  =      6437.26528696
  -Hartree energ DENC   =     -9135.30668606
  -exchange      EXHF   =         0.00000000
  -V(xc)+E(xc)   XCENC  =        88.37703524
  PAW double counting   =      3777.63888037    -3740.14744595
  entropy T*S    EENTRO =        -0.00000000
  eigenvalues    EBANDS =      -521.10603758
  atomic energy  EATOM  =      3024.54869369
  Solvation  Ediel_sol  =         0.00000000
  ---------------------------------------------------
  free energy    TOTEN  =       -40.81365006 eV

  energy without entropy =      -40.81365006  energy(sigma->0) =      -40.81365006


--------------------------------------------------------------------------------------------------------




--------------------------------------- Iteration      5(  12)  ---------------------------------------


    POTLOK:  cpu time      0.1515: real time      0.1525
    SETDIJ:  cpu time      0.1104: real time      0.1107
     EDDAV:  cpu time      0.7493: real time      0.7559
       DOS:  cpu time      0.0002: real time      0.0002
    CHARGE:  cpu time      0.0711: real time      0.0716
    MIXING:  cpu time      0.0062: real time      0.0063
    --------------------------------------------
      LOOP:  cpu time      1.0887: real time      1.0972

 eigenvalue-minimisations  :   476
 total energy-change (2. order) :-0.4896222E-05  (-0.5893740E-08)
 number of electron      55.0000012 magnetization       4.9999998
 augmentation part       -0.5309388 magnetization       3.5227494

 DIPCOR: dipole corrections for dipol
 direction  3 min pos     1,
 dipolmoment           0.000000      0.000000     -0.061773 electrons x Angstroem
 Tr[quadrupol]      -348.204490

 energy correction for charged system         0.000000 eV
 dipol+quadrupol energy correction           -0.000545 eV
 added-field ion interaction          0.014545 eV  (added to PSCEN)


 Broyden mixing:
  rms(total) = 0.44840E-04    rms(broyden)= 0.44839E-04
  rms(prec ) = 0.45516E-04
  weight for this iteration     100.00

 eigenvalues of (default mixing * dielectric matrix)
  average eigenvalue GAMMA=   1.0402
  2.4632  1.8566  1.8566  1.0235  1.0235  0.6616  0.6616  0.6431  0.5151  0.3839
  0.3533

 Free energy of the ion-electron system (eV)
  ---------------------------------------------------
  alpha Z        PSCENC =        27.91662357
  Ewald energy   TEWEN  =      6437.26528696
  -Hartree energ DENC   =     -9135.30714596
  -exchange      EXHF   =         0.00000000
  -V(xc)+E(xc)   XCENC  =        88.37702867
  PAW double counting   =      3777.64356225    -3740.15213146
  entropy T*S    EENTRO =        -0.00000000
  eigenvalues    EBANDS =      -521.10557268
  atomic energy  EATOM  =      3024.54869369
  Solvation  Ediel_sol  =         0.00000000
  ---------------------------------------------------
  free energy    TOTEN  =       -40.81365496 eV

  energy without entropy =      -40.81365496  energy(sigma->0) =      -40.81365496


--------------------------------------------------------------------------------------------------------




--------------------------------------- Iteration      5(  13)  ---------------------------------------


    POTLOK:  cpu time      0.1525: real time      0.1535
    SETDIJ:  cpu time      0.1101: real time      0.1104
     EDDAV:  cpu time      0.7486: real time      0.7552
       DOS:  cpu time      0.0002: real time      0.0002
    CHARGE:  cpu time      0.0699: real time      0.0703
    MIXING:  cpu time      0.0063: real time      0.0063
    --------------------------------------------
      LOOP:  cpu time      1.0875: real time      1.0960

 eigenvalue-minimisations  :   480
 total energy-change (2. order) :-0.3618550E-05  (-0.5570255E-08)
 number of electron      55.0000012 magnetization       4.9999998
 augmentation part       -0.5309522 magnetization       3.5227441

 DIPCOR: dipole corrections for dipol
 direction  3 min pos     1,
 dipolmoment           0.000000      0.000000     -0.061773 electrons x Angstroem
 Tr[quadrupol]      -348.204499

 energy correction for charged system         0.000000 eV
 dipol+quadrupol energy correction           -0.000545 eV
 added-field ion interaction          0.014545 eV  (added to PSCEN)


 Broyden mixing:
  rms(total) = 0.33071E-04    rms(broyden)= 0.33071E-04
  rms(prec ) = 0.34084E-04
  weight for this iteration     100.00

 eigenvalues of (default mixing * dielectric matrix)
  average eigenvalue GAMMA=   1.0238
  2.3848  2.0335  2.0335  0.8976  0.8976  0.8274  0.8274  0.6188  0.5879  0.4575
  0.3799  0.3403

 Free energy of the ion-electron system (eV)
  ---------------------------------------------------
  alpha Z        PSCENC =        27.91662367
  Ewald energy   TEWEN  =      6437.26528696
  -Hartree energ DENC   =     -9135.30754473
  -exchange      EXHF   =         0.00000000
  -V(xc)+E(xc)   XCENC  =        88.37702474
  PAW double counting   =      3777.64543452    -3740.15401167
  entropy T*S    EENTRO =        -0.00000000
  eigenvalues    EBANDS =      -521.10516575
  atomic energy  EATOM  =      3024.54869369
  Solvation  Ediel_sol  =         0.00000000
  ---------------------------------------------------
  free energy    TOTEN  =       -40.81365858 eV

  energy without entropy =      -40.81365858  energy(sigma->0) =      -40.81365858


--------------------------------------------------------------------------------------------------------




--------------------------------------- Iteration      5(  14)  ---------------------------------------


    POTLOK:  cpu time      0.1528: real time      0.1538
    SETDIJ:  cpu time      0.1102: real time      0.1105
     EDDAV:  cpu time      0.7496: real time      0.7562
       DOS:  cpu time      0.0002: real time      0.0002
    CHARGE:  cpu time      0.0712: real time      0.0716
    MIXING:  cpu time      0.0064: real time      0.0065
    --------------------------------------------
      LOOP:  cpu time      1.0903: real time      1.0988

 eigenvalue-minimisations  :   476
 total energy-change (2. order) :-0.2457864E-05  (-0.3550702E-08)
 number of electron      55.0000012 magnetization       4.9999998
 augmentation part       -0.5309394 magnetization       3.5227479

 DIPCOR: dipole corrections for dipol
 direction  3 min pos     1,
 dipolmoment           0.000000      0.000000     -0.061774 electrons x Angstroem
 Tr[quadrupol]      -348.204505

 energy correction for charged system         0.000000 eV
 dipol+quadrupol energy correction           -0.000545 eV
 added-field ion interaction          0.014545 eV  (added to PSCEN)


 Broyden mixing:
  rms(total) = 0.19213E-04    rms(broyden)= 0.19213E-04
  rms(prec ) = 0.19933E-04
  weight for this iteration     100.00

 eigenvalues of (default mixing * dielectric matrix)
  average eigenvalue GAMMA=   1.0186
  2.4070  2.1015  2.1015  1.0592  0.9654  0.9654  0.6912  0.6231  0.5938  0.5938
  0.4305  0.3797  0.3291

 Free energy of the ion-electron system (eV)
  ---------------------------------------------------
  alpha Z        PSCENC =        27.91662371
  Ewald energy   TEWEN  =      6437.26528696
  -Hartree energ DENC   =     -9135.30775754
  -exchange      EXHF   =         0.00000000
  -V(xc)+E(xc)   XCENC  =        88.37702266
  PAW double counting   =      3777.64621782    -3740.15477757
  entropy T*S    EENTRO =        -0.00000000
  eigenvalues    EBANDS =      -521.10497077
  atomic energy  EATOM  =      3024.54869369
  Solvation  Ediel_sol  =         0.00000000
  ---------------------------------------------------
  free energy    TOTEN  =       -40.81366104 eV

  energy without entropy =      -40.81366104  energy(sigma->0) =      -40.81366104


--------------------------------------------------------------------------------------------------------




--------------------------------------- Iteration      5(  15)  ---------------------------------------


    POTLOK:  cpu time      0.1528: real time      0.1550
    SETDIJ:  cpu time      0.1099: real time      0.1102
     EDDAV:  cpu time      0.7523: real time      0.7591
       DOS:  cpu time      0.0002: real time      0.0002
    CHARGE:  cpu time      0.0699: real time      0.0703
    MIXING:  cpu time      0.0065: real time      0.0065
    --------------------------------------------
      LOOP:  cpu time      1.0915: real time      1.1014

 eigenvalue-minimisations  :   476
 total energy-change (2. order) :-0.3954514E-05  (-0.5642050E-08)
 number of electron      55.0000012 magnetization       4.9999998
 augmentation part       -0.5309416 magnetization       3.5227455

 DIPCOR: dipole corrections for dipol
 direction  3 min pos     1,
 dipolmoment           0.000000      0.000000     -0.061774 electrons x Angstroem
 Tr[quadrupol]      -348.204515

 energy correction for charged system         0.000000 eV
 dipol+quadrupol energy correction           -0.000545 eV
 added-field ion interaction          0.014545 eV  (added to PSCEN)


 Broyden mixing:
  rms(total) = 0.24924E-04    rms(broyden)= 0.24923E-04
  rms(prec ) = 0.25238E-04
  weight for this iteration     100.00

 eigenvalues of (default mixing * dielectric matrix)
  average eigenvalue GAMMA=   1.0546
  3.0486  2.1427  1.5374  1.5374  1.0678  1.0678  0.7088  0.7088  0.6437  0.6437
  0.5568  0.3791  0.4036  0.3190

 Free energy of the ion-electron system (eV)
  ---------------------------------------------------
  alpha Z        PSCENC =        27.91662379
  Ewald energy   TEWEN  =      6437.26528696
  -Hartree energ DENC   =     -9135.30820618
  -exchange      EXHF   =         0.00000000
  -V(xc)+E(xc)   XCENC  =        88.37702512
  PAW double counting   =      3777.64742380    -3740.15598289
  entropy T*S    EENTRO =        -0.00000000
  eigenvalues    EBANDS =      -521.10452928
  atomic energy  EATOM  =      3024.54869369
  Solvation  Ediel_sol  =         0.00000000
  ---------------------------------------------------
  free energy    TOTEN  =       -40.81366499 eV

  energy without entropy =      -40.81366499  energy(sigma->0) =      -40.81366499


--------------------------------------------------------------------------------------------------------




--------------------------------------- Iteration      5(  16)  ---------------------------------------


    POTLOK:  cpu time      0.1523: real time      0.1533
    SETDIJ:  cpu time      0.1099: real time      0.1102
     EDDAV:  cpu time      0.7624: real time      0.7693
       DOS:  cpu time      0.0002: real time      0.0002
    CHARGE:  cpu time      0.0710: real time      0.0714
    MIXING:  cpu time      0.0067: real time      0.0067
    --------------------------------------------
      LOOP:  cpu time      1.1024: real time      1.1112

 eigenvalue-minimisations  :   488
 total energy-change (2. order) :-0.3183039E-05  (-0.5866433E-08)
 number of electron      55.0000012 magnetization       4.9999998
 augmentation part       -0.5309378 magnetization       3.5227469

 DIPCOR: dipole corrections for dipol
 direction  3 min pos     1,
 dipolmoment           0.000000      0.000000     -0.061774 electrons x Angstroem
 Tr[quadrupol]      -348.204525

 energy correction for charged system         0.000000 eV
 dipol+quadrupol energy correction           -0.000545 eV
 added-field ion interaction          0.014546 eV  (added to PSCEN)


 Broyden mixing:
  rms(total) = 0.21120E-04    rms(broyden)= 0.21120E-04
  rms(prec ) = 0.21250E-04
  weight for this iteration     100.00

 eigenvalues of (default mixing * dielectric matrix)
  average eigenvalue GAMMA=   1.1196
  3.7363  2.3231  1.8389  1.8389  1.0995  1.0995  0.6041  0.6041  0.7158  0.7158
  0.6061  0.5348  0.3906  0.3770  0.3101

 Free energy of the ion-electron system (eV)
  ---------------------------------------------------
  alpha Z        PSCENC =        27.91662381
  Ewald energy   TEWEN  =      6437.26528696
  -Hartree energ DENC   =     -9135.30864440
  -exchange      EXHF   =         0.00000000
  -V(xc)+E(xc)   XCENC  =        88.37702471
  PAW double counting   =      3777.64830833    -3740.15686549
  entropy T*S    EENTRO =        -0.00000000
  eigenvalues    EBANDS =      -521.10409578
  atomic energy  EATOM  =      3024.54869369
  Solvation  Ediel_sol  =         0.00000000
  ---------------------------------------------------
  free energy    TOTEN  =       -40.81366817 eV

  energy without entropy =      -40.81366817  energy(sigma->0) =      -40.81366817


--------------------------------------------------------------------------------------------------------




--------------------------------------- Iteration      5(  17)  ---------------------------------------


    POTLOK:  cpu time      0.1523: real time      0.1533
    SETDIJ:  cpu time      0.1102: real time      0.1105
     EDDAV:  cpu time      0.7525: real time      0.7591
       DOS:  cpu time      0.0002: real time      0.0002
    CHARGE:  cpu time      0.0702: real time      0.0707
    MIXING:  cpu time      0.0068: real time      0.0069
    --------------------------------------------
      LOOP:  cpu time      1.0923: real time      1.1008

 eigenvalue-minimisations  :   480
 total energy-change (2. order) :-0.1508072E-05  (-0.4569465E-08)
 number of electron      55.0000012 magnetization       4.9999998
 augmentation part       -0.5309426 magnetization       3.5227449

 DIPCOR: dipole corrections for dipol
 direction  3 min pos     1,
 dipolmoment           0.000000      0.000000     -0.061774 electrons x Angstroem
 Tr[quadrupol]      -348.204531

 energy correction for charged system         0.000000 eV
 dipol+quadrupol energy correction           -0.000545 eV
 added-field ion interaction          0.014546 eV  (added to PSCEN)


 Broyden mixing:
  rms(total) = 0.17837E-04    rms(broyden)= 0.17836E-04
  rms(prec ) = 0.17960E-04
  weight for this iteration     100.00

 eigenvalues of (default mixing * dielectric matrix)
  average eigenvalue GAMMA=   1.1868
  4.6662  2.4126  2.0446  2.0446  1.1082  1.1082  0.7719  0.7719  0.6374  0.6374
  0.6631  0.5857  0.4852  0.3827  0.3679  0.3005

 Free energy of the ion-electron system (eV)
  ---------------------------------------------------
  alpha Z        PSCENC =        27.91662385
  Ewald energy   TEWEN  =      6437.26528696
  -Hartree energ DENC   =     -9135.30889557
  -exchange      EXHF   =         0.00000000
  -V(xc)+E(xc)   XCENC  =        88.37702592
  PAW double counting   =      3777.64754677    -3740.15610697
  entropy T*S    EENTRO =        -0.00000000
  eigenvalues    EBANDS =      -521.10384435
  atomic energy  EATOM  =      3024.54869369
  Solvation  Ediel_sol  =         0.00000000
  ---------------------------------------------------
  free energy    TOTEN  =       -40.81366968 eV

  energy without entropy =      -40.81366968  energy(sigma->0) =      -40.81366968


--------------------------------------------------------------------------------------------------------




--------------------------------------- Iteration      5(  18)  ---------------------------------------


    POTLOK:  cpu time      0.1529: real time      0.1540
    SETDIJ:  cpu time      0.1102: real time      0.1106
     EDDAV:  cpu time      0.7575: real time      0.7643
       DOS:  cpu time      0.0002: real time      0.0002
    --------------------------------------------
      LOOP:  cpu time      1.0208: real time      1.0290

 eigenvalue-minimisations  :   480
 total energy-change (2. order) :-0.7249232E-06  (-0.3189128E-08)
 number of electron      55.0000012 magnetization       4.9999998
 augmentation part       -0.5309426 magnetization       3.5227449

 DIPCOR: dipole corrections for dipol
 direction  3 min pos     1,
 dipolmoment           0.000000      0.000000     -0.061774 electrons x Angstroem
 Tr[quadrupol]      -348.204535

 energy correction for charged system         0.000000 eV
 dipol+quadrupol energy correction           -0.000545 eV
 added-field ion interaction          0.014545 eV  (added to PSCEN)


 Free energy of the ion-electron system (eV)
  ---------------------------------------------------
  alpha Z        PSCENC =        27.91662374
  Ewald energy   TEWEN  =      6437.26528696
  -Hartree energ DENC   =     -9135.30902902
  -exchange      EXHF   =         0.00000000
  -V(xc)+E(xc)   XCENC  =        88.37702551
  PAW double counting   =      3777.64664470    -3740.15520219
  entropy T*S    EENTRO =        -0.00000000
  eigenvalues    EBANDS =      -521.10371380
  atomic energy  EATOM  =      3024.54869369
  Solvation  Ediel_sol  =         0.00000000
  ---------------------------------------------------
  free energy    TOTEN  =       -40.81367041 eV

  energy without entropy =      -40.81367041  energy(sigma->0) =      -40.81367041


--------------------------------------------------------------------------------------------------------




 average (electrostatic) potential at core
  the test charge radii are     1.1394  0.9406  0.5201
  (the norm of the test charge is              1.0000)
       1 -52.6752       2 -52.7057       3 -99.1254       4 -99.1254       5 -99.1254
       6 -99.3628       7 -99.3628       8 -99.3628       9 -40.6382
 
 
 
 E-fermi :  -3.9455     XC(G=0):  -2.9657     alpha+bet : -2.4254

 val. band max:       -4.2240736768   @ k =   0.4000   0.0000   0.0000
 cond. band min:      -2.4326741882   @ k =   0.4000   0.0000   0.0000
 fundamental gap:      1.7913994886
 Fermi energy:        -3.9454905600

 spin component 1

 k-point     1 :       0.0000    0.0000    0.0000
  band No.  band energies     occupation 
      1     -19.6463      1.00000
      2     -18.7149      1.00000
      3     -18.6649      1.00000
      4     -18.6649      1.00000
      5     -18.4106      1.00000
      6     -18.4106      1.00000
      7      -9.9326      1.00000
      8      -8.7970      1.00000
      9      -8.5130      1.00000
     10      -8.5130      1.00000
     11      -8.3088      1.00000
     12      -8.3088      1.00000
     13      -8.2322      1.00000
     14      -7.8294      1.00000
     15      -7.8294      1.00000
     16      -7.7465      1.00000
     17      -7.0539      1.00000
     18      -7.0539      1.00000
     19      -6.3932      1.00000
     20      -6.0545      1.00000
     21      -5.9119      1.00000
     22      -5.9119      1.00000
     23      -5.5479      1.00000
     24      -5.5479      1.00000
     25      -5.1721      1.00000
     26      -4.7055      1.00000
     27      -4.6679      1.00000
     28      -4.6679      1.00000
     29      -4.3515      1.00000
     30      -4.3515      1.00000
     31      -2.3718      0.00000
     32      -2.3718      0.00000
     33      -2.1121      0.00000
     34      -2.1121      0.00000
     35      -0.6951      0.00000
     36       1.7012      0.00000

 k-point     2 :       0.2000    0.0000    0.0000
  band No.  band energies     occupation 
      1     -19.5608      1.00000
      2     -18.7468      1.00000
      3     -18.7037      1.00000
      4     -18.6697      1.00000
      5     -18.4398      1.00000
      6     -18.4225      1.00000
      7      -9.9136      1.00000
      8      -8.8378      1.00000
      9      -8.6292      1.00000
     10      -8.4812      1.00000
     11      -8.3619      1.00000
     12      -8.2680      1.00000
     13      -8.0105      1.00000
     14      -7.8893      1.00000
     15      -7.7743      1.00000
     16      -7.4246      1.00000
     17      -7.1018      1.00000
     18      -6.8689      1.00000
     19      -6.3940      1.00000
     20      -6.2583      1.00000
     21      -6.1419      1.00000
     22      -5.9944      1.00000
     23      -5.7414      1.00000
     24      -5.6432      1.00000
     25      -5.0593      1.00000
     26      -4.7175      1.00000
     27      -4.6195      1.00000
     28      -4.5139      1.00000
     29      -4.3669      1.00000
     30      -4.3033      1.00000
     31      -2.3737      0.00000
     32      -2.3609      0.00000
     33      -2.2793      0.00000
     34      -2.1411      0.00000
     35      -0.5389      0.00000
     36       1.9213      0.00000

 k-point     3 :       0.4000    0.0000    0.0000
  band No.  band energies     occupation 
      1     -19.3446      1.00000
      2     -18.9665      1.00000
      3     -18.7356      1.00000
      4     -18.6051      1.00000
      5     -18.4974      1.00000
      6     -18.4442      1.00000
      7      -9.8732      1.00000
      8      -8.8798      1.00000
      9      -8.6169      1.00000
     10      -8.4507      1.00000
     11      -8.3307      1.00000
     12      -8.1260      1.00000
     13      -8.0459      1.00000
     14      -7.8317      1.00000
     15      -7.5283      1.00000
     16      -7.3823      1.00000
     17      -7.0377      1.00000
     18      -6.8133      1.00000
     19      -6.6300      1.00000
     20      -6.5549      1.00000
     21      -6.1309      1.00000
     22      -6.1104      1.00000
     23      -5.6661      1.00000
     24      -5.6317      1.00000
     25      -5.1269      1.00000
     26      -4.7313      1.00000
     27      -4.6361      1.00000
     28      -4.4254      1.00000
     29      -4.3835      1.00000
     30      -4.2241      1.00000
     31      -2.4327      0.00000
     32      -2.3476      0.00000
     33      -2.2935      0.00000
     34      -2.2270      0.00000
     35      -0.4580      0.00000
     36       2.4843      0.00000

 k-point     4 :       0.2000    0.2000    0.0000
  band No.  band energies     occupation 
      1     -19.4064      1.00000
      2     -18.8726      1.00000
      3     -18.7658      1.00000
      4     -18.6225      1.00000
      5     -18.4747      1.00000
      6     -18.4422      1.00000
      7      -9.8440      1.00000
      8      -8.9213      1.00000
      9      -8.6193      1.00000
     10      -8.4899      1.00000
     11      -8.3592      1.00000
     12      -8.1453      1.00000
     13      -8.0419      1.00000
     14      -7.9355      1.00000
     15      -7.4368      1.00000
     16      -7.3025      1.00000
     17      -7.0700      1.00000
     18      -6.8019      1.00000
     19      -6.7089      1.00000
     20      -6.2188      1.00000
     21      -6.1970      1.00000
     22      -6.1250      1.00000
     23      -5.9062      1.00000
     24      -5.6660      1.00000
     25      -4.9659      1.00000
     26      -4.7606      1.00000
     27      -4.5957      1.00000
     28      -4.4489      1.00000
     29      -4.3535      1.00000
     30      -4.2812      1.00000
     31      -2.4169      0.00000
     32      -2.3588      0.00000
     33      -2.3175      0.00000
     34      -2.1646      0.00000
     35      -0.4791      0.00000
     36       2.3018      0.00000

 k-point     5 :       0.4000    0.2000    0.0000
  band No.  band energies     occupation 
      1     -19.2148      1.00000
      2     -19.0516      1.00000
      3     -18.8056      1.00000
      4     -18.5715      1.00000
      5     -18.5079      1.00000
      6     -18.4584      1.00000
      7      -9.7696      1.00000
      8      -8.9097      1.00000
      9      -8.6114      1.00000
     10      -8.5328      1.00000
     11      -8.3266      1.00000
     12      -8.1292      1.00000
     13      -8.0555      1.00000
     14      -7.9017      1.00000
     15      -7.6617      1.00000
     16      -7.1012      1.00000
     17      -7.0187      1.00000
     18      -6.6850      1.00000
     19      -6.6339      1.00000
     20      -6.5250      1.00000
     21      -6.1427      1.00000
     22      -6.0630      1.00000
     23      -5.9025      1.00000
     24      -5.7802      1.00000
     25      -4.9498      1.00000
     26      -4.7419      1.00000
     27      -4.6027      1.00000
     28      -4.4285      1.00000
     29      -4.3718      1.00000
     30      -4.2759      1.00000
     31      -2.4274      0.00000
     32      -2.3460      0.00000
     33      -2.3147      0.00000
     34      -2.1516      0.00000
     35      -0.5231      0.00000
     36       2.8183      0.00000
 Fermi energy:        -3.9454905600

 spin component 2

 k-point     1 :       0.0000    0.0000    0.0000
  band No.  band energies     occupation 
      1     -19.6387      1.00000
      2     -18.7362      1.00000
      3     -18.6888      1.00000
      4     -18.6888      1.00000
      5     -18.4242      1.00000
      6     -18.4242      1.00000
      7      -9.8869      1.00000
      8      -8.5665      1.00000
      9      -8.3227      1.00000
     10      -8.3227      1.00000
     11      -8.1938      1.00000
     12      -8.0655      1.00000
     13      -8.0655      1.00000
     14      -7.5905      1.00000
     15      -7.4624      1.00000
     16      -7.4624      1.00000
     17      -6.7888      1.00000
     18      -6.7888      1.00000
     19      -6.3375      1.00000
     20      -6.0377      1.00000
     21      -5.7435      1.00000
     22      -5.7435      1.00000
     23      -5.4695      1.00000
     24      -5.4695      1.00000
     25      -4.4189      1.00000
     26      -2.0987      0.00000
     27      -2.0987      0.00000
     28      -1.8364      0.00000
     29      -1.7256      0.00000
     30      -1.7256      0.00000
     31      -1.2326      0.00000
     32      -1.2326      0.00000
     33      -0.9161      0.00000
     34      -0.9161      0.00000
     35      -0.2989      0.00000
     36       1.7791      0.00000

 k-point     2 :       0.2000    0.0000    0.0000
  band No.  band energies     occupation 
      1     -19.5551      1.00000
      2     -18.7675      1.00000
      3     -18.7256      1.00000
      4     -18.6928      1.00000
      5     -18.4533      1.00000
      6     -18.4358      1.00000
      7      -9.8738      1.00000
      8      -8.6349      1.00000
      9      -8.4587      1.00000
     10      -8.2990      1.00000
     11      -8.1501      1.00000
     12      -8.0567      1.00000
     13      -7.7322      1.00000
     14      -7.6075      1.00000
     15      -7.4695      1.00000
     16      -7.2248      1.00000
     17      -6.8521      1.00000
     18      -6.6784      1.00000
     19      -6.2702      1.00000
     20      -6.1143      1.00000
     21      -6.0063      1.00000
     22      -5.7979      1.00000
     23      -5.6459      1.00000
     24      -5.5399      1.00000
     25      -4.3159      1.00000
     26      -2.1140      0.00000
     27      -2.0496      0.00000
     28      -1.7885      0.00000
     29      -1.7555      0.00000
     30      -1.7325      0.00000
     31      -1.2687      0.00000
     32      -1.2518      0.00000
     33      -1.0531      0.00000
     34      -0.9418      0.00000
     35      -0.1170      0.00000
     36       1.9915      0.00000

 k-point     3 :       0.4000    0.0000    0.0000
  band No.  band energies     occupation 
      1     -19.3437      1.00000
      2     -18.9804      1.00000
      3     -18.7585      1.00000
      4     -18.6258      1.00000
      5     -18.5124      1.00000
      6     -18.4569      1.00000
      7      -9.8379      1.00000
      8      -8.6983      1.00000
      9      -8.4378      1.00000
     10      -8.2404      1.00000
     11      -8.1123      1.00000
     12      -7.9057      1.00000
     13      -7.7791      1.00000
     14      -7.5776      1.00000
     15      -7.2188      1.00000
     16      -7.1121      1.00000
     17      -6.8016      1.00000
     18      -6.6373      1.00000
     19      -6.5136      1.00000
     20      -6.3240      1.00000
     21      -6.0748      1.00000
     22      -5.9068      1.00000
     23      -5.5906      1.00000
     24      -5.5362      1.00000
     25      -4.3288      1.00000
     26      -2.2110      0.00000
     27      -2.0168      0.00000
     28      -1.8116      0.00000
     29      -1.7769      0.00000
     30      -1.6801      0.00000
     31      -1.3331      0.00000
     32      -1.2575      0.00000
     33      -1.0737      0.00000
     34      -0.9850      0.00000
     35       0.0022      0.00000
     36       2.5528      0.00000

 k-point     4 :       0.2000    0.2000    0.0000
  band No.  band energies     occupation 
      1     -19.4043      1.00000
      2     -18.8881      1.00000
      3     -18.7880      1.00000
      4     -18.6438      1.00000
      5     -18.4894      1.00000
      6     -18.4553      1.00000
      7      -9.8180      1.00000
      8      -8.7188      1.00000
      9      -8.4527      1.00000
     10      -8.2823      1.00000
     11      -8.1383      1.00000
     12      -7.9110      1.00000
     13      -7.7979      1.00000
     14      -7.6204      1.00000
     15      -7.1749      1.00000
     16      -7.0406      1.00000
     17      -6.8390      1.00000
     18      -6.6846      1.00000
     19      -6.5470      1.00000
     20      -6.1755      1.00000
     21      -5.9846      1.00000
     22      -5.8758      1.00000
     23      -5.6751      1.00000
     24      -5.6123      1.00000
     25      -4.3049      1.00000
     26      -2.1689      0.00000
     27      -2.0377      0.00000
     28      -1.8423      0.00000
     29      -1.7529      0.00000
     30      -1.6906      0.00000
     31      -1.3041      0.00000
     32      -1.2438      0.00000
     33      -1.0828      0.00000
     34      -0.9684      0.00000
     35      -0.0275      0.00000
     36       2.3676      0.00000

 k-point     5 :       0.4000    0.2000    0.0000
  band No.  band energies     occupation 
      1     -19.2164      1.00000
      2     -19.0620      1.00000
      3     -18.8277      1.00000
      4     -18.5921      1.00000
      5     -18.5237      1.00000
      6     -18.4713      1.00000
      7      -9.7560      1.00000
      8      -8.7124      1.00000
      9      -8.4152      1.00000
     10      -8.2890      1.00000
     11      -8.1602      1.00000
     12      -7.9169      1.00000
     13      -7.7769      1.00000
     14      -7.6025      1.00000
     15      -7.3929      1.00000
     16      -6.9193      1.00000
     17      -6.8223      1.00000
     18      -6.5394      1.00000
     19      -6.4272      1.00000
     20      -6.2370      1.00000
     21      -6.0644      1.00000
     22      -5.8929      1.00000
     23      -5.6956      1.00000
     24      -5.6150      1.00000
     25      -4.3404      1.00000
     26      -2.2219      0.00000
     27      -2.0529      0.00000
     28      -1.8696      0.00000
     29      -1.7523      0.00000
     30      -1.6930      0.00000
     31      -1.2925      0.00000
     32      -1.2138      0.00000
     33      -1.0870      0.00000
     34      -0.9528      0.00000
     35      -0.0435      0.00000
     36       2.9590      0.00000


--------------------------------------------------------------------------------------------------------


 soft charge-density along one line, spin component           1
         0         1         2         3         4         5         6         7         8         9
 total charge-density along one line
 
 soft charge-density along one line, spin component           2
         0         1         2         3         4         5         6         7         8         9
 total charge-density along one line
 
 pseudopotential strength for first ion, spin component:           1
 -9.604   0.195  -0.000   0.036   0.000  -9.933   0.188  -0.000
  0.195  -9.463  -0.000   0.000   0.036   0.188  -9.796  -0.000
 -0.000  -0.000  -9.746  -0.000   0.000  -0.000  -0.000 -10.070
  0.036   0.000  -0.000  -9.463  -0.195   0.035   0.000  -0.000
  0.000   0.036   0.000  -0.195  -9.604   0.000   0.035   0.000
 -9.933   0.188  -0.000   0.035   0.000 -10.224   0.182  -0.000
  0.188  -9.796  -0.000   0.000   0.035   0.182 -10.092  -0.000
 -0.000  -0.000 -10.070  -0.000   0.000  -0.000  -0.000 -10.356
  0.035   0.000  -0.000  -9.796  -0.188   0.034   0.000  -0.000
  0.000   0.035   0.000  -0.188  -9.933   0.000   0.034   0.000
 -0.000  -0.000  -0.001  -0.000   0.000  -0.000  -0.000  -0.001
 -0.000  -0.000  -0.001  -0.000   0.000  -0.000  -0.000  -0.001
 -0.000   0.002  -0.000   0.000  -0.001  -0.000   0.002  -0.000
  0.000   0.000   0.002   0.000   0.000   0.000   0.000   0.002
 -0.001   0.000   0.000   0.002   0.000  -0.001   0.000   0.000
  0.000   0.002  -0.000   0.000  -0.001   0.000   0.002  -0.000
  0.000   0.000   0.003  -0.000   0.000   0.000   0.000   0.003
 -0.001   0.000   0.000   0.002  -0.000  -0.001   0.000   0.000
 pseudopotential strength for first ion, spin component:           2
 -7.955  -0.258   0.000  -0.046   0.000  -8.338  -0.250   0.000
 -0.258  -8.135  -0.000  -0.000  -0.047  -0.250  -8.512  -0.000
  0.000  -0.000  -7.763  -0.000  -0.000   0.000  -0.000  -8.152
 -0.046  -0.000  -0.000  -8.135   0.258  -0.045  -0.000  -0.000
  0.000  -0.047  -0.000   0.258  -7.955   0.000  -0.045  -0.000
 -8.338  -0.250   0.000  -0.045   0.000  -8.682  -0.241   0.000
 -0.250  -8.512  -0.000  -0.000  -0.045  -0.241  -8.851  -0.000
  0.000  -0.000  -8.152  -0.000  -0.000   0.000  -0.000  -8.503
 -0.045  -0.000  -0.000  -8.512   0.250  -0.043   0.000  -0.000
  0.000  -0.045  -0.000   0.250  -8.338   0.000  -0.043  -0.000
  0.000  -0.000  -0.003  -0.000  -0.000   0.000  -0.000  -0.004
  0.000  -0.000  -0.007  -0.000  -0.000   0.000  -0.000  -0.007
 -0.000   0.000  -0.000   0.000  -0.001  -0.000   0.000  -0.000
  0.000   0.000  -0.000   0.000   0.000   0.000   0.000   0.000
 -0.001   0.000  -0.000   0.000   0.000  -0.001   0.000  -0.000
 -0.000  -0.000  -0.000   0.000  -0.001  -0.000   0.000  -0.000
  0.000   0.000  -0.001   0.000   0.000   0.000   0.000  -0.001
 -0.001   0.000  -0.000  -0.000   0.000  -0.001   0.000  -0.000
 total augmentation occupancy for first ion, spin component:           1
  3.908  -1.134   0.000  -0.236   0.000  -3.000  -0.051  -0.000   0.037  -0.000   0.000   0.000   0.016   0.000   0.059  -0.001
 -1.134   2.929   0.000   0.000  -0.236  -0.048  -2.801  -0.000  -0.000   0.038   0.000   0.000  -0.011  -0.000  -0.026   0.001
  0.000   0.000   4.607  -0.000  -0.000  -0.000  -0.000  -2.807  -0.000   0.000   0.153  -0.017  -0.000  -0.055   0.000   0.000
 -0.236  -0.000  -0.000   2.929   1.134   0.038   0.000  -0.000  -2.801   0.048   0.000   0.000   0.026   0.000  -0.011  -0.001
  0.000  -0.236  -0.000   1.134   3.908   0.000   0.037   0.000   0.051  -3.000  -0.000   0.000   0.059   0.000  -0.016  -0.004
 -3.000  -0.048  -0.000   0.038   0.000   3.042   0.978   0.000   0.125   0.000   0.000  -0.000  -0.024   0.000  -0.065   0.001
 -0.051  -2.801  -0.000   0.000   0.037   0.978   3.454  -0.000   0.000   0.125  -0.000   0.000   0.003   0.000   0.017  -0.000
 -0.000  -0.000  -2.807  -0.000   0.000   0.000  -0.000   2.134   0.000  -0.000  -0.167   0.023   0.000   0.055  -0.000  -0.000
  0.037  -0.000  -0.000  -2.801   0.051   0.125  -0.000   0.000   3.454  -0.978   0.000   0.000  -0.017   0.000   0.003   0.001
 -0.000   0.038   0.000   0.048  -3.000   0.000   0.125  -0.000  -0.978   3.042   0.000  -0.000  -0.065  -0.000   0.024   0.003
  0.000   0.000   0.153   0.000  -0.000   0.000  -0.000  -0.167   0.000   0.000   1.925  -0.236  -0.000   0.002   0.000   0.000
  0.000   0.000  -0.017   0.000   0.000  -0.000   0.000   0.023   0.000  -0.000  -0.236   0.038   0.000  -0.002   0.000   0.000
  0.016  -0.011  -0.000   0.026   0.059  -0.024   0.003   0.000  -0.017  -0.065  -0.000   0.000   0.301   0.000  -0.000  -0.009
 -0.000  -0.000  -0.055   0.000   0.000   0.000   0.000   0.055   0.000  -0.000   0.002  -0.002   0.000   0.280   0.000   0.000
  0.059  -0.026   0.000  -0.011  -0.016  -0.065   0.017  -0.000   0.003   0.024   0.000   0.000   0.000   0.000   0.301  -0.000
 -0.001   0.001   0.000  -0.001  -0.004   0.001  -0.000  -0.000   0.001   0.003   0.000   0.000  -0.009   0.000  -0.000   0.000
  0.000   0.000   0.003  -0.000  -0.000   0.000   0.000  -0.002   0.000   0.000  -0.000   0.000   0.000  -0.008  -0.000   0.000
 -0.004   0.001  -0.000   0.001   0.001   0.003  -0.001   0.000  -0.000  -0.001  -0.000  -0.000   0.000  -0.000  -0.009  -0.000
 total augmentation occupancy for first ion, spin component:           2
  2.492  -2.091   0.000  -0.373   0.000  -1.086   1.215  -0.000   0.220  -0.003   0.000   0.000  -0.001   0.000   0.004  -0.001
 -2.091   1.048   0.000   0.000  -0.373   1.221  -0.251  -0.000  -0.003   0.219  -0.000   0.000  -0.009   0.000  -0.016   0.001
  0.000   0.000   3.996  -0.000  -0.000  -0.000  -0.000  -1.961   0.000   0.000   0.008   0.007   0.000  -0.021  -0.000   0.000
 -0.373   0.000  -0.000   1.048   2.091   0.219   0.003   0.000  -0.251  -1.221   0.000   0.000   0.016   0.000  -0.009  -0.000
  0.000  -0.373  -0.000   2.091   2.492   0.003   0.220   0.000  -1.215  -1.086  -0.000  -0.000   0.004   0.000   0.001  -0.001
 -1.086   1.221  -0.000   0.219   0.003   0.401  -0.755   0.000  -0.140  -0.000   0.000   0.000   0.003   0.000  -0.002   0.000
  1.215  -0.251  -0.000   0.003   0.220  -0.755  -0.111   0.000   0.000  -0.140   0.000   0.000   0.006  -0.000   0.009  -0.000
 -0.000  -0.000  -1.961   0.000   0.000   0.000   0.000   0.957  -0.000  -0.000   0.009  -0.006   0.000   0.011   0.000   0.000
  0.220  -0.003   0.000  -0.251  -1.215  -0.140  -0.000  -0.000  -0.111   0.755   0.000   0.000  -0.009  -0.000   0.006   0.000
 -0.003   0.219   0.000  -1.221  -1.086   0.000  -0.140  -0.000   0.755   0.401  -0.000   0.000  -0.002  -0.000  -0.003  -0.000
  0.000  -0.000   0.008   0.000  -0.000   0.000   0.000   0.009   0.000  -0.000  -0.054   0.051  -0.000  -0.001   0.000   0.000
  0.000   0.000   0.007   0.000  -0.000   0.000   0.000  -0.006   0.000   0.000   0.051  -0.009   0.000  -0.000   0.000   0.000
 -0.001  -0.009  -0.000   0.016   0.004   0.003   0.006   0.000  -0.009  -0.002  -0.000   0.000   0.015  -0.000  -0.000   0.002
  0.000   0.000  -0.021   0.000   0.000   0.000  -0.000   0.011  -0.000  -0.000  -0.001  -0.000  -0.000   0.013   0.000   0.000
  0.004  -0.016  -0.000  -0.009   0.001  -0.002   0.009   0.000   0.006  -0.003   0.000   0.000  -0.000   0.000   0.015   0.000
 -0.001   0.001   0.000  -0.000  -0.001   0.000  -0.000   0.000   0.000  -0.000   0.000   0.000   0.002   0.000   0.000  -0.000
  0.000   0.000   0.001   0.000  -0.000   0.000  -0.000  -0.001   0.000   0.000   0.000  -0.000   0.000   0.001   0.000   0.000
 -0.001   0.000  -0.000   0.001   0.001  -0.000  -0.000   0.000  -0.000  -0.000  -0.000   0.000  -0.000   0.000   0.002   0.000


------------------------ aborting loop because EDIFF is reached ----------------------------------------


    CHARGE:  cpu time      0.0717: real time      0.0722
    FORLOC:  cpu time      0.0070: real time      0.0070
    FORNL :  cpu time      0.2717: real time      0.2743
    STRESS:  cpu time      0.8268: real time      0.8346
    FORCOR:  cpu time      0.1389: real time      0.1397
    FORHAR:  cpu time      0.0202: real time      0.0204
    MIXING:  cpu time      0.0071: real time      0.0071
    OFIELD:  cpu time      0.0001: real time      0.0001

 ---------------------------------------------------------------------------------------------

         DFTD3 V3.0 Rev 1        
 Edisp (eV)   -1.42669

 E6    (eV) :    -0.8695
 E8    (eV) :    -0.5572
 % E8        : 39.05
    FORVDW:  cpu time      0.0126: real time      0.0128

  FORCE on cell =-STRESS in cart. coord.  units (eV):
  Direction    XX          YY          ZZ          XY          YZ          ZX
  --------------------------------------------------------------------------------------
  Alpha Z    27.90262    27.90262    27.90262
  Ewald    8161.36102  8161.36102 -9885.45948    -0.00000    -0.00000    -0.00000
  Hartree  8768.02979  8768.02979 -8400.75022    -0.00000     0.00000     0.00000
  E(xc)    -211.85268  -211.85268  -213.27291    -0.00000    -0.00000    -0.00000
  Local  -17959.05745-17959.05735 17247.29522     0.00008     0.00000     0.00000
  n-local   473.32111   473.60679   474.64417    -0.25833     0.17059     0.07701
  augment   -59.54584   -59.54592   -59.69278    -0.00094    -0.00000    -0.00000
  Kinetic   801.64590   801.10518   809.70028     0.32210    -0.10446    -0.12096
  Fock        0.00000     0.00000     0.00000     0.00000     0.00000     0.00000
  vdW        -1.56217    -1.56217    -0.47169    -0.00000     0.00000    -0.00000
  -------------------------------------------------------------------------------------
  Total       0.11479     0.11479    -0.10479     0.00001    -0.00000     0.00000
  in kB       0.29046     0.29046    -0.26514     0.00002    -0.00000     0.00000
  external pressure =        0.11 kB  Pullay stress =        0.00 kB


 VOLUME and BASIS-vectors are now :
 -----------------------------------------------------------------------------
  energy-cutoff  :      400.00
  volume of cell :      633.19
      direct lattice vectors                 reciprocal lattice vectors
     6.046274499  0.000000000  0.000000000     0.165391102  0.095488597  0.000000000
    -3.023137249  5.236227314  0.000000000     0.000000000  0.190977194  0.000000000
     0.000000000  0.000000000 20.000000000     0.000000000  0.000000000  0.050000000

  length of vectors
     6.046274499  6.046274499 20.000000000     0.190977194  0.190977194  0.050000000


 FORCES acting on ions
    electron-ion (+dipol)            ewald-force                    non-local-force                 convergence-correction
 -----------------------------------------------------------------------------------------------
   0.502E-07 -.400E-06 0.316E+02   -.919E-11 0.986E-12 -.320E+02   0.838E-19 -.279E-17 0.425E+00   -.170E-09 -.210E-09 0.512E-04
   0.405E-06 0.145E-05 -.205E+02   -.169E-11 0.323E-11 0.197E+02   0.133E-17 -.994E-18 0.829E+00   0.100E-08 0.196E-08 0.394E-04
   0.696E+02 -.856E+00 0.498E+03   -.716E+02 0.106E+01 -.501E+03   0.199E+01 -.206E+00 0.295E+01   -.343E-04 -.313E-04 0.355E-05
   -.341E+02 0.607E+02 0.498E+03   0.349E+02 -.625E+02 -.501E+03   -.815E+00 0.182E+01 0.295E+01   0.442E-04 -.141E-04 0.355E-05
   -.356E+02 -.599E+02 0.498E+03   0.367E+02 0.615E+02 -.501E+03   -.117E+01 -.162E+01 0.295E+01   -.990E-05 0.454E-04 0.355E-05
   -.761E+02 0.288E+01 -.466E+03   0.790E+02 -.410E+01 0.469E+03   -.287E+01 0.122E+01 -.275E+01   -.170E-04 -.469E-05 0.475E-04
   0.356E+02 -.674E+02 -.466E+03   -.360E+02 0.705E+02 0.469E+03   0.381E+00 -.309E+01 -.275E+01   0.126E-04 -.124E-04 0.475E-04
   0.406E+02 0.645E+02 -.466E+03   -.431E+02 -.664E+02 0.469E+03   0.249E+01 0.188E+01 -.275E+01   0.445E-05 0.171E-04 0.475E-04
   -.741E-08 -.167E-06 -.107E+03   0.404E-13 0.109E-13 0.109E+03   -.150E-18 0.185E-18 -.247E+01   -.117E-10 -.541E-11 0.405E-05
 -----------------------------------------------------------------------------------------------
   0.229E-06 0.385E-06 0.590E+00   -.937E-14 0.109E-13 0.114E-12   -.444E-15 0.185E-18 -.591E+00   0.305E-08 0.657E-08 0.248E-03
 
 
 POSITION                                       TOTAL-FORCE (eV/Angst)
 -----------------------------------------------------------------------------------
      0.00000      3.49082      9.92959         0.000000     -0.000000      0.014871
      3.02314      1.74541     10.11670         0.000000     -0.000000      0.033835
      2.19721      0.04327      8.68055         0.009475     -0.000623     -0.013876
      4.91019      1.88121      8.68055        -0.004197      0.008517     -0.013876
      1.96201      3.31175      8.68055        -0.005277     -0.007894     -0.013876
      0.98430      5.14057     11.26626         0.014283      0.002224      0.001716
     -1.92087      3.51837     11.26626        -0.009068      0.011257      0.001716
      0.93658      1.81352     11.26626        -0.005215     -0.013482      0.001716
      3.02314      1.74541     11.66330         0.000000     -0.000000     -0.012225
 -----------------------------------------------------------------------------------
    total drift:                                0.000000      0.000000     -0.000961


--------------------------------------------------------------------------------------------------------



  FREE ENERGIE OF THE ION-ELECTRON SYSTEM (eV)
  ---------------------------------------------------
  free  energy   TOTEN  =       -42.24036267 eV

  energy  without entropy=      -42.24036267  energy(sigma->0) =      -42.24036267
 d Force = 0.1231646E-03[-0.151E-04, 0.261E-03]  d Energy = 0.1278520E-03-0.469E-05
 d Force =-0.1014391E+01[-0.102E+01,-0.101E+01]  d Ewald  =-0.1014392E+01 0.266E-06
 


--------------------------------------------------------------------------------------------------------


    POTLOK:  cpu time      0.2637: real time      0.2649


--------------------------------------------------------------------------------------------------------


 Conjugate gradient step on ions:
 trial-energy change:   -0.000128  1 .order   -0.000123   -0.000261    0.000015
  (g-gl).g = 0.211E-03      g.g   = 0.210E-03  gl.gl    = 0.978E-03
 g(Force)  = 0.210E-03   g(Stress)= 0.000E+00 ortho     =-0.166E-05
 gamma     =   0.21598
 trial     =   1.24967
 opt step  =   1.18756  (harmonic =   1.18156) maximal distance =0.00160436
 next E    =   -42.240363   (d E  =  -0.00013)


--------------------------------------------------------------------------------------------------------


      MLFF:  cpu time      0.0009: real time      0.0027
    WAVPRE:  cpu time      0.0168: real time      0.0170
    FEWALD:  cpu time      0.0008: real time      0.0008

 real space projection operators:
  total allocation   :       3210.38 KBytes
  max/ min on nodes  :        805.24        801.30

    ORTHCH:  cpu time      0.0961: real time      0.0970
     LOOP+:  cpu time     24.4964: real time     24.6990


--------------------------------------- Ionic step        6  -------------------------------------------




--------------------------------------- Iteration      6(   1)  ---------------------------------------


    POTLOK:  cpu time      0.1531: real time      0.1542
    SETDIJ:  cpu time      0.1099: real time      0.1103
     EDDAV:  cpu time      1.0575: real time      1.0670
       DOS:  cpu time      0.0003: real time      0.0003
    CHARGE:  cpu time      0.0701: real time      0.0705
    MIXING:  cpu time      0.0054: real time      0.0055
    --------------------------------------------
      LOOP:  cpu time      1.3963: real time      1.4079

 eigenvalue-minimisations  :   788
 total energy-change (2. order) :-0.4018864E-05  (-0.8981076E-05)
 number of electron      55.0000012 magnetization       4.9999998
 augmentation part       -0.5309838 magnetization       3.5227205

 DIPCOR: dipole corrections for dipol
 direction  3 min pos     1,
 dipolmoment           0.000000      0.000000     -0.061773 electrons x Angstroem
 Tr[quadrupol]      -348.198712

 energy correction for charged system         0.000000 eV
 dipol+quadrupol energy correction           -0.000545 eV
 added-field ion interaction          0.014551 eV  (added to PSCEN)


 Broyden mixing:
  rms(total) = 0.59870E-03    rms(broyden)= 0.59840E-03
  rms(prec ) = 0.60336E-03
  weight for this iteration     100.00

 Free energy of the ion-electron system (eV)
  ---------------------------------------------------
  alpha Z        PSCENC =        27.91662887
  Ewald energy   TEWEN  =      6437.21484323
  -Hartree energ DENC   =     -9135.25902149
  -exchange      EXHF   =         0.00000000
  -V(xc)+E(xc)   XCENC  =        88.37685160
  PAW double counting   =      3777.64594323    -3740.15449889
  entropy T*S    EENTRO =        -0.00000000
  eigenvalues    EBANDS =      -521.10311395
  atomic energy  EATOM  =      3024.54869369
  Solvation  Ediel_sol  =         0.00000000
  ---------------------------------------------------
  free energy    TOTEN  =       -40.81367370 eV

  energy without entropy =      -40.81367370  energy(sigma->0) =      -40.81367370


--------------------------------------------------------------------------------------------------------




--------------------------------------- Iteration      6(   2)  ---------------------------------------


    POTLOK:  cpu time      0.1524: real time      0.1535
    SETDIJ:  cpu time      0.1101: real time      0.1105
     EDDAV:  cpu time      1.0360: real time      1.0453
       DOS:  cpu time      0.0002: real time      0.0002
    --------------------------------------------
      LOOP:  cpu time      1.2987: real time      1.3094

 eigenvalue-minimisations  :   764
 total energy-change (2. order) :-0.1669887E-06  (-0.4583734E-06)
 number of electron      55.0000012 magnetization       4.9999998
 augmentation part       -0.5309838 magnetization       3.5227205

 DIPCOR: dipole corrections for dipol
 direction  3 min pos     1,
 dipolmoment           0.000000      0.000000     -0.061803 electrons x Angstroem
 Tr[quadrupol]      -348.198715

 energy correction for charged system         0.000000 eV
 dipol+quadrupol energy correction           -0.000546 eV
 added-field ion interaction          0.014558 eV  (added to PSCEN)


 Free energy of the ion-electron system (eV)
  ---------------------------------------------------
  alpha Z        PSCENC =        27.91663536
  Ewald energy   TEWEN  =      6437.21484323
  -Hartree energ DENC   =     -9135.25842330
  -exchange      EXHF   =         0.00000000
  -V(xc)+E(xc)   XCENC  =        88.37687705
  PAW double counting   =      3777.60967183    -3740.11800354
  entropy T*S    EENTRO =        -0.00000000
  eigenvalues    EBANDS =      -521.10396819
  atomic energy  EATOM  =      3024.54869369
  Solvation  Ediel_sol  =         0.00000000
  ---------------------------------------------------
  free energy    TOTEN  =       -40.81367387 eV

  energy without entropy =      -40.81367387  energy(sigma->0) =      -40.81367387


--------------------------------------------------------------------------------------------------------




 average (electrostatic) potential at core
  the test charge radii are     1.1394  0.9406  0.5201
  (the norm of the test charge is              1.0000)
       1 -52.6752       2 -52.7061       3 -99.1252       4 -99.1252       5 -99.1252
       6 -99.3630       7 -99.3630       8 -99.3630       9 -40.6391
 
 
 
 E-fermi :  -3.9468     XC(G=0):  -2.9694     alpha+bet : -2.4254

 val. band max:       -4.2242211605   @ k =   0.4000   0.0000   0.0000
 cond. band min:      -2.4328184792   @ k =   0.4000   0.0000   0.0000
 fundamental gap:      1.7914026813
 Fermi energy:        -3.9468492206

 spin component 1

 k-point     1 :       0.0000    0.0000    0.0000
  band No.  band energies     occupation 
      1     -19.6463      1.00000
      2     -18.7148      1.00000
      3     -18.6651      1.00000
      4     -18.6651      1.00000
      5     -18.4104      1.00000
      6     -18.4104      1.00000
      7      -9.9329      1.00000
      8      -8.7970      1.00000
      9      -8.5132      1.00000
     10      -8.5132      1.00000
     11      -8.3086      1.00000
     12      -8.3086      1.00000
     13      -8.2320      1.00000
     14      -7.8294      1.00000
     15      -7.8294      1.00000
     16      -7.7465      1.00000
     17      -7.0539      1.00000
     18      -7.0539      1.00000
     19      -6.3933      1.00000
     20      -6.0546      1.00000
     21      -5.9119      1.00000
     22      -5.9119      1.00000
     23      -5.5478      1.00000
     24      -5.5478      1.00000
     25      -5.1724      1.00000
     26      -4.7056      1.00000
     27      -4.6679      1.00000
     28      -4.6679      1.00000
     29      -4.3517      1.00000
     30      -4.3517      1.00000
     31      -2.3721      0.00000
     32      -2.3721      0.00000
     33      -2.1123      0.00000
     34      -2.1123      0.00000
     35      -0.6948      0.00000
     36       1.7033      0.00000

 k-point     2 :       0.2000    0.0000    0.0000
  band No.  band energies     occupation 
      1     -19.5608      1.00000
      2     -18.7469      1.00000
      3     -18.7037      1.00000
      4     -18.6696      1.00000
      5     -18.4396      1.00000
      6     -18.4222      1.00000
      7      -9.9138      1.00000
      8      -8.8378      1.00000
      9      -8.6292      1.00000
     10      -8.4811      1.00000
     11      -8.3617      1.00000
     12      -8.2680      1.00000
     13      -8.0104      1.00000
     14      -7.8893      1.00000
     15      -7.7742      1.00000
     16      -7.4247      1.00000
     17      -7.1018      1.00000
     18      -6.8689      1.00000
     19      -6.3940      1.00000
     20      -6.2584      1.00000
     21      -6.1419      1.00000
     22      -5.9944      1.00000
     23      -5.7414      1.00000
     24      -5.6432      1.00000
     25      -5.0595      1.00000
     26      -4.7176      1.00000
     27      -4.6196      1.00000
     28      -4.5140      1.00000
     29      -4.3671      1.00000
     30      -4.3034      1.00000
     31      -2.3739      0.00000
     32      -2.3611      0.00000
     33      -2.2794      0.00000
     34      -2.1413      0.00000
     35      -0.5386      0.00000
     36       1.9243      0.00000

 k-point     3 :       0.4000    0.0000    0.0000
  band No.  band energies     occupation 
      1     -19.3446      1.00000
      2     -18.9665      1.00000
      3     -18.7357      1.00000
      4     -18.6050      1.00000
      5     -18.4973      1.00000
      6     -18.4439      1.00000
      7      -9.8734      1.00000
      8      -8.8798      1.00000
      9      -8.6168      1.00000
     10      -8.4507      1.00000
     11      -8.3307      1.00000
     12      -8.1259      1.00000
     13      -8.0458      1.00000
     14      -7.8317      1.00000
     15      -7.5282      1.00000
     16      -7.3823      1.00000
     17      -7.0378      1.00000
     18      -6.8133      1.00000
     19      -6.6300      1.00000
     20      -6.5549      1.00000
     21      -6.1310      1.00000
     22      -6.1104      1.00000
     23      -5.6660      1.00000
     24      -5.6317      1.00000
     25      -5.1271      1.00000
     26      -4.7315      1.00000
     27      -4.6362      1.00000
     28      -4.4255      1.00000
     29      -4.3836      1.00000
     30      -4.2242      1.00000
     31      -2.4328      0.00000
     32      -2.3479      0.00000
     33      -2.2937      0.00000
     34      -2.2271      0.00000
     35      -0.4576      0.00000
     36       2.4877      0.00000

 k-point     4 :       0.2000    0.2000    0.0000
  band No.  band energies     occupation 
      1     -19.4064      1.00000
      2     -18.8726      1.00000
      3     -18.7659      1.00000
      4     -18.6224      1.00000
      5     -18.4745      1.00000
      6     -18.4420      1.00000
      7      -9.8443      1.00000
      8      -8.9214      1.00000
      9      -8.6192      1.00000
     10      -8.4899      1.00000
     11      -8.3592      1.00000
     12      -8.1452      1.00000
     13      -8.0418      1.00000
     14      -7.9355      1.00000
     15      -7.4367      1.00000
     16      -7.3025      1.00000
     17      -7.0701      1.00000
     18      -6.8019      1.00000
     19      -6.7089      1.00000
     20      -6.2188      1.00000
     21      -6.1970      1.00000
     22      -6.1249      1.00000
     23      -5.9062      1.00000
     24      -5.6660      1.00000
     25      -4.9662      1.00000
     26      -4.7607      1.00000
     27      -4.5958      1.00000
     28      -4.4490      1.00000
     29      -4.3536      1.00000
     30      -4.2814      1.00000
     31      -2.4171      0.00000
     32      -2.3591      0.00000
     33      -2.3177      0.00000
     34      -2.1647      0.00000
     35      -0.4788      0.00000
     36       2.3052      0.00000

 k-point     5 :       0.4000    0.2000    0.0000
  band No.  band energies     occupation 
      1     -19.2148      1.00000
      2     -19.0516      1.00000
      3     -18.8058      1.00000
      4     -18.5714      1.00000
      5     -18.5078      1.00000
      6     -18.4582      1.00000
      7      -9.7699      1.00000
      8      -8.9097      1.00000
      9      -8.6114      1.00000
     10      -8.5327      1.00000
     11      -8.3266      1.00000
     12      -8.1290      1.00000
     13      -8.0555      1.00000
     14      -7.9016      1.00000
     15      -7.6617      1.00000
     16      -7.1012      1.00000
     17      -7.0187      1.00000
     18      -6.6850      1.00000
     19      -6.6339      1.00000
     20      -6.5250      1.00000
     21      -6.1427      1.00000
     22      -6.0631      1.00000
     23      -5.9025      1.00000
     24      -5.7802      1.00000
     25      -4.9500      1.00000
     26      -4.7420      1.00000
     27      -4.6028      1.00000
     28      -4.4287      1.00000
     29      -4.3719      1.00000
     30      -4.2761      1.00000
     31      -2.4276      0.00000
     32      -2.3463      0.00000
     33      -2.3147      0.00000
     34      -2.1518      0.00000
     35      -0.5228      0.00000
     36       2.8193      0.00000
 Fermi energy:        -3.9468492206

 spin component 2

 k-point     1 :       0.0000    0.0000    0.0000
  band No.  band energies     occupation 
      1     -19.6387      1.00000
      2     -18.7361      1.00000
      3     -18.6889      1.00000
      4     -18.6889      1.00000
      5     -18.4240      1.00000
      6     -18.4240      1.00000
      7      -9.8872      1.00000
      8      -8.5664      1.00000
      9      -8.3228      1.00000
     10      -8.3228      1.00000
     11      -8.1935      1.00000
     12      -8.0653      1.00000
     13      -8.0653      1.00000
     14      -7.5905      1.00000
     15      -7.4623      1.00000
     16      -7.4623      1.00000
     17      -6.7888      1.00000
     18      -6.7888      1.00000
     19      -6.3375      1.00000
     20      -6.0377      1.00000
     21      -5.7436      1.00000
     22      -5.7436      1.00000
     23      -5.4693      1.00000
     24      -5.4693      1.00000
     25      -4.4195      1.00000
     26      -2.0989      0.00000
     27      -2.0989      0.00000
     28      -1.8364      0.00000
     29      -1.7257      0.00000
     30      -1.7257      0.00000
     31      -1.2329      0.00000
     32      -1.2329      0.00000
     33      -0.9161      0.00000
     34      -0.9161      0.00000
     35      -0.2986      0.00000
     36       1.7757      0.00000

 k-point     2 :       0.2000    0.0000    0.0000
  band No.  band energies     occupation 
      1     -19.5551      1.00000
      2     -18.7676      1.00000
      3     -18.7257      1.00000
      4     -18.6928      1.00000
      5     -18.4531      1.00000
      6     -18.4356      1.00000
      7      -9.8741      1.00000
      8      -8.6349      1.00000
      9      -8.4585      1.00000
     10      -8.2989      1.00000
     11      -8.1500      1.00000
     12      -8.0567      1.00000
     13      -7.7320      1.00000
     14      -7.6074      1.00000
     15      -7.4694      1.00000
     16      -7.2248      1.00000
     17      -6.8521      1.00000
     18      -6.6784      1.00000
     19      -6.2703      1.00000
     20      -6.1143      1.00000
     21      -6.0063      1.00000
     22      -5.7979      1.00000
     23      -5.6459      1.00000
     24      -5.5398      1.00000
     25      -4.3165      1.00000
     26      -2.1142      0.00000
     27      -2.0498      0.00000
     28      -1.7886      0.00000
     29      -1.7556      0.00000
     30      -1.7326      0.00000
     31      -1.2690      0.00000
     32      -1.2521      0.00000
     33      -1.0531      0.00000
     34      -0.9419      0.00000
     35      -0.1168      0.00000
     36       1.9872      0.00000

 k-point     3 :       0.4000    0.0000    0.0000
  band No.  band energies     occupation 
      1     -19.3437      1.00000
      2     -18.9805      1.00000
      3     -18.7587      1.00000
      4     -18.6257      1.00000
      5     -18.5122      1.00000
      6     -18.4567      1.00000
      7      -9.8382      1.00000
      8      -8.6983      1.00000
      9      -8.4377      1.00000
     10      -8.2404      1.00000
     11      -8.1123      1.00000
     12      -7.9056      1.00000
     13      -7.7790      1.00000
     14      -7.5776      1.00000
     15      -7.2186      1.00000
     16      -7.1120      1.00000
     17      -6.8016      1.00000
     18      -6.6373      1.00000
     19      -6.5136      1.00000
     20      -6.3239      1.00000
     21      -6.0748      1.00000
     22      -5.9068      1.00000
     23      -5.5905      1.00000
     24      -5.5361      1.00000
     25      -4.3293      1.00000
     26      -2.2112      0.00000
     27      -2.0170      0.00000
     28      -1.8117      0.00000
     29      -1.7770      0.00000
     30      -1.6802      0.00000
     31      -1.3334      0.00000
     32      -1.2578      0.00000
     33      -1.0738      0.00000
     34      -0.9851      0.00000
     35       0.0025      0.00000
     36       2.5486      0.00000

 k-point     4 :       0.2000    0.2000    0.0000
  band No.  band energies     occupation 
      1     -19.4043      1.00000
      2     -18.8882      1.00000
      3     -18.7881      1.00000
      4     -18.6437      1.00000
      5     -18.4892      1.00000
      6     -18.4551      1.00000
      7      -9.8183      1.00000
      8      -8.7188      1.00000
      9      -8.4525      1.00000
     10      -8.2823      1.00000
     11      -8.1382      1.00000
     12      -7.9110      1.00000
     13      -7.7977      1.00000
     14      -7.6204      1.00000
     15      -7.1747      1.00000
     16      -7.0405      1.00000
     17      -6.8391      1.00000
     18      -6.6845      1.00000
     19      -6.5470      1.00000
     20      -6.1756      1.00000
     21      -5.9847      1.00000
     22      -5.8758      1.00000
     23      -5.6750      1.00000
     24      -5.6123      1.00000
     25      -4.3055      1.00000
     26      -2.1691      0.00000
     27      -2.0380      0.00000
     28      -1.8424      0.00000
     29      -1.7529      0.00000
     30      -1.6907      0.00000
     31      -1.3043      0.00000
     32      -1.2441      0.00000
     33      -1.0828      0.00000
     34      -0.9684      0.00000
     35      -0.0272      0.00000
     36       2.3633      0.00000

 k-point     5 :       0.4000    0.2000    0.0000
  band No.  band energies     occupation 
      1     -19.2164      1.00000
      2     -19.0621      1.00000
      3     -18.8278      1.00000
      4     -18.5919      1.00000
      5     -18.5236      1.00000
      6     -18.4711      1.00000
      7      -9.7563      1.00000
      8      -8.7124      1.00000
      9      -8.4151      1.00000
     10      -8.2890      1.00000
     11      -8.1602      1.00000
     12      -7.9167      1.00000
     13      -7.7768      1.00000
     14      -7.6025      1.00000
     15      -7.3928      1.00000
     16      -6.9193      1.00000
     17      -6.8222      1.00000
     18      -6.5394      1.00000
     19      -6.4273      1.00000
     20      -6.2370      1.00000
     21      -6.0644      1.00000
     22      -5.8929      1.00000
     23      -5.6955      1.00000
     24      -5.6149      1.00000
     25      -4.3409      1.00000
     26      -2.2221      0.00000
     27      -2.0531      0.00000
     28      -1.8697      0.00000
     29      -1.7523      0.00000
     30      -1.6931      0.00000
     31      -1.2927      0.00000
     32      -1.2140      0.00000
     33      -1.0870      0.00000
     34      -0.9529      0.00000
     35      -0.0432      0.00000
     36       2.9571      0.00000


--------------------------------------------------------------------------------------------------------


 soft charge-density along one line, spin component           1
         0         1         2         3         4         5         6         7         8         9
 total charge-density along one line
 
 soft charge-density along one line, spin component           2
         0         1         2         3         4         5         6         7         8         9
 total charge-density along one line
 
 pseudopotential strength for first ion, spin component:           1
 -9.604   0.195  -0.000   0.036   0.000  -9.933   0.188  -0.000
  0.195  -9.463  -0.000   0.000   0.036   0.188  -9.796  -0.000
 -0.000  -0.000  -9.746  -0.000   0.000  -0.000  -0.000 -10.070
  0.036   0.000  -0.000  -9.463  -0.195   0.035   0.000  -0.000
  0.000   0.036   0.000  -0.195  -9.604   0.000   0.035   0.000
 -9.933   0.188  -0.000   0.035   0.000 -10.224   0.182  -0.000
  0.188  -9.796  -0.000   0.000   0.035   0.182 -10.092  -0.000
 -0.000  -0.000 -10.070  -0.000   0.000  -0.000  -0.000 -10.356
  0.035   0.000  -0.000  -9.796  -0.188   0.034   0.000  -0.000
  0.000   0.035   0.000  -0.188  -9.933   0.000   0.034   0.000
 -0.000  -0.000  -0.001  -0.000   0.000  -0.000  -0.000  -0.001
 -0.000  -0.000  -0.001  -0.000   0.000  -0.000  -0.000  -0.001
 -0.000   0.002  -0.000   0.000  -0.001  -0.000   0.002  -0.000
  0.000   0.000   0.002   0.000   0.000   0.000   0.000   0.002
 -0.001   0.000   0.000   0.002   0.000  -0.001   0.000   0.000
  0.000   0.002  -0.000   0.000  -0.001   0.000   0.002  -0.000
  0.000   0.000   0.003  -0.000   0.000   0.000   0.000   0.003
 -0.001   0.000   0.000   0.002  -0.000  -0.001   0.000   0.000
 pseudopotential strength for first ion, spin component:           2
 -7.955  -0.258   0.000  -0.046   0.000  -8.338  -0.250   0.000
 -0.258  -8.135  -0.000   0.000  -0.046  -0.250  -8.512  -0.000
  0.000  -0.000  -7.763  -0.000  -0.000   0.000  -0.000  -8.152
 -0.046   0.000  -0.000  -8.135   0.258  -0.045   0.000  -0.000
  0.000  -0.046  -0.000   0.258  -7.955   0.000  -0.045  -0.000
 -8.338  -0.250   0.000  -0.045   0.000  -8.682  -0.241   0.000
 -0.250  -8.512  -0.000   0.000  -0.045  -0.241  -8.851  -0.000
  0.000  -0.000  -8.152  -0.000  -0.000   0.000  -0.000  -8.503
 -0.045   0.000  -0.000  -8.512   0.250  -0.043   0.000  -0.000
  0.000  -0.045  -0.000   0.250  -8.338   0.000  -0.043  -0.000
  0.000  -0.000  -0.003  -0.000  -0.000   0.000  -0.000  -0.004
  0.000  -0.000  -0.007  -0.000  -0.000   0.000  -0.000  -0.007
 -0.000   0.000   0.000   0.000  -0.001  -0.000   0.000   0.000
  0.000   0.000  -0.000   0.000   0.000   0.000   0.000   0.000
 -0.001   0.000   0.000   0.000   0.000  -0.001   0.000   0.000
 -0.000  -0.000   0.000   0.000  -0.001  -0.000   0.000   0.000
  0.000   0.000  -0.001   0.000   0.000   0.000   0.000  -0.001
 -0.001   0.000   0.000  -0.000   0.000  -0.001   0.000   0.000
 total augmentation occupancy for first ion, spin component:           1
  3.908  -1.134   0.000  -0.236   0.000  -3.000  -0.051  -0.000   0.037  -0.000   0.000   0.000   0.017   0.000   0.059  -0.001
 -1.134   2.930   0.000   0.000  -0.236  -0.048  -2.801  -0.000  -0.000   0.038  -0.000   0.000  -0.011   0.000  -0.026   0.001
  0.000   0.000   4.608  -0.000  -0.000  -0.000  -0.000  -2.807  -0.000   0.000   0.153  -0.017  -0.000  -0.055   0.000   0.000
 -0.236  -0.000  -0.000   2.930   1.134   0.038   0.000  -0.000  -2.801   0.048   0.000   0.000   0.026   0.000  -0.011  -0.001
  0.000  -0.236  -0.000   1.134   3.908   0.000   0.037   0.000   0.051  -3.000  -0.000   0.000   0.059   0.000  -0.017  -0.004
 -3.000  -0.048  -0.000   0.038   0.000   3.042   0.978   0.000   0.125  -0.000   0.000  -0.000  -0.024   0.000  -0.065   0.001
 -0.051  -2.801  -0.000   0.000   0.037   0.978   3.454  -0.000   0.000   0.125   0.000   0.000   0.003   0.000   0.017  -0.000
 -0.000  -0.000  -2.807  -0.000   0.000   0.000  -0.000   2.135   0.000  -0.000  -0.167   0.023   0.000   0.055  -0.000  -0.000
  0.037  -0.000  -0.000  -2.801   0.051   0.125   0.000   0.000   3.454  -0.978   0.000   0.000  -0.017   0.000   0.003   0.001
 -0.000   0.038   0.000   0.048  -3.000  -0.000   0.125  -0.000  -0.978   3.042   0.000  -0.000  -0.065  -0.000   0.024   0.003
  0.000  -0.000   0.153   0.000  -0.000   0.000   0.000  -0.167   0.000   0.000   1.925  -0.236   0.000   0.002   0.000   0.000
  0.000   0.000  -0.017   0.000   0.000  -0.000   0.000   0.023   0.000  -0.000  -0.236   0.038   0.000  -0.002   0.000   0.000
  0.017  -0.011  -0.000   0.026   0.059  -0.024   0.003   0.000  -0.017  -0.065   0.000   0.000   0.301   0.000   0.000  -0.009
 -0.000   0.000  -0.055   0.000   0.000   0.000   0.000   0.055   0.000  -0.000   0.002  -0.002   0.000   0.280   0.000   0.000
  0.059  -0.026   0.000  -0.011  -0.017  -0.065   0.017  -0.000   0.003   0.024   0.000   0.000   0.000   0.000   0.301  -0.000
 -0.001   0.001   0.000  -0.001  -0.004   0.001  -0.000  -0.000   0.001   0.003   0.000   0.000  -0.009   0.000  -0.000   0.000
  0.000   0.000   0.003  -0.000  -0.000   0.000   0.000  -0.002  -0.000   0.000  -0.000   0.000   0.000  -0.008  -0.000  -0.000
 -0.004   0.001  -0.000   0.001   0.001   0.003  -0.001   0.000  -0.000  -0.001   0.000  -0.000   0.000  -0.000  -0.009  -0.000
 total augmentation occupancy for first ion, spin component:           2
  2.492  -2.091   0.000  -0.373  -0.000  -1.086   1.215  -0.000   0.220  -0.003   0.000  -0.000  -0.001   0.000   0.004  -0.001
 -2.091   1.048   0.000  -0.000  -0.373   1.221  -0.251  -0.000  -0.003   0.219   0.000   0.000  -0.009   0.000  -0.016   0.001
  0.000   0.000   3.997  -0.000  -0.000  -0.000  -0.000  -1.961   0.000   0.000   0.008   0.007   0.000  -0.021  -0.000   0.000
 -0.373   0.000  -0.000   1.048   2.091   0.219   0.003   0.000  -0.251  -1.221   0.000   0.000   0.016   0.000  -0.009  -0.000
  0.000  -0.373  -0.000   2.091   2.492   0.003   0.220   0.000  -1.215  -1.086  -0.000  -0.000   0.004   0.000   0.001  -0.001
 -1.086   1.221  -0.000   0.219   0.003   0.401  -0.755   0.000  -0.140  -0.000  -0.000   0.000   0.003   0.000  -0.002   0.000
  1.215  -0.251  -0.000   0.003   0.220  -0.755  -0.111   0.000   0.000  -0.140   0.000  -0.000   0.006  -0.000   0.009  -0.000
 -0.000  -0.000  -1.961   0.000   0.000   0.000   0.000   0.957  -0.000  -0.000   0.009  -0.006   0.000   0.011   0.000   0.000
  0.220  -0.003   0.000  -0.251  -1.215  -0.140  -0.000  -0.000  -0.111   0.755   0.000   0.000  -0.009   0.000   0.006   0.000
 -0.003   0.219   0.000  -1.221  -1.086  -0.000  -0.140  -0.000   0.755   0.401  -0.000   0.000  -0.002  -0.000  -0.003  -0.000
  0.000   0.000   0.008   0.000  -0.000  -0.000   0.000   0.009   0.000  -0.000  -0.054   0.051  -0.000  -0.001   0.000   0.000
 -0.000   0.000   0.007   0.000  -0.000   0.000  -0.000  -0.006   0.000   0.000   0.051  -0.009   0.000  -0.000   0.000  -0.000
 -0.001  -0.009   0.000   0.016   0.004   0.003   0.006   0.000  -0.009  -0.002  -0.000   0.000   0.015   0.000   0.000   0.002
  0.000   0.000  -0.021   0.000   0.000  -0.000  -0.000   0.011   0.000  -0.000  -0.001  -0.000   0.000   0.013   0.000   0.000
  0.004  -0.016  -0.000  -0.009   0.001  -0.002   0.009   0.000   0.006  -0.003   0.000   0.000   0.000   0.000   0.015   0.000
 -0.001   0.001   0.000  -0.000  -0.001   0.000  -0.000   0.000   0.000  -0.000   0.000  -0.000   0.002   0.000   0.000  -0.000
  0.000   0.000   0.001  -0.000  -0.000  -0.000   0.000  -0.001   0.000   0.000   0.000  -0.000   0.000   0.001   0.000   0.000
 -0.001   0.000  -0.000   0.001   0.001  -0.000  -0.000   0.000  -0.000  -0.000   0.000   0.000  -0.000   0.000   0.002   0.000


------------------------ aborting loop because EDIFF is reached ----------------------------------------


    CHARGE:  cpu time      0.0711: real time      0.0716
    FORLOC:  cpu time      0.0069: real time      0.0070
    FORNL :  cpu time      0.2698: real time      0.2724
    STRESS:  cpu time      0.8215: real time      0.8295
    FORCOR:  cpu time      0.1390: real time      0.1398
    FORHAR:  cpu time      0.0202: real time      0.0204
    MIXING:  cpu time      0.0056: real time      0.0057
    OFIELD:  cpu time      0.0001: real time      0.0001

 ---------------------------------------------------------------------------------------------

         DFTD3 V3.0 Rev 1        
 Edisp (eV)   -1.42669

 E6    (eV) :    -0.8695
 E8    (eV) :    -0.5572
 % E8        : 39.05
    FORVDW:  cpu time      0.0126: real time      0.0127

  FORCE on cell =-STRESS in cart. coord.  units (eV):
  Direction    XX          YY          ZZ          XY          YZ          ZX
  --------------------------------------------------------------------------------------
  Alpha Z    27.90262    27.90262    27.90262
  Ewald    8161.31165  8161.31165 -9885.41120     0.00000     0.00000    -0.00000
  Hartree  8767.98534  8767.98534 -8400.70972    -0.00000     0.00000     0.00000
  E(xc)    -211.85235  -211.85236  -213.27285    -0.00000    -0.00000    -0.00000
  Local  -17958.96216-17958.96206 17247.20949     0.00008     0.00000     0.00000
  n-local   473.32096   473.60656   474.64483    -0.25838     0.17060     0.07697
  augment   -59.54488   -59.54496   -59.69203    -0.00094    -0.00000    -0.00000
  Kinetic   801.64442   801.10364   809.69962     0.32219    -0.10449    -0.12088
  Fock        0.00000     0.00000     0.00000     0.00000     0.00000     0.00000
  vdW        -1.56217    -1.56217    -0.47170    -0.00000     0.00000    -0.00000
  -------------------------------------------------------------------------------------
  Total       0.11585     0.11585    -0.10093     0.00001    -0.00000    -0.00000
  in kB       0.29313     0.29313    -0.25537     0.00002    -0.00000    -0.00000
  external pressure =        0.11 kB  Pullay stress =        0.00 kB


 VOLUME and BASIS-vectors are now :
 -----------------------------------------------------------------------------
  energy-cutoff  :      400.00
  volume of cell :      633.19
      direct lattice vectors                 reciprocal lattice vectors
     6.046274499  0.000000000  0.000000000     0.165391102  0.095488597  0.000000000
    -3.023137249  5.236227314  0.000000000     0.000000000  0.190977194  0.000000000
     0.000000000  0.000000000 20.000000000     0.000000000  0.000000000  0.050000000

  length of vectors
     6.046274499  6.046274499 20.000000000     0.190977194  0.190977194  0.050000000


 FORCES acting on ions
    electron-ion (+dipol)            ewald-force                    non-local-force                 convergence-correction
 -----------------------------------------------------------------------------------------------
   0.508E-07 -.403E-06 0.316E+02   -.356E-11 0.207E-11 -.320E+02   0.262E-17 -.439E-17 0.425E+00   0.558E-07 0.898E-07 0.234E-03
   0.404E-06 0.145E-05 -.205E+02   0.397E-11 -.240E-11 0.197E+02   0.216E-17 0.771E-18 0.827E+00   -.160E-06 -.284E-06 0.199E-02
   0.696E+02 -.871E+00 0.498E+03   -.716E+02 0.107E+01 -.501E+03   0.199E+01 -.205E+00 0.296E+01   0.112E-02 0.155E-03 0.735E-03
   -.341E+02 0.607E+02 0.498E+03   0.349E+02 -.625E+02 -.501E+03   -.816E+00 0.182E+01 0.296E+01   -.693E-03 0.891E-03 0.735E-03
   -.356E+02 -.599E+02 0.498E+03   0.367E+02 0.615E+02 -.501E+03   -.117E+01 -.162E+01 0.296E+01   -.425E-03 -.105E-02 0.735E-03
   -.761E+02 0.289E+01 -.466E+03   0.790E+02 -.411E+01 0.469E+03   -.287E+01 0.122E+01 -.275E+01   0.982E-03 -.102E-02 0.620E-03
   0.356E+02 -.674E+02 -.466E+03   -.360E+02 0.705E+02 0.469E+03   0.381E+00 -.309E+01 -.275E+01   0.391E-03 0.136E-02 0.620E-03
   0.406E+02 0.645E+02 -.466E+03   -.431E+02 -.664E+02 0.469E+03   0.249E+01 0.188E+01 -.275E+01   -.137E-02 -.341E-03 0.620E-03
   -.739E-08 -.167E-06 -.107E+03   0.107E-11 -.641E-12 0.109E+03   -.278E-19 0.612E-19 -.247E+01   0.122E-07 0.240E-07 0.310E-03
 -----------------------------------------------------------------------------------------------
   0.232E-06 0.377E-06 0.584E+00   -.269E-14 -.131E-14 0.114E-12   -.444E-15 0.444E-15 -.591E+00   0.389E-09 -.662E-08 0.660E-02
 
 
 POSITION                                       TOTAL-FORCE (eV/Angst)
 -----------------------------------------------------------------------------------
      0.00000      3.49082      9.92956        -0.000000      0.000000      0.014129
      3.02314      1.74541     10.11681        -0.000000      0.000000      0.030990
      2.19713      0.04324      8.68053         0.010949      0.000144     -0.013187
      4.91026      1.88115      8.68053        -0.005599      0.009410     -0.013187
      1.96202      3.31184      8.68053        -0.005350     -0.009554     -0.013187
      0.98426      5.14057     11.26627         0.014960      0.002088      0.001536
     -1.92086      3.51833     11.26627        -0.009288      0.011912      0.001536
      0.93660      1.81355     11.26627        -0.005672     -0.013999      0.001536
      3.02314      1.74541     11.66323        -0.000000      0.000000     -0.010164
 -----------------------------------------------------------------------------------
    total drift:                                0.000000      0.000000     -0.000801


--------------------------------------------------------------------------------------------------------



  FREE ENERGIE OF THE ION-ELECTRON SYSTEM (eV)
  ---------------------------------------------------
  free  energy   TOTEN  =       -42.24036306 eV

  energy  without entropy=      -42.24036306  energy(sigma->0) =      -42.24036306
 d Force = 0.2582819E-06[-0.232E-06, 0.749E-06]  d Energy = 0.3900521E-06-0.132E-06
 d Force = 0.5044373E-01[ 0.504E-01, 0.504E-01]  d Ewald  = 0.5044373E-01-0.327E-10
 


--------------------------------------------------------------------------------------------------------


    POTLOK:  cpu time      0.2642: real time      0.2656


--------------------------------------------------------------------------------------------------------




--------------------------------------------------------------------------------------------------------


      MLFF:  cpu time      0.0007: real time      0.0028
    WAVPRE:  cpu time      0.0167: real time      0.0170
    FEWALD:  cpu time      0.0008: real time      0.0008

 real space projection operators:
  total allocation   :       3210.75 KBytes
  max/ min on nodes  :        805.71        801.41

    ORTHCH:  cpu time      0.0952: real time      0.0961
     LOOP+:  cpu time      4.5332: real time      4.5743


--------------------------------------- Ionic step        7  -------------------------------------------




--------------------------------------- Iteration      7(   1)  ---------------------------------------


    POTLOK:  cpu time      0.1534: real time      0.1546
    SETDIJ:  cpu time      0.1102: real time      0.1106
     EDDAV:  cpu time      1.0029: real time      1.0121
       DOS:  cpu time      0.0002: real time      0.0002
    CHARGE:  cpu time      0.0707: real time      0.0711
    MIXING:  cpu time      0.0056: real time      0.0056
    --------------------------------------------
      LOOP:  cpu time      1.3431: real time      1.3542

 eigenvalue-minimisations  :   720
 total energy-change (2. order) :-0.1689312E-04  (-0.3460339E-02)
 number of electron      55.0000012 magnetization       4.9999998
 augmentation part       -0.5317217 magnetization       3.5228712

 DIPCOR: dipole corrections for dipol
 direction  3 min pos     1,
 dipolmoment           0.000000      0.000000     -0.061811 electrons x Angstroem
 Tr[quadrupol]      -348.251592

 energy correction for charged system         0.000000 eV
 dipol+quadrupol energy correction           -0.000546 eV
 added-field ion interaction          0.014509 eV  (added to PSCEN)


 Broyden mixing:
  rms(total) = 0.97438E-02    rms(broyden)= 0.97388E-02
  rms(prec ) = 0.98406E-02
  weight for this iteration     100.00

 Free energy of the ion-electron system (eV)
  ---------------------------------------------------
  alpha Z        PSCENC =        27.91658620
  Ewald energy   TEWEN  =      6436.53868391
  -Hartree energ DENC   =     -9134.59873463
  -exchange      EXHF   =         0.00000000
  -V(xc)+E(xc)   XCENC  =        88.37444607
  PAW double counting   =      3777.60646959    -3740.11500051
  entropy T*S    EENTRO =        -0.00000000
  eigenvalues    EBANDS =      -521.08483492
  atomic energy  EATOM  =      3024.54869369
  Solvation  Ediel_sol  =         0.00000000
  ---------------------------------------------------
  free energy    TOTEN  =       -40.81369059 eV

  energy without entropy =      -40.81369059  energy(sigma->0) =      -40.81369059


--------------------------------------------------------------------------------------------------------




--------------------------------------- Iteration      7(   2)  ---------------------------------------


    POTLOK:  cpu time      0.1532: real time      0.1543
    SETDIJ:  cpu time      0.1087: real time      0.1091
     EDDAV:  cpu time      1.2897: real time      1.3017
       DOS:  cpu time      0.0002: real time      0.0002
    CHARGE:  cpu time      0.0711: real time      0.0715
    MIXING:  cpu time      0.0055: real time      0.0055
    --------------------------------------------
      LOOP:  cpu time      1.6284: real time      1.6423

 eigenvalue-minimisations  :  1016
 total energy-change (2. order) :-0.1776770E-03  (-0.2215275E-03)
 number of electron      55.0000012 magnetization       4.9999998
 augmentation part       -0.5299688 magnetization       3.5233001

 DIPCOR: dipole corrections for dipol
 direction  3 min pos     1,
 dipolmoment           0.000000      0.000000     -0.061786 electrons x Angstroem
 Tr[quadrupol]      -348.251457

 energy correction for charged system         0.000000 eV
 dipol+quadrupol energy correction           -0.000545 eV
 added-field ion interaction          0.014503 eV  (added to PSCEN)


 Broyden mixing:
  rms(total) = 0.47364E-02    rms(broyden)= 0.47339E-02
  rms(prec ) = 0.48214E-02
  weight for this iteration     100.00

 eigenvalues of (default mixing * dielectric matrix)
  average eigenvalue GAMMA=   0.6622
  0.6622

 Free energy of the ion-electron system (eV)
  ---------------------------------------------------
  alpha Z        PSCENC =        27.91658074
  Ewald energy   TEWEN  =      6436.53868391
  -Hartree energ DENC   =     -9134.58378939
  -exchange      EXHF   =         0.00000000
  -V(xc)+E(xc)   XCENC  =        88.37507529
  PAW double counting   =      3777.20633993    -3739.71112878
  entropy T*S    EENTRO =        -0.00000000
  eigenvalues    EBANDS =      -521.10432367
  atomic energy  EATOM  =      3024.54869369
  Solvation  Ediel_sol  =         0.00000000
  ---------------------------------------------------
  free energy    TOTEN  =       -40.81386827 eV

  energy without entropy =      -40.81386827  energy(sigma->0) =      -40.81386827


--------------------------------------------------------------------------------------------------------




--------------------------------------- Iteration      7(   3)  ---------------------------------------


    POTLOK:  cpu time      0.1523: real time      0.1534
    SETDIJ:  cpu time      0.1100: real time      0.1104
     EDDAV:  cpu time      1.2897: real time      1.3016
       DOS:  cpu time      0.0002: real time      0.0002
    CHARGE:  cpu time      0.0701: real time      0.0705
    MIXING:  cpu time      0.0055: real time      0.0055
    --------------------------------------------
      LOOP:  cpu time      1.6278: real time      1.6416

 eigenvalue-minimisations  :  1016
 total energy-change (2. order) :-0.2010757E-04  (-0.4012082E-05)
 number of electron      55.0000012 magnetization       4.9999998
 augmentation part       -0.5314950 magnetization       3.5230448

 DIPCOR: dipole corrections for dipol
 direction  3 min pos     1,
 dipolmoment           0.000000      0.000000     -0.061889 electrons x Angstroem
 Tr[quadrupol]      -348.251557

 energy correction for charged system         0.000000 eV
 dipol+quadrupol energy correction           -0.000547 eV
 added-field ion interaction          0.014527 eV  (added to PSCEN)


 Broyden mixing:
  rms(total) = 0.29932E-02    rms(broyden)= 0.29931E-02
  rms(prec ) = 0.30524E-02
  weight for this iteration     100.00

 eigenvalues of (default mixing * dielectric matrix)
  average eigenvalue GAMMA=   0.5740
  0.5740  0.5740

 Free energy of the ion-electron system (eV)
  ---------------------------------------------------
  alpha Z        PSCENC =        27.91660322
  Ewald energy   TEWEN  =      6436.53868391
  -Hartree energ DENC   =     -9134.59331578
  -exchange      EXHF   =         0.00000000
  -V(xc)+E(xc)   XCENC  =        88.37521408
  PAW double counting   =      3777.18088101    -3739.68889061
  entropy T*S    EENTRO =        -0.00000000
  eigenvalues    EBANDS =      -521.09175791
  atomic energy  EATOM  =      3024.54869369
  Solvation  Ediel_sol  =         0.00000000
  ---------------------------------------------------
  free energy    TOTEN  =       -40.81388838 eV

  energy without entropy =      -40.81388838  energy(sigma->0) =      -40.81388838


--------------------------------------------------------------------------------------------------------




--------------------------------------- Iteration      7(   4)  ---------------------------------------


    POTLOK:  cpu time      0.1528: real time      0.1538
    SETDIJ:  cpu time      0.1087: real time      0.1090
     EDDAV:  cpu time      0.9907: real time      0.9997
       DOS:  cpu time      0.0002: real time      0.0002
    CHARGE:  cpu time      0.0710: real time      0.0715
    MIXING:  cpu time      0.0057: real time      0.0057
    --------------------------------------------
      LOOP:  cpu time      1.3291: real time      1.3400

 eigenvalue-minimisations  :   720
 total energy-change (2. order) : 0.9752977E-05  (-0.4228994E-06)
 number of electron      55.0000012 magnetization       4.9999998
 augmentation part       -0.5307486 magnetization       3.5231110

 DIPCOR: dipole corrections for dipol
 direction  3 min pos     1,
 dipolmoment           0.000000      0.000000     -0.061889 electrons x Angstroem
 Tr[quadrupol]      -348.251398

 energy correction for charged system         0.000000 eV
 dipol+quadrupol energy correction           -0.000547 eV
 added-field ion interaction          0.014527 eV  (added to PSCEN)


 Broyden mixing:
  rms(total) = 0.23942E-02    rms(broyden)= 0.23942E-02
  rms(prec ) = 0.24357E-02
  weight for this iteration     100.00

 eigenvalues of (default mixing * dielectric matrix)
  average eigenvalue GAMMA=   0.6113
  0.6792  0.6792  0.4755

 Free energy of the ion-electron system (eV)
  ---------------------------------------------------
  alpha Z        PSCENC =        27.91660323
  Ewald energy   TEWEN  =      6436.53868391
  -Hartree energ DENC   =     -9134.58670113
  -exchange      EXHF   =         0.00000000
  -V(xc)+E(xc)   XCENC  =        88.37524286
  PAW double counting   =      3777.19590795    -3739.70259403
  entropy T*S    EENTRO =        -0.00000000
  eigenvalues    EBANDS =      -521.09971511
  atomic energy  EATOM  =      3024.54869369
  Solvation  Ediel_sol  =         0.00000000
  ---------------------------------------------------
  free energy    TOTEN  =       -40.81387863 eV

  energy without entropy =      -40.81387863  energy(sigma->0) =      -40.81387863


--------------------------------------------------------------------------------------------------------




--------------------------------------- Iteration      7(   5)  ---------------------------------------


    POTLOK:  cpu time      0.1523: real time      0.1534
    SETDIJ:  cpu time      0.1112: real time      0.1115
     EDDAV:  cpu time      1.1383: real time      1.1488
       DOS:  cpu time      0.0002: real time      0.0002
    CHARGE:  cpu time      0.0705: real time      0.0709
    MIXING:  cpu time      0.0056: real time      0.0057
    --------------------------------------------
      LOOP:  cpu time      1.4782: real time      1.4905

 eigenvalue-minimisations  :   864
 total energy-change (2. order) : 0.1175201E-04  (-0.7517204E-06)
 number of electron      55.0000012 magnetization       4.9999998
 augmentation part       -0.5311103 magnetization       3.5230724

 DIPCOR: dipole corrections for dipol
 direction  3 min pos     1,
 dipolmoment           0.000000      0.000000     -0.061925 electrons x Angstroem
 Tr[quadrupol]      -348.251383

 energy correction for charged system         0.000000 eV
 dipol+quadrupol energy correction           -0.000548 eV
 added-field ion interaction          0.014535 eV  (added to PSCEN)


 Broyden mixing:
  rms(total) = 0.17274E-02    rms(broyden)= 0.17274E-02
  rms(prec ) = 0.17500E-02
  weight for this iteration     100.00

 eigenvalues of (default mixing * dielectric matrix)
  average eigenvalue GAMMA=   0.9215
  1.5310  1.1679  0.5715  0.4157

 Free energy of the ion-electron system (eV)
  ---------------------------------------------------
  alpha Z        PSCENC =        27.91661097
  Ewald energy   TEWEN  =      6436.53868391
  -Hartree energ DENC   =     -9134.58754274
  -exchange      EXHF   =         0.00000000
  -V(xc)+E(xc)   XCENC  =        88.37521226
  PAW double counting   =      3777.20594229    -3739.71331082
  entropy T*S    EENTRO =        -0.00000000
  eigenvalues    EBANDS =      -521.09815644
  atomic energy  EATOM  =      3024.54869369
  Solvation  Ediel_sol  =         0.00000000
  ---------------------------------------------------
  free energy    TOTEN  =       -40.81386687 eV

  energy without entropy =      -40.81386687  energy(sigma->0) =      -40.81386687


--------------------------------------------------------------------------------------------------------




--------------------------------------- Iteration      7(   6)  ---------------------------------------


    POTLOK:  cpu time      0.1528: real time      0.1539
    SETDIJ:  cpu time      0.1085: real time      0.1088
     EDDAV:  cpu time      1.2977: real time      1.3096
       DOS:  cpu time      0.0002: real time      0.0002
    CHARGE:  cpu time      0.0708: real time      0.0713
    MIXING:  cpu time      0.0057: real time      0.0058
    --------------------------------------------
      LOOP:  cpu time      1.6356: real time      1.6495

 eigenvalue-minimisations  :  1024
 total energy-change (2. order) : 0.1742813E-04  (-0.8348671E-06)
 number of electron      55.0000012 magnetization       4.9999998
 augmentation part       -0.5309673 magnetization       3.5230372

 DIPCOR: dipole corrections for dipol
 direction  3 min pos     1,
 dipolmoment           0.000000      0.000000     -0.061949 electrons x Angstroem
 Tr[quadrupol]      -348.251317

 energy correction for charged system         0.000000 eV
 dipol+quadrupol energy correction           -0.000548 eV
 added-field ion interaction          0.014541 eV  (added to PSCEN)


 Broyden mixing:
  rms(total) = 0.62010E-03    rms(broyden)= 0.62003E-03
  rms(prec ) = 0.62683E-03
  weight for this iteration     100.00

 eigenvalues of (default mixing * dielectric matrix)
  average eigenvalue GAMMA=   0.9463
  1.9797  1.1694  0.6746  0.5112  0.3966

 Free energy of the ion-electron system (eV)
  ---------------------------------------------------
  alpha Z        PSCENC =        27.91661608
  Ewald energy   TEWEN  =      6436.53868391
  -Hartree energ DENC   =     -9134.58533370
  -exchange      EXHF   =         0.00000000
  -V(xc)+E(xc)   XCENC  =        88.37534649
  PAW double counting   =      3777.21401943    -3739.72144401
  entropy T*S    EENTRO =        -0.00000000
  eigenvalues    EBANDS =      -521.10043136
  atomic energy  EATOM  =      3024.54869369
  Solvation  Ediel_sol  =         0.00000000
  ---------------------------------------------------
  free energy    TOTEN  =       -40.81384945 eV

  energy without entropy =      -40.81384945  energy(sigma->0) =      -40.81384945


--------------------------------------------------------------------------------------------------------




--------------------------------------- Iteration      7(   7)  ---------------------------------------


    POTLOK:  cpu time      0.1522: real time      0.1533
    SETDIJ:  cpu time      0.1101: real time      0.1104
     EDDAV:  cpu time      0.7202: real time      0.7268
       DOS:  cpu time      0.0002: real time      0.0002
    CHARGE:  cpu time      0.0706: real time      0.0710
    MIXING:  cpu time      0.0058: real time      0.0058
    --------------------------------------------
      LOOP:  cpu time      1.0591: real time      1.0675

 eigenvalue-minimisations  :   440
 total energy-change (2. order) :-0.5106172E-05  (-0.8876895E-07)
 number of electron      55.0000012 magnetization       4.9999998
 augmentation part       -0.5310308 magnetization       3.5230370

 DIPCOR: dipole corrections for dipol
 direction  3 min pos     1,
 dipolmoment           0.000000      0.000000     -0.061941 electrons x Angstroem
 Tr[quadrupol]      -348.251357

 energy correction for charged system         0.000000 eV
 dipol+quadrupol energy correction           -0.000548 eV
 added-field ion interaction          0.014539 eV  (added to PSCEN)


 Broyden mixing:
  rms(total) = 0.28651E-03    rms(broyden)= 0.28651E-03
  rms(prec ) = 0.29084E-03
  weight for this iteration     100.00

 eigenvalues of (default mixing * dielectric matrix)
  average eigenvalue GAMMA=   0.9788
  1.8895  1.5276  0.9099  0.6762  0.4930  0.3768

 Free energy of the ion-electron system (eV)
  ---------------------------------------------------
  alpha Z        PSCENC =        27.91661445
  Ewald energy   TEWEN  =      6436.53868391
  -Hartree energ DENC   =     -9134.58629782
  -exchange      EXHF   =         0.00000000
  -V(xc)+E(xc)   XCENC  =        88.37531021
  PAW double counting   =      3777.21440112    -3739.72181354
  entropy T*S    EENTRO =        -0.00000000
  eigenvalues    EBANDS =      -521.09944658
  atomic energy  EATOM  =      3024.54869369
  Solvation  Ediel_sol  =         0.00000000
  ---------------------------------------------------
  free energy    TOTEN  =       -40.81385455 eV

  energy without entropy =      -40.81385455  energy(sigma->0) =      -40.81385455


--------------------------------------------------------------------------------------------------------




--------------------------------------- Iteration      7(   8)  ---------------------------------------


    POTLOK:  cpu time      0.1524: real time      0.1534
    SETDIJ:  cpu time      0.1099: real time      0.1102
     EDDAV:  cpu time      0.7630: real time      0.7698
       DOS:  cpu time      0.0002: real time      0.0002
    CHARGE:  cpu time      0.0713: real time      0.0717
    MIXING:  cpu time      0.0059: real time      0.0059
    --------------------------------------------
      LOOP:  cpu time      1.1026: real time      1.1113

 eigenvalue-minimisations  :   488
 total energy-change (2. order) :-0.9138869E-05  (-0.6127381E-07)
 number of electron      55.0000012 magnetization       4.9999998
 augmentation part       -0.5309982 magnetization       3.5230369

 DIPCOR: dipole corrections for dipol
 direction  3 min pos     1,
 dipolmoment           0.000000      0.000000     -0.061927 electrons x Angstroem
 Tr[quadrupol]      -348.251398

 energy correction for charged system         0.000000 eV
 dipol+quadrupol energy correction           -0.000548 eV
 added-field ion interaction          0.014536 eV  (added to PSCEN)


 Broyden mixing:
  rms(total) = 0.14167E-03    rms(broyden)= 0.14167E-03
  rms(prec ) = 0.14316E-03
  weight for this iteration     100.00

 eigenvalues of (default mixing * dielectric matrix)
  average eigenvalue GAMMA=   1.0100
  2.2553  1.3024  1.3024  0.6780  0.6780  0.4842  0.3697

 Free energy of the ion-electron system (eV)
  ---------------------------------------------------
  alpha Z        PSCENC =        27.91661129
  Ewald energy   TEWEN  =      6436.53868391
  -Hartree energ DENC   =     -9134.58693566
  -exchange      EXHF   =         0.00000000
  -V(xc)+E(xc)   XCENC  =        88.37530088
  PAW double counting   =      3777.20925992    -3739.71658230
  entropy T*S    EENTRO =        -0.00000000
  eigenvalues    EBANDS =      -521.09889542
  atomic energy  EATOM  =      3024.54869369
  Solvation  Ediel_sol  =         0.00000000
  ---------------------------------------------------
  free energy    TOTEN  =       -40.81386369 eV

  energy without entropy =      -40.81386369  energy(sigma->0) =      -40.81386369


--------------------------------------------------------------------------------------------------------




--------------------------------------- Iteration      7(   9)  ---------------------------------------


    POTLOK:  cpu time      0.1526: real time      0.1537
    SETDIJ:  cpu time      0.1104: real time      0.1107
     EDDAV:  cpu time      0.7512: real time      0.7581
       DOS:  cpu time      0.0002: real time      0.0002
    CHARGE:  cpu time      0.0707: real time      0.0712
    MIXING:  cpu time      0.0060: real time      0.0060
    --------------------------------------------
      LOOP:  cpu time      1.0911: real time      1.0999

 eigenvalue-minimisations  :   476
 total energy-change (2. order) :-0.5162878E-05  (-0.2158938E-07)
 number of electron      55.0000012 magnetization       4.9999998
 augmentation part       -0.5309776 magnetization       3.5230368

 DIPCOR: dipole corrections for dipol
 direction  3 min pos     1,
 dipolmoment           0.000000      0.000000     -0.061918 electrons x Angstroem
 Tr[quadrupol]      -348.251404

 energy correction for charged system         0.000000 eV
 dipol+quadrupol energy correction           -0.000548 eV
 added-field ion interaction          0.014534 eV  (added to PSCEN)


 Broyden mixing:
  rms(total) = 0.13779E-03    rms(broyden)= 0.13779E-03
  rms(prec ) = 0.14010E-03
  weight for this iteration     100.00

 eigenvalues of (default mixing * dielectric matrix)
  average eigenvalue GAMMA=   0.9806
  2.3388  1.3423  1.3423  0.7081  0.7081  0.3783  0.5134  0.5134

 Free energy of the ion-electron system (eV)
  ---------------------------------------------------
  alpha Z        PSCENC =        27.91660952
  Ewald energy   TEWEN  =      6436.53868391
  -Hartree energ DENC   =     -9134.58690180
  -exchange      EXHF   =         0.00000000
  -V(xc)+E(xc)   XCENC  =        88.37532012
  PAW double counting   =      3777.20239374    -3739.70971812
  entropy T*S    EENTRO =        -0.00000000
  eigenvalues    EBANDS =      -521.09894993
  atomic energy  EATOM  =      3024.54869369
  Solvation  Ediel_sol  =         0.00000000
  ---------------------------------------------------
  free energy    TOTEN  =       -40.81386885 eV

  energy without entropy =      -40.81386885  energy(sigma->0) =      -40.81386885


--------------------------------------------------------------------------------------------------------




--------------------------------------- Iteration      7(  10)  ---------------------------------------


    POTLOK:  cpu time      0.1528: real time      0.1539
    SETDIJ:  cpu time      0.1089: real time      0.1092
     EDDAV:  cpu time      0.7528: real time      0.7594
       DOS:  cpu time      0.0002: real time      0.0002
    CHARGE:  cpu time      0.0715: real time      0.0719
    MIXING:  cpu time      0.0060: real time      0.0060
    --------------------------------------------
      LOOP:  cpu time      1.0921: real time      1.1007

 eigenvalue-minimisations  :   480
 total energy-change (2. order) :-0.3360185E-05  (-0.8579147E-08)
 number of electron      55.0000012 magnetization       4.9999998
 augmentation part       -0.5309985 magnetization       3.5230360

 DIPCOR: dipole corrections for dipol
 direction  3 min pos     1,
 dipolmoment           0.000000      0.000000     -0.061916 electrons x Angstroem
 Tr[quadrupol]      -348.251408

 energy correction for charged system         0.000000 eV
 dipol+quadrupol energy correction           -0.000548 eV
 added-field ion interaction          0.014533 eV  (added to PSCEN)


 Broyden mixing:
  rms(total) = 0.10093E-03    rms(broyden)= 0.10092E-03
  rms(prec ) = 0.10156E-03
  weight for this iteration     100.00

 eigenvalues of (default mixing * dielectric matrix)
  average eigenvalue GAMMA=   0.9670
  2.3317  1.4576  1.4576  0.7527  0.7527  0.3839  0.5498  0.5084  0.5084

 Free energy of the ion-electron system (eV)
  ---------------------------------------------------
  alpha Z        PSCENC =        27.91660906
  Ewald energy   TEWEN  =      6436.53868391
  -Hartree energ DENC   =     -9134.58694691
  -exchange      EXHF   =         0.00000000
  -V(xc)+E(xc)   XCENC  =        88.37531247
  PAW double counting   =      3777.19909221    -3739.70644227
  entropy T*S    EENTRO =        -0.00000000
  eigenvalues    EBANDS =      -521.09887437
  atomic energy  EATOM  =      3024.54869369
  Solvation  Ediel_sol  =         0.00000000
  ---------------------------------------------------
  free energy    TOTEN  =       -40.81387221 eV

  energy without entropy =      -40.81387221  energy(sigma->0) =      -40.81387221


--------------------------------------------------------------------------------------------------------




--------------------------------------- Iteration      7(  11)  ---------------------------------------


    POTLOK:  cpu time      0.1520: real time      0.1530
    SETDIJ:  cpu time      0.1102: real time      0.1105
     EDDAV:  cpu time      0.7509: real time      0.7576
       DOS:  cpu time      0.0002: real time      0.0002
    CHARGE:  cpu time      0.0702: real time      0.0706
    MIXING:  cpu time      0.0061: real time      0.0063
    --------------------------------------------
      LOOP:  cpu time      1.0896: real time      1.0982

 eigenvalue-minimisations  :   480
 total energy-change (2. order) :-0.3966020E-05  (-0.5578422E-08)
 number of electron      55.0000012 magnetization       4.9999998
 augmentation part       -0.5310055 magnetization       3.5230341

 DIPCOR: dipole corrections for dipol
 direction  3 min pos     1,
 dipolmoment           0.000000      0.000000     -0.061913 electrons x Angstroem
 Tr[quadrupol]      -348.251411

 energy correction for charged system         0.000000 eV
 dipol+quadrupol energy correction           -0.000548 eV
 added-field ion interaction          0.014532 eV  (added to PSCEN)


 Broyden mixing:
  rms(total) = 0.78781E-04    rms(broyden)= 0.78780E-04
  rms(prec ) = 0.79794E-04
  weight for this iteration     100.00

 eigenvalues of (default mixing * dielectric matrix)
  average eigenvalue GAMMA=   1.0071
  2.3017  1.7313  1.7313  0.8579  0.8579  0.3791  0.5974  0.5974  0.5083  0.5083

 Free energy of the ion-electron system (eV)
  ---------------------------------------------------
  alpha Z        PSCENC =        27.91660827
  Ewald energy   TEWEN  =      6436.53868391
  -Hartree energ DENC   =     -9134.58690706
  -exchange      EXHF   =         0.00000000
  -V(xc)+E(xc)   XCENC  =        88.37530690
  PAW double counting   =      3777.19619971    -3739.70355251
  entropy T*S    EENTRO =        -0.00000000
  eigenvalues    EBANDS =      -521.09890910
  atomic energy  EATOM  =      3024.54869369
  Solvation  Ediel_sol  =         0.00000000
  ---------------------------------------------------
  free energy    TOTEN  =       -40.81387618 eV

  energy without entropy =      -40.81387618  energy(sigma->0) =      -40.81387618


--------------------------------------------------------------------------------------------------------




--------------------------------------- Iteration      7(  12)  ---------------------------------------


    POTLOK:  cpu time      0.1523: real time      0.1534
    SETDIJ:  cpu time      0.1090: real time      0.1093
     EDDAV:  cpu time      0.7574: real time      0.7643
       DOS:  cpu time      0.0002: real time      0.0002
    CHARGE:  cpu time      0.0710: real time      0.0714
    MIXING:  cpu time      0.0063: real time      0.0063
    --------------------------------------------
      LOOP:  cpu time      1.0961: real time      1.1049

 eigenvalue-minimisations  :   484
 total energy-change (2. order) :-0.7837599E-05  (-0.7698308E-08)
 number of electron      55.0000012 magnetization       4.9999998
 augmentation part       -0.5309940 magnetization       3.5230365

 DIPCOR: dipole corrections for dipol
 direction  3 min pos     1,
 dipolmoment           0.000000      0.000000     -0.061903 electrons x Angstroem
 Tr[quadrupol]      -348.251418

 energy correction for charged system         0.000000 eV
 dipol+quadrupol energy correction           -0.000548 eV
 added-field ion interaction          0.014530 eV  (added to PSCEN)


 Broyden mixing:
  rms(total) = 0.45628E-04    rms(broyden)= 0.45627E-04
  rms(prec ) = 0.46400E-04
  weight for this iteration     100.00

 eigenvalues of (default mixing * dielectric matrix)
  average eigenvalue GAMMA=   1.0235
  2.2959  2.0173  2.0173  0.8276  0.8276  0.6728  0.6728  0.5971  0.3790  0.4754
  0.4754

 Free energy of the ion-electron system (eV)
  ---------------------------------------------------
  alpha Z        PSCENC =        27.91660623
  Ewald energy   TEWEN  =      6436.53868391
  -Hartree energ DENC   =     -9134.58677037
  -exchange      EXHF   =         0.00000000
  -V(xc)+E(xc)   XCENC  =        88.37529296
  PAW double counting   =      3777.19021819    -3739.69754283
  entropy T*S    EENTRO =        -0.00000000
  eigenvalues    EBANDS =      -521.09906581
  atomic energy  EATOM  =      3024.54869369
  Solvation  Ediel_sol  =         0.00000000
  ---------------------------------------------------
  free energy    TOTEN  =       -40.81388402 eV

  energy without entropy =      -40.81388402  energy(sigma->0) =      -40.81388402


--------------------------------------------------------------------------------------------------------




--------------------------------------- Iteration      7(  13)  ---------------------------------------


    POTLOK:  cpu time      0.1519: real time      0.1529
    SETDIJ:  cpu time      0.1100: real time      0.1103
     EDDAV:  cpu time      0.7687: real time      0.7756
       DOS:  cpu time      0.0002: real time      0.0002
    CHARGE:  cpu time      0.0701: real time      0.0705
    MIXING:  cpu time      0.0063: real time      0.0063
    --------------------------------------------
      LOOP:  cpu time      1.1071: real time      1.1158

 eigenvalue-minimisations  :   496
 total energy-change (2. order) :-0.6433350E-05  (-0.7775144E-08)
 number of electron      55.0000012 magnetization       4.9999998
 augmentation part       -0.5309948 magnetization       3.5230362

 DIPCOR: dipole corrections for dipol
 direction  3 min pos     1,
 dipolmoment           0.000000      0.000000     -0.061893 electrons x Angstroem
 Tr[quadrupol]      -348.251426

 energy correction for charged system         0.000000 eV
 dipol+quadrupol energy correction           -0.000547 eV
 added-field ion interaction          0.014528 eV  (added to PSCEN)


 Broyden mixing:
  rms(total) = 0.22922E-04    rms(broyden)= 0.22922E-04
  rms(prec ) = 0.23432E-04
  weight for this iteration     100.00

 eigenvalues of (default mixing * dielectric matrix)
  average eigenvalue GAMMA=   1.0265
  2.3414  2.3414  1.7747  0.9991  0.9991  0.6001  0.6001  0.7030  0.6529  0.3792
  0.4936  0.4337

 Free energy of the ion-electron system (eV)
  ---------------------------------------------------
  alpha Z        PSCENC =        27.91660411
  Ewald energy   TEWEN  =      6436.53868391
  -Hartree energ DENC   =     -9134.58672934
  -exchange      EXHF   =         0.00000000
  -V(xc)+E(xc)   XCENC  =        88.37528860
  PAW double counting   =      3777.18526790    -3739.69258553
  entropy T*S    EENTRO =        -0.00000000
  eigenvalues    EBANDS =      -521.09911380
  atomic energy  EATOM  =      3024.54869369
  Solvation  Ediel_sol  =         0.00000000
  ---------------------------------------------------
  free energy    TOTEN  =       -40.81389045 eV

  energy without entropy =      -40.81389045  energy(sigma->0) =      -40.81389045


--------------------------------------------------------------------------------------------------------




--------------------------------------- Iteration      7(  14)  ---------------------------------------


    POTLOK:  cpu time      0.1525: real time      0.1535
    SETDIJ:  cpu time      0.1084: real time      0.1087
     EDDAV:  cpu time      0.7528: real time      0.7595
       DOS:  cpu time      0.0002: real time      0.0002
    CHARGE:  cpu time      0.0712: real time      0.0717
    MIXING:  cpu time      0.0065: real time      0.0066
    --------------------------------------------
      LOOP:  cpu time      1.0915: real time      1.1002

 eigenvalue-minimisations  :   480
 total energy-change (2. order) :-0.4061972E-05  (-0.7150527E-08)
 number of electron      55.0000012 magnetization       4.9999998
 augmentation part       -0.5309951 magnetization       3.5230365

 DIPCOR: dipole corrections for dipol
 direction  3 min pos     1,
 dipolmoment           0.000000      0.000000     -0.061886 electrons x Angstroem
 Tr[quadrupol]      -348.251433

 energy correction for charged system         0.000000 eV
 dipol+quadrupol energy correction           -0.000547 eV
 added-field ion interaction          0.014526 eV  (added to PSCEN)


 Broyden mixing:
  rms(total) = 0.25466E-04    rms(broyden)= 0.25465E-04
  rms(prec ) = 0.25592E-04
  weight for this iteration     100.00

 eigenvalues of (default mixing * dielectric matrix)
  average eigenvalue GAMMA=   1.0447
  2.9759  2.3516  1.4330  1.4330  0.8518  0.8518  0.6496  0.6496  0.6078  0.5251
  0.5251  0.3797  0.3474

 Free energy of the ion-electron system (eV)
  ---------------------------------------------------
  alpha Z        PSCENC =        27.91660253
  Ewald energy   TEWEN  =      6436.53868391
  -Hartree energ DENC   =     -9134.58677582
  -exchange      EXHF   =         0.00000000
  -V(xc)+E(xc)   XCENC  =        88.37528301
  PAW double counting   =      3777.18313461    -3739.69045023
  entropy T*S    EENTRO =        -0.00000000
  eigenvalues    EBANDS =      -521.09906623
  atomic energy  EATOM  =      3024.54869369
  Solvation  Ediel_sol  =         0.00000000
  ---------------------------------------------------
  free energy    TOTEN  =       -40.81389451 eV

  energy without entropy =      -40.81389451  energy(sigma->0) =      -40.81389451


--------------------------------------------------------------------------------------------------------




--------------------------------------- Iteration      7(  15)  ---------------------------------------


    POTLOK:  cpu time      0.1520: real time      0.1530
    SETDIJ:  cpu time      0.1096: real time      0.1100
     EDDAV:  cpu time      0.7507: real time      0.7574
       DOS:  cpu time      0.0002: real time      0.0002
    CHARGE:  cpu time      0.0701: real time      0.0706
    MIXING:  cpu time      0.0064: real time      0.0064
    --------------------------------------------
      LOOP:  cpu time      1.0890: real time      1.0975

 eigenvalue-minimisations  :   480
 total energy-change (2. order) :-0.2385112E-05  (-0.5284805E-08)
 number of electron      55.0000012 magnetization       4.9999998
 augmentation part       -0.5309970 magnetization       3.5230361

 DIPCOR: dipole corrections for dipol
 direction  3 min pos     1,
 dipolmoment           0.000000      0.000000     -0.061881 electrons x Angstroem
 Tr[quadrupol]      -348.251437

 energy correction for charged system         0.000000 eV
 dipol+quadrupol energy correction           -0.000547 eV
 added-field ion interaction          0.014525 eV  (added to PSCEN)


 Broyden mixing:
  rms(total) = 0.20548E-04    rms(broyden)= 0.20547E-04
  rms(prec ) = 0.20919E-04
  weight for this iteration     100.00

 eigenvalues of (default mixing * dielectric matrix)
  average eigenvalue GAMMA=   1.0714
  3.1848  2.1577  1.7189  1.7189  0.9010  0.9010  0.7108  0.7108  0.6382  0.6382
  0.5050  0.5050  0.3796  0.3302

 Free energy of the ion-electron system (eV)
  ---------------------------------------------------
  alpha Z        PSCENC =        27.91660136
  Ewald energy   TEWEN  =      6436.53868391
  -Hartree energ DENC   =     -9134.58678725
  -exchange      EXHF   =         0.00000000
  -V(xc)+E(xc)   XCENC  =        88.37527943
  PAW double counting   =      3777.18276349    -3739.69007902
  entropy T*S    EENTRO =        -0.00000000
  eigenvalues    EBANDS =      -521.09905251
  atomic energy  EATOM  =      3024.54869369
  Solvation  Ediel_sol  =         0.00000000
  ---------------------------------------------------
  free energy    TOTEN  =       -40.81389690 eV

  energy without entropy =      -40.81389690  energy(sigma->0) =      -40.81389690


--------------------------------------------------------------------------------------------------------




--------------------------------------- Iteration      7(  16)  ---------------------------------------


    POTLOK:  cpu time      0.1534: real time      0.1545
    SETDIJ:  cpu time      0.1085: real time      0.1088
     EDDAV:  cpu time      0.7460: real time      0.7527
       DOS:  cpu time      0.0002: real time      0.0002
    CHARGE:  cpu time      0.0711: real time      0.0716
    MIXING:  cpu time      0.0066: real time      0.0066
    --------------------------------------------
      LOOP:  cpu time      1.0858: real time      1.0945

 eigenvalue-minimisations  :   472
 total energy-change (2. order) :-0.2588429E-05  (-0.6006601E-08)
 number of electron      55.0000012 magnetization       4.9999998
 augmentation part       -0.5309952 magnetization       3.5230360

 DIPCOR: dipole corrections for dipol
 direction  3 min pos     1,
 dipolmoment           0.000000      0.000000     -0.061874 electrons x Angstroem
 Tr[quadrupol]      -348.251438

 energy correction for charged system         0.000000 eV
 dipol+quadrupol energy correction           -0.000547 eV
 added-field ion interaction          0.014523 eV  (added to PSCEN)


 Broyden mixing:
  rms(total) = 0.14913E-04    rms(broyden)= 0.14913E-04
  rms(prec ) = 0.15315E-04
  weight for this iteration     100.00

 eigenvalues of (default mixing * dielectric matrix)
  average eigenvalue GAMMA=   1.1718
  3.7740  2.4209  2.4209  1.3098  1.3098  1.2691  0.7711  0.6667  0.6667  0.6372
  0.6316  0.4995  0.4995  0.3796  0.3202

 Free energy of the ion-electron system (eV)
  ---------------------------------------------------
  alpha Z        PSCENC =        27.91659987
  Ewald energy   TEWEN  =      6436.53868391
  -Hartree energ DENC   =     -9134.58673803
  -exchange      EXHF   =         0.00000000
  -V(xc)+E(xc)   XCENC  =        88.37527767
  PAW double counting   =      3777.18366989    -3739.69098769
  entropy T*S    EENTRO =        -0.00000000
  eigenvalues    EBANDS =      -521.09909881
  atomic energy  EATOM  =      3024.54869369
  Solvation  Ediel_sol  =         0.00000000
  ---------------------------------------------------
  free energy    TOTEN  =       -40.81389949 eV

  energy without entropy =      -40.81389949  energy(sigma->0) =      -40.81389949


--------------------------------------------------------------------------------------------------------




--------------------------------------- Iteration      7(  17)  ---------------------------------------


    POTLOK:  cpu time      0.1523: real time      0.1533
    SETDIJ:  cpu time      0.1099: real time      0.1102
     EDDAV:  cpu time      0.7841: real time      0.7912
       DOS:  cpu time      0.0002: real time      0.0002
    CHARGE:  cpu time      0.0706: real time      0.0711
    MIXING:  cpu time      0.0068: real time      0.0068
    --------------------------------------------
      LOOP:  cpu time      1.1238: real time      1.1328

 eigenvalue-minimisations  :   508
 total energy-change (2. order) :-0.2500763E-05  (-0.8324810E-08)
 number of electron      55.0000012 magnetization       4.9999998
 augmentation part       -0.5309972 magnetization       3.5230352

 DIPCOR: dipole corrections for dipol
 direction  3 min pos     1,
 dipolmoment           0.000000      0.000000     -0.061865 electrons x Angstroem
 Tr[quadrupol]      -348.251437

 energy correction for charged system         0.000000 eV
 dipol+quadrupol energy correction           -0.000547 eV
 added-field ion interaction          0.014521 eV  (added to PSCEN)


 Broyden mixing:
  rms(total) = 0.64751E-05    rms(broyden)= 0.64747E-05
  rms(prec ) = 0.65946E-05
  weight for this iteration     100.00

 eigenvalues of (default mixing * dielectric matrix)
  average eigenvalue GAMMA=   1.2470
  5.3655  2.4105  2.4105  1.3892  1.3892  1.2302  0.6699  0.6699  0.7292  0.7292
  0.6804  0.5929  0.4941  0.4941  0.3796  0.3176

 Free energy of the ion-electron system (eV)
  ---------------------------------------------------
  alpha Z        PSCENC =        27.91659796
  Ewald energy   TEWEN  =      6436.53868391
  -Hartree energ DENC   =     -9134.58658744
  -exchange      EXHF   =         0.00000000
  -V(xc)+E(xc)   XCENC  =        88.37527421
  PAW double counting   =      3777.18387436    -3739.69119752
  entropy T*S    EENTRO =        -0.00000000
  eigenvalues    EBANDS =      -521.09924117
  atomic energy  EATOM  =      3024.54869369
  Solvation  Ediel_sol  =         0.00000000
  ---------------------------------------------------
  free energy    TOTEN  =       -40.81390199 eV

  energy without entropy =      -40.81390199  energy(sigma->0) =      -40.81390199


--------------------------------------------------------------------------------------------------------




--------------------------------------- Iteration      7(  18)  ---------------------------------------


    POTLOK:  cpu time      0.1529: real time      0.1540
    SETDIJ:  cpu time      0.1091: real time      0.1095
     EDDAV:  cpu time      0.7550: real time      0.7618
       DOS:  cpu time      0.0002: real time      0.0002
    --------------------------------------------
      LOOP:  cpu time      1.0172: real time      1.0254

 eigenvalue-minimisations  :   480
 total energy-change (2. order) :-0.4315593E-06  (-0.4200709E-08)
 number of electron      55.0000012 magnetization       4.9999998
 augmentation part       -0.5309972 magnetization       3.5230352

 DIPCOR: dipole corrections for dipol
 direction  3 min pos     1,
 dipolmoment           0.000000      0.000000     -0.061862 electrons x Angstroem
 Tr[quadrupol]      -348.251436

 energy correction for charged system         0.000000 eV
 dipol+quadrupol energy correction           -0.000547 eV
 added-field ion interaction          0.014521 eV  (added to PSCEN)


 Free energy of the ion-electron system (eV)
  ---------------------------------------------------
  alpha Z        PSCENC =        27.91659736
  Ewald energy   TEWEN  =      6436.53868391
  -Hartree energ DENC   =     -9134.58652170
  -exchange      EXHF   =         0.00000000
  -V(xc)+E(xc)   XCENC  =        88.37527288
  PAW double counting   =      3777.18385544    -3739.69117852
  entropy T*S    EENTRO =        -0.00000000
  eigenvalues    EBANDS =      -521.09930549
  atomic energy  EATOM  =      3024.54869369
  Solvation  Ediel_sol  =         0.00000000
  ---------------------------------------------------
  free energy    TOTEN  =       -40.81390242 eV

  energy without entropy =      -40.81390242  energy(sigma->0) =      -40.81390242


--------------------------------------------------------------------------------------------------------




 average (electrostatic) potential at core
  the test charge radii are     1.1394  0.9406  0.5201
  (the norm of the test charge is              1.0000)
       1 -52.6761       2 -52.7067       3 -99.1249       4 -99.1249       5 -99.1249
       6 -99.3633       7 -99.3633       8 -99.3633       9 -40.6377
 
 
 
 E-fermi :  -3.9489     XC(G=0):  -2.9698     alpha+bet : -2.4254

 val. band max:       -4.2247153747   @ k =   0.4000   0.0000   0.0000
 cond. band min:      -2.4343181846   @ k =   0.4000   0.0000   0.0000
 fundamental gap:      1.7903971901
 Fermi energy:        -3.9489329246

 spin component 1

 k-point     1 :       0.0000    0.0000    0.0000
  band No.  band energies     occupation 
      1     -19.6459      1.00000
      2     -18.7151      1.00000
      3     -18.6654      1.00000
      4     -18.6654      1.00000
      5     -18.4093      1.00000
      6     -18.4093      1.00000
      7      -9.9304      1.00000
      8      -8.7970      1.00000
      9      -8.5131      1.00000
     10      -8.5131      1.00000
     11      -8.3081      1.00000
     12      -8.3081      1.00000
     13      -8.2341      1.00000
     14      -7.8284      1.00000
     15      -7.8284      1.00000
     16      -7.7483      1.00000
     17      -7.0538      1.00000
     18      -7.0538      1.00000
     19      -6.3902      1.00000
     20      -6.0544      1.00000
     21      -5.9127      1.00000
     22      -5.9127      1.00000
     23      -5.5464      1.00000
     24      -5.5464      1.00000
     25      -5.1749      1.00000
     26      -4.7066      1.00000
     27      -4.6689      1.00000
     28      -4.6689      1.00000
     29      -4.3523      1.00000
     30      -4.3523      1.00000
     31      -2.3728      0.00000
     32      -2.3728      0.00000
     33      -2.1134      0.00000
     34      -2.1134      0.00000
     35      -0.6977      0.00000
     36       1.7069      0.00000

 k-point     2 :       0.2000    0.0000    0.0000
  band No.  band energies     occupation 
      1     -19.5603      1.00000
      2     -18.7471      1.00000
      3     -18.7042      1.00000
      4     -18.6697      1.00000
      5     -18.4388      1.00000
      6     -18.4211      1.00000
      7      -9.9118      1.00000
      8      -8.8383      1.00000
      9      -8.6287      1.00000
     10      -8.4810      1.00000
     11      -8.3613      1.00000
     12      -8.2673      1.00000
     13      -8.0109      1.00000
     14      -7.8896      1.00000
     15      -7.7732      1.00000
     16      -7.4261      1.00000
     17      -7.1016      1.00000
     18      -6.8688      1.00000
     19      -6.3922      1.00000
     20      -6.2590      1.00000
     21      -6.1414      1.00000
     22      -5.9944      1.00000
     23      -5.7407      1.00000
     24      -5.6424      1.00000
     25      -5.0614      1.00000
     26      -4.7187      1.00000
     27      -4.6205      1.00000
     28      -4.5148      1.00000
     29      -4.3677      1.00000
     30      -4.3040      1.00000
     31      -2.3747      0.00000
     32      -2.3619      0.00000
     33      -2.2806      0.00000
     34      -2.1424      0.00000
     35      -0.5413      0.00000
     36       1.9288      0.00000

 k-point     3 :       0.4000    0.0000    0.0000
  band No.  band energies     occupation 
      1     -19.3442      1.00000
      2     -18.9665      1.00000
      3     -18.7362      1.00000
      4     -18.6051      1.00000
      5     -18.4968      1.00000
      6     -18.4427      1.00000
      7      -9.8721      1.00000
      8      -8.8794      1.00000
      9      -8.6159      1.00000
     10      -8.4501      1.00000
     11      -8.3306      1.00000
     12      -8.1254      1.00000
     13      -8.0463      1.00000
     14      -7.8317      1.00000
     15      -7.5272      1.00000
     16      -7.3819      1.00000
     17      -7.0380      1.00000
     18      -6.8137      1.00000
     19      -6.6302      1.00000
     20      -6.5548      1.00000
     21      -6.1308      1.00000
     22      -6.1103      1.00000
     23      -5.6659      1.00000
     24      -5.6308      1.00000
     25      -5.1290      1.00000
     26      -4.7331      1.00000
     27      -4.6366      1.00000
     28      -4.4263      1.00000
     29      -4.3844      1.00000
     30      -4.2247      1.00000
     31      -2.4343      0.00000
     32      -2.3485      0.00000
     33      -2.2947      0.00000
     34      -2.2280      0.00000
     35      -0.4602      0.00000
     36       2.4920      0.00000

 k-point     4 :       0.2000    0.2000    0.0000
  band No.  band energies     occupation 
      1     -19.4059      1.00000
      2     -18.8725      1.00000
      3     -18.7666      1.00000
      4     -18.6225      1.00000
      5     -18.4739      1.00000
      6     -18.4408      1.00000
      7      -9.8427      1.00000
      8      -8.9215      1.00000
      9      -8.6181      1.00000
     10      -8.4894      1.00000
     11      -8.3590      1.00000
     12      -8.1449      1.00000
     13      -8.0418      1.00000
     14      -7.9356      1.00000
     15      -7.4359      1.00000
     16      -7.3025      1.00000
     17      -7.0701      1.00000
     18      -6.8028      1.00000
     19      -6.7090      1.00000
     20      -6.2179      1.00000
     21      -6.1967      1.00000
     22      -6.1250      1.00000
     23      -5.9055      1.00000
     24      -5.6660      1.00000
     25      -4.9679      1.00000
     26      -4.7615      1.00000
     27      -4.5967      1.00000
     28      -4.4499      1.00000
     29      -4.3542      1.00000
     30      -4.2819      1.00000
     31      -2.4184      0.00000
     32      -2.3595      0.00000
     33      -2.3187      0.00000
     34      -2.1659      0.00000
     35      -0.4814      0.00000
     36       2.3097      0.00000

 k-point     5 :       0.4000    0.2000    0.0000
  band No.  band energies     occupation 
      1     -19.2142      1.00000
      2     -19.0514      1.00000
      3     -18.8064      1.00000
      4     -18.5715      1.00000
      5     -18.5073      1.00000
      6     -18.4570      1.00000
      7      -9.7687      1.00000
      8      -8.9092      1.00000
      9      -8.6104      1.00000
     10      -8.5322      1.00000
     11      -8.3254      1.00000
     12      -8.1300      1.00000
     13      -8.0553      1.00000
     14      -7.9013      1.00000
     15      -7.6616      1.00000
     16      -7.1011      1.00000
     17      -7.0179      1.00000
     18      -6.6855      1.00000
     19      -6.6333      1.00000
     20      -6.5250      1.00000
     21      -6.1424      1.00000
     22      -6.0635      1.00000
     23      -5.9025      1.00000
     24      -5.7805      1.00000
     25      -4.9515      1.00000
     26      -4.7432      1.00000
     27      -4.6035      1.00000
     28      -4.4295      1.00000
     29      -4.3725      1.00000
     30      -4.2764      1.00000
     31      -2.4287      0.00000
     32      -2.3473      0.00000
     33      -2.3157      0.00000
     34      -2.1529      0.00000
     35      -0.5254      0.00000
     36       2.8200      0.00000
 Fermi energy:        -3.9489329246

 spin component 2

 k-point     1 :       0.0000    0.0000    0.0000
  band No.  band energies     occupation 
      1     -19.6383      1.00000
      2     -18.7365      1.00000
      3     -18.6892      1.00000
      4     -18.6892      1.00000
      5     -18.4231      1.00000
      6     -18.4231      1.00000
      7      -9.8843      1.00000
      8      -8.5666      1.00000
      9      -8.3229      1.00000
     10      -8.3229      1.00000
     11      -8.1961      1.00000
     12      -8.0647      1.00000
     13      -8.0647      1.00000
     14      -7.5924      1.00000
     15      -7.4614      1.00000
     16      -7.4614      1.00000
     17      -6.7887      1.00000
     18      -6.7887      1.00000
     19      -6.3347      1.00000
     20      -6.0375      1.00000
     21      -5.7443      1.00000
     22      -5.7443      1.00000
     23      -5.4681      1.00000
     24      -5.4681      1.00000
     25      -4.4222      1.00000
     26      -2.0996      0.00000
     27      -2.0996      0.00000
     28      -1.8368      0.00000
     29      -1.7261      0.00000
     30      -1.7261      0.00000
     31      -1.2336      0.00000
     32      -1.2336      0.00000
     33      -0.9172      0.00000
     34      -0.9172      0.00000
     35      -0.3008      0.00000
     36       1.7706      0.00000

 k-point     2 :       0.2000    0.0000    0.0000
  band No.  band energies     occupation 
      1     -19.5547      1.00000
      2     -18.7678      1.00000
      3     -18.7262      1.00000
      4     -18.6929      1.00000
      5     -18.4524      1.00000
      6     -18.4346      1.00000
      7      -9.8716      1.00000
      8      -8.6357      1.00000
      9      -8.4583      1.00000
     10      -8.2991      1.00000
     11      -8.1495      1.00000
     12      -8.0561      1.00000
     13      -7.7328      1.00000
     14      -7.6074      1.00000
     15      -7.4684      1.00000
     16      -7.2261      1.00000
     17      -6.8520      1.00000
     18      -6.6784      1.00000
     19      -6.2689      1.00000
     20      -6.1134      1.00000
     21      -6.0062      1.00000
     22      -5.7984      1.00000
     23      -5.6452      1.00000
     24      -5.5390      1.00000
     25      -4.3189      1.00000
     26      -2.1148      0.00000
     27      -2.0504      0.00000
     28      -1.7894      0.00000
     29      -1.7560      0.00000
     30      -1.7328      0.00000
     31      -1.2697      0.00000
     32      -1.2528      0.00000
     33      -1.0543      0.00000
     34      -0.9429      0.00000
     35      -0.1187      0.00000
     36       1.9806      0.00000

 k-point     3 :       0.4000    0.0000    0.0000
  band No.  band energies     occupation 
      1     -19.3432      1.00000
      2     -18.9805      1.00000
      3     -18.7591      1.00000
      4     -18.6259      1.00000
      5     -18.5118      1.00000
      6     -18.4556      1.00000
      7      -9.8365      1.00000
      8      -8.6979      1.00000
      9      -8.4372      1.00000
     10      -8.2398      1.00000
     11      -8.1123      1.00000
     12      -7.9052      1.00000
     13      -7.7794      1.00000
     14      -7.5776      1.00000
     15      -7.2174      1.00000
     16      -7.1117      1.00000
     17      -6.8017      1.00000
     18      -6.6387      1.00000
     19      -6.5136      1.00000
     20      -6.3236      1.00000
     21      -6.0747      1.00000
     22      -5.9068      1.00000
     23      -5.5909      1.00000
     24      -5.5348      1.00000
     25      -4.3319      1.00000
     26      -2.2118      0.00000
     27      -2.0174      0.00000
     28      -1.8126      0.00000
     29      -1.7775      0.00000
     30      -1.6803      0.00000
     31      -1.3342      0.00000
     32      -1.2587      0.00000
     33      -1.0747      0.00000
     34      -0.9859      0.00000
     35       0.0006      0.00000
     36       2.5416      0.00000

 k-point     4 :       0.2000    0.2000    0.0000
  band No.  band energies     occupation 
      1     -19.4039      1.00000
      2     -18.8881      1.00000
      3     -18.7887      1.00000
      4     -18.6439      1.00000
      5     -18.4888      1.00000
      6     -18.4541      1.00000
      7      -9.8164      1.00000
      8      -8.7191      1.00000
      9      -8.4519      1.00000
     10      -8.2816      1.00000
     11      -8.1384      1.00000
     12      -7.9105      1.00000
     13      -7.7978      1.00000
     14      -7.6205      1.00000
     15      -7.1738      1.00000
     16      -7.0404      1.00000
     17      -6.8396      1.00000
     18      -6.6854      1.00000
     19      -6.5471      1.00000
     20      -6.1749      1.00000
     21      -5.9846      1.00000
     22      -5.8753      1.00000
     23      -5.6743      1.00000
     24      -5.6122      1.00000
     25      -4.3080      1.00000
     26      -2.1696      0.00000
     27      -2.0386      0.00000
     28      -1.8430      0.00000
     29      -1.7532      0.00000
     30      -1.6911      0.00000
     31      -1.3051      0.00000
     32      -1.2449      0.00000
     33      -1.0838      0.00000
     34      -0.9695      0.00000
     35      -0.0290      0.00000
     36       2.3564      0.00000

 k-point     5 :       0.4000    0.2000    0.0000
  band No.  band energies     occupation 
      1     -19.2159      1.00000
      2     -19.0619      1.00000
      3     -18.8284      1.00000
      4     -18.5922      1.00000
      5     -18.5232      1.00000
      6     -18.4700      1.00000
      7      -9.7548      1.00000
      8      -8.7118      1.00000
      9      -8.4142      1.00000
     10      -8.2892      1.00000
     11      -8.1590      1.00000
     12      -7.9176      1.00000
     13      -7.7767      1.00000
     14      -7.6020      1.00000
     15      -7.3928      1.00000
     16      -6.9192      1.00000
     17      -6.8212      1.00000
     18      -6.5399      1.00000
     19      -6.4276      1.00000
     20      -6.2367      1.00000
     21      -6.0644      1.00000
     22      -5.8930      1.00000
     23      -5.6959      1.00000
     24      -5.6141      1.00000
     25      -4.3435      1.00000
     26      -2.2226      0.00000
     27      -2.0535      0.00000
     28      -1.8703      0.00000
     29      -1.7527      0.00000
     30      -1.6935      0.00000
     31      -1.2934      0.00000
     32      -1.2149      0.00000
     33      -1.0879      0.00000
     34      -0.9540      0.00000
     35      -0.0451      0.00000
     36       2.9539      0.00000


--------------------------------------------------------------------------------------------------------


 soft charge-density along one line, spin component           1
         0         1         2         3         4         5         6         7         8         9
 total charge-density along one line
 
 soft charge-density along one line, spin component           2
         0         1         2         3         4         5         6         7         8         9
 total charge-density along one line
 
 pseudopotential strength for first ion, spin component:           1
 -9.605   0.195  -0.000   0.036   0.000  -9.933   0.188  -0.000
  0.195  -9.463  -0.000   0.000   0.036   0.188  -9.796  -0.000
 -0.000  -0.000  -9.747  -0.000   0.000  -0.000  -0.000 -10.071
  0.036   0.000  -0.000  -9.463  -0.195   0.035   0.000  -0.000
  0.000   0.036   0.000  -0.195  -9.605   0.000   0.035   0.000
 -9.933   0.188  -0.000   0.035   0.000 -10.224   0.182  -0.000
  0.188  -9.796  -0.000   0.000   0.035   0.182 -10.092  -0.000
 -0.000  -0.000 -10.071  -0.000   0.000  -0.000  -0.000 -10.357
  0.035   0.000  -0.000  -9.796  -0.188   0.034   0.000  -0.000
  0.000   0.035   0.000  -0.188  -9.933   0.000   0.034   0.000
 -0.000  -0.000  -0.001  -0.000   0.000  -0.000  -0.000  -0.001
 -0.000  -0.000  -0.001  -0.000   0.000  -0.000  -0.000  -0.001
 -0.000   0.002  -0.000   0.000  -0.001  -0.000   0.002  -0.000
  0.000   0.000   0.002   0.000   0.000   0.000   0.000   0.002
 -0.001   0.000   0.000   0.002   0.000  -0.001   0.000   0.000
  0.000   0.002  -0.000   0.000  -0.001   0.000   0.002  -0.000
  0.000   0.000   0.003  -0.000   0.000   0.000   0.000   0.003
 -0.001   0.000   0.000   0.002  -0.000  -0.001   0.000   0.000
 pseudopotential strength for first ion, spin component:           2
 -7.956  -0.258   0.000  -0.047   0.000  -8.338  -0.249   0.000
 -0.258  -8.136  -0.000  -0.000  -0.047  -0.249  -8.513  -0.000
  0.000  -0.000  -7.763  -0.000  -0.000   0.000  -0.000  -8.153
 -0.047  -0.000  -0.000  -8.136   0.258  -0.045  -0.000  -0.000
  0.000  -0.047  -0.000   0.258  -7.956   0.000  -0.045  -0.000
 -8.338  -0.249   0.000  -0.045   0.000  -8.683  -0.241   0.000
 -0.249  -8.513  -0.000  -0.000  -0.045  -0.241  -8.851  -0.000
  0.000  -0.000  -8.153  -0.000  -0.000   0.000  -0.000  -8.504
 -0.045  -0.000  -0.000  -8.513   0.249  -0.044  -0.000  -0.000
  0.000  -0.045  -0.000   0.249  -8.338   0.000  -0.044  -0.000
  0.000  -0.000  -0.003  -0.000  -0.000   0.000  -0.000  -0.004
  0.000  -0.000  -0.007  -0.000  -0.000   0.000  -0.000  -0.007
 -0.000   0.000  -0.000   0.000  -0.001  -0.000   0.001  -0.000
  0.000   0.000  -0.000   0.000   0.000   0.000   0.000   0.000
 -0.001   0.000  -0.000   0.000   0.000  -0.001   0.000  -0.000
 -0.000   0.000  -0.000   0.000  -0.001  -0.000   0.000  -0.000
  0.000   0.000  -0.001   0.000   0.000   0.000   0.000  -0.000
 -0.001   0.000  -0.000   0.000   0.000  -0.001   0.000  -0.000
 total augmentation occupancy for first ion, spin component:           1
  3.907  -1.135   0.000  -0.238   0.000  -2.998  -0.049  -0.000   0.037  -0.000   0.000   0.000   0.015   0.000   0.059  -0.001
 -1.135   2.928   0.000   0.000  -0.238  -0.047  -2.799  -0.000  -0.000   0.037   0.000   0.000  -0.011   0.000  -0.026   0.001
  0.000   0.000   4.607  -0.000  -0.000  -0.000  -0.000  -2.806  -0.000   0.000   0.152  -0.017  -0.000  -0.053   0.000   0.000
 -0.238   0.000  -0.000   2.928   1.135   0.037   0.000  -0.000  -2.799   0.047   0.000   0.000   0.026   0.000  -0.011  -0.001
 -0.000  -0.238  -0.000   1.135   3.907   0.000   0.037   0.000   0.049  -2.998  -0.000   0.000   0.059   0.000  -0.015  -0.004
 -2.998  -0.047  -0.000   0.037   0.000   3.039   0.976   0.000   0.127   0.000  -0.000   0.000  -0.022   0.000  -0.065   0.001
 -0.049  -2.799  -0.000   0.000   0.037   0.976   3.451  -0.000  -0.000   0.127   0.000   0.000   0.004   0.000   0.017  -0.000
 -0.000  -0.000  -2.806  -0.000   0.000   0.000  -0.000   2.133   0.000  -0.000  -0.166   0.023   0.000   0.054  -0.000  -0.000
  0.037  -0.000  -0.000  -2.799   0.049   0.127   0.000   0.000   3.451  -0.976   0.000   0.000  -0.017  -0.000   0.004   0.001
 -0.000   0.037   0.000   0.047  -2.998  -0.000   0.127  -0.000  -0.976   3.039   0.000  -0.000  -0.065  -0.000   0.022   0.003
  0.000   0.000   0.152   0.000  -0.000  -0.000   0.000  -0.166   0.000   0.000   1.924  -0.236   0.000   0.003   0.000   0.000
  0.000   0.000  -0.017   0.000   0.000   0.000   0.000   0.023   0.000  -0.000  -0.236   0.037   0.000  -0.002   0.000   0.000
  0.015  -0.011  -0.000   0.026   0.059  -0.022   0.004   0.000  -0.017  -0.065   0.000   0.000   0.301   0.000  -0.000  -0.009
  0.000  -0.000  -0.053   0.000   0.000   0.000   0.000   0.054  -0.000  -0.000   0.003  -0.002   0.000   0.280   0.000   0.000
  0.059  -0.026   0.000  -0.011  -0.015  -0.065   0.017  -0.000   0.004   0.022   0.000   0.000   0.000   0.000   0.301  -0.000
 -0.001   0.001   0.000  -0.001  -0.004   0.001  -0.000  -0.000   0.001   0.003   0.000   0.000  -0.009   0.000  -0.000   0.000
  0.000  -0.000   0.003  -0.000  -0.000   0.000   0.000  -0.002   0.000   0.000  -0.000   0.000   0.000  -0.008  -0.000   0.000
 -0.004   0.001  -0.000   0.001   0.001   0.003  -0.001   0.000  -0.000  -0.001  -0.000  -0.000   0.000  -0.000  -0.009   0.000
 total augmentation occupancy for first ion, spin component:           2
  2.492  -2.090   0.000  -0.377   0.000  -1.087   1.215  -0.000   0.222  -0.003  -0.000  -0.000  -0.001  -0.000   0.004  -0.001
 -2.090   1.048   0.000  -0.000  -0.377   1.220  -0.251  -0.000  -0.003   0.221   0.000  -0.000  -0.009   0.000  -0.017   0.001
  0.000   0.000   3.997  -0.000  -0.000  -0.000  -0.000  -1.962   0.000   0.000   0.008   0.007   0.000  -0.020   0.000   0.000
 -0.377  -0.000  -0.000   1.048   2.090   0.221   0.003   0.000  -0.251  -1.220   0.000   0.000   0.017   0.000  -0.009  -0.000
 -0.000  -0.377  -0.000   2.090   2.492   0.003   0.222   0.000  -1.215  -1.087  -0.000  -0.000   0.004   0.000   0.001  -0.001
 -1.087   1.220  -0.000   0.221   0.003   0.402  -0.755   0.000  -0.141   0.000   0.000   0.000   0.003   0.000  -0.002   0.000
  1.215  -0.251  -0.000   0.003   0.222  -0.755  -0.111   0.000  -0.000  -0.141  -0.000   0.000   0.006   0.000   0.009  -0.000
 -0.000  -0.000  -1.962   0.000   0.000   0.000   0.000   0.957  -0.000  -0.000   0.009  -0.006   0.000   0.011   0.000   0.000
  0.222  -0.003   0.000  -0.251  -1.215  -0.141  -0.000  -0.000  -0.111   0.755   0.000   0.000  -0.009  -0.000   0.006   0.000
 -0.003   0.221   0.000  -1.220  -1.087  -0.000  -0.141  -0.000   0.755   0.402  -0.000   0.000  -0.002  -0.000  -0.003  -0.000
 -0.000   0.000   0.008   0.000  -0.000   0.000  -0.000   0.009   0.000  -0.000  -0.054   0.051  -0.000  -0.001   0.000   0.000
 -0.000  -0.000   0.007   0.000  -0.000   0.000   0.000  -0.006   0.000   0.000   0.051  -0.009   0.000  -0.000   0.000   0.000
 -0.001  -0.009  -0.000   0.017   0.004   0.003   0.006   0.000  -0.009  -0.002  -0.000   0.000   0.015   0.000   0.000   0.002
  0.000   0.000  -0.020   0.000   0.000  -0.000   0.000   0.011  -0.000  -0.000  -0.001  -0.000  -0.000   0.013   0.000   0.000
  0.004  -0.017  -0.000  -0.009   0.001  -0.002   0.009   0.000   0.006  -0.003   0.000   0.000   0.000   0.000   0.015   0.000
 -0.001   0.001   0.000  -0.000  -0.001   0.000  -0.000   0.000   0.000  -0.000   0.000   0.000   0.002   0.000   0.000  -0.000
  0.000   0.000   0.001  -0.000  -0.000   0.000  -0.000  -0.001   0.000   0.000   0.000  -0.000   0.000   0.001   0.000  -0.000
 -0.001   0.000  -0.000   0.001   0.001  -0.000  -0.000   0.000  -0.000  -0.000   0.000  -0.000  -0.000   0.000   0.002  -0.000


------------------------ aborting loop because EDIFF is reached ----------------------------------------


    CHARGE:  cpu time      0.0720: real time      0.0724
    FORLOC:  cpu time      0.0069: real time      0.0070
    FORNL :  cpu time      0.2721: real time      0.2748
    STRESS:  cpu time      0.8247: real time      0.8327
    FORCOR:  cpu time      0.1390: real time      0.1398
    FORHAR:  cpu time      0.0200: real time      0.0201
    MIXING:  cpu time      0.0070: real time      0.0070
    OFIELD:  cpu time      0.0001: real time      0.0000

 ---------------------------------------------------------------------------------------------

         DFTD3 V3.0 Rev 1        
 Edisp (eV)   -1.42660

 E6    (eV) :    -0.8695
 E8    (eV) :    -0.5571
 % E8        : 39.05
    FORVDW:  cpu time      0.0126: real time      0.0127

  FORCE on cell =-STRESS in cart. coord.  units (eV):
  Direction    XX          YY          ZZ          XY          YZ          ZX
  --------------------------------------------------------------------------------------
  Alpha Z    27.90262    27.90262    27.90262
  Ewald    8160.52508  8160.52508 -9884.51421    -0.00000     0.00000    -0.00000
  Hartree  8767.27126  8767.27126 -8399.95646    -0.00000     0.00000     0.00000
  E(xc)    -211.84991  -211.84991  -213.27072    -0.00000    -0.00000    -0.00000
  Local  -17957.46852-17957.46842 17245.57945     0.00008     0.00000     0.00000
  n-local   473.31071   473.59624   474.64778    -0.25915     0.17039     0.07714
  augment   -59.54466   -59.54474   -59.69534    -0.00094     0.00000    -0.00000
  Kinetic   801.64812   801.10758   809.66243     0.32330    -0.10498    -0.12120
  Fock        0.00000     0.00000     0.00000     0.00000     0.00000     0.00000
  vdW        -1.56201    -1.56201    -0.47186    -0.00000    -0.00000    -0.00000
  -------------------------------------------------------------------------------------
  Total       0.10519     0.10519    -0.11631     0.00001     0.00000     0.00000
  in kB       0.26617     0.26617    -0.29429     0.00002     0.00000     0.00000
  external pressure =        0.08 kB  Pullay stress =        0.00 kB


 VOLUME and BASIS-vectors are now :
 -----------------------------------------------------------------------------
  energy-cutoff  :      400.00
  volume of cell :      633.19
      direct lattice vectors                 reciprocal lattice vectors
     6.046274499  0.000000000  0.000000000     0.165391102  0.095488597  0.000000000
    -3.023137249  5.236227314  0.000000000     0.000000000  0.190977194  0.000000000
     0.000000000  0.000000000 20.000000000     0.000000000  0.000000000  0.050000000

  length of vectors
     6.046274499  6.046274499 20.000000000     0.190977194  0.190977194  0.050000000


 FORCES acting on ions
    electron-ion (+dipol)            ewald-force                    non-local-force                 convergence-correction
 -----------------------------------------------------------------------------------------------
   0.614E-07 -.360E-06 0.312E+02   -.348E-11 0.204E-11 -.316E+02   0.192E-17 0.610E-18 0.418E+00   -.108E-09 -.287E-09 0.357E-05
   0.432E-06 0.146E-05 -.208E+02   0.400E-11 -.228E-11 0.200E+02   -.484E-18 0.496E-18 0.826E+00   -.316E-09 -.591E-09 0.157E-04
   0.696E+02 -.716E+00 0.498E+03   -.715E+02 0.918E+00 -.501E+03   0.198E+01 -.209E+00 0.296E+01   0.100E-04 -.223E-04 0.504E-04
   -.342E+02 0.606E+02 0.498E+03   0.350E+02 -.624E+02 -.501E+03   -.808E+00 0.182E+01 0.296E+01   0.143E-04 0.198E-04 0.504E-04
   -.354E+02 -.599E+02 0.498E+03   0.366E+02 0.615E+02 -.501E+03   -.117E+01 -.161E+01 0.296E+01   -.243E-04 0.246E-05 0.504E-04
   -.761E+02 0.288E+01 -.466E+03   0.790E+02 -.409E+01 0.468E+03   -.288E+01 0.121E+01 -.274E+01   0.184E-04 -.518E-05 0.298E-05
   0.356E+02 -.674E+02 -.466E+03   -.360E+02 0.705E+02 0.468E+03   0.386E+00 -.310E+01 -.274E+01   -.473E-05 0.185E-04 0.298E-05
   0.406E+02 0.645E+02 -.466E+03   -.430E+02 -.664E+02 0.468E+03   0.249E+01 0.188E+01 -.274E+01   -.137E-04 -.134E-04 0.298E-05
   -.810E-08 -.168E-06 -.107E+03   0.107E-11 -.628E-12 0.109E+03   0.225E-18 -.869E-19 -.247E+01   -.176E-09 -.414E-09 0.141E-05
 -----------------------------------------------------------------------------------------------
   0.334E-06 0.549E-06 0.570E+00   -.360E-13 -.244E-14 -.142E-13   0.444E-15 0.222E-15 -.570E+00   -.386E-08 -.832E-08 0.181E-03
 
 
 POSITION                                       TOTAL-FORCE (eV/Angst)
 -----------------------------------------------------------------------------------
      0.00000      3.49082      9.93086         0.000000      0.000000      0.001471
      3.02314      1.74541     10.11724         0.000000     -0.000000      0.022658
      2.19886      0.04362      8.67997         0.008488     -0.005405     -0.008063
      4.90906      1.88246      8.67997         0.000437      0.010053     -0.008063
      1.96149      3.31014      8.67997        -0.008925     -0.004648     -0.008063
      0.98567      5.14061     11.26619         0.011767      0.002516      0.001960
     -1.92160      3.51954     11.26619        -0.008062      0.008933      0.001960
      0.93593      1.81231     11.26619        -0.003705     -0.011449      0.001960
      3.02314      1.74541     11.66342         0.000000      0.000000     -0.005821
 -----------------------------------------------------------------------------------
    total drift:                                0.000000      0.000001     -0.000609


--------------------------------------------------------------------------------------------------------



  FREE ENERGIE OF THE ION-ELECTRON SYSTEM (eV)
  ---------------------------------------------------
  free  energy   TOTEN  =       -42.24050102 eV

  energy  without entropy=      -42.24050102  energy(sigma->0) =      -42.24050102
 d Force = 0.1420153E-03[ 0.112E-03, 0.172E-03]  d Energy = 0.1379578E-03 0.406E-05
 d Force = 0.6761592E+00[ 0.677E+00, 0.676E+00]  d Ewald  = 0.6761593E+00-0.142E-06
 


--------------------------------------------------------------------------------------------------------


    POTLOK:  cpu time      0.2654: real time      0.2667


--------------------------------------------------------------------------------------------------------


 Conjugate gradient step on ions:
 trial-energy change:   -0.000138  1 .order   -0.000142   -0.000172   -0.000112
  (g-gl).g = 0.135E-03      g.g   = 0.137E-03  gl.gl    = 0.210E-03
 g(Force)  = 0.137E-03   g(Stress)= 0.000E+00 ortho     = 0.374E-05
 gamma     =   0.64556
 trial     =   1.23725
 opt step  =   3.52144  (harmonic =   3.52144) maximal distance =0.00493126
 next E    =   -42.240608   (d E  =  -0.00025)


--------------------------------------------------------------------------------------------------------


  
 reached required accuracy - stopping structural energy minimisation
     LOOP+:  cpu time     23.8213: real time     24.0186
 vacuum level on the upper side and lower side of the slab         2.134         2.468
    4ORBIT:  cpu time      0.0000: real time      0.0000

 total amount of memory used by VASP MPI-rank0    56042. kBytes
=======================================================================

   base                                    :      30000. kBytes
   nonlr-proj                              :       1846. kBytes
   fftplans                                :       5464. kBytes
   grid                                    :      14406. kBytes
   one-center                              :         93. kBytes
   wavefun                                 :       4233. kBytes
 
  
  
 General timing and accounting informations for this job:
 ========================================================
  
                  Total CPU time used (sec):      153.430
                            User time (sec):      153.014
                          System time (sec):        0.416
                         Elapsed time (sec):      155.157
  
                   Maximum memory used (kb):      240244.
                   Average memory used (kb):          N/A
  
                          Minor page faults:        30576
                          Major page faults:           37
                 Voluntary context switches:         1347
