CrCl3 3x3 yes_vdw S3 (top_Cr) - OPTIMIZED
   1.0000000000000000     
    18.1388234955739875    0.0000000000000000    0.0000000000000000
    -9.0694117477869938   15.7086819419291253    0.0000000000000000
     0.0000000000000000    0.0000000000000000   20.0000000000000000
   Cr   Cl   H 
    18    54     1
Direct
  0.1090654470992574  0.2218592964027739  0.4983682363119850
  0.2201030181865906  0.1113246135729220  0.4996224650982636
  0.1111111111111143  0.5555555555555571  0.5000432633849538
  0.2218194347844635  0.4440915494831524  0.4996404377959565
  0.1118612591900241  0.8894791934242827  0.4999527740487875
  0.2225751171835121  0.7777278853013113  0.4996404377959565
  0.4444444444444429  0.2222222222222214  0.5110107712482334
  0.5553420530937497  0.1087784046136758  0.4996224650982636
  0.4442846009009302  0.5548054074766473  0.4999527740487875
  0.5578882620529955  0.4465636484800737  0.4996224650982636
  0.4448073702638902  0.8872061506964762  0.4983682363119850
  0.5556845538194147  0.7765467870478033  0.4992816133650647
  0.7771874732423816  0.2223820657657341  0.4999527740487875
  0.8875288998950531  0.1109821128472568  0.4992816133650647
  0.7794605159701881  0.5576012195674140  0.4983682363119850
  0.8889387813653530  0.4448472318822007  0.4996404377959565
  0.7777777777777786  0.8888888888888857  0.4996046414183126
  0.8901198796188610  0.7791377667716112  0.4992816133650647
  0.1185473671496123  0.3339748532272348  0.4327852960765513
  0.3355646705665032  0.1214249302870081  0.4396572926762892
  0.2113154010244821  0.2127560465405526  0.4317694725723897
  0.2124040805683425  0.3320072420893685  0.5652358513652030
 -0.0012834903551087  0.2144114067009217  0.5651013449541612
  0.1145733040123881  0.1172654015557039  0.5640478800157316
  0.1188769519341175  0.6665998928933868  0.4338900185371519
  0.3329945024243107  0.4515085026130423  0.4340015887345499
  0.2143896076259407  0.5477897147325468  0.4338900185371519
  0.2140381704269564  0.6667144868892383  0.5662527694397048
 -0.0000478202225742  0.5473236835377108  0.5662527694397048
  0.1193429831289535  0.4526284962397151  0.5662527694397048
  0.1199453359520659 -0.0004424252665639  0.4325785237624379
  0.3326918134394366  0.7845725139223777  0.4327852960765513
  0.2151581640536291  0.8814859998112687  0.4340015887345499
  0.2126990891694380  0.0011115466636756  0.5670730858130772
  0.0006413572003679  0.8815732687098942  0.5659200361033513
  0.1205341191854410  0.7869416105334184  0.5664657184964308
  0.4525269263871763  0.3311019961001682  0.4396572926762892
  0.6671090919332285  0.1203877612186298  0.4325785237624379
  0.5452417363796566  0.2141397402794951  0.4396572926762892
  0.5583849505706413  0.3410116870238172  0.5665420438149910
  0.3256549796428542  0.2173732635468314  0.5665420438149910
  0.4492934031198400  0.1082817160960228  0.5665420438149910
  0.4522556180416724  0.6654040798672141  0.4333760838158547
  0.6681073121827349  0.4553512656421893  0.4317694725723897
  0.5462789054480346  0.5467213307145984  0.4325785237624379
  0.5475985781761911  0.6660253094662963  0.5659200361033513
  0.3330741580146484  0.5461325474812233  0.5664657184964308
  0.4550791241609092  0.4539675774972334  0.5670730858130772
  0.4539106201261189 -0.0014406455160704  0.4317694725723897
  0.6672262390005490  0.7849993006624004  0.4334948776692722
  0.5470693951676981  0.8782990853232542  0.4319706774481893
  0.5494012651109605 -0.0026920975433160  0.5640478800157316
  0.3346594245773029  0.8803968384789740  0.5652358513652030
  0.4522552599657498  0.7843051029439695  0.5651013449541612
  0.7851806668553956  0.3336721642423607  0.4340015887345499
 -0.0021036431777795  0.1195972714989663  0.4319706774481893
  0.8798151284922128  0.2144110486249991  0.4333760838158547
  0.8797250561332459  0.3335925086520230  0.5664657184964308
  0.6655551200029884  0.2115875425057624  0.5670730858130772
  0.7850933979567701  0.1190680884904734  0.5659200361033513
  0.7883675813434101  0.6687703098444439  0.4319706774481893
  0.0000667737732775  0.4522770590407306  0.4338900185371519
  0.8820941527442866  0.5481192995170520  0.4327852960765513
  0.8823615637226948  0.6679501570217727  0.5651013449541612
  0.6693587642099800  0.5520933626542766  0.5640478800157316
  0.7862698281876903  0.4542625860983289  0.5652358513652030
  0.7844397283285153 -0.0005595723338848  0.4334948776692722
  0.0012625867994504  0.7868515381744515  0.4333760838158547
  0.8816673660042639  0.8822269383381490  0.4334948776692722
  0.8801546270607069  0.0004239718383148  0.5658150892846051
  0.6662426948283496  0.8797306552223926  0.5658150892846051
  0.7869360114442717  0.7865120396059574  0.5658150892846051
  0.4444444444444429  0.2222222222222214  0.5883117923485024

  0.00000000E+00  0.00000000E+00  0.00000000E+00
  0.00000000E+00  0.00000000E+00  0.00000000E+00
  0.00000000E+00  0.00000000E+00  0.00000000E+00
  0.00000000E+00  0.00000000E+00  0.00000000E+00
  0.00000000E+00  0.00000000E+00  0.00000000E+00
  0.00000000E+00  0.00000000E+00  0.00000000E+00
  0.00000000E+00  0.00000000E+00  0.00000000E+00
  0.00000000E+00  0.00000000E+00  0.00000000E+00
  0.00000000E+00  0.00000000E+00  0.00000000E+00
  0.00000000E+00  0.00000000E+00  0.00000000E+00
  0.00000000E+00  0.00000000E+00  0.00000000E+00
  0.00000000E+00  0.00000000E+00  0.00000000E+00
  0.00000000E+00  0.00000000E+00  0.00000000E+00
  0.00000000E+00  0.00000000E+00  0.00000000E+00
  0.00000000E+00  0.00000000E+00  0.00000000E+00
  0.00000000E+00  0.00000000E+00  0.00000000E+00
  0.00000000E+00  0.00000000E+00  0.00000000E+00
  0.00000000E+00  0.00000000E+00  0.00000000E+00
  0.00000000E+00  0.00000000E+00  0.00000000E+00
  0.00000000E+00  0.00000000E+00  0.00000000E+00
  0.00000000E+00  0.00000000E+00  0.00000000E+00
  0.00000000E+00  0.00000000E+00  0.00000000E+00
  0.00000000E+00  0.00000000E+00  0.00000000E+00
  0.00000000E+00  0.00000000E+00  0.00000000E+00
  0.00000000E+00  0.00000000E+00  0.00000000E+00
  0.00000000E+00  0.00000000E+00  0.00000000E+00
  0.00000000E+00  0.00000000E+00  0.00000000E+00
  0.00000000E+00  0.00000000E+00  0.00000000E+00
  0.00000000E+00  0.00000000E+00  0.00000000E+00
  0.00000000E+00  0.00000000E+00  0.00000000E+00
  0.00000000E+00  0.00000000E+00  0.00000000E+00
  0.00000000E+00  0.00000000E+00  0.00000000E+00
  0.00000000E+00  0.00000000E+00  0.00000000E+00
  0.00000000E+00  0.00000000E+00  0.00000000E+00
  0.00000000E+00  0.00000000E+00  0.00000000E+00
  0.00000000E+00  0.00000000E+00  0.00000000E+00
  0.00000000E+00  0.00000000E+00  0.00000000E+00
  0.00000000E+00  0.00000000E+00  0.00000000E+00
  0.00000000E+00  0.00000000E+00  0.00000000E+00
  0.00000000E+00  0.00000000E+00  0.00000000E+00
  0.00000000E+00  0.00000000E+00  0.00000000E+00
  0.00000000E+00  0.00000000E+00  0.00000000E+00
  0.00000000E+00  0.00000000E+00  0.00000000E+00
  0.00000000E+00  0.00000000E+00  0.00000000E+00
  0.00000000E+00  0.00000000E+00  0.00000000E+00
  0.00000000E+00  0.00000000E+00  0.00000000E+00
  0.00000000E+00  0.00000000E+00  0.00000000E+00
  0.00000000E+00  0.00000000E+00  0.00000000E+00
  0.00000000E+00  0.00000000E+00  0.00000000E+00
  0.00000000E+00  0.00000000E+00  0.00000000E+00
  0.00000000E+00  0.00000000E+00  0.00000000E+00
  0.00000000E+00  0.00000000E+00  0.00000000E+00
  0.00000000E+00  0.00000000E+00  0.00000000E+00
  0.00000000E+00  0.00000000E+00  0.00000000E+00
  0.00000000E+00  0.00000000E+00  0.00000000E+00
  0.00000000E+00  0.00000000E+00  0.00000000E+00
  0.00000000E+00  0.00000000E+00  0.00000000E+00
  0.00000000E+00  0.00000000E+00  0.00000000E+00
  0.00000000E+00  0.00000000E+00  0.00000000E+00
  0.00000000E+00  0.00000000E+00  0.00000000E+00
  0.00000000E+00  0.00000000E+00  0.00000000E+00
  0.00000000E+00  0.00000000E+00  0.00000000E+00
  0.00000000E+00  0.00000000E+00  0.00000000E+00
  0.00000000E+00  0.00000000E+00  0.00000000E+00
  0.00000000E+00  0.00000000E+00  0.00000000E+00
  0.00000000E+00  0.00000000E+00  0.00000000E+00
  0.00000000E+00  0.00000000E+00  0.00000000E+00
  0.00000000E+00  0.00000000E+00  0.00000000E+00
  0.00000000E+00  0.00000000E+00  0.00000000E+00
  0.00000000E+00  0.00000000E+00  0.00000000E+00
  0.00000000E+00  0.00000000E+00  0.00000000E+00
  0.00000000E+00  0.00000000E+00  0.00000000E+00
  0.00000000E+00  0.00000000E+00  0.00000000E+00
