Cr2Cl6 Monolayer 1x1 Primitive Cell     
   1.0000000000000000     
     6.0650313499061879    0.0000000000000000    0.0000000000000000
    -3.0325156749530939    5.2524712237677855    0.0000000000000000
     0.0000000000000000    0.0000000000000000   17.6700000000000017
  Cr              Cl            
     2     6
Direct
     0.3333333333333357    0.6666666666666643    0.5000000000000000
     0.6666666666666643    0.3333333333333357    0.5000000000000000
     0.3544100346784645    0.0000000000000000    0.4230480617420218
     0.0000000000000000    0.3544100346784645    0.4230480617420218
     0.6455899653215356    0.6455899653215356    0.4230480617420218
     0.6455899653215356    0.0000000000000000    0.5769519382579782
     0.0000000000000000    0.6455899653215356    0.5769519382579782
     0.3544100346784645    0.3544100346784645    0.5769519382579782

  0.00000000E+00  0.00000000E+00  0.00000000E+00
  0.00000000E+00  0.00000000E+00  0.00000000E+00
  0.00000000E+00  0.00000000E+00  0.00000000E+00
  0.00000000E+00  0.00000000E+00  0.00000000E+00
  0.00000000E+00  0.00000000E+00  0.00000000E+00
  0.00000000E+00  0.00000000E+00  0.00000000E+00
  0.00000000E+00  0.00000000E+00  0.00000000E+00
  0.00000000E+00  0.00000000E+00  0.00000000E+00
