Cr2Cl6 Monolayer 1x1 Primitive Cell     
   1.0000000000000000     
     6.0642284582619013    0.0000000000000000    0.0000000000000000
    -3.0321142291309506    5.2517758992073471    0.0000000000000000
     0.0000000000000000    0.0000000000000000   17.6700000000000017
  Cr              Cl            
     2     6
Direct
     0.3333333333333357    0.6666666666666643    0.5000000000000000
     0.6666666666666643    0.3333333333333357    0.5000000000000000
     0.3544074347081334    0.0000000000000000    0.4230472847110316
     0.0000000000000000    0.3544074347081334    0.4230472847110316
     0.6455925652918667    0.6455925652918667    0.4230472847110316
     0.6455925652918667    0.0000000000000000    0.5769527152889684
     0.0000000000000000    0.6455925652918667    0.5769527152889684
     0.3544074347081334    0.3544074347081334    0.5769527152889684

  0.00000000E+00  0.00000000E+00  0.00000000E+00
  0.00000000E+00  0.00000000E+00  0.00000000E+00
  0.00000000E+00  0.00000000E+00  0.00000000E+00
  0.00000000E+00  0.00000000E+00  0.00000000E+00
  0.00000000E+00  0.00000000E+00  0.00000000E+00
  0.00000000E+00  0.00000000E+00  0.00000000E+00
  0.00000000E+00  0.00000000E+00  0.00000000E+00
  0.00000000E+00  0.00000000E+00  0.00000000E+00
