       N       E                     dE             d eps       ncg     rms          rms(c)
DAV:   1     0.567745819795E+03    0.56775E+03   -0.17294E+04  2304   0.110E+03
DAV:   2     0.101430184747E+03   -0.46632E+03   -0.44238E+03  3064   0.253E+02
DAV:   3    -0.289065308078E+02   -0.13034E+03   -0.12777E+03  3288   0.143E+02
DAV:   4    -0.365997903668E+02   -0.76933E+01   -0.76042E+01  3044   0.478E+01
DAV:   5    -0.368576899248E+02   -0.25790E+00   -0.25628E+00  3276   0.891E+00    0.196E+01
DAV:   6    -0.347383501651E+02    0.21193E+01   -0.41112E+01  3424   0.618E+01    0.187E+01
DAV:   7    -0.344169302735E+02    0.32142E+00   -0.42502E+00  3392   0.363E+01    0.944E+00
DAV:   8    -0.345782330475E+02   -0.16130E+00   -0.87992E-01  3048   0.480E+00    0.469E+00
DAV:   9    -0.345968281865E+02   -0.18595E-01   -0.17481E-01  3476   0.733E+00    0.114E+00
DAV:  10    -0.346062377818E+02   -0.94096E-02   -0.48255E-02  3440   0.277E+00    0.428E-01
DAV:  11    -0.346174438271E+02   -0.11206E-01   -0.22396E-03  3288   0.352E-01    0.289E-01
DAV:  12    -0.346280006471E+02   -0.10557E-01   -0.11715E-03  3488   0.324E-01    0.166E-01
DAV:  13    -0.346355355181E+02   -0.75349E-02   -0.35856E-04  2848   0.120E-01    0.555E-02
DAV:  14    -0.346384055425E+02   -0.28700E-02   -0.10520E-04  3212   0.173E-01    0.383E-02
DAV:  15    -0.346398576553E+02   -0.14521E-02   -0.21741E-05  2956   0.340E-02    0.222E-02
DAV:  16    -0.346449552298E+02   -0.50976E-02   -0.41964E-05  3028   0.599E-02    0.138E-02
DAV:  17    -0.346462964334E+02   -0.13412E-02   -0.15286E-05  2792   0.225E-02    0.134E-02
DAV:  18    -0.346466532015E+02   -0.35677E-03   -0.60575E-06  2412   0.177E-02    0.806E-03
DAV:  19    -0.346467639451E+02   -0.11074E-03   -0.51789E-06  2188   0.158E-02    0.372E-03
DAV:  20    -0.346467582855E+02    0.56595E-05   -0.44120E-06  2164   0.937E-03    0.359E-03
DAV:  21    -0.346467427059E+02    0.15580E-04   -0.57167E-07  1852   0.473E-03    0.271E-03
DAV:  22    -0.346467838851E+02   -0.41179E-04   -0.51769E-07  1556   0.562E-03    0.281E-03
DAV:  23    -0.346467948136E+02   -0.10928E-04   -0.20453E-07  1680   0.330E-03    0.147E-03
DAV:  24    -0.346468086753E+02   -0.13862E-04   -0.13783E-07  1548   0.377E-03    0.146E-03
DAV:  25    -0.346468237728E+02   -0.15098E-04   -0.29697E-07  1704   0.238E-03    0.566E-04
DAV:  26    -0.346468285844E+02   -0.48116E-05   -0.28221E-07  1696   0.202E-03    0.602E-04
DAV:  27    -0.346468288999E+02   -0.31553E-06   -0.62334E-08  1552   0.191E-03
   1 F= -.35566021E+02 E0= -.35566021E+02  d E =-.355660E+02  mag=     6.0000
       N       E                     dE             d eps       ncg     rms          rms(c)
DAV:   1    -0.346799909275E+02   -0.33162E-01   -0.14369E+00  2640   0.661E+00    0.133E+00
DAV:   2    -0.346647368168E+02    0.15254E-01   -0.11864E-01  3472   0.271E+00    0.638E-01
DAV:   3    -0.346603390405E+02    0.43978E-02   -0.15843E-02  3324   0.173E+00    0.521E-01
DAV:   4    -0.346594884507E+02    0.85059E-03   -0.18699E-03  3572   0.349E-01    0.232E-01
DAV:   5    -0.346590899352E+02    0.39852E-03   -0.97284E-04  3204   0.153E-01    0.149E-01
DAV:   6    -0.346590671259E+02    0.22809E-04   -0.17884E-04  3420   0.240E-01    0.635E-02
DAV:   7    -0.346590962848E+02   -0.29159E-04   -0.66024E-05  3540   0.124E-01    0.178E-02
DAV:   8    -0.346591320778E+02   -0.35793E-04   -0.18090E-05  2916   0.201E-02    0.126E-02
DAV:   9    -0.346591825106E+02   -0.50433E-04   -0.13956E-06  1744   0.166E-02    0.586E-03
DAV:  10    -0.346591947735E+02   -0.12263E-04   -0.91373E-07  1652   0.121E-02    0.188E-03
DAV:  11    -0.346592066956E+02   -0.11922E-04   -0.91935E-07  1608   0.641E-03    0.217E-03
DAV:  12    -0.346592129521E+02   -0.62565E-05   -0.42227E-07  1616   0.609E-03    0.123E-03
DAV:  13    -0.346592317479E+02   -0.18796E-04   -0.19592E-06  2076   0.500E-03    0.489E-04
DAV:  14    -0.346592361281E+02   -0.43802E-05   -0.26064E-07  1736   0.276E-03    0.573E-04
DAV:  15    -0.346592368323E+02   -0.70423E-06   -0.10853E-07  1448   0.243E-03
   2 F= -.35571736E+02 E0= -.35571736E+02  d E =-.571567E-02  mag=     6.0000
       N       E                     dE             d eps       ncg     rms          rms(c)
DAV:   1    -0.346588700266E+02    0.36610E-03   -0.32358E-02  2728   0.990E-01    0.202E-01
DAV:   2    -0.346585223726E+02    0.34765E-03   -0.27083E-03  3484   0.408E-01    0.955E-02
DAV:   3    -0.346584199437E+02    0.10243E-03   -0.35306E-04  3344   0.257E-01    0.771E-02
DAV:   4    -0.346584008157E+02    0.19128E-04   -0.40331E-05  3584   0.522E-02    0.347E-02
DAV:   5    -0.346583936863E+02    0.71294E-05   -0.22225E-05  3036   0.223E-02    0.224E-02
DAV:   6    -0.346584004594E+02   -0.67731E-05   -0.36274E-06  2268   0.364E-02    0.892E-03
DAV:   7    -0.346584055438E+02   -0.50844E-05   -0.12801E-06  1684   0.208E-02    0.295E-03
DAV:   8    -0.346584087717E+02   -0.32279E-05   -0.15760E-06  1420   0.714E-03    0.229E-03
DAV:   9    -0.346584114805E+02   -0.27089E-05   -0.37549E-07  1416   0.581E-03    0.166E-03
DAV:  10    -0.346584140784E+02   -0.25979E-05   -0.14146E-07  1384   0.373E-03    0.128E-03
DAV:  11    -0.346584155845E+02   -0.15060E-05   -0.82182E-08  1436   0.316E-03    0.730E-04
DAV:  12    -0.346584162070E+02   -0.62254E-06   -0.42306E-08  1452   0.161E-03
   3 F= -.35571920E+02 E0= -.35571920E+02  d E =-.589893E-02  mag=     6.0000
       N       E                     dE             d eps       ncg     rms          rms(c)
DAV:   1    -0.346580266763E+02    0.38891E-03   -0.21861E-02  2612   0.697E-01    0.104E-01
DAV:   2    -0.346580068284E+02    0.19848E-04   -0.20391E-03  3328   0.266E-01    0.508E-02
DAV:   3    -0.346579746294E+02    0.32199E-04   -0.75684E-05  3092   0.131E-01    0.448E-02
DAV:   4    -0.346579683228E+02    0.63066E-05   -0.15865E-05  3224   0.361E-02    0.228E-02
DAV:   5    -0.346579656813E+02    0.26415E-05   -0.14522E-05  3352   0.248E-02    0.145E-02
DAV:   6    -0.346579662904E+02   -0.60914E-06   -0.17566E-06  1888   0.269E-02
   4 F= -.35572136E+02 E0= -.35572136E+02  d E =-.216939E-03  mag=     6.0000
       N       E                     dE             d eps       ncg     rms          rms(c)
DAV:   1    -0.346567943402E+02    0.11713E-02   -0.19633E-01  2600   0.209E+00    0.312E-01
DAV:   2    -0.346566520468E+02    0.14229E-03   -0.18509E-02  3312   0.802E-01    0.153E-01
DAV:   3    -0.346563583041E+02    0.29374E-03   -0.67949E-04  3136   0.396E-01    0.135E-01
DAV:   4    -0.346562987987E+02    0.59505E-04   -0.14551E-04  3284   0.109E-01    0.688E-02
DAV:   5    -0.346562611220E+02    0.37677E-04   -0.13181E-04  3376   0.755E-02    0.440E-02
DAV:   6    -0.346562573609E+02    0.37611E-05   -0.22034E-05  3460   0.809E-02    0.213E-02
DAV:   7    -0.346562598283E+02   -0.24674E-05   -0.28137E-06  2088   0.151E-02    0.820E-03
DAV:   8    -0.346562616326E+02   -0.18043E-05   -0.17289E-06  1732   0.955E-03    0.465E-03
DAV:   9    -0.346562629056E+02   -0.12730E-05   -0.48826E-07  1488   0.881E-03    0.198E-03
DAV:  10    -0.346562641381E+02   -0.12325E-05   -0.24071E-07  1472   0.357E-03    0.131E-03
DAV:  11    -0.346562651392E+02   -0.10011E-05   -0.57498E-08  1484   0.229E-03    0.503E-04
DAV:  12    -0.346562657483E+02   -0.60908E-06   -0.31517E-08  1448   0.137E-03
   5 F= -.35572431E+02 E0= -.35572431E+02  d E =-.511569E-03  mag=     6.0000
