       N       E                     dE             d eps       ncg     rms          rms(c)
DAV:   1     0.524489002984E+03    0.52449E+03   -0.15611E+04  2304   0.922E+02
DAV:   2     0.893067486503E+02   -0.43518E+03   -0.41350E+03  2976   0.243E+02
DAV:   3    -0.294824861121E+02   -0.11879E+03   -0.11613E+03  3260   0.133E+02
DAV:   4    -0.366219451359E+02   -0.71395E+01   -0.70139E+01  3112   0.453E+01
DAV:   5    -0.368575306450E+02   -0.23559E+00   -0.23493E+00  3304   0.818E+00    0.196E+01
DAV:   6    -0.346670924491E+02    0.21904E+01   -0.41015E+01  3420   0.608E+01    0.186E+01
DAV:   7    -0.344162828997E+02    0.25081E+00   -0.42995E+00  3408   0.358E+01    0.941E+00
DAV:   8    -0.345809706754E+02   -0.16469E+00   -0.88039E-01  3052   0.479E+00    0.471E+00
DAV:   9    -0.345923796577E+02   -0.11409E-01   -0.17440E-01  3448   0.723E+00    0.113E+00
DAV:  10    -0.346035082306E+02   -0.11129E-01   -0.49239E-02  3416   0.278E+00    0.424E-01
DAV:  11    -0.346118563312E+02   -0.83481E-02   -0.22223E-03  3248   0.342E-01    0.290E-01
DAV:  12    -0.346238053273E+02   -0.11949E-01   -0.10783E-03  3452   0.310E-01    0.168E-01
DAV:  13    -0.346339629293E+02   -0.10158E-01   -0.34427E-04  2836   0.112E-01    0.549E-02
DAV:  14    -0.346376439378E+02   -0.36810E-02   -0.10202E-04  3216   0.173E-01    0.377E-02
DAV:  15    -0.346392205828E+02   -0.15766E-02   -0.20975E-05  2868   0.325E-02    0.225E-02
DAV:  16    -0.346437292554E+02   -0.45087E-02   -0.32099E-05  3148   0.532E-02    0.134E-02
DAV:  17    -0.346450555444E+02   -0.13263E-02   -0.15091E-05  2716   0.229E-02    0.128E-02
DAV:  18    -0.346454098887E+02   -0.35434E-03   -0.54822E-06  2536   0.168E-02    0.842E-03
DAV:  19    -0.346455150937E+02   -0.10521E-03   -0.39468E-06  2100   0.143E-02    0.384E-03
DAV:  20    -0.346455001765E+02    0.14917E-04   -0.46700E-06  2164   0.877E-03    0.377E-03
DAV:  21    -0.346454984415E+02    0.17350E-05   -0.42445E-07  1792   0.522E-03    0.270E-03
DAV:  22    -0.346455319041E+02   -0.33463E-04   -0.47032E-07  1636   0.659E-03    0.283E-03
DAV:  23    -0.346455527015E+02   -0.20797E-04   -0.27779E-07  1632   0.398E-03    0.155E-03
DAV:  24    -0.346455626689E+02   -0.99674E-05   -0.16579E-07  1644   0.285E-03    0.138E-03
DAV:  25    -0.346455842863E+02   -0.21617E-04   -0.48438E-07  1728   0.325E-03    0.153E-03
DAV:  26    -0.346455863203E+02   -0.20340E-05   -0.16332E-07  1744   0.335E-03    0.812E-04
DAV:  27    -0.346455866477E+02   -0.32742E-06   -0.87962E-08  1512   0.179E-03
   1 F= -.35564778E+02 E0= -.35564778E+02  d E =-.355648E+02  mag=     6.0000
       N       E                     dE             d eps       ncg     rms          rms(c)
DAV:   1    -0.346800189282E+02   -0.34433E-01   -0.14847E+00  2608   0.667E+00    0.135E+00
DAV:   2    -0.346638872325E+02    0.16132E-01   -0.12267E-01  3480   0.273E+00    0.649E-01
DAV:   3    -0.346594090038E+02    0.44782E-02   -0.16664E-02  3292   0.175E+00    0.535E-01
DAV:   4    -0.346585823666E+02    0.82664E-03   -0.19647E-03  3576   0.353E-01    0.236E-01
DAV:   5    -0.346581841530E+02    0.39821E-03   -0.10062E-03  3216   0.157E-01    0.151E-01
DAV:   6    -0.346581663508E+02    0.17802E-04   -0.17982E-04  3424   0.237E-01    0.645E-02
DAV:   7    -0.346581952239E+02   -0.28873E-04   -0.67977E-05  3516   0.124E-01    0.178E-02
DAV:   8    -0.346582325376E+02   -0.37314E-04   -0.18726E-05  2896   0.202E-02    0.126E-02
DAV:   9    -0.346582843264E+02   -0.51789E-04   -0.14106E-06  1764   0.161E-02    0.594E-03
DAV:  10    -0.346582981059E+02   -0.13779E-04   -0.92507E-07  1656   0.115E-02    0.191E-03
DAV:  11    -0.346583111269E+02   -0.13021E-04   -0.95936E-07  1616   0.623E-03    0.227E-03
DAV:  12    -0.346583172076E+02   -0.60807E-05   -0.42048E-07  1616   0.588E-03    0.120E-03
DAV:  13    -0.346583369654E+02   -0.19758E-04   -0.20434E-06  2080   0.485E-03    0.481E-04
DAV:  14    -0.346583412258E+02   -0.42604E-05   -0.25685E-07  1728   0.258E-03    0.626E-04
DAV:  15    -0.346583419453E+02   -0.71951E-06   -0.10792E-07  1440   0.232E-03
   2 F= -.35570702E+02 E0= -.35570702E+02  d E =-.592412E-02  mag=     6.0000
       N       E                     dE             d eps       ncg     rms          rms(c)
DAV:   1    -0.346579761684E+02    0.36506E-03   -0.32676E-02  2712   0.988E-01    0.203E-01
DAV:   2    -0.346576153580E+02    0.36081E-03   -0.27403E-03  3472   0.406E-01    0.959E-02
DAV:   3    -0.346575135794E+02    0.10178E-03   -0.36458E-04  3304   0.257E-01    0.782E-02
DAV:   4    -0.346574967289E+02    0.16851E-04   -0.41258E-05  3580   0.523E-02    0.348E-02
DAV:   5    -0.346574900921E+02    0.66369E-05   -0.22393E-05  3044   0.226E-02    0.224E-02
DAV:   6    -0.346574970772E+02   -0.69852E-05   -0.36177E-06  2248   0.359E-02    0.894E-03
DAV:   7    -0.346575023114E+02   -0.52342E-05   -0.13123E-06  1684   0.207E-02    0.300E-03
DAV:   8    -0.346575056150E+02   -0.33035E-05   -0.15945E-06  1436   0.711E-03    0.229E-03
DAV:   9    -0.346575084057E+02   -0.27908E-05   -0.37676E-07  1400   0.570E-03    0.166E-03
DAV:  10    -0.346575110671E+02   -0.26613E-05   -0.13976E-07  1428   0.365E-03    0.126E-03
DAV:  11    -0.346575124740E+02   -0.14070E-05   -0.80295E-08  1456   0.305E-03    0.737E-04
DAV:  12    -0.346575131216E+02   -0.64751E-06   -0.41248E-08  1452   0.154E-03
   3 F= -.35570887E+02 E0= -.35570887E+02  d E =-.610837E-02  mag=     6.0000
       N       E                     dE             d eps       ncg     rms          rms(c)
DAV:   1    -0.346571313598E+02    0.38111E-03   -0.21004E-02  2596   0.676E-01    0.102E-01
DAV:   2    -0.346571091858E+02    0.22174E-04   -0.19545E-03  3296   0.259E-01    0.500E-02
DAV:   3    -0.346570811527E+02    0.28033E-04   -0.71278E-05  3108   0.126E-01    0.439E-02
DAV:   4    -0.346570756499E+02    0.55028E-05   -0.15240E-05  3192   0.343E-02    0.224E-02
DAV:   5    -0.346570733342E+02    0.23158E-05   -0.13636E-05  3356   0.240E-02    0.141E-02
DAV:   6    -0.346570740703E+02   -0.73619E-06   -0.16231E-06  1836   0.258E-02
   4 F= -.35571096E+02 E0= -.35571096E+02  d E =-.209158E-03  mag=     6.0000
       N       E                     dE             d eps       ncg     rms          rms(c)
DAV:   1    -0.346559264940E+02    0.11468E-02   -0.18864E-01  2584   0.203E+00    0.306E-01
DAV:   2    -0.346557721536E+02    0.15434E-03   -0.17656E-02  3296   0.780E-01    0.151E-01
DAV:   3    -0.346555034549E+02    0.26870E-03   -0.64313E-04  3132   0.380E-01    0.132E-01
DAV:   4    -0.346554496030E+02    0.53852E-04   -0.13824E-04  3240   0.103E-01    0.674E-02
DAV:   5    -0.346554159292E+02    0.33674E-04   -0.12482E-04  3372   0.734E-02    0.429E-02
DAV:   6    -0.346554131904E+02    0.27389E-05   -0.21489E-05  3440   0.784E-02    0.207E-02
DAV:   7    -0.346554157423E+02   -0.25520E-05   -0.26980E-06  2072   0.146E-02    0.796E-03
DAV:   8    -0.346554175945E+02   -0.18521E-05   -0.16118E-06  1660   0.918E-03    0.447E-03
DAV:   9    -0.346554188435E+02   -0.12490E-05   -0.49770E-07  1476   0.848E-03    0.191E-03
DAV:  10    -0.346554200459E+02   -0.12024E-05   -0.23016E-07  1468   0.347E-03    0.125E-03
DAV:  11    -0.346554210553E+02   -0.10093E-05   -0.57452E-08  1480   0.220E-03    0.488E-04
DAV:  12    -0.346554216158E+02   -0.56053E-06   -0.29437E-08  1456   0.129E-03
   5 F= -.35571383E+02 E0= -.35571383E+02  d E =-.496125E-03  mag=     6.0000
