 vasp.6.6.1 17Jul2026 (build Sep  1 2026 13:17:54) complex                       
 executed on             LinuxGNU date 2026.09.08  16:37:52
 running   16 mpi-ranks, with    1 threads/rank, on    1 nodes
 distrk:  each k-point on   16 cores,    1 groups
 distr:  one band on NCORE=   4 cores,    4 groups


--------------------------------------------------------------------------------------------------------


 INCAR:
   SYSTEM = CrCl3-1x1 ISIF3 LATTICE_CONSTRAINTS (D3 + U\=4eV)
   PREC = Accurate
   ENCUT = 400.0
   ALGO = Normal
   EDIFF = 1.0E-06
   NELM = 100
   ISPIN = 2
   MAGMOM = 2*3.0 6*0.0
   ISMEAR = 0
   SIGMA = 0.05
   IVDW = 11
   IBRION = 2
   NSW = 100
   ISIF = 3
   LATTICE_CONSTRAINTS = .TRUE. .TRUE. .FALSE.
   EDIFFG = -0.01
   LORBIT = 11
   NEDOS = 2000
   LWAVE = .TRUE.
   LCHARG = .TRUE.
   NCORE = 4
   LASPH = .TRUE.
   LMAXMIX = 4
   LDAU = .TRUE.
   LDAUTYPE = 2
   LDAUL = 2 -1
   LDAUU = 4.0 0.0
   LDAUJ = 0.0 0.0

 POTCAR:    PAW_PBE Cr 06Sep2000                  
 POTCAR:    PAW_PBE Cl 06Sep2000                  
 POTCAR:    PAW_PBE Cr 06Sep2000                  
   SHA256 =  56e7271fac8042f322b235801e26979132a24da65eb043fa6a03029023cb2fcc Cr/POTCAR             
   COPYR  = (c) Copyright 06Sep2000 Georg Kresse                                                    
   COPYR  = This file is part of the software VASP. Any use, copying, and all other rights are regul
   COPYR  = If you do not have a valid VASP license, you may not use, copy or distribute this file. 
   VRHFIN =Cr : d5 s1                                                                               
   LEXCH  = PE                                                                                      
   EATOM  =   276.8859 eV,   20.3505 Ry                                                             
                                                                                                    
   TITEL  = PAW_PBE Cr 06Sep2000                                                                    
   LULTRA =        F    use ultrasoft PP ?                                                          
   IUNSCR =        1    unscreen: 0-lin 1-nonlin 2-no                                               
   RPACOR =    2.080    partial core radius                                                         
   POMASS =   51.996; ZVAL   =    6.000    mass and valenz                                          
   RCORE  =    2.500    outmost cutoff radius                                                       
   RWIGS  =    2.500; RWIGS  =    1.323    wigner-seitz radius (au A)                               
   ENMAX  =  227.080; ENMIN  =  170.310 eV                                                          
   RCLOC  =    1.721    cutoff for local pot                                                        
   LCOR   =        T    correct aug charges                                                         
   LPAW   =        T    paw PP                                                                      
   EAUG   =  402.108                                                                                
   DEXC   =    0.000                                                                                
   RMAX   =    2.552    core radius for proj-oper                                                   
   RAUG   =    1.300    factor for augmentation sphere                                              
   RDEP   =    2.609    radius for radial grids                                                     
   RDEPT  =    2.065    core radius for aug-charge                                                  
                                                                                                    
   Atomic configuration                                                                             
    9 entries                                                                                       
     n  l   j            E        occ.                                                              
     1  0  0.50     -5880.4963   2.0000                                                             
     2  0  0.50      -667.0865   2.0000                                                             
     2  1  1.50      -560.6250   6.0000                                                             
     3  0  0.50       -73.9860   2.0000                                                             
     3  1  1.50       -45.4378   6.0000                                                             
     3  2  2.50        -2.9137   5.0000                                                             
     4  0  0.50        -4.0071   1.0000                                                             
     4  1  0.50        -1.2789   0.0000                                                             
     4  3  2.50        -1.3606   0.0000                                                             
   Description                                                                                      
     l       E           TYP  RCUT    TYP  RCUT                                                     
     2     -2.9136677     23  2.500                                                                 
     2     -4.2742503     23  2.500                                                                 
     0     -4.0071322     23  2.500                                                                 
     0      9.4498801     23  2.500                                                                 
     1     -5.4423304     23  2.500                                                                 
     1     27.2116520     23  2.500                                                                 
  local pseudopotential read in
  partial core-charges read in
  partial kinetic energy density read in
  atomic valenz-charges read in
  non local Contribution for L=           2  read in
    real space projection operators read in
  non local Contribution for L=           2  read in
    real space projection operators read in
  non local Contribution for L=           0  read in
    real space projection operators read in
  non local Contribution for L=           0  read in
    real space projection operators read in
  non local Contribution for L=           1  read in
    real space projection operators read in
  non local Contribution for L=           1  read in
    real space projection operators read in
    PAW grid and wavefunctions read in

   number of l-projection  operators is LMAX  =           6
   number of lm-projection operators is LMMAX =          18

 POTCAR:    PAW_PBE Cl 06Sep2000                  
   SHA256 =  9f1b6e6ed4247ac726a768b330d26d7667cc3c95a39ff49c1d064c2d9dcce931 Cl/POTCAR             
   COPYR  = (c) Copyright 06Sep2000 Georg Kresse                                                    
   COPYR  = This file is part of the software VASP. Any use, copying, and all other rights are regul
   COPYR  = If you do not have a valid VASP license, you may not use, copy or distribute this file. 
   VRHFIN =Cl: s2p5                                                                                 
   LEXCH  = PE                                                                                      
   EATOM  =   409.7259 eV,   30.1140 Ry                                                             
                                                                                                    
   TITEL  = PAW_PBE Cl 06Sep2000                                                                    
   LULTRA =        F    use ultrasoft PP ?                                                          
   IUNSCR =        1    unscreen: 0-lin 1-nonlin 2-no                                               
   RPACOR =    1.500    partial core radius                                                         
   POMASS =   35.453; ZVAL   =    7.000    mass and valenz                                          
   RCORE  =    1.900    outmost cutoff radius                                                       
   RWIGS  =    2.100; RWIGS  =    1.111    wigner-seitz radius (au A)                               
   ENMAX  =  262.472; ENMIN  =  196.854 eV                                                          
   ICORE  =        2    local potential                                                             
   LCOR   =        T    correct aug charges                                                         
   LPAW   =        T    paw PP                                                                      
   EAUG   =  356.192                                                                                
   DEXC   =    0.000                                                                                
   RMAX   =    1.945    core radius for proj-oper                                                   
   RAUG   =    1.300    factor for augmentation sphere                                              
   RDEP   =    2.020    radius for radial grids                                                     
   RDEPT  =    1.678    core radius for aug-charge                                                  
                                                                                                    
   Atomic configuration                                                                             
    6 entries                                                                                       
     n  l   j            E        occ.                                                              
     1  0  0.50     -2751.1850   2.0000                                                             
     2  0  0.50      -252.6861   2.0000                                                             
     2  1  1.50      -191.6157   6.0000                                                             
     3  0  0.50       -20.6916   2.0000                                                             
     3  1  0.50        -8.5949   5.0000                                                             
     3  2  1.50        -8.1635   0.0000                                                             
   Description                                                                                      
     l       E           TYP  RCUT    TYP  RCUT                                                     
     0    -20.6915656     23  1.900                                                                 
     0    -22.0521482     23  1.900                                                                 
     1     -8.5948577     23  1.900                                                                 
     1     -5.3847331     23  1.900                                                                 
     2     -8.1634956     23  1.900                                                                 
  local pseudopotential read in
  partial core-charges read in
  partial kinetic energy density read in
  atomic valenz-charges read in
  non local Contribution for L=           0  read in
    real space projection operators read in
  non local Contribution for L=           0  read in
    real space projection operators read in
  non local Contribution for L=           1  read in
    real space projection operators read in
  non local Contribution for L=           1  read in
    real space projection operators read in
    PAW grid and wavefunctions read in

   number of l-projection  operators is LMAX  =           4
   number of lm-projection operators is LMMAX =           8

  PAW_PBE Cr 06Sep2000                  :
 energy of atom  1       EATOM= -276.8859
 kinetic energy error for atom=    0.0018 (will be added to EATOM!!)
  PAW_PBE Cl 06Sep2000                  :
 energy of atom  2       EATOM= -409.7259
 kinetic energy error for atom=    0.0089 (will be added to EATOM!!)


 POSCAR: Cr2Cl6 Monolayer 1x1 Primitive Cell
  positions in direct lattice
  No initial velocities read in
 IVDW          = 11
 DFT-D3 parameters (can be modified):
 VDW_S6        =  1.00000000  s6, scaling of the dipole-dipole dispersion
 VDW_S8        =  0.72200000  s8, scaling of the dipole-quadrupole dispersion
 VDW_SR        =  1.21700001  sr6, scaling of the dipole-dipole damping
 VDW_SR8       =  1.00000000  sr8, scaling of the dipole-quadrupole damping
 VDW_RADIUS    = 50.20216178  two-body interaction cutoff (in Angstroms)
 VDW_CNRADIUS  = 21.16708996  CN, coordination number cutoff (in Angstroms)
 Fixed parameters (cannot be modified):
 s9            =  0.00000000  s9, scaling of the three-body dispersion
 alpha6        = alpha6 (printed below), exponent of the zero damping (two-body term)


 exchange-correlation table for PE
   RHO(1)=    0.500       N(1)  =     2000
   RHO(2)=  100.500       N(2)  =     4000



--------------------------------------------------------------------------------------------------------


 ion  position               nearest neighbor table
   1  0.333  0.667  0.500-   5 2.37   8 2.37   6 2.37   4 2.37   7 2.37   3 2.37
   2  0.667  0.333  0.500-   5 2.37   8 2.37   7 2.37   3 2.37   4 2.37   6 2.37
   3  0.355  0.000  0.424-   2 2.37   1 2.37
   4  0.000  0.355  0.424-   1 2.37   2 2.37
   5  0.645  0.645  0.424-   1 2.37   2 2.37
   6  0.645  0.000  0.576-   1 2.37   2 2.37
   7  0.000  0.645  0.576-   2 2.37   1 2.37
   8  0.355  0.355  0.576-   1 2.37   2 2.37

  LATTYP: Found a hexagonal cell.
 ALAT       =     6.0484980000
 C/A-ratio  =     2.9213864335
  
  Lattice vectors:
  
 A1 = (   6.0484980000,   0.0000000000,   0.0000000000)
 A2 = (  -3.0242490000,   5.2381529227,   0.0000000000)
 A3 = (   0.0000000000,   0.0000000000,  17.6700000000)


Analysis of symmetry for initial positions (statically):
=====================================================================
 Subroutine PRICEL returns:
 Original cell was already a primitive cell.
 

 Routine SETGRP: Setting up the symmetry group for a 
 hexagonal supercell.


 Subroutine GETGRP returns: Found 12 space group operations
 (whereof 12 operations were pure point group operations)
 out of a pool of 24 trial point group operations.


The static configuration has the point symmetry D_3d.


Analysis of symmetry for dynamics (positions and initial velocities):
=====================================================================
 Subroutine PRICEL returns:
 Original cell was already a primitive cell.
 

 Routine SETGRP: Setting up the symmetry group for a 
 hexagonal supercell.


 Subroutine GETGRP returns: Found 12 space group operations
 (whereof 12 operations were pure point group operations)
 out of a pool of 24 trial point group operations.


The dynamic configuration has the point symmetry D_3d.


Analysis of structural, dynamic, and magnetic symmetry:
=====================================================================
 Subroutine PRICEL returns:
 Original cell was already a primitive cell.
 

 Routine SETGRP: Setting up the symmetry group for a 
 hexagonal supercell.


 Subroutine GETGRP returns: Found 12 space group operations
 (whereof 12 operations were pure point group operations)
 out of a pool of 24 trial point group operations.


The overall configuration has the point symmetry D_3d.


 Subroutine INISYM returns: Found 12 space group operations
 (whereof 12 operations are pure point group operations),
 and found     1 'primitive' translations


----------------------------------------------------------------------------------------

                                     Primitive cell                                     

  volume of cell :     559.8379

  direct lattice vectors                    reciprocal lattice vectors
     6.048498000  0.000000000  0.000000000     0.165330302  0.095453494 -0.000000000
    -3.024249000  5.238152923  0.000000000     0.000000000  0.190906989  0.000000000
     0.000000000  0.000000000 17.670000000     0.000000000 -0.000000000  0.056593096

  length of vectors
     6.048498000  6.048498000 17.670000000     0.190906989  0.190906989  0.056593096

  position of ions in fractional coordinates (direct lattice)
     0.333333333  0.666666667  0.500000000
     0.666666667  0.333333333  0.500000000
     0.355000000  0.000000000  0.423600000
     0.000000000  0.355000000  0.423600000
     0.645000000  0.645000000  0.423600000
     0.645000000  0.000000000  0.576400000
     0.000000000  0.645000000  0.576400000
     0.355000000  0.355000000  0.576400000

  ion indices of the primitive-cell ions
   primitive index   ion index
                 1           1
                 2           2
                 3           3
                 4           4
                 5           5
                 6           6
                 7           7
                 8           8

----------------------------------------------------------------------------------------



 KPOINTS: Automatic mesh                          

Automatic generation of k-mesh.
 Grid dimensions read from file:
 generate k-points for:   11   11    1

 Generating k-lattice:

  Cartesian coordinates                     Fractional coordinates (reciprocal lattice)
     0.015030027  0.008677590 -0.000000000     0.090909091 -0.000000000  0.000000000
     0.000000000  0.017355181  0.000000000     0.000000000  0.090909091  0.000000000
     0.000000000 -0.000000000  0.056593096     0.000000000  0.000000000  1.000000000

  Length of vectors
     0.017355181  0.017355181  0.056593096

  Shift w.r.t. Gamma in fractional coordinates (k-lattice)
     0.000000000  0.000000000  0.000000000

 
 Subroutine IBZKPT returns following result:
 ===========================================
 
 Found     16 irreducible k-points:
 
 Following reciprocal coordinates:
            Coordinates               Weight
  0.000000  0.000000  0.000000      1.000000
  0.090909  0.000000  0.000000      6.000000
  0.181818  0.000000  0.000000      6.000000
  0.272727  0.000000  0.000000      6.000000
  0.363636  0.000000  0.000000      6.000000
  0.454545  0.000000  0.000000      6.000000
  0.090909  0.090909  0.000000      6.000000
  0.181818  0.090909  0.000000     12.000000
  0.272727  0.090909  0.000000     12.000000
  0.363636  0.090909  0.000000     12.000000
  0.454545  0.090909  0.000000      6.000000
  0.181818  0.181818  0.000000      6.000000
  0.272727  0.181818  0.000000     12.000000
  0.363636  0.181818  0.000000     12.000000
  0.272727  0.272727  0.000000      6.000000
  0.363636  0.272727  0.000000      6.000000
 
 Following cartesian coordinates:
            Coordinates               Weight
  0.000000  0.000000  0.000000      1.000000
  0.015030  0.008678  0.000000      6.000000
  0.030060  0.017355  0.000000      6.000000
  0.045090  0.026033  0.000000      6.000000
  0.060120  0.034710  0.000000      6.000000
  0.075150  0.043388  0.000000      6.000000
  0.015030  0.026033  0.000000      6.000000
  0.030060  0.034710  0.000000     12.000000
  0.045090  0.043388  0.000000     12.000000
  0.060120  0.052066  0.000000     12.000000
  0.075150  0.060743  0.000000      6.000000
  0.030060  0.052066  0.000000      6.000000
  0.045090  0.060743  0.000000     12.000000
  0.060120  0.069421  0.000000     12.000000
  0.045090  0.078098  0.000000      6.000000
  0.060120  0.086776  0.000000      6.000000
 


--------------------------------------------------------------------------------------------------------




 Dimension of arrays:
   k-points           NKPTS =     16   k-points in BZ     NKDIM =     16   number of bands    NBANDS=     36
   number of dos      NEDOS =   2000   number of ions     NIONS =      8
   non local maximal  LDIM  =      6   non local SUM 2l+1 LMDIM =     18
   total plane-waves  NPLWV = 192000
   max r-space proj   IRMAX =      1   max aug-charges    IRDMAX=  17718
   dimension x,y,z NGX =    40 NGY =   40 NGZ =  120
   dimension x,y,z NGXF=    80 NGYF=   80 NGZF=  240
   support grid    NGXF=    80 NGYF=   80 NGZF=  240
   ions per type =               2   6
   NGX,Y,Z   is equivalent  to a cutoff of  10.99, 10.99, 11.29 a.u.
   NGXF,Y,Z  is equivalent  to a cutoff of  21.99, 21.99, 22.58 a.u.

 SYSTEM =  CrCl3-1x1 ISIF3 LATTICE_CONSTRAINTS (D3 
 POSCAR =  Cr2Cl6 Monolayer 1x1 Primitive Cell     

 Startparameter for this run:
   NWRITE =      2    write-flag & timer
   PREC   = accura    normal or accurate (medium, high low for compatibility)
   ISTART =      0    job   : 0-new  1-cont  2-samecut
   ICHARG =      2    charge: 1-file 2-atom 10-const
   ISPIN  =      2    spin polarized calculation?
   LNONCOLLINEAR =      F non collinear calculations
   LSORBIT =      F    spin-orbit coupling
   INIWAV =      1    electr: 0-lowe 1-rand  2-diag
   LASPH  =      T    aspherical Exc in radial PAW
 Electronic Relaxation 1
   ENCUT  =  400.0 eV  29.40 Ry    5.42 a.u.   9.86  9.86 28.82*2*pi/ulx,y,z
   ENINI  =  400.0     initial cutoff
   ENAUG  =  402.1 eV  augmentation charge cutoff
   NELM   =    100;   NELMIN=  2; NELMDL= -5     # of ELM steps 
   EDIFF  = 0.1E-05   stopping-criterion for ELM
   LREAL  =      F    real-space projection
   NLSPLINE    = F    spline interpolate recip. space projectors
   LCOMPAT=      F    compatible to vasp.4.4
   GGA_COMPAT  = T    GGA compatible to vasp.4.4-vasp.4.6
   LMAXPAW     = -100 max onsite density
   LMAXMIX     =    4 max onsite mixed and CHGCAR
   VOSKOWN=      0    Vosko Wilk Nusair interpolation
   ROPT   =    0.00000   0.00000

 Ewald summation
   EWALD_CUTOFF =   4.00

 Ionic relaxation
   EDIFFG = -.1E-01   stopping-criterion for IOM
   NSW    =    100    number of steps for IOM
   NBLOCK =      1;   KBLOCK =    100    inner block; outer block 
   IBRION =      2    ionic relax: 0-MD 1-quasi-New 2-CG
   NFREE  =      1    steps in history (QN), initial steepest desc. (CG)
   ISIF   =      3    stress and relaxation
   IWAVPR =     11    prediction:  0-non 1-charg 2-wave 3-comb
   MAXDIS =   0.00    maximum displacement; if above reset density
   ISYM   =      2    0-nonsym 1-usesym 2-fastsym
   LCORR  =      T    Harris-Foulkes like correction to forces

   POTIM  = 0.5000    time-step for ionic-motion
   TEIN   =    0.0    initial temperature
   TEBEG  =    0.0;   TEEND  =   0.0 temperature during run
   SMASS  =  -3.00    Nose mass-parameter (am)
   estimated Nose-frequenzy (Omega)   =  0.10E-29 period in steps = 0.13E+47 mass=  -0.836E-27a.u.
   SCALEE = 1.0000    scale energy and forces
   NPACO  =    256;   APACO  = 10.0  distance and # of slots for P.C.
   PSTRESS=    0.0 pullay stress

  Mass of Ions in am
   POMASS =  52.00 35.45
  Ionic Valenz
   ZVAL   =   6.00  7.00
  Atomic Wigner-Seitz radii
   RWIGS  =  -1.00 -1.00
  virtual crystal weights 
   VCA    =   1.00  1.00
   NELECT =      54.0000    total number of electrons
   NUPDOWN=      -1.0000    fix difference up-down

 DOS related values:
   EMIN   =  10.00;   EMAX   =-10.00  energy-range for DOS
   EFERMI =   0.00;   METHOD = LEGACY      
   ISMEAR =     0;   SIGMA  =   0.05  broadening in eV -4-tet -1-fermi 0-gaus
   EFERMI_NEDOS =   21; number of points for ismear=-14 and -15

 Electronic relaxation 2 (details)
   IALGO  =     38    algorithm
   LDIAG  =      T    sub-space diagonalisation (order eigenvalues)
   LSUBROT=      F    optimize rotation matrix (better conditioning)
   LROBUST=      F    robust break criterion during scf (extrapolated energy error)
   ISEARCH=      0    line search for conjugate gradient (0, 1=use gradient)
   TURBO    =      0    0=normal 1=particle mesh
   IRESTART =      0    0=no restart 2=restart with 2 vectors
   NREBOOT  =      0    no. of reboots
   NMIN     =      0    reboot dimension
   EREF     =   0.00    reference energy to select bands
   IMIX   =      4    mixing-type and parameters
     AMIX     =   0.40;   BMIX     =  1.00
     AMIX_MAG =   1.60;   BMIX_MAG =  1.00
     AMIN     =   0.10
     WC   =   100.;   INIMIX=   1;  MIXPRE=   1;  MAXMIX= -45

 Intra band minimization:
   WEIMIN = 0.0010     energy-eigenvalue tresh-hold
   EBREAK =  0.69E-08  absolut break condition
   DEPER  =   0.30     relativ break condition  

   TIME   =   0.40     timestep for ELM

  volume/ion in A,a.u.               =      69.98       472.25
  Fermi-wavevector in a.u.,A,eV,Ry     =   0.750790  1.418788  7.669415  0.563686
  Thomas-Fermi vector in A             =   1.847622

 Write flags
   LH5          =      F    write vaspwave.h5 (instead of legacy files WAVECAR, CHGCAR, etc.)
   LWAVE        =      T    write Kohn-Sham orbitals (WAVECAR/vaspwave.h5)
   LDOWNSAMPLE  =      F    k-point downsampling of WAVECAR
   LCHARG       =      T    write restart densities (CHGCAR/vaspwave.h5)
   LCHARGH5     =      F    write charge density to vaspwave.h5
   LTAU         =      F    evaluate kinetic energy density (TAUCAR/vaspwave.h5)
   LVTOT        =      F    write LOCPOT, total local potential
   LVHAR        =      F    write LOCPOT, Hartree potential only
   WRT_POTENTIAL= None    ! write potential to vaspout.h5
   WRT_DENSITY  = None    ! write densities to vaspout.h5
   LELF         =      F    write electronic localiz. function (ELF)
   LORBIT       =     11    0 simple, 1 ext, 2 COOP (PROOUT), +10 PAW based schemes


 Python interface
   PLUGINS active      =      F    recompile with -DPLUGINS to activate

 Dipole corrections
   LMONO      =      F    monopole corrections only (constant potential shift)
   LDIPOL     =      F    correct potential (dipole corrections)
   IDIPOL     =      0    1-x, 2-y, 3-z, 4-all directions 
   EPSILON    =  1.0000000 bulk dielectric constant
   LVACPOTAV  =      F  vacuum potentials using an averaging scheme for the charge density
   VACPOTFLAT =  0.1000000 required flatness to determine vacuum potential

Coulomb truncation method
  LTRUNCATE          =      F  Coulomb kernel truncation to be used


 LDA+U is selected, type is set to LDAUTYPE =  2
   angular momentum for each species LDAUL =     2   -1
   U (eV)           for each species LDAUU =   4.0  0.0
   J (eV)           for each species LDAUJ =   0.0  0.0
 Exchange correlation treatment:
   GGA     = PE    functional components
   XC_C    = 1    coefficients multiplying the functional components
   LIBXC   =     F    Libxc                    
   VOSKOWN =     0    Vosko Wilk Nusair interpolation
   LHFCALC =     F    Hartree Fock is set to
   LHFONE  =     F    Hartree Fock one center treatment
   AEXX    =    0.0000 exact exchange contribution
   BEXX    =    1.0000 short-range exact exchange contribution

 Parameters of functionals:
   PE:
     No parameter

 Van der Waals corrections
   IVDW    =    11    specifies the selected vdW correction

 Linear response parameters
   LEPSILON=     F    determine dielectric tensor
   LRPA    =     F    only Hartree local field effects (RPA)
   LNABLA  =     F    use nabla operator in PAW spheres
   LVEL    =     F    velocity operator in full k-point grid
   CSHIFT  =0.1000    complex shift for real part using Kramers Kronig
   OMEGAMAX=  -1.0    maximum frequency
   DEG_THRESHOLD= 0.2000000E-02 threshold for treating states as degnerate
   RTIME   =   -0.100 relaxation time in fs
  (WPLASMAI=    0.000 imaginary part of plasma frequency in eV, 0.658/RTIME)
   DFIELD  = 0.0000000 0.0000000 0.0000000 field for delta impulse in time

  Optional k-point grid parameters
   LKPOINTS_OPT  =     F    use optional k-point grid
   KPOINTS_OPT_MODE=     1    mode for optional k-point grid

 Orbital magnetization related:
   ORBITALMAG=     F  switch on orbital magnetization
   LCHIMAG   =     F  perturbation theory with respect to B field
   DQ        =  0.001000  dq finite difference perturbation B field
   LLRAUG    =     F  two centre corrections for induced B field
   LZORA     =     F  scalar relativistic for chemical shift
   LSOSHIFT  =     F  spin-orbit for chemical shift
   LBONE     =     F  B-component reconstruction in AE one-centre
   LVGVCALC  =     T  calculate vGv susceptibility
   LVGVAPPL  =     F  apply vGv susceptibility instead of pGv for G=0

 Random number generation:
   RANDOM_GENERATOR = DEFAULT
   PCG_SEED         = not used


--------------------------------------------------------------------------------------------------------


 conjugate gradient relaxation of ions
 charge density and potential will be updated during run
 spin polarized calculation
 Variant of blocked Davidson
 Davidson routine will perform the subspace rotation
 perform sub-space diagonalisation
    after iterative eigenvector-optimisation
 modified Broyden-mixing scheme, WC =      100.0
 initial mixing is a Kerker type mixing with AMIX =  0.4000 and BMIX =      1.0000
 Hartree-type preconditioning will be used
 using additional bands            9
 reciprocal scheme for non local part
 use partial core corrections
 calculate Harris-corrections to forces   (improved forces if not selfconsistent)
 use gradient corrections 
 use of overlap-Matrix (Vanderbilt PP)
 Gauss-broadening in eV      SIGMA  =   0.05


--------------------------------------------------------------------------------------------------------


  energy-cutoff  :      400.00
  volume of cell :      559.84
      direct lattice vectors                 reciprocal lattice vectors
     6.048498000  0.000000000  0.000000000     0.165330302  0.095453494 -0.000000000
    -3.024249000  5.238152923  0.000000000     0.000000000  0.190906989  0.000000000
     0.000000000  0.000000000 17.670000000     0.000000000 -0.000000000  0.056593096

  length of vectors
     6.048498000  6.048498000 17.670000000     0.190906989  0.190906989  0.056593096



 k-points in units of 2pi/SCALE and weight: Automatic mesh                          
   0.00000000  0.00000000  0.00000000       0.008
   0.01503003  0.00867759  0.00000000       0.050
   0.03006005  0.01735518  0.00000000       0.050
   0.04509008  0.02603277  0.00000000       0.050
   0.06012011  0.03471036  0.00000000       0.050
   0.07515014  0.04338795  0.00000000       0.050
   0.01503003  0.02603277  0.00000000       0.050
   0.03006005  0.03471036  0.00000000       0.099
   0.04509008  0.04338795  0.00000000       0.099
   0.06012011  0.05206554  0.00000000       0.099
   0.07515014  0.06074313  0.00000000       0.050
   0.03006005  0.05206554  0.00000000       0.050
   0.04509008  0.06074313  0.00000000       0.099
   0.06012011  0.06942072  0.00000000       0.099
   0.04509008  0.07809831  0.00000000       0.050
   0.06012011  0.08677590  0.00000000       0.050

 k-points in reciprocal lattice and weights: Automatic mesh                          
   0.00000000  0.00000000  0.00000000       0.008
   0.09090909  0.00000000  0.00000000       0.050
   0.18181818  0.00000000  0.00000000       0.050
   0.27272727  0.00000000  0.00000000       0.050
   0.36363636  0.00000000  0.00000000       0.050
   0.45454545  0.00000000  0.00000000       0.050
   0.09090909  0.09090909  0.00000000       0.050
   0.18181818  0.09090909  0.00000000       0.099
   0.27272727  0.09090909  0.00000000       0.099
   0.36363636  0.09090909  0.00000000       0.099
   0.45454545  0.09090909  0.00000000       0.050
   0.18181818  0.18181818  0.00000000       0.050
   0.27272727  0.18181818  0.00000000       0.099
   0.36363636  0.18181818  0.00000000       0.099
   0.27272727  0.27272727  0.00000000       0.050
   0.36363636  0.27272727  0.00000000       0.050

 position of ions in fractional coordinates (direct lattice) 
   0.33333333  0.66666667  0.50000000
   0.66666667  0.33333333  0.50000000
   0.35500000  0.00000000  0.42360000
   0.00000000  0.35500000  0.42360000
   0.64500000  0.64500000  0.42360000
   0.64500000  0.00000000  0.57640000
   0.00000000  0.64500000  0.57640000
   0.35500000  0.35500000  0.57640000

 position of ions in cartesian coordinates  (Angst):
   0.00000000  3.49210195  8.83500000
   3.02424900  1.74605097  8.83500000
   2.14721679  0.00000000  7.48501200
  -1.07360839  1.85954429  7.48501200
   1.95064061  3.37860864  7.48501200
   3.90128121  0.00000000 10.18498800
  -1.95064061  3.37860864 10.18498800
   1.07360839  1.85954429 10.18498800



--------------------------------------------------------------------------------------------------------


 k-point     1 :   0.0000 0.0000 0.0000  plane waves:   10101
 k-point     2 :   0.0909 0.0000 0.0000  plane waves:   10141
 k-point     3 :   0.1818 0.0000 0.0000  plane waves:   10165
 k-point     4 :   0.2727 0.0000 0.0000  plane waves:   10193
 k-point     5 :   0.3636 0.0000 0.0000  plane waves:   10165
 k-point     6 :   0.4545 0.0000 0.0000  plane waves:   10177
 k-point     7 :   0.0909 0.0909 0.0000  plane waves:   10152
 k-point     8 :   0.1818 0.0909 0.0000  plane waves:   10170
 k-point     9 :   0.2727 0.0909 0.0000  plane waves:   10167
 k-point    10 :   0.3636 0.0909 0.0000  plane waves:   10176
 k-point    11 :   0.4545 0.0909 0.0000  plane waves:   10184
 k-point    12 :   0.1818 0.1818 0.0000  plane waves:   10162
 k-point    13 :   0.2727 0.1818 0.0000  plane waves:   10160
 k-point    14 :   0.3636 0.1818 0.0000  plane waves:   10185
 k-point    15 :   0.2727 0.2727 0.0000  plane waves:   10174
 k-point    16 :   0.3636 0.2727 0.0000  plane waves:   10176

 maximum and minimum number of plane-waves per node :      2564     2512

 maximum number of plane-waves:     10193
 maximum index in each direction: 
   IXMAX=    9   IYMAX=    9   IZMAX=   28
   IXMIN=  -10   IYMIN=  -10   IZMIN=  -28


 parallel 3D FFT for wavefunctions:
    minimum data exchange during FFTs selected (reduces bandwidth)
 parallel 3D FFT for charge:
    minimum data exchange during FFTs selected (reduces bandwidth)


 total amount of memory used by VASP MPI-rank0    70272. kBytes
=======================================================================

   base                                    :      30000. kBytes
   nonl-proj                               :      12067. kBytes
   fftplans                                :       4689. kBytes
   grid                                    :      11584. kBytes
   one-center                              :         62. kBytes
   wavefun                                 :      11870. kBytes

     INWAV:  cpu time      0.0000: real time      0.0000
 Broyden mixing: mesh for mixing (old mesh)
   NGX = 19   NGY = 19   NGZ = 57
  (NGX  = 80   NGY  = 80   NGZ  =240)
  gives a total of  20577 points

 initial charge density was supplied:
 charge density of overlapping atoms calculated
 number of electron      54.0000000 magnetization       6.0000000
 keeping initial charge density in first step


--------------------------------------------------------------------------------------------------------


 Maximum index for augmentation-charges         1128 (set IRDMAX)


--------------------------------------------------------------------------------------------------------


 First call to EWALD:  gamma=   0.215
 Maximum number of real-space cells   4x   4x   2
 Maximum number of reciprocal cells   2x   2x   5

    FEWALD:  cpu time      0.0011: real time      0.0011


--------------------------------------- Ionic step        1  -------------------------------------------




--------------------------------------- Iteration      1(   1)  ---------------------------------------


    POTLOK:  cpu time      0.1937: real time      0.1959
    SETDIJ:  cpu time      0.1175: real time      0.1180
     EDDAV:  cpu time      4.8766: real time      4.9420
       DOS:  cpu time      0.0016: real time      0.0016
    --------------------------------------------
      LOOP:  cpu time      5.1897: real time      5.2577

 eigenvalue-minimisations  :  2304
 total energy-change (2. order) : 0.5244890E+03  (-0.1561061E+04)
 number of electron      54.0000000 magnetization       6.0000000
 augmentation part       54.0000000 magnetization       6.0000000

 Free energy of the ion-electron system (eV)
  ---------------------------------------------------
  alpha Z        PSCENC =        30.74992261
  Ewald energy   TEWEN  =      4471.64050427
  -Hartree energ DENC   =     -7171.78104879
  -exchange      EXHF   =         0.00000000
  -V(xc)+E(xc)   XCENC  =        82.31282073
  PAW double counting   =      2504.81294498    -2456.45414287
  entropy T*S    EENTRO =        -0.00585619
  eigenvalues    EBANDS =        51.14379723
  atomic energy  EATOM  =      3012.07006103
  Solvation  Ediel_sol  =         0.00000000
  ext. energy  EPLUGINS =         0.00000000
  ---------------------------------------------------
  free energy    TOTEN  =       524.48900298 eV

  energy without entropy =      524.49485918  energy(sigma->0) =      524.49193108


--------------------------------------------------------------------------------------------------------




--------------------------------------- Iteration      1(   2)  ---------------------------------------


     EDDAV:  cpu time      5.9132: real time      6.0255
       DOS:  cpu time      0.0015: real time      0.0015
    --------------------------------------------
      LOOP:  cpu time      5.9147: real time      6.0270

 eigenvalue-minimisations  :  2976
 total energy-change (2. order) :-0.4351823E+03  (-0.4134986E+03)
 number of electron      54.0000000 magnetization       6.0000000
 augmentation part       54.0000000 magnetization       6.0000000

 Free energy of the ion-electron system (eV)
  ---------------------------------------------------
  alpha Z        PSCENC =        30.74992261
  Ewald energy   TEWEN  =      4471.64050427
  -Hartree energ DENC   =     -7171.78104879
  -exchange      EXHF   =         0.00000000
  -V(xc)+E(xc)   XCENC  =        82.31282073
  PAW double counting   =      2504.81294498    -2456.45414287
  entropy T*S    EENTRO =        -0.00350024
  eigenvalues    EBANDS =      -384.04081306
  atomic energy  EATOM  =      3012.07006103
  Solvation  Ediel_sol  =         0.00000000
  ext. energy  EPLUGINS =         0.00000000
  ---------------------------------------------------
  free energy    TOTEN  =        89.30674865 eV

  energy without entropy =       89.31024889  energy(sigma->0) =       89.30849877


--------------------------------------------------------------------------------------------------------




--------------------------------------- Iteration      1(   3)  ---------------------------------------


     EDDAV:  cpu time      6.1528: real time      6.2490
       DOS:  cpu time      0.0018: real time      0.0018
    --------------------------------------------
      LOOP:  cpu time      6.1547: real time      6.2508

 eigenvalue-minimisations  :  3260
 total energy-change (2. order) :-0.1187892E+03  (-0.1161341E+03)
 number of electron      54.0000000 magnetization       6.0000000
 augmentation part       54.0000000 magnetization       6.0000000

 Free energy of the ion-electron system (eV)
  ---------------------------------------------------
  alpha Z        PSCENC =        30.74992261
  Ewald energy   TEWEN  =      4471.64050427
  -Hartree energ DENC   =     -7171.78104879
  -exchange      EXHF   =         0.00000000
  -V(xc)+E(xc)   XCENC  =        82.31282073
  PAW double counting   =      2504.81294498    -2456.45414287
  entropy T*S    EENTRO =        -0.00049212
  eigenvalues    EBANDS =      -502.83305594
  atomic energy  EATOM  =      3012.07006103
  Solvation  Ediel_sol  =         0.00000000
  ext. energy  EPLUGINS =         0.00000000
  ---------------------------------------------------
  free energy    TOTEN  =       -29.48248611 eV

  energy without entropy =      -29.48199399  energy(sigma->0) =      -29.48224005


--------------------------------------------------------------------------------------------------------




--------------------------------------- Iteration      1(   4)  ---------------------------------------


     EDDAV:  cpu time      5.9017: real time      5.9890
       DOS:  cpu time      0.0021: real time      0.0021
    --------------------------------------------
      LOOP:  cpu time      5.9038: real time      5.9911

 eigenvalue-minimisations  :  3112
 total energy-change (2. order) :-0.7139459E+01  (-0.7013852E+01)
 number of electron      54.0000000 magnetization       6.0000000
 augmentation part       54.0000000 magnetization       6.0000000

 Free energy of the ion-electron system (eV)
  ---------------------------------------------------
  alpha Z        PSCENC =        30.74992261
  Ewald energy   TEWEN  =      4471.64050427
  -Hartree energ DENC   =     -7171.78104879
  -exchange      EXHF   =         0.00000000
  -V(xc)+E(xc)   XCENC  =        82.31282073
  PAW double counting   =      2504.81294498    -2456.45414287
  entropy T*S    EENTRO =        -0.00000000
  eigenvalues    EBANDS =      -509.97300708
  atomic energy  EATOM  =      3012.07006103
  Solvation  Ediel_sol  =         0.00000000
  ext. energy  EPLUGINS =         0.00000000
  ---------------------------------------------------
  free energy    TOTEN  =       -36.62194514 eV

  energy without entropy =      -36.62194514  energy(sigma->0) =      -36.62194514


--------------------------------------------------------------------------------------------------------




--------------------------------------- Iteration      1(   5)  ---------------------------------------


     EDDAV:  cpu time      6.4713: real time      6.5663
       DOS:  cpu time      0.0019: real time      0.0019
    CHARGE:  cpu time      0.2342: real time      0.2362
    MIXING:  cpu time      0.0062: real time      0.0063
    --------------------------------------------
      LOOP:  cpu time      6.7133: real time      6.8105

 eigenvalue-minimisations  :  3304
 total energy-change (2. order) :-0.2355855E+00  (-0.2349343E+00)
 number of electron      53.9999993 magnetization       6.0000000
 augmentation part       -2.0479858 magnetization       3.5385348

 Broyden mixing:
  rms(total) = 0.19584E+01    rms(broyden)= 0.19579E+01
  rms(prec ) = 0.21071E+01
  weight for this iteration     100.00

 Free energy of the ion-electron system (eV)
  ---------------------------------------------------
  alpha Z        PSCENC =        30.74992261
  Ewald energy   TEWEN  =      4471.64050427
  -Hartree energ DENC   =     -7171.78104879
  -exchange      EXHF   =         0.00000000
  -V(xc)+E(xc)   XCENC  =        82.31282073
  PAW double counting   =      2504.81294498    -2456.45414287
  entropy T*S    EENTRO =        -0.00000000
  eigenvalues    EBANDS =      -510.20859259
  atomic energy  EATOM  =      3012.07006103
  Solvation  Ediel_sol  =         0.00000000
  ext. energy  EPLUGINS =         0.00000000
  ---------------------------------------------------
  free energy    TOTEN  =       -36.85753065 eV

  energy without entropy =      -36.85753065  energy(sigma->0) =      -36.85753065


--------------------------------------------------------------------------------------------------------




--------------------------------------- Iteration      1(   6)  ---------------------------------------


    POTLOK:  cpu time      0.1963: real time      0.1985
    SETDIJ:  cpu time      0.1188: real time      0.1194
     EDDAV:  cpu time      6.7954: real time      6.8971
       DOS:  cpu time      0.0017: real time      0.0017
    CHARGE:  cpu time      0.2087: real time      0.2103
    MIXING:  cpu time      0.0058: real time      0.0060
    --------------------------------------------
      LOOP:  cpu time      7.3266: real time      7.4330

 eigenvalue-minimisations  :  3420
 total energy-change (2. order) : 0.2190438E+01  (-0.4101497E+01)
 number of electron      53.9999992 magnetization       6.0000000
 augmentation part        0.2511870 magnetization       4.2162599

 Broyden mixing:
  rms(total) = 0.18594E+01    rms(broyden)= 0.18593E+01
  rms(prec ) = 0.18981E+01
  weight for this iteration     100.00

 eigenvalues of (default mixing * dielectric matrix)
  average eigenvalue GAMMA=   0.3570
  0.3570

 Free energy of the ion-electron system (eV)
  ---------------------------------------------------
  alpha Z        PSCENC =        30.74992261
  Ewald energy   TEWEN  =      4471.64050427
  -Hartree energ DENC   =     -7158.78442639
  -exchange      EXHF   =         0.00000000
  -V(xc)+E(xc)   XCENC  =        85.74512979
  PAW double counting   =      2833.77071215    -2776.81233563
  entropy T*S    EENTRO =        -0.00000000
  eigenvalues    EBANDS =      -533.04666027
  atomic energy  EATOM  =      3012.07006103
  Solvation  Ediel_sol  =         0.00000000
  ext. energy  EPLUGINS =         0.00000000
  ---------------------------------------------------
  free energy    TOTEN  =       -34.66709245 eV

  energy without entropy =      -34.66709245  energy(sigma->0) =      -34.66709245


--------------------------------------------------------------------------------------------------------




--------------------------------------- Iteration      1(   7)  ---------------------------------------


    POTLOK:  cpu time      0.1885: real time      0.1907
    SETDIJ:  cpu time      0.1232: real time      0.1238
     EDDAV:  cpu time      5.9599: real time      6.0394
       DOS:  cpu time      0.0018: real time      0.0018
    CHARGE:  cpu time      0.2177: real time      0.2196
    MIXING:  cpu time      0.0068: real time      0.0068
    --------------------------------------------
      LOOP:  cpu time      6.4979: real time      6.5821

 eigenvalue-minimisations  :  3408
 total energy-change (2. order) : 0.2508095E+00  (-0.4299530E+00)
 number of electron      53.9999993 magnetization       5.9999999
 augmentation part       -0.6063632 magnetization       4.2171094

 Broyden mixing:
  rms(total) = 0.94122E+00    rms(broyden)= 0.94119E+00
  rms(prec ) = 0.94459E+00
  weight for this iteration     100.00

 eigenvalues of (default mixing * dielectric matrix)
  average eigenvalue GAMMA=   0.7193
  0.9721  0.4666

 Free energy of the ion-electron system (eV)
  ---------------------------------------------------
  alpha Z        PSCENC =        30.74992261
  Ewald energy   TEWEN  =      4471.64050427
  -Hartree energ DENC   =     -7166.50859214
  -exchange      EXHF   =         0.00000000
  -V(xc)+E(xc)   XCENC  =        85.69376884
  PAW double counting   =      3030.72770407    -2978.54098425
  entropy T*S    EENTRO =        -0.00000000
  eigenvalues    EBANDS =      -520.24866732
  atomic energy  EATOM  =      3012.07006103
  Solvation  Ediel_sol  =         0.00000000
  ext. energy  EPLUGINS =         0.00000000
  ---------------------------------------------------
  free energy    TOTEN  =       -34.41628290 eV

  energy without entropy =      -34.41628290  energy(sigma->0) =      -34.41628290


--------------------------------------------------------------------------------------------------------




--------------------------------------- Iteration      1(   8)  ---------------------------------------


    POTLOK:  cpu time      0.1937: real time      0.1959
    SETDIJ:  cpu time      0.1175: real time      0.1181
     EDDAV:  cpu time      6.1650: real time      6.2543
       DOS:  cpu time      0.0018: real time      0.0018
    CHARGE:  cpu time      0.2257: real time      0.2277
    MIXING:  cpu time      0.0065: real time      0.0067
    --------------------------------------------
      LOOP:  cpu time      6.7103: real time      6.8045

 eigenvalue-minimisations  :  3052
 total energy-change (2. order) :-0.1646878E+00  (-0.8803875E-01)
 number of electron      53.9999993 magnetization       5.9999999
 augmentation part       -0.6406267 magnetization       4.3090852

 Broyden mixing:
  rms(total) = 0.47060E+00    rms(broyden)= 0.47060E+00
  rms(prec ) = 0.47452E+00
  weight for this iteration     100.00

 eigenvalues of (default mixing * dielectric matrix)
  average eigenvalue GAMMA=   1.0841
  2.0248  0.7165  0.5110

 Free energy of the ion-electron system (eV)
  ---------------------------------------------------
  alpha Z        PSCENC =        30.74992261
  Ewald energy   TEWEN  =      4471.64050427
  -Hartree energ DENC   =     -7167.36930223
  -exchange      EXHF   =         0.00000000
  -V(xc)+E(xc)   XCENC  =        86.05892440
  PAW double counting   =      3348.36537966    -3297.80356556
  entropy T*S    EENTRO =        -0.00000000
  eigenvalues    EBANDS =      -518.29289484
  atomic energy  EATOM  =      3012.07006103
  Solvation  Ediel_sol  =         0.00000000
  ext. energy  EPLUGINS =         0.00000000
  ---------------------------------------------------
  free energy    TOTEN  =       -34.58097068 eV

  energy without entropy =      -34.58097068  energy(sigma->0) =      -34.58097068


--------------------------------------------------------------------------------------------------------




--------------------------------------- Iteration      1(   9)  ---------------------------------------


    POTLOK:  cpu time      0.2013: real time      0.2038
    SETDIJ:  cpu time      0.1149: real time      0.1157
     EDDAV:  cpu time      6.7894: real time      6.9018
       DOS:  cpu time      0.0016: real time      0.0017
    CHARGE:  cpu time      0.1906: real time      0.1927
    MIXING:  cpu time      0.0065: real time      0.0066
    --------------------------------------------
      LOOP:  cpu time      7.3043: real time      7.4223

 eigenvalue-minimisations  :  3448
 total energy-change (2. order) :-0.1140898E-01  (-0.1743987E-01)
 number of electron      53.9999993 magnetization       5.9999999
 augmentation part       -0.5059448 magnetization       4.4065859

 Broyden mixing:
  rms(total) = 0.11349E+00    rms(broyden)= 0.11348E+00
  rms(prec ) = 0.11703E+00
  weight for this iteration     100.00

 eigenvalues of (default mixing * dielectric matrix)
  average eigenvalue GAMMA=   1.1235
  2.3377  0.9676  0.5316  0.6571

 Free energy of the ion-electron system (eV)
  ---------------------------------------------------
  alpha Z        PSCENC =        30.74992261
  Ewald energy   TEWEN  =      4471.64050427
  -Hartree energ DENC   =     -7169.09074593
  -exchange      EXHF   =         0.00000000
  -V(xc)+E(xc)   XCENC  =        86.71449169
  PAW double counting   =      3666.50746793    -3616.72766148
  entropy T*S    EENTRO =        -0.00000000
  eigenvalues    EBANDS =      -516.45641978
  atomic energy  EATOM  =      3012.07006103
  Solvation  Ediel_sol  =         0.00000000
  ext. energy  EPLUGINS =         0.00000000
  ---------------------------------------------------
  free energy    TOTEN  =       -34.59237966 eV

  energy without entropy =      -34.59237966  energy(sigma->0) =      -34.59237966


--------------------------------------------------------------------------------------------------------




--------------------------------------- Iteration      1(  10)  ---------------------------------------


    POTLOK:  cpu time      0.1889: real time      0.1909
    SETDIJ:  cpu time      0.1197: real time      0.1204
     EDDAV:  cpu time      6.5801: real time      6.6741
       DOS:  cpu time      0.0017: real time      0.0017
    CHARGE:  cpu time      0.2017: real time      0.2032
    MIXING:  cpu time      0.0072: real time      0.0073
    --------------------------------------------
      LOOP:  cpu time      7.0993: real time      7.1977

 eigenvalue-minimisations  :  3416
 total energy-change (2. order) :-0.1112857E-01  (-0.4923877E-02)
 number of electron      53.9999993 magnetization       5.9999999
 augmentation part       -0.5653572 magnetization       4.3738875

 Broyden mixing:
  rms(total) = 0.42386E-01    rms(broyden)= 0.42383E-01
  rms(prec ) = 0.43031E-01
  weight for this iteration     100.00

 eigenvalues of (default mixing * dielectric matrix)
  average eigenvalue GAMMA=   1.0868
  2.3910  1.1377  0.5312  0.6870  0.6870

 Free energy of the ion-electron system (eV)
  ---------------------------------------------------
  alpha Z        PSCENC =        30.74992261
  Ewald energy   TEWEN  =      4471.64050427
  -Hartree energ DENC   =     -7170.15675632
  -exchange      EXHF   =         0.00000000
  -V(xc)+E(xc)   XCENC  =        86.71757577
  PAW double counting   =      3675.15612887    -3625.71191274
  entropy T*S    EENTRO =        -0.00000000
  eigenvalues    EBANDS =      -515.06903171
  atomic energy  EATOM  =      3012.07006103
  Solvation  Ediel_sol  =         0.00000000
  ext. energy  EPLUGINS =         0.00000000
  ---------------------------------------------------
  free energy    TOTEN  =       -34.60350823 eV

  energy without entropy =      -34.60350823  energy(sigma->0) =      -34.60350823


--------------------------------------------------------------------------------------------------------




--------------------------------------- Iteration      1(  11)  ---------------------------------------


    POTLOK:  cpu time      0.1788: real time      0.1807
    SETDIJ:  cpu time      0.1223: real time      0.1230
     EDDAV:  cpu time      6.1903: real time      6.2681
       DOS:  cpu time      0.0020: real time      0.0020
    CHARGE:  cpu time      0.1644: real time      0.1658
    MIXING:  cpu time      0.0071: real time      0.0072
    --------------------------------------------
      LOOP:  cpu time      6.6649: real time      6.7467

 eigenvalue-minimisations  :  3248
 total energy-change (2. order) :-0.8348101E-02  (-0.2222252E-03)
 number of electron      53.9999993 magnetization       5.9999998
 augmentation part       -0.5710676 magnetization       4.3642120

 Broyden mixing:
  rms(total) = 0.28961E-01    rms(broyden)= 0.28960E-01
  rms(prec ) = 0.29387E-01
  weight for this iteration     100.00

 eigenvalues of (default mixing * dielectric matrix)
  average eigenvalue GAMMA=   1.0977
  2.4530  1.1190  1.1190  0.5331  0.6811  0.6811

 Free energy of the ion-electron system (eV)
  ---------------------------------------------------
  alpha Z        PSCENC =        30.74992261
  Ewald energy   TEWEN  =      4471.64050427
  -Hartree energ DENC   =     -7170.38433717
  -exchange      EXHF   =         0.00000000
  -V(xc)+E(xc)   XCENC  =        86.66601176
  PAW double counting   =      3683.21808911    -3633.80311906
  entropy T*S    EENTRO =        -0.00000000
  eigenvalues    EBANDS =      -514.76898888
  atomic energy  EATOM  =      3012.07006103
  Solvation  Ediel_sol  =         0.00000000
  ext. energy  EPLUGINS =         0.00000000
  ---------------------------------------------------
  free energy    TOTEN  =       -34.61185633 eV

  energy without entropy =      -34.61185633  energy(sigma->0) =      -34.61185633


--------------------------------------------------------------------------------------------------------




--------------------------------------- Iteration      1(  12)  ---------------------------------------


    POTLOK:  cpu time      0.1814: real time      0.1846
    SETDIJ:  cpu time      0.1147: real time      0.1153
     EDDAV:  cpu time      6.5799: real time      6.6671
       DOS:  cpu time      0.0019: real time      0.0019
    CHARGE:  cpu time      0.2096: real time      0.2112
    MIXING:  cpu time      0.0061: real time      0.0062
    --------------------------------------------
      LOOP:  cpu time      7.0937: real time      7.1863

 eigenvalue-minimisations  :  3452
 total energy-change (2. order) :-0.1194900E-01  (-0.1078310E-03)
 number of electron      53.9999993 magnetization       5.9999998
 augmentation part       -0.5664181 magnetization       4.3620813

 Broyden mixing:
  rms(total) = 0.16811E-01    rms(broyden)= 0.16811E-01
  rms(prec ) = 0.17217E-01
  weight for this iteration     100.00

 eigenvalues of (default mixing * dielectric matrix)
  average eigenvalue GAMMA=   1.1771
  2.5072  1.5349  1.5349  0.8593  0.5279  0.6377  0.6377

 Free energy of the ion-electron system (eV)
  ---------------------------------------------------
  alpha Z        PSCENC =        30.74992261
  Ewald energy   TEWEN  =      4471.64050427
  -Hartree energ DENC   =     -7170.69273983
  -exchange      EXHF   =         0.00000000
  -V(xc)+E(xc)   XCENC  =        86.64425875
  PAW double counting   =      3687.54372710    -3638.13013758
  entropy T*S    EENTRO =        -0.00000000
  eigenvalues    EBANDS =      -514.44940167
  atomic energy  EATOM  =      3012.07006103
  Solvation  Ediel_sol  =         0.00000000
  ext. energy  EPLUGINS =         0.00000000
  ---------------------------------------------------
  free energy    TOTEN  =       -34.62380533 eV

  energy without entropy =      -34.62380533  energy(sigma->0) =      -34.62380533


--------------------------------------------------------------------------------------------------------




--------------------------------------- Iteration      1(  13)  ---------------------------------------


    POTLOK:  cpu time      0.1895: real time      0.1920
    SETDIJ:  cpu time      0.1630: real time      0.1638
     EDDAV:  cpu time      5.5854: real time      5.6741
       DOS:  cpu time      0.0019: real time      0.0022
    CHARGE:  cpu time      0.2126: real time      0.2142
    MIXING:  cpu time      0.0069: real time      0.0070
    --------------------------------------------
      LOOP:  cpu time      6.1593: real time      6.2533

 eigenvalue-minimisations  :  2836
 total energy-change (2. order) :-0.1015760E-01  (-0.3442673E-04)
 number of electron      53.9999993 magnetization       5.9999998
 augmentation part       -0.5678848 magnetization       4.3603107

 Broyden mixing:
  rms(total) = 0.54904E-02    rms(broyden)= 0.54900E-02
  rms(prec ) = 0.61051E-02
  weight for this iteration     100.00

 eigenvalues of (default mixing * dielectric matrix)
  average eigenvalue GAMMA=   1.1846
  2.4557  2.1801  1.0842  1.0842  0.8618  0.5295  0.6407  0.6407

 Free energy of the ion-electron system (eV)
  ---------------------------------------------------
  alpha Z        PSCENC =        30.74992261
  Ewald energy   TEWEN  =      4471.64050427
  -Hartree energ DENC   =     -7171.14936323
  -exchange      EXHF   =         0.00000000
  -V(xc)+E(xc)   XCENC  =        86.63702132
  PAW double counting   =      3687.44447196    -3638.01608811
  entropy T*S    EENTRO =        -0.00000000
  eigenvalues    EBANDS =      -514.01049276
  atomic energy  EATOM  =      3012.07006103
  Solvation  Ediel_sol  =         0.00000000
  ext. energy  EPLUGINS =         0.00000000
  ---------------------------------------------------
  free energy    TOTEN  =       -34.63396293 eV

  energy without entropy =      -34.63396293  energy(sigma->0) =      -34.63396293


--------------------------------------------------------------------------------------------------------




--------------------------------------- Iteration      1(  14)  ---------------------------------------


    POTLOK:  cpu time      0.1948: real time      0.1973
    SETDIJ:  cpu time      0.1641: real time      0.1650
     EDDAV:  cpu time      6.2246: real time      6.3151
       DOS:  cpu time      0.0019: real time      0.0019
    CHARGE:  cpu time      0.2049: real time      0.2066
    MIXING:  cpu time      0.0070: real time      0.0071
    --------------------------------------------
      LOOP:  cpu time      6.7972: real time      6.8929

 eigenvalue-minimisations  :  3216
 total energy-change (2. order) :-0.3681009E-02  (-0.1020228E-04)
 number of electron      53.9999993 magnetization       5.9999998
 augmentation part       -0.5715571 magnetization       4.3584728

 Broyden mixing:
  rms(total) = 0.37709E-02    rms(broyden)= 0.37707E-02
  rms(prec ) = 0.42206E-02
  weight for this iteration     100.00

 eigenvalues of (default mixing * dielectric matrix)
  average eigenvalue GAMMA=   1.1123
  2.2877  2.1949  1.1617  1.1617  0.8672  0.6412  0.6412  0.5273  0.5273

 Free energy of the ion-electron system (eV)
  ---------------------------------------------------
  alpha Z        PSCENC =        30.74992261
  Ewald energy   TEWEN  =      4471.64050427
  -Hartree energ DENC   =     -7171.39826751
  -exchange      EXHF   =         0.00000000
  -V(xc)+E(xc)   XCENC  =        86.62918466
  PAW double counting   =      3685.51538598    -3636.10078319
  entropy T*S    EENTRO =        -0.00000000
  eigenvalues    EBANDS =      -513.74365177
  atomic energy  EATOM  =      3012.07006103
  Solvation  Ediel_sol  =         0.00000000
  ext. energy  EPLUGINS =         0.00000000
  ---------------------------------------------------
  free energy    TOTEN  =       -34.63764394 eV

  energy without entropy =      -34.63764394  energy(sigma->0) =      -34.63764394


--------------------------------------------------------------------------------------------------------




--------------------------------------- Iteration      1(  15)  ---------------------------------------


    POTLOK:  cpu time      0.1915: real time      0.1939
    SETDIJ:  cpu time      0.1689: real time      0.1698
     EDDAV:  cpu time      5.5909: real time      5.6625
       DOS:  cpu time      0.0019: real time      0.0019
    CHARGE:  cpu time      0.1916: real time      0.1931
    MIXING:  cpu time      0.0078: real time      0.0080
    --------------------------------------------
      LOOP:  cpu time      6.1526: real time      6.2290

 eigenvalue-minimisations  :  2868
 total energy-change (2. order) :-0.1576645E-02  (-0.2097456E-05)
 number of electron      53.9999993 magnetization       5.9999998
 augmentation part       -0.5712029 magnetization       4.3586888

 Broyden mixing:
  rms(total) = 0.22469E-02    rms(broyden)= 0.22469E-02
  rms(prec ) = 0.28017E-02
  weight for this iteration     100.00

 eigenvalues of (default mixing * dielectric matrix)
  average eigenvalue GAMMA=   1.1714
  2.3135  2.3135  1.4012  1.4012  0.9167  0.7770  0.7770  0.5303  0.6419  0.6419

 Free energy of the ion-electron system (eV)
  ---------------------------------------------------
  alpha Z        PSCENC =        30.74992261
  Ewald energy   TEWEN  =      4471.64050427
  -Hartree energ DENC   =     -7171.52224826
  -exchange      EXHF   =         0.00000000
  -V(xc)+E(xc)   XCENC  =        86.62993627
  PAW double counting   =      3684.26555647    -3634.84709751
  entropy T*S    EENTRO =        -0.00000000
  eigenvalues    EBANDS =      -513.62585546
  atomic energy  EATOM  =      3012.07006103
  Solvation  Ediel_sol  =         0.00000000
  ext. energy  EPLUGINS =         0.00000000
  ---------------------------------------------------
  free energy    TOTEN  =       -34.63922058 eV

  energy without entropy =      -34.63922058  energy(sigma->0) =      -34.63922058


--------------------------------------------------------------------------------------------------------




--------------------------------------- Iteration      1(  16)  ---------------------------------------


    POTLOK:  cpu time      0.1931: real time      0.1953
    SETDIJ:  cpu time      0.1128: real time      0.1133
     EDDAV:  cpu time      6.0524: real time      6.1264
       DOS:  cpu time      0.0018: real time      0.0018
    CHARGE:  cpu time      0.1912: real time      0.1926
    MIXING:  cpu time      0.0084: real time      0.0085
    --------------------------------------------
      LOOP:  cpu time      6.5597: real time      6.6379

 eigenvalue-minimisations  :  3148
 total energy-change (2. order) :-0.4508673E-02  (-0.3209866E-05)
 number of electron      53.9999993 magnetization       5.9999998
 augmentation part       -0.5701252 magnetization       4.3590072

 Broyden mixing:
  rms(total) = 0.13419E-02    rms(broyden)= 0.13418E-02
  rms(prec ) = 0.17318E-02
  weight for this iteration     100.00

 eigenvalues of (default mixing * dielectric matrix)
  average eigenvalue GAMMA=   1.2312
  2.6443  2.6443  1.6979  1.5581  1.0527  0.7672  0.7672  0.5295  0.6836  0.5994
  0.5994

 Free energy of the ion-electron system (eV)
  ---------------------------------------------------
  alpha Z        PSCENC =        30.74992261
  Ewald energy   TEWEN  =      4471.64050427
  -Hartree energ DENC   =     -7171.95516694
  -exchange      EXHF   =         0.00000000
  -V(xc)+E(xc)   XCENC  =        86.63109618
  PAW double counting   =      3682.40674824    -3632.98736484
  entropy T*S    EENTRO =        -0.00000000
  eigenvalues    EBANDS =      -513.19952979
  atomic energy  EATOM  =      3012.07006103
  Solvation  Ediel_sol  =         0.00000000
  ext. energy  EPLUGINS =         0.00000000
  ---------------------------------------------------
  free energy    TOTEN  =       -34.64372926 eV

  energy without entropy =      -34.64372926  energy(sigma->0) =      -34.64372926


--------------------------------------------------------------------------------------------------------




--------------------------------------- Iteration      1(  17)  ---------------------------------------


    POTLOK:  cpu time      0.1863: real time      0.1884
    SETDIJ:  cpu time      0.1159: real time      0.1165
     EDDAV:  cpu time      5.4467: real time      5.5175
       DOS:  cpu time      0.0018: real time      0.0018
    CHARGE:  cpu time      0.1914: real time      0.1942
    MIXING:  cpu time      0.0069: real time      0.0070
    --------------------------------------------
      LOOP:  cpu time      5.9490: real time      6.0253

 eigenvalue-minimisations  :  2716
 total energy-change (2. order) :-0.1326289E-02  (-0.1509095E-05)
 number of electron      53.9999993 magnetization       5.9999998
 augmentation part       -0.5699395 magnetization       4.3594199

 Broyden mixing:
  rms(total) = 0.12817E-02    rms(broyden)= 0.12817E-02
  rms(prec ) = 0.15174E-02
  weight for this iteration     100.00

 eigenvalues of (default mixing * dielectric matrix)
  average eigenvalue GAMMA=   1.2356
  2.8072  2.2588  2.2588  1.2593  1.2593  0.8987  0.8405  0.8405  0.5304  0.6411
  0.6411  0.5911

 Free energy of the ion-electron system (eV)
  ---------------------------------------------------
  alpha Z        PSCENC =        30.74992261
  Ewald energy   TEWEN  =      4471.64050427
  -Hartree energ DENC   =     -7172.20321295
  -exchange      EXHF   =         0.00000000
  -V(xc)+E(xc)   XCENC  =        86.63467980
  PAW double counting   =      3682.00168470    -3632.58017273
  entropy T*S    EENTRO =        -0.00000000
  eigenvalues    EBANDS =      -512.95852227
  atomic energy  EATOM  =      3012.07006103
  Solvation  Ediel_sol  =         0.00000000
  ext. energy  EPLUGINS =         0.00000000
  ---------------------------------------------------
  free energy    TOTEN  =       -34.64505554 eV

  energy without entropy =      -34.64505554  energy(sigma->0) =      -34.64505554


--------------------------------------------------------------------------------------------------------




--------------------------------------- Iteration      1(  18)  ---------------------------------------


    POTLOK:  cpu time      0.1770: real time      0.1790
    SETDIJ:  cpu time      0.1154: real time      0.1160
     EDDAV:  cpu time      5.1696: real time      5.2422
       DOS:  cpu time      0.0020: real time      0.0020
    CHARGE:  cpu time      0.1968: real time      0.1982
    MIXING:  cpu time      0.0077: real time      0.0079
    --------------------------------------------
      LOOP:  cpu time      5.6684: real time      5.7452

 eigenvalue-minimisations  :  2536
 total energy-change (2. order) :-0.3543443E-03  (-0.5482170E-06)
 number of electron      53.9999993 magnetization       5.9999998
 augmentation part       -0.5703094 magnetization       4.3595548

 Broyden mixing:
  rms(total) = 0.84223E-03    rms(broyden)= 0.84221E-03
  rms(prec ) = 0.10157E-02
  weight for this iteration     100.00

 eigenvalues of (default mixing * dielectric matrix)
  average eigenvalue GAMMA=   1.2858
  3.3935  2.4702  1.6675  1.6675  1.4212  0.9914  0.9914  0.9574  0.5303  0.7225
  0.6417  0.6417  0.6193

 Free energy of the ion-electron system (eV)
  ---------------------------------------------------
  alpha Z        PSCENC =        30.74992261
  Ewald energy   TEWEN  =      4471.64050427
  -Hartree energ DENC   =     -7172.36352086
  -exchange      EXHF   =         0.00000000
  -V(xc)+E(xc)   XCENC  =        86.63674169
  PAW double counting   =      3682.64087660    -3633.21964355
  entropy T*S    EENTRO =        -0.00000000
  eigenvalues    EBANDS =      -512.80035168
  atomic energy  EATOM  =      3012.07006103
  Solvation  Ediel_sol  =         0.00000000
  ext. energy  EPLUGINS =         0.00000000
  ---------------------------------------------------
  free energy    TOTEN  =       -34.64540989 eV

  energy without entropy =      -34.64540989  energy(sigma->0) =      -34.64540989


--------------------------------------------------------------------------------------------------------




--------------------------------------- Iteration      1(  19)  ---------------------------------------


    POTLOK:  cpu time      0.1863: real time      0.1885
    SETDIJ:  cpu time      0.1189: real time      0.1195
     EDDAV:  cpu time      4.4889: real time      4.5501
       DOS:  cpu time      0.0017: real time      0.0017
    CHARGE:  cpu time      0.2131: real time      0.2146
    MIXING:  cpu time      0.0098: real time      0.0099
    --------------------------------------------
      LOOP:  cpu time      5.0187: real time      5.0844

 eigenvalue-minimisations  :  2100
 total energy-change (2. order) :-0.1052051E-03  (-0.3946755E-06)
 number of electron      53.9999993 magnetization       5.9999998
 augmentation part       -0.5704096 magnetization       4.3592992

 Broyden mixing:
  rms(total) = 0.38444E-03    rms(broyden)= 0.38443E-03
  rms(prec ) = 0.52762E-03
  weight for this iteration     100.00

 eigenvalues of (default mixing * dielectric matrix)
  average eigenvalue GAMMA=   1.4004
  4.5663  2.6395  2.0256  2.0256  1.4426  1.0960  0.9995  0.8316  0.8316  0.5304
  0.7124  0.6474  0.6474  0.6103

 Free energy of the ion-electron system (eV)
  ---------------------------------------------------
  alpha Z        PSCENC =        30.74992261
  Ewald energy   TEWEN  =      4471.64050427
  -Hartree energ DENC   =     -7172.52803455
  -exchange      EXHF   =         0.00000000
  -V(xc)+E(xc)   XCENC  =        86.63572650
  PAW double counting   =      3682.73463326    -3633.31298820
  entropy T*S    EENTRO =        -0.00000000
  eigenvalues    EBANDS =      -512.63534000
  atomic energy  EATOM  =      3012.07006103
  Solvation  Ediel_sol  =         0.00000000
  ext. energy  EPLUGINS =         0.00000000
  ---------------------------------------------------
  free energy    TOTEN  =       -34.64551509 eV

  energy without entropy =      -34.64551509  energy(sigma->0) =      -34.64551509


--------------------------------------------------------------------------------------------------------




--------------------------------------- Iteration      1(  20)  ---------------------------------------


    POTLOK:  cpu time      0.1840: real time      0.1859
    SETDIJ:  cpu time      0.1144: real time      0.1150
     EDDAV:  cpu time      4.6645: real time      4.7337
       DOS:  cpu time      0.0017: real time      0.0018
    CHARGE:  cpu time      0.1823: real time      0.1845
    MIXING:  cpu time      0.0085: real time      0.0087
    --------------------------------------------
      LOOP:  cpu time      5.1555: real time      5.2295

 eigenvalue-minimisations  :  2164
 total energy-change (2. order) : 0.1491722E-04  (-0.4669957E-06)
 number of electron      53.9999993 magnetization       5.9999998
 augmentation part       -0.5705222 magnetization       4.3592838

 Broyden mixing:
  rms(total) = 0.37709E-03    rms(broyden)= 0.37708E-03
  rms(prec ) = 0.42972E-03
  weight for this iteration     100.00

 eigenvalues of (default mixing * dielectric matrix)
  average eigenvalue GAMMA=   1.3902
  5.1380  2.3606  2.3606  1.6924  1.6924  1.0449  1.0449  0.8545  0.8545  0.7903
  0.5303  0.6365  0.6365  0.6084  0.6084

 Free energy of the ion-electron system (eV)
  ---------------------------------------------------
  alpha Z        PSCENC =        30.74992261
  Ewald energy   TEWEN  =      4471.64050427
  -Hartree energ DENC   =     -7172.66571362
  -exchange      EXHF   =         0.00000000
  -V(xc)+E(xc)   XCENC  =        86.63598878
  PAW double counting   =      3683.06861420    -3633.64588037
  entropy T*S    EENTRO =        -0.00000000
  eigenvalues    EBANDS =      -512.49899706
  atomic energy  EATOM  =      3012.07006103
  Solvation  Ediel_sol  =         0.00000000
  ext. energy  EPLUGINS =         0.00000000
  ---------------------------------------------------
  free energy    TOTEN  =       -34.64550018 eV

  energy without entropy =      -34.64550018  energy(sigma->0) =      -34.64550018


--------------------------------------------------------------------------------------------------------




--------------------------------------- Iteration      1(  21)  ---------------------------------------


    POTLOK:  cpu time      0.1806: real time      0.1832
    SETDIJ:  cpu time      0.1213: real time      0.1219
     EDDAV:  cpu time      4.0456: real time      4.1128
       DOS:  cpu time      0.0017: real time      0.0017
    CHARGE:  cpu time      0.1700: real time      0.1715
    MIXING:  cpu time      0.0088: real time      0.0089
    --------------------------------------------
      LOOP:  cpu time      4.5280: real time      4.6000

 eigenvalue-minimisations  :  1792
 total energy-change (2. order) : 0.1735044E-05  (-0.4244514E-07)
 number of electron      53.9999993 magnetization       5.9999998
 augmentation part       -0.5704556 magnetization       4.3593071

 Broyden mixing:
  rms(total) = 0.27037E-03    rms(broyden)= 0.27037E-03
  rms(prec ) = 0.32054E-03
  weight for this iteration     100.00

 eigenvalues of (default mixing * dielectric matrix)
  average eigenvalue GAMMA=   1.4306
  5.4705  2.5502  2.5502  1.6507  1.6507  1.6072  1.0117  1.0117  0.8685  0.5304
  0.7036  0.7036  0.6675  0.6675  0.6058  0.6401

 Free energy of the ion-electron system (eV)
  ---------------------------------------------------
  alpha Z        PSCENC =        30.74992261
  Ewald energy   TEWEN  =      4471.64050427
  -Hartree energ DENC   =     -7172.69499865
  -exchange      EXHF   =         0.00000000
  -V(xc)+E(xc)   XCENC  =        86.63641465
  PAW double counting   =      3683.08071421    -3633.65908991
  entropy T*S    EENTRO =        -0.00000000
  eigenvalues    EBANDS =      -512.46902665
  atomic energy  EATOM  =      3012.07006103
  Solvation  Ediel_sol  =         0.00000000
  ext. energy  EPLUGINS =         0.00000000
  ---------------------------------------------------
  free energy    TOTEN  =       -34.64549844 eV

  energy without entropy =      -34.64549844  energy(sigma->0) =      -34.64549844


--------------------------------------------------------------------------------------------------------




--------------------------------------- Iteration      1(  22)  ---------------------------------------


    POTLOK:  cpu time      0.1793: real time      0.1815
    SETDIJ:  cpu time      0.1176: real time      0.1182
     EDDAV:  cpu time      3.8067: real time      3.8848
       DOS:  cpu time      0.0019: real time      0.0019
    CHARGE:  cpu time      0.1757: real time      0.1771
    MIXING:  cpu time      0.0092: real time      0.0093
    --------------------------------------------
      LOOP:  cpu time      4.2904: real time      4.3729

 eigenvalue-minimisations  :  1636
 total energy-change (2. order) :-0.3346268E-04  (-0.4703162E-07)
 number of electron      53.9999993 magnetization       5.9999998
 augmentation part       -0.5705426 magnetization       4.3592042

 Broyden mixing:
  rms(total) = 0.28275E-03    rms(broyden)= 0.28275E-03
  rms(prec ) = 0.30170E-03
  weight for this iteration     100.00

 eigenvalues of (default mixing * dielectric matrix)
  average eigenvalue GAMMA=   1.4310
  5.5804  2.5536  2.5536  1.8687  1.8687  1.6556  1.0592  1.0592  0.8302  0.8302
  0.7245  0.6851  0.6851  0.6496  0.6496  0.5309  0.5429

 Free energy of the ion-electron system (eV)
  ---------------------------------------------------
  alpha Z        PSCENC =        30.74992261
  Ewald energy   TEWEN  =      4471.64050427
  -Hartree energ DENC   =     -7172.75186850
  -exchange      EXHF   =         0.00000000
  -V(xc)+E(xc)   XCENC  =        86.63642014
  PAW double counting   =      3682.91351024    -3633.49291368
  entropy T*S    EENTRO =        -0.00000000
  eigenvalues    EBANDS =      -512.41116801
  atomic energy  EATOM  =      3012.07006103
  Solvation  Ediel_sol  =         0.00000000
  ext. energy  EPLUGINS =         0.00000000
  ---------------------------------------------------
  free energy    TOTEN  =       -34.64553190 eV

  energy without entropy =      -34.64553190  energy(sigma->0) =      -34.64553190


--------------------------------------------------------------------------------------------------------




--------------------------------------- Iteration      1(  23)  ---------------------------------------


    POTLOK:  cpu time      0.1822: real time      0.1844
    SETDIJ:  cpu time      0.1251: real time      0.1258
     EDDAV:  cpu time      3.8043: real time      3.8528
       DOS:  cpu time      0.0020: real time      0.0020
    CHARGE:  cpu time      0.2032: real time      0.2049
    MIXING:  cpu time      0.0088: real time      0.0089
    --------------------------------------------
      LOOP:  cpu time      4.3256: real time      4.3788

 eigenvalue-minimisations  :  1632
 total energy-change (2. order) :-0.2079731E-04  (-0.2777860E-07)
 number of electron      53.9999993 magnetization       5.9999998
 augmentation part       -0.5704856 magnetization       4.3592173

 Broyden mixing:
  rms(total) = 0.15510E-03    rms(broyden)= 0.15510E-03
  rms(prec ) = 0.17036E-03
  weight for this iteration     100.00

 eigenvalues of (default mixing * dielectric matrix)
  average eigenvalue GAMMA=   1.4344
  5.9079  2.9035  2.1387  2.1387  1.8171  1.8171  1.1503  1.0180  1.0180  0.7649
  0.7649  0.7238  0.7238  0.6370  0.6370  0.6084  0.5300  0.5198

 Free energy of the ion-electron system (eV)
  ---------------------------------------------------
  alpha Z        PSCENC =        30.74992261
  Ewald energy   TEWEN  =      4471.64050427
  -Hartree energ DENC   =     -7172.77773355
  -exchange      EXHF   =         0.00000000
  -V(xc)+E(xc)   XCENC  =        86.63643852
  PAW double counting   =      3682.74833491    -3633.32746743
  entropy T*S    EENTRO =        -0.00000000
  eigenvalues    EBANDS =      -512.38561305
  atomic energy  EATOM  =      3012.07006103
  Solvation  Ediel_sol  =         0.00000000
  ext. energy  EPLUGINS =         0.00000000
  ---------------------------------------------------
  free energy    TOTEN  =       -34.64555270 eV

  energy without entropy =      -34.64555270  energy(sigma->0) =      -34.64555270


--------------------------------------------------------------------------------------------------------




--------------------------------------- Iteration      1(  24)  ---------------------------------------


    POTLOK:  cpu time      0.1797: real time      0.1819
    SETDIJ:  cpu time      0.1176: real time      0.1183
     EDDAV:  cpu time      3.8501: real time      3.8998
       DOS:  cpu time      0.0020: real time      0.0020
    CHARGE:  cpu time      0.1905: real time      0.1921
    MIXING:  cpu time      0.0111: real time      0.0112
    --------------------------------------------
      LOOP:  cpu time      4.3510: real time      4.4053

 eigenvalue-minimisations  :  1644
 total energy-change (2. order) :-0.9967424E-05  (-0.1657896E-07)
 number of electron      53.9999993 magnetization       5.9999998
 augmentation part       -0.5704375 magnetization       4.3592493

 Broyden mixing:
  rms(total) = 0.13780E-03    rms(broyden)= 0.13779E-03
  rms(prec ) = 0.14749E-03
  weight for this iteration     100.00

 eigenvalues of (default mixing * dielectric matrix)
  average eigenvalue GAMMA=   1.4719
  6.0342  2.8957  2.7753  2.0902  1.8769  1.8769  1.6144  1.0345  1.0345  0.7651
  0.7651  0.7966  0.7966  0.6891  0.6340  0.6340  0.6136  0.5303  0.5096

 Free energy of the ion-electron system (eV)
  ---------------------------------------------------
  alpha Z        PSCENC =        30.74992261
  Ewald energy   TEWEN  =      4471.64050427
  -Hartree energ DENC   =     -7172.78795902
  -exchange      EXHF   =         0.00000000
  -V(xc)+E(xc)   XCENC  =        86.63646612
  PAW double counting   =      3682.75440375    -3633.33333700
  entropy T*S    EENTRO =        -0.00000000
  eigenvalues    EBANDS =      -512.37562442
  atomic energy  EATOM  =      3012.07006103
  Solvation  Ediel_sol  =         0.00000000
  ext. energy  EPLUGINS =         0.00000000
  ---------------------------------------------------
  free energy    TOTEN  =       -34.64556267 eV

  energy without entropy =      -34.64556267  energy(sigma->0) =      -34.64556267


--------------------------------------------------------------------------------------------------------




--------------------------------------- Iteration      1(  25)  ---------------------------------------


    POTLOK:  cpu time      0.1857: real time      0.1883
    SETDIJ:  cpu time      0.1211: real time      0.1218
     EDDAV:  cpu time      4.0043: real time      4.0565
       DOS:  cpu time      0.0020: real time      0.0020
    CHARGE:  cpu time      0.1807: real time      0.1821
    MIXING:  cpu time      0.0086: real time      0.0088
    --------------------------------------------
      LOOP:  cpu time      4.5023: real time      4.5595

 eigenvalue-minimisations  :  1728
 total energy-change (2. order) :-0.2161739E-04  (-0.4843756E-07)
 number of electron      53.9999993 magnetization       5.9999998
 augmentation part       -0.5704142 magnetization       4.3592774

 Broyden mixing:
  rms(total) = 0.15289E-03    rms(broyden)= 0.15289E-03
  rms(prec ) = 0.15513E-03
  weight for this iteration     100.00

 eigenvalues of (default mixing * dielectric matrix)
  average eigenvalue GAMMA=   1.5141
  6.2528  3.8320  2.5130  2.2587  2.0763  2.0763  1.5775  1.1052  0.9582  0.9582
  0.7725  0.7725  0.8153  0.7460  0.5303  0.6411  0.6411  0.6505  0.6173  0.4864

 Free energy of the ion-electron system (eV)
  ---------------------------------------------------
  alpha Z        PSCENC =        30.74992261
  Ewald energy   TEWEN  =      4471.64050427
  -Hartree energ DENC   =     -7172.79550334
  -exchange      EXHF   =         0.00000000
  -V(xc)+E(xc)   XCENC  =        86.63634901
  PAW double counting   =      3682.93572959    -3633.51440766
  entropy T*S    EENTRO =        -0.00000000
  eigenvalues    EBANDS =      -512.36823978
  atomic energy  EATOM  =      3012.07006103
  Solvation  Ediel_sol  =         0.00000000
  ext. energy  EPLUGINS =         0.00000000
  ---------------------------------------------------
  free energy    TOTEN  =       -34.64558429 eV

  energy without entropy =      -34.64558429  energy(sigma->0) =      -34.64558429


--------------------------------------------------------------------------------------------------------




--------------------------------------- Iteration      1(  26)  ---------------------------------------


    POTLOK:  cpu time      0.1917: real time      0.1939
    SETDIJ:  cpu time      0.1123: real time      0.1128
     EDDAV:  cpu time      4.0689: real time      4.1185
       DOS:  cpu time      0.0019: real time      0.0019
    CHARGE:  cpu time      0.1800: real time      0.1815
    MIXING:  cpu time      0.0084: real time      0.0085
    --------------------------------------------
      LOOP:  cpu time      4.5631: real time      4.6171

 eigenvalue-minimisations  :  1744
 total energy-change (2. order) :-0.2034000E-05  (-0.1633188E-07)
 number of electron      53.9999993 magnetization       5.9999998
 augmentation part       -0.5704688 magnetization       4.3592559

 Broyden mixing:
  rms(total) = 0.81191E-04    rms(broyden)= 0.81190E-04
  rms(prec ) = 0.82631E-04
  weight for this iteration     100.00

 eigenvalues of (default mixing * dielectric matrix)
  average eigenvalue GAMMA=   1.5333
  6.4537  4.5831  2.5959  2.5959  1.9223  1.9223  1.5706  1.1555  1.0096  1.0096
  0.8315  0.8315  0.7939  0.7939  0.5302  0.6267  0.6267  0.6273  0.6273  0.6068
  0.4844

 Free energy of the ion-electron system (eV)
  ---------------------------------------------------
  alpha Z        PSCENC =        30.74992261
  Ewald energy   TEWEN  =      4471.64050427
  -Hartree energ DENC   =     -7172.79840152
  -exchange      EXHF   =         0.00000000
  -V(xc)+E(xc)   XCENC  =        86.63635288
  PAW double counting   =      3682.91381165    -3633.49252184
  entropy T*S    EENTRO =        -0.00000000
  eigenvalues    EBANDS =      -512.36531539
  atomic energy  EATOM  =      3012.07006103
  Solvation  Ediel_sol  =         0.00000000
  ext. energy  EPLUGINS =         0.00000000
  ---------------------------------------------------
  free energy    TOTEN  =       -34.64558632 eV

  energy without entropy =      -34.64558632  energy(sigma->0) =      -34.64558632


--------------------------------------------------------------------------------------------------------




--------------------------------------- Iteration      1(  27)  ---------------------------------------


    POTLOK:  cpu time      0.1917: real time      0.1937
    SETDIJ:  cpu time      0.1245: real time      0.1251
     EDDAV:  cpu time      3.7689: real time      3.8208
       DOS:  cpu time      0.0017: real time      0.0017
    --------------------------------------------
      LOOP:  cpu time      4.0872: real time      4.1418

 eigenvalue-minimisations  :  1512
 total energy-change (2. order) :-0.3274154E-06  (-0.8796230E-08)
 number of electron      53.9999993 magnetization       5.9999998
 augmentation part       -0.5704688 magnetization       4.3592559

 Free energy of the ion-electron system (eV)
  ---------------------------------------------------
  alpha Z        PSCENC =        30.74992261
  Ewald energy   TEWEN  =      4471.64050427
  -Hartree energ DENC   =     -7172.79984178
  -exchange      EXHF   =         0.00000000
  -V(xc)+E(xc)   XCENC  =        86.63634512
  PAW double counting   =      3682.87731826    -3633.45598602
  entropy T*S    EENTRO =        -0.00000000
  eigenvalues    EBANDS =      -512.36391014
  atomic energy  EATOM  =      3012.07006103
  Solvation  Ediel_sol  =         0.00000000
  ext. energy  EPLUGINS =         0.00000000
  ---------------------------------------------------
  free energy    TOTEN  =       -34.64558665 eV

  energy without entropy =      -34.64558665  energy(sigma->0) =      -34.64558665


--------------------------------------------------------------------------------------------------------




 average (electrostatic) potential at core
  the test charge radii are     1.1394  0.9406
  (the norm of the test charge is              1.0000)
       1 -53.1435       2 -53.1435       3 -98.9290       4 -98.9290       5 -98.9290
       6 -98.9290       7 -98.9290       8 -98.9290



 E-fermi :  -4.8622     XC(G=0):  -3.3493     alpha+bet : -2.6941

 val. band max:       -5.0841635867   @ k =   0.0909   0.0909   0.0000
 cond. band min:      -2.4401067854   @ k =   0.3636   0.2727   0.0000
 fundamental gap:      2.6440568014
 Fermi energy:        -4.8621919742

 spin component 1

 k-point     1 :       0.0000    0.0000    0.0000
  band No.  band energies     occupation 
      1     -19.2458      1.00000
      2     -18.4467      1.00000
      3     -18.2686      1.00000
      4     -18.2686      1.00000
      5     -18.1711      1.00000
      6     -18.1711      1.00000
      7      -9.1188      1.00000
      8      -9.0557      1.00000
      9      -8.6152      1.00000
     10      -8.6152      1.00000
     11      -8.5976      1.00000
     12      -8.5976      1.00000
     13      -7.6299      1.00000
     14      -7.6299      1.00000
     15      -7.6216      1.00000
     16      -7.3891      1.00000
     17      -7.0689      1.00000
     18      -7.0689      1.00000
     19      -7.0483      1.00000
     20      -6.5736      1.00000
     21      -6.5736      1.00000
     22      -6.1754      1.00000
     23      -6.0938      1.00000
     24      -6.0938      1.00000
     25      -5.8729      1.00000
     26      -5.7749      1.00000
     27      -5.3433      1.00000
     28      -5.3433      1.00000
     29      -5.0916      1.00000
     30      -5.0916      1.00000
     31      -2.4059      0.00000
     32      -2.4059      0.00000
     33      -2.1936      0.00000
     34      -2.1936      0.00000
     35       1.6169      0.00000
     36       2.3377      0.00000

 k-point     2 :       0.0909    0.0000    0.0000
  band No.  band energies     occupation 
      1     -19.2286      1.00000
      2     -18.4395      1.00000
      3     -18.2891      1.00000
      4     -18.2746      1.00000
      5     -18.1740      1.00000
      6     -18.1727      1.00000
      7      -9.1279      1.00000
      8      -9.0417      1.00000
      9      -8.6728      1.00000
     10      -8.6723      1.00000
     11      -8.5244      1.00000
     12      -8.5177      1.00000
     13      -7.6530      1.00000
     14      -7.6437      1.00000
     15      -7.6186      1.00000
     16      -7.3496      1.00000
     17      -7.0799      1.00000
     18      -7.0614      1.00000
     19      -7.0287      1.00000
     20      -6.6494      1.00000
     21      -6.5675      1.00000
     22      -6.1428      1.00000
     23      -6.1155      1.00000
     24      -6.0741      1.00000
     25      -5.8714      1.00000
     26      -5.7390      1.00000
     27      -5.3503      1.00000
     28      -5.3461      1.00000
     29      -5.1344      1.00000
     30      -5.0881      1.00000
     31      -2.4069      0.00000
     32      -2.4023      0.00000
     33      -2.2268      0.00000
     34      -2.1973      0.00000
     35       1.6965      0.00000
     36       2.3851      0.00000

 k-point     3 :       0.1818    0.0000    0.0000
  band No.  band energies     occupation 
      1     -19.1786      1.00000
      2     -18.4189      1.00000
      3     -18.3473      1.00000
      4     -18.2893      1.00000
      5     -18.1823      1.00000
      6     -18.1795      1.00000
      7      -9.1557      1.00000
      8      -9.0016      1.00000
      9      -8.7216      1.00000
     10      -8.6889      1.00000
     11      -8.4297      1.00000
     12      -8.4245      1.00000
     13      -7.7139      1.00000
     14      -7.6916      1.00000
     15      -7.5912      1.00000
     16      -7.2904      1.00000
     17      -7.1366      1.00000
     18      -7.0357      1.00000
     19      -6.9365      1.00000
     20      -6.7929      1.00000
     21      -6.5539      1.00000
     22      -6.1835      1.00000
     23      -6.1390      1.00000
     24      -6.0034      1.00000
     25      -5.8614      1.00000
     26      -5.6325      1.00000
     27      -5.3720      1.00000
     28      -5.3563      1.00000
     29      -5.2288      1.00000
     30      -5.0863      1.00000
     31      -2.4087      0.00000
     32      -2.3912      0.00000
     33      -2.3001      0.00000
     34      -2.2124      0.00000
     35       1.9158      0.00000
     36       2.5160      0.00000

 k-point     4 :       0.2727    0.0000    0.0000
  band No.  band energies     occupation 
      1     -19.1001      1.00000
      2     -18.4357      1.00000
      3     -18.3873      1.00000
      4     -18.3065      1.00000
      5     -18.1951      1.00000
      6     -18.1940      1.00000
      7      -9.2046      1.00000
      8      -8.9343      1.00000
      9      -8.7531      1.00000
     10      -8.6230      1.00000
     11      -8.3588      1.00000
     12      -8.3260      1.00000
     13      -7.7928      1.00000
     14      -7.7401      1.00000
     15      -7.5639      1.00000
     16      -7.3648      1.00000
     17      -7.1196      1.00000
     18      -6.9923      1.00000
     19      -6.9898      1.00000
     20      -6.7636      1.00000
     21      -6.5289      1.00000
     22      -6.2840      1.00000
     23      -6.1760      1.00000
     24      -5.9275      1.00000
     25      -5.8320      1.00000
     26      -5.4871      1.00000
     27      -5.4058      1.00000
     28      -5.3868      1.00000
     29      -5.3161      1.00000
     30      -5.0932      1.00000
     31      -2.4076      0.00000
     32      -2.3701      0.00000
     33      -2.3672      0.00000
     34      -2.2434      0.00000
     35       2.2343      0.00000
     36       2.7133      0.00000

 k-point     5 :       0.3636    0.0000    0.0000
  band No.  band energies     occupation 
      1     -19.0027      1.00000
      2     -18.5419      1.00000
      3     -18.3495      1.00000
      4     -18.3198      1.00000
      5     -18.2207      1.00000
      6     -18.2050      1.00000
      7      -9.2575      1.00000
      8      -8.8482      1.00000
      9      -8.7693      1.00000
     10      -8.4830      1.00000
     11      -8.3399      1.00000
     12      -8.2249      1.00000
     13      -7.8728      1.00000
     14      -7.7714      1.00000
     15      -7.6155      1.00000
     16      -7.4632      1.00000
     17      -7.1305      1.00000
     18      -7.0704      1.00000
     19      -6.9818      1.00000
     20      -6.6148      1.00000
     21      -6.4980      1.00000
     22      -6.3523      1.00000
     23      -6.2401      1.00000
     24      -5.8617      1.00000
     25      -5.7835      1.00000
     26      -5.4718      1.00000
     27      -5.4357      1.00000
     28      -5.3795      1.00000
     29      -5.3272      1.00000
     30      -5.1054      1.00000
     31      -2.4089      0.00000
     32      -2.3987      0.00000
     33      -2.3371      0.00000
     34      -2.2870      0.00000
     35       2.6211      0.00000
     36       2.9636      0.00000

 k-point     6 :       0.4545    0.0000    0.0000
  band No.  band energies     occupation 
      1     -18.9129      1.00000
      2     -18.6369      1.00000
      3     -18.3329      1.00000
      4     -18.3051      1.00000
      5     -18.2527      1.00000
      6     -18.2115      1.00000
      7      -9.2900      1.00000
      8      -8.7796      1.00000
      9      -8.7752      1.00000
     10      -8.3786      1.00000
     11      -8.2972      1.00000
     12      -8.1508      1.00000
     13      -7.9326      1.00000
     14      -7.7828      1.00000
     15      -7.7801      1.00000
     16      -7.4694      1.00000
     17      -7.2180      1.00000
     18      -7.0303      1.00000
     19      -7.0013      1.00000
     20      -6.5101      1.00000
     21      -6.4697      1.00000
     22      -6.3426      1.00000
     23      -6.3282      1.00000
     24      -5.8142      1.00000
     25      -5.7399      1.00000
     26      -5.5440      1.00000
     27      -5.4456      1.00000
     28      -5.4255      1.00000
     29      -5.2164      1.00000
     30      -5.1337      1.00000
     31      -2.4284      0.00000
     32      -2.3793      0.00000
     33      -2.3304      0.00000
     34      -2.3083      0.00000
     35       3.0515      0.00000
     36       3.0642      0.00000

 k-point     7 :       0.0909    0.0909    0.0000
  band No.  band energies     occupation 
      1     -19.1950      1.00000
      2     -18.4257      1.00000
      3     -18.3267      1.00000
      4     -18.2870      1.00000
      5     -18.1789      1.00000
      6     -18.1772      1.00000
      7      -9.1404      1.00000
      8      -9.0181      1.00000
      9      -8.7583      1.00000
     10      -8.6263      1.00000
     11      -8.5046      1.00000
     12      -8.4197      1.00000
     13      -7.6976      1.00000
     14      -7.6805      1.00000
     15      -7.5936      1.00000
     16      -7.2944      1.00000
     17      -7.1277      1.00000
     18      -7.0500      1.00000
     19      -6.9585      1.00000
     20      -6.7604      1.00000
     21      -6.5525      1.00000
     22      -6.1900      1.00000
     23      -6.0711      1.00000
     24      -6.0609      1.00000
     25      -5.8657      1.00000
     26      -5.6668      1.00000
     27      -5.3623      1.00000
     28      -5.3542      1.00000
     29      -5.2038      1.00000
     30      -5.0842      1.00000
     31      -2.4098      0.00000
     32      -2.3939      0.00000
     33      -2.2817      0.00000
     34      -2.2038      0.00000
     35       1.8454      0.00000
     36       2.4737      0.00000

 k-point     8 :       0.1818    0.0909    0.0000
  band No.  band energies     occupation 
      1     -19.1306      1.00000
      2     -18.3996      1.00000
      3     -18.3970      1.00000
      4     -18.3069      1.00000
      5     -18.1885      1.00000
      6     -18.1879      1.00000
      7      -9.1606      1.00000
      8      -8.9802      1.00000
      9      -8.7989      1.00000
     10      -8.5820      1.00000
     11      -8.4381      1.00000
     12      -8.3289      1.00000
     13      -7.7747      1.00000
     14      -7.7260      1.00000
     15      -7.5553      1.00000
     16      -7.2888      1.00000
     17      -7.1729      1.00000
     18      -7.0261      1.00000
     19      -6.9038      1.00000
     20      -6.8347      1.00000
     21      -6.5232      1.00000
     22      -6.2839      1.00000
     23      -6.0929      1.00000
     24      -5.9917      1.00000
     25      -5.8454      1.00000
     26      -5.5394      1.00000
     27      -5.4037      1.00000
     28      -5.3572      1.00000
     29      -5.2927      1.00000
     30      -5.0863      1.00000
     31      -2.4143      0.00000
     32      -2.3769      0.00000
     33      -2.3501      0.00000
     34      -2.2207      0.00000
     35       2.1106      0.00000
     36       2.6359      0.00000

 k-point     9 :       0.2727    0.0909    0.0000
  band No.  band energies     occupation 
      1     -19.0417      1.00000
      2     -18.4929      1.00000
      3     -18.3649      1.00000
      4     -18.3255      1.00000
      5     -18.2075      1.00000
      6     -18.1999      1.00000
      7      -9.2013      1.00000
      8      -8.9170      1.00000
      9      -8.7888      1.00000
     10      -8.5101      1.00000
     11      -8.3693      1.00000
     12      -8.2570      1.00000
     13      -7.8603      1.00000
     14      -7.7596      1.00000
     15      -7.5391      1.00000
     16      -7.4065      1.00000
     17      -7.1611      1.00000
     18      -7.0891      1.00000
     19      -6.9245      1.00000
     20      -6.7154      1.00000
     21      -6.4752      1.00000
     22      -6.3797      1.00000
     23      -6.1461      1.00000
     24      -5.9218      1.00000
     25      -5.8041      1.00000
     26      -5.4776      1.00000
     27      -5.3930      1.00000
     28      -5.3768      1.00000
     29      -5.3517      1.00000
     30      -5.0962      1.00000
     31      -2.4152      0.00000
     32      -2.3945      0.00000
     33      -2.3527      0.00000
     34      -2.2494      0.00000
     35       2.4555      0.00000
     36       2.8571      0.00000

 k-point    10 :       0.3636    0.0909    0.0000
  band No.  band energies     occupation 
      1     -18.9428      1.00000
      2     -18.5975      1.00000
      3     -18.3441      1.00000
      4     -18.3200      1.00000
      5     -18.2360      1.00000
      6     -18.2088      1.00000
      7      -9.2424      1.00000
      8      -8.8379      1.00000
      9      -8.7732      1.00000
     10      -8.3974      1.00000
     11      -8.3498      1.00000
     12      -8.1843      1.00000
     13      -7.9344      1.00000
     14      -7.7729      1.00000
     15      -7.6681      1.00000
     16      -7.4389      1.00000
     17      -7.2291      1.00000
     18      -7.0727      1.00000
     19      -6.9481      1.00000
     20      -6.6109      1.00000
     21      -6.4791      1.00000
     22      -6.3617      1.00000
     23      -6.2126      1.00000
     24      -5.8611      1.00000
     25      -5.7550      1.00000
     26      -5.5513      1.00000
     27      -5.4272      1.00000
     28      -5.3875      1.00000
     29      -5.2565      1.00000
     30      -5.1137      1.00000
     31      -2.4252      0.00000
     32      -2.3936      0.00000
     33      -2.3410      0.00000
     34      -2.2707      0.00000
     35       2.8585      0.00000
     36       3.1116      0.00000

 k-point    11 :       0.4545    0.0909    0.0000
  band No.  band energies     occupation 
      1     -18.8844      1.00000
      2     -18.6581      1.00000
      3     -18.3473      1.00000
      4     -18.2926      1.00000
      5     -18.2611      1.00000
      6     -18.2121      1.00000
      7      -9.2586      1.00000
      8      -8.7975      1.00000
      9      -8.7689      1.00000
     10      -8.3781      1.00000
     11      -8.2978      1.00000
     12      -8.1452      1.00000
     13      -7.9681      1.00000
     14      -7.7751      1.00000
     15      -7.7740      1.00000
     16      -7.4309      1.00000
     17      -7.2682      1.00000
     18      -7.0499      1.00000
     19      -6.9659      1.00000
     20      -6.5840      1.00000
     21      -6.4786      1.00000
     22      -6.2906      1.00000
     23      -6.2837      1.00000
     24      -5.8302      1.00000
     25      -5.7326      1.00000
     26      -5.5943      1.00000
     27      -5.4348      1.00000
     28      -5.4094      1.00000
     29      -5.1850      1.00000
     30      -5.1425      1.00000
     31      -2.4323      0.00000
     32      -2.3705      0.00000
     33      -2.3615      0.00000
     34      -2.2692      0.00000
     35       3.0436      0.00000
     36       3.2597      0.00000

 k-point    12 :       0.1818    0.1818    0.0000
  band No.  band energies     occupation 
      1     -19.0552      1.00000
      2     -18.4701      1.00000
      3     -18.3707      1.00000
      4     -18.3344      1.00000
      5     -18.2013      1.00000
      6     -18.1981      1.00000
      7      -9.1321      1.00000
      8      -8.9953      1.00000
      9      -8.8079      1.00000
     10      -8.4634      1.00000
     11      -8.4304      1.00000
     12      -8.2601      1.00000
     13      -7.8651      1.00000
     14      -7.7540      1.00000
     15      -7.4993      1.00000
     16      -7.3235      1.00000
     17      -7.2498      1.00000
     18      -7.0968      1.00000
     19      -6.8641      1.00000
     20      -6.7840      1.00000
     21      -6.4520      1.00000
     22      -6.4051      1.00000
     23      -6.0311      1.00000
     24      -6.0207      1.00000
     25      -5.8119      1.00000
     26      -5.4854      1.00000
     27      -5.4000      1.00000
     28      -5.3622      1.00000
     29      -5.3441      1.00000
     30      -5.0906      1.00000
     31      -2.4251      0.00000
     32      -2.3911      0.00000
     33      -2.3561      0.00000
     34      -2.2275      0.00000
     35       2.3954      0.00000
     36       2.8193      0.00000

 k-point    13 :       0.2727    0.1818    0.0000
  band No.  band energies     occupation 
      1     -18.9608      1.00000
      2     -18.5629      1.00000
      3     -18.3636      1.00000
      4     -18.3301      1.00000
      5     -18.2215      1.00000
      6     -18.2088      1.00000
      7      -9.1310      1.00000
      8      -8.9616      1.00000
      9      -8.7749      1.00000
     10      -8.4109      1.00000
     11      -8.3821      1.00000
     12      -8.2109      1.00000
     13      -7.9514      1.00000
     14      -7.7611      1.00000
     15      -7.5197      1.00000
     16      -7.4178      1.00000
     17      -7.2684      1.00000
     18      -7.1374      1.00000
     19      -6.8599      1.00000
     20      -6.7170      1.00000
     21      -6.5055      1.00000
     22      -6.3484      1.00000
     23      -6.0828      1.00000
     24      -5.9579      1.00000
     25      -5.7659      1.00000
     26      -5.5679      1.00000
     27      -5.4085      1.00000
     28      -5.3487      1.00000
     29      -5.2809      1.00000
     30      -5.1001      1.00000
     31      -2.4298      0.00000
     32      -2.4040      0.00000
     33      -2.3449      0.00000
     34      -2.2299      0.00000
     35       2.7406      0.00000
     36       3.0474      0.00000

 k-point    14 :       0.3636    0.1818    0.0000
  band No.  band energies     occupation 
      1     -18.8698      1.00000
      2     -18.6536      1.00000
      3     -18.3764      1.00000
      4     -18.2945      1.00000
      5     -18.2490      1.00000
      6     -18.2151      1.00000
      7      -9.1551      1.00000
      8      -8.8718      1.00000
      9      -8.7721      1.00000
     10      -8.3798      1.00000
     11      -8.3690      1.00000
     12      -8.1580      1.00000
     13      -8.0085      1.00000
     14      -7.7535      1.00000
     15      -7.6694      1.00000
     16      -7.3713      1.00000
     17      -7.3072      1.00000
     18      -7.1230      1.00000
     19      -6.8946      1.00000
     20      -6.6749      1.00000
     21      -6.5519      1.00000
     22      -6.2419      1.00000
     23      -6.1511      1.00000
     24      -5.9035      1.00000
     25      -5.7397      1.00000
     26      -5.6372      1.00000
     27      -5.4197      1.00000
     28      -5.3723      1.00000
     29      -5.1888      1.00000
     30      -5.1196      1.00000
     31      -2.4351      0.00000
     32      -2.3873      0.00000
     33      -2.3585      0.00000
     34      -2.2214      0.00000
     35       3.0810      0.00000
     36       3.1205      0.00000

 k-point    15 :       0.2727    0.2727    0.0000
  band No.  band energies     occupation 
      1     -18.8669      1.00000
      2     -18.6453      1.00000
      3     -18.3919      1.00000
      4     -18.2974      1.00000
      5     -18.2372      1.00000
      6     -18.2209      1.00000
      7      -9.0082      1.00000
      8      -9.0080      1.00000
      9      -8.7737      1.00000
     10      -8.4065      1.00000
     11      -8.3776      1.00000
     12      -8.1647      1.00000
     13      -8.0254      1.00000
     14      -7.7434      1.00000
     15      -7.6003      1.00000
     16      -7.3763      1.00000
     17      -7.2767      1.00000
     18      -7.1862      1.00000
     19      -6.8531      1.00000
     20      -6.7155      1.00000
     21      -6.5882      1.00000
     22      -6.2242      1.00000
     23      -6.0421      1.00000
     24      -5.9954      1.00000
     25      -5.7456      1.00000
     26      -5.6492      1.00000
     27      -5.4124      1.00000
     28      -5.3566      1.00000
     29      -5.1932      1.00000
     30      -5.1073      1.00000
     31      -2.4369      0.00000
     32      -2.3954      0.00000
     33      -2.3541      0.00000
     34      -2.1996      0.00000
     35       3.0330      0.00000
     36       3.1590      0.00000

 k-point    16 :       0.3636    0.2727    0.0000
  band No.  band energies     occupation 
      1     -18.7974      1.00000
      2     -18.7102      1.00000
      3     -18.4031      1.00000
      4     -18.2717      1.00000
      5     -18.2554      1.00000
      6     -18.2262      1.00000
      7      -9.0255      1.00000
      8      -8.9012      1.00000
      9      -8.8260      1.00000
     10      -8.4035      1.00000
     11      -8.3941      1.00000
     12      -8.1252      1.00000
     13      -8.0659      1.00000
     14      -7.7315      1.00000
     15      -7.6545      1.00000
     16      -7.3109      1.00000
     17      -7.2982      1.00000
     18      -7.2076      1.00000
     19      -6.8746      1.00000
     20      -6.6924      1.00000
     21      -6.6280      1.00000
     22      -6.1374      1.00000
     23      -6.0863      1.00000
     24      -5.9798      1.00000
     25      -5.7641      1.00000
     26      -5.6646      1.00000
     27      -5.3996      1.00000
     28      -5.3745      1.00000
     29      -5.1461      1.00000
     30      -5.1222      1.00000
     31      -2.4401      0.00000
     32      -2.3798      0.00000
     33      -2.3687      0.00000
     34      -2.1847      0.00000
     35       3.1066      0.00000
     36       3.1504      0.00000
 Fermi energy:        -4.8621919742

 spin component 2

 k-point     1 :       0.0000    0.0000    0.0000
  band No.  band energies     occupation 
      1     -19.2774      1.00000
      2     -18.5238      1.00000
      3     -18.3377      1.00000
      4     -18.3377      1.00000
      5     -18.2297      1.00000
      6     -18.2297      1.00000
      7      -8.7388      1.00000
      8      -8.2789      1.00000
      9      -7.8739      1.00000
     10      -7.8739      1.00000
     11      -7.6884      1.00000
     12      -7.6884      1.00000
     13      -7.6136      1.00000
     14      -6.9703      1.00000
     15      -6.9703      1.00000
     16      -6.7505      1.00000
     17      -6.4689      1.00000
     18      -6.4689      1.00000
     19      -6.1923      1.00000
     20      -5.8071      1.00000
     21      -5.4738      1.00000
     22      -5.4737      1.00000
     23      -5.2817      1.00000
     24      -5.2817      1.00000
     25      -0.6987      0.00000
     26      -0.6987      0.00000
     27      -0.4913      0.00000
     28      -0.4806      0.00000
     29      -0.4806      0.00000
     30      -0.4436      0.00000
     31      -0.1698      0.00000
     32      -0.1698      0.00000
     33      -0.1325      0.00000
     34      -0.1325      0.00000
     35       1.7638      0.00000
     36       2.3666      0.00000

 k-point     2 :       0.0909    0.0000    0.0000
  band No.  band energies     occupation 
      1     -19.2608      1.00000
      2     -18.5162      1.00000
      3     -18.3576      1.00000
      4     -18.3442      1.00000
      5     -18.2320      1.00000
      6     -18.2312      1.00000
      7      -8.7445      1.00000
      8      -8.2746      1.00000
      9      -7.8832      1.00000
     10      -7.8165      1.00000
     11      -7.7970      1.00000
     12      -7.7079      1.00000
     13      -7.4758      1.00000
     14      -7.0056      1.00000
     15      -6.9769      1.00000
     16      -6.6788      1.00000
     17      -6.4760      1.00000
     18      -6.4486      1.00000
     19      -6.1763      1.00000
     20      -5.7994      1.00000
     21      -5.4926      1.00000
     22      -5.4745      1.00000
     23      -5.3734      1.00000
     24      -5.2996      1.00000
     25      -0.7129      0.00000
     26      -0.6926      0.00000
     27      -0.5138      0.00000
     28      -0.4904      0.00000
     29      -0.4860      0.00000
     30      -0.4032      0.00000
     31      -0.1952      0.00000
     32      -0.1798      0.00000
     33      -0.1320      0.00000
     34      -0.1193      0.00000
     35       1.8368      0.00000
     36       2.4163      0.00000

 k-point     3 :       0.1818    0.0000    0.0000
  band No.  band energies     occupation 
      1     -19.2124      1.00000
      2     -18.4943      1.00000
      3     -18.4141      1.00000
      4     -18.3603      1.00000
      5     -18.2390      1.00000
      6     -18.2383      1.00000
      7      -8.7493      1.00000
      8      -8.2651      1.00000
      9      -7.9225      1.00000
     10      -7.8775      1.00000
     11      -7.7308      1.00000
     12      -7.6701      1.00000
     13      -7.2935      1.00000
     14      -7.0992      1.00000
     15      -6.9965      1.00000
     16      -6.5447      1.00000
     17      -6.4534      1.00000
     18      -6.4009      1.00000
     19      -6.1370      1.00000
     20      -5.7886      1.00000
     21      -5.6657      1.00000
     22      -5.4958      1.00000
     23      -5.4765      1.00000
     24      -5.3370      1.00000
     25      -0.7442      0.00000
     26      -0.6707      0.00000
     27      -0.5817      0.00000
     28      -0.5169      0.00000
     29      -0.5016      0.00000
     30      -0.3066      0.00000
     31      -0.2545      0.00000
     32      -0.2081      0.00000
     33      -0.1314      0.00000
     34      -0.0823      0.00000
     35       2.0415      0.00000
     36       2.5544      0.00000

 k-point     4 :       0.2727    0.0000    0.0000
  band No.  band energies     occupation 
      1     -19.1364      1.00000
      2     -18.4996      1.00000
      3     -18.4605      1.00000
      4     -18.3792      1.00000
      5     -18.2547      1.00000
      6     -18.2493      1.00000
      7      -8.7430      1.00000
      8      -8.2486      1.00000
      9      -7.9941      1.00000
     10      -7.8756      1.00000
     11      -7.6974      1.00000
     12      -7.5024      1.00000
     13      -7.2588      1.00000
     14      -7.0807      1.00000
     15      -7.0218      1.00000
     16      -6.5634      1.00000
     17      -6.3567      1.00000
     18      -6.2517      1.00000
     19      -6.0823      1.00000
     20      -6.0135      1.00000
     21      -5.8284      1.00000
     22      -5.5427      1.00000
     23      -5.4597      1.00000
     24      -5.3593      1.00000
     25      -0.7900      0.00000
     26      -0.6707      0.00000
     27      -0.6317      0.00000
     28      -0.5478      0.00000
     29      -0.5196      0.00000
     30      -0.3202      0.00000
     31      -0.2509      0.00000
     32      -0.1945      0.00000
     33      -0.1317      0.00000
     34      -0.0369      0.00000
     35       2.3445      0.00000
     36       2.7629      0.00000

 k-point     5 :       0.3636    0.0000    0.0000
  band No.  band energies     occupation 
      1     -19.0420      1.00000
      2     -18.6023      1.00000
      3     -18.4195      1.00000
      4     -18.3947      1.00000
      5     -18.2818      1.00000
      6     -18.2592      1.00000
      7      -8.7350      1.00000
      8      -8.2143      1.00000
      9      -8.0457      1.00000
     10      -7.8270      1.00000
     11      -7.6075      1.00000
     12      -7.4132      1.00000
     13      -7.3702      1.00000
     14      -7.0269      1.00000
     15      -6.9016      1.00000
     16      -6.6262      1.00000
     17      -6.3695      1.00000
     18      -6.3378      1.00000
     19      -6.0374      1.00000
     20      -6.0368      1.00000
     21      -5.9165      1.00000
     22      -5.5854      1.00000
     23      -5.4464      1.00000
     24      -5.3332      1.00000
     25      -0.8650      0.00000
     26      -0.7275      0.00000
     27      -0.6036      0.00000
     28      -0.5521      0.00000
     29      -0.5319      0.00000
     30      -0.3745      0.00000
     31      -0.2924      0.00000
     32      -0.1321      0.00000
     33      -0.1010      0.00000
     34      -0.0033      0.00000
     35       2.7163      0.00000
     36       3.0271      0.00000

 k-point     6 :       0.4545    0.0000    0.0000
  band No.  band energies     occupation 
      1     -18.9543      1.00000
      2     -18.6949      1.00000
      3     -18.4050      1.00000
      4     -18.3773      1.00000
      5     -18.3146      1.00000
      6     -18.2651      1.00000
      7      -8.7328      1.00000
      8      -8.1778      1.00000
      9      -8.0722      1.00000
     10      -7.7401      1.00000
     11      -7.5613      1.00000
     12      -7.5144      1.00000
     13      -7.3055      1.00000
     14      -6.9670      1.00000
     15      -6.7942      1.00000
     16      -6.7675      1.00000
     17      -6.5406      1.00000
     18      -6.3380      1.00000
     19      -6.0930      1.00000
     20      -5.9147      1.00000
     21      -5.8999      1.00000
     22      -5.6213      1.00000
     23      -5.4597      1.00000
     24      -5.2894      1.00000
     25      -0.9274      0.00000
     26      -0.7488      0.00000
     27      -0.6084      0.00000
     28      -0.5360      0.00000
     29      -0.5256      0.00000
     30      -0.4056      0.00000
     31      -0.3199      0.00000
     32      -0.1315      0.00000
     33      -0.0418      0.00000
     34       0.0076      0.00000
     35       3.1418      0.00000
     36       3.3264      0.00000

 k-point     7 :       0.0909    0.0909    0.0000
  band No.  band energies     occupation 
      1     -19.2283      1.00000
      2     -18.5015      1.00000
      3     -18.3940      1.00000
      4     -18.3575      1.00000
      5     -18.2361      1.00000
      6     -18.2359      1.00000
      7      -8.7479      1.00000
      8      -8.2687      1.00000
      9      -7.8987      1.00000
     10      -7.8769      1.00000
     11      -7.7288      1.00000
     12      -7.7123      1.00000
     13      -7.3402      1.00000
     14      -7.0743      1.00000
     15      -6.9859      1.00000
     16      -6.5707      1.00000
     17      -6.4790      1.00000
     18      -6.4105      1.00000
     19      -6.1504      1.00000
     20      -5.7984      1.00000
     21      -5.5579      1.00000
     22      -5.5192      1.00000
     23      -5.4517      1.00000
     24      -5.3337      1.00000
     25      -0.7291      0.00000
     26      -0.6877      0.00000
     27      -0.5571      0.00000
     28      -0.5114      0.00000
     29      -0.4914      0.00000
     30      -0.3392      0.00000
     31      -0.2345      0.00000
     32      -0.2006      0.00000
     33      -0.1275      0.00000
     34      -0.0962      0.00000
     35       1.9752      0.00000
     36       2.5097      0.00000

 k-point     8 :       0.1818    0.0909    0.0000
  band No.  band energies     occupation 
      1     -19.1660      1.00000
      2     -18.4736      1.00000
      3     -18.4618      1.00000
      4     -18.3789      1.00000
      5     -18.2474      1.00000
      6     -18.2444      1.00000
      7      -8.7379      1.00000
      8      -8.2616      1.00000
      9      -7.9552      1.00000
     10      -7.9048      1.00000
     11      -7.7217      1.00000
     12      -7.5574      1.00000
     13      -7.2075      1.00000
     14      -7.1556      1.00000
     15      -6.9932      1.00000
     16      -6.5598      1.00000
     17      -6.3566      1.00000
     18      -6.3329      1.00000
     19      -6.1150      1.00000
     20      -5.9479      1.00000
     21      -5.6945      1.00000
     22      -5.5492      1.00000
     23      -5.4659      1.00000
     24      -5.3741      1.00000
     25      -0.7586      0.00000
     26      -0.6754      0.00000
     27      -0.6326      0.00000
     28      -0.5397      0.00000
     29      -0.5060      0.00000
     30      -0.2888      0.00000
     31      -0.2530      0.00000
     32      -0.2299      0.00000
     33      -0.1174      0.00000
     34      -0.0562      0.00000
     35       2.2265      0.00000
     36       2.6814      0.00000

 k-point     9 :       0.2727    0.0909    0.0000
  band No.  band energies     occupation 
      1     -19.0799      1.00000
      2     -18.5543      1.00000
      3     -18.4362      1.00000
      4     -18.3994      1.00000
      5     -18.2680      1.00000
      6     -18.2549      1.00000
      7      -8.7163      1.00000
      8      -8.2435      1.00000
      9      -8.0117      1.00000
     10      -7.8807      1.00000
     11      -7.6555      1.00000
     12      -7.4174      1.00000
     13      -7.3558      1.00000
     14      -7.0556      1.00000
     15      -6.9151      1.00000
     16      -6.6138      1.00000
     17      -6.3235      1.00000
     18      -6.2974      1.00000
     19      -6.1241      1.00000
     20      -6.0324      1.00000
     21      -5.8045      1.00000
     22      -5.5682      1.00000
     23      -5.4528      1.00000
     24      -5.3794      1.00000
     25      -0.8150      0.00000
     26      -0.7241      0.00000
     27      -0.6260      0.00000
     28      -0.5644      0.00000
     29      -0.5214      0.00000
     30      -0.3437      0.00000
     31      -0.2834      0.00000
     32      -0.1589      0.00000
     33      -0.0952      0.00000
     34      -0.0156      0.00000
     35       2.5581      0.00000
     36       2.9159      0.00000

 k-point    10 :       0.3636    0.0909    0.0000
  band No.  band energies     occupation 
      1     -18.9838      1.00000
      2     -18.6556      1.00000
      3     -18.4154      1.00000
      4     -18.3928      1.00000
      5     -18.2979      1.00000
      6     -18.2631      1.00000
      7      -8.7007      1.00000
      8      -8.2070      1.00000
      9      -8.0473      1.00000
     10      -7.8118      1.00000
     11      -7.5482      1.00000
     12      -7.5190      1.00000
     13      -7.3356      1.00000
     14      -7.0252      1.00000
     15      -6.7862      1.00000
     16      -6.7068      1.00000
     17      -6.5324      1.00000
     18      -6.3119      1.00000
     19      -6.0185      1.00000
     20      -5.9716      1.00000
     21      -5.8818      1.00000
     22      -5.6052      1.00000
     23      -5.4531      1.00000
     24      -5.3334      1.00000
     25      -0.8908      0.00000
     26      -0.7603      0.00000
     27      -0.6005      0.00000
     28      -0.5669      0.00000
     29      -0.5271      0.00000
     30      -0.3929      0.00000
     31      -0.3128      0.00000
     32      -0.1279      0.00000
     33      -0.0461      0.00000
     34       0.0082      0.00000
     35       2.9475      0.00000
     36       3.1979      0.00000

 k-point    11 :       0.4545    0.0909    0.0000
  band No.  band energies     occupation 
      1     -18.9265      1.00000
      2     -18.7149      1.00000
      3     -18.4200      1.00000
      4     -18.3645      1.00000
      5     -18.3223      1.00000
      6     -18.2662      1.00000
      7      -8.6964      1.00000
      8      -8.1851      1.00000
      9      -8.0596      1.00000
     10      -7.7335      1.00000
     11      -7.6316      1.00000
     12      -7.4855      1.00000
     13      -7.3057      1.00000
     14      -6.9650      1.00000
     15      -6.9244      1.00000
     16      -6.6524      1.00000
     17      -6.5805      1.00000
     18      -6.3148      1.00000
     19      -6.0481      1.00000
     20      -5.9628      1.00000
     21      -5.8291      1.00000
     22      -5.6313      1.00000
     23      -5.4594      1.00000
     24      -5.3070      1.00000
     25      -0.9247      0.00000
     26      -0.7709      0.00000
     27      -0.6004      0.00000
     28      -0.5515      0.00000
     29      -0.5294      0.00000
     30      -0.4153      0.00000
     31      -0.3230      0.00000
     32      -0.1211      0.00000
     33      -0.0186      0.00000
     34       0.0118      0.00000
     35       3.3514      0.00000
     36       3.3791      0.00000

 k-point    12 :       0.1818    0.1818    0.0000
  band No.  band energies     occupation 
      1     -19.0930      1.00000
      2     -18.5316      1.00000
      3     -18.4423      1.00000
      4     -18.4082      1.00000
      5     -18.2623      1.00000
      6     -18.2529      1.00000
      7      -8.6961      1.00000
      8      -8.2638      1.00000
      9      -7.9717      1.00000
     10      -7.9320      1.00000
     11      -7.6783      1.00000
     12      -7.4346      1.00000
     13      -7.3382      1.00000
     14      -7.0716      1.00000
     15      -6.8948      1.00000
     16      -6.6236      1.00000
     17      -6.3042      1.00000
     18      -6.2974      1.00000
     19      -6.1628      1.00000
     20      -6.0419      1.00000
     21      -5.6379      1.00000
     22      -5.6215      1.00000
     23      -5.4659      1.00000
     24      -5.4157      1.00000
     25      -0.7776      0.00000
     26      -0.7298      0.00000
     27      -0.6599      0.00000
     28      -0.5586      0.00000
     29      -0.5208      0.00000
     30      -0.3107      0.00000
     31      -0.2969      0.00000
     32      -0.1747      0.00000
     33      -0.0793      0.00000
     34      -0.0238      0.00000
     35       2.5012      0.00000
     36       2.8769      0.00000

 k-point    13 :       0.2727    0.1818    0.0000
  band No.  band energies     occupation 
      1     -19.0016      1.00000
      2     -18.6205      1.00000
      3     -18.4356      1.00000
      4     -18.4023      1.00000
      5     -18.2839      1.00000
      6     -18.2631      1.00000
      7      -8.6381      1.00000
      8      -8.2566      1.00000
      9      -7.9936      1.00000
     10      -7.9043      1.00000
     11      -7.5856      1.00000
     12      -7.5046      1.00000
     13      -7.3614      1.00000
     14      -7.0396      1.00000
     15      -6.7698      1.00000
     16      -6.6931      1.00000
     17      -6.5443      1.00000
     18      -6.2616      1.00000
     19      -6.0845      1.00000
     20      -5.9273      1.00000
     21      -5.7617      1.00000
     22      -5.6038      1.00000
     23      -5.4522      1.00000
     24      -5.4129      1.00000
     25      -0.8313      0.00000
     26      -0.7875      0.00000
     27      -0.6419      0.00000
     28      -0.5688      0.00000
     29      -0.5337      0.00000
     30      -0.3649      0.00000
     31      -0.3176      0.00000
     32      -0.1274      0.00000
     33      -0.0320      0.00000
     34       0.0071      0.00000
     35       2.8376      0.00000
     36       3.1271      0.00000

 k-point    14 :       0.3636    0.1818    0.0000
  band No.  band energies     occupation 
      1     -18.9132      1.00000
      2     -18.7083      1.00000
      3     -18.4496      1.00000
      4     -18.3648      1.00000
      5     -18.3118      1.00000
      6     -18.2695      1.00000
      7      -8.6008      1.00000
      8      -8.2339      1.00000
      9      -8.0109      1.00000
     10      -7.8218      1.00000
     11      -7.6669      1.00000
     12      -7.4733      1.00000
     13      -7.3362      1.00000
     14      -7.0233      1.00000
     15      -6.9758      1.00000
     16      -6.6183      1.00000
     17      -6.5362      1.00000
     18      -6.2566      1.00000
     19      -6.0412      1.00000
     20      -5.9054      1.00000
     21      -5.7929      1.00000
     22      -5.6311      1.00000
     23      -5.4520      1.00000
     24      -5.3753      1.00000
     25      -0.8869      0.00000
     26      -0.8094      0.00000
     27      -0.6223      0.00000
     28      -0.5760      0.00000
     29      -0.5210      0.00000
     30      -0.4221      0.00000
     31      -0.3214      0.00000
     32      -0.1037      0.00000
     33       0.0038      0.00000
     34       0.0227      0.00000
     35       3.1982      0.00000
     36       3.4204      0.00000

 k-point    15 :       0.2727    0.2727    0.0000
  band No.  band energies     occupation 
      1     -18.9108      1.00000
      2     -18.6986      1.00000
      3     -18.4657      1.00000
      4     -18.3670      1.00000
      5     -18.3024      1.00000
      6     -18.2736      1.00000
      7      -8.5274      1.00000
      8      -8.2847      1.00000
      9      -7.9426      1.00000
     10      -7.9180      1.00000
     11      -7.6735      1.00000
     12      -7.4807      1.00000
     13      -7.3499      1.00000
     14      -7.0177      1.00000
     15      -7.0103      1.00000
     16      -6.6332      1.00000
     17      -6.4955      1.00000
     18      -6.2075      1.00000
     19      -6.0981      1.00000
     20      -5.8136      1.00000
     21      -5.7793      1.00000
     22      -5.6356      1.00000
     23      -5.4381      1.00000
     24      -5.4368      1.00000
     25      -0.8433      0.00000
     26      -0.8410      0.00000
     27      -0.6661      0.00000
     28      -0.5545      0.00000
     29      -0.5308      0.00000
     30      -0.4188      0.00000
     31      -0.3215      0.00000
     32      -0.0968      0.00000
     33       0.0138      0.00000
     34       0.0283      0.00000
     35       3.1357      0.00000
     36       3.3940      0.00000

 k-point    16 :       0.3636    0.2727    0.0000
  band No.  band energies     occupation 
      1     -18.8435      1.00000
      2     -18.7608      1.00000
      3     -18.4774      1.00000
      4     -18.3411      1.00000
      5     -18.3210      1.00000
      6     -18.2786      1.00000
      7      -8.4610      1.00000
      8      -8.3081      1.00000
      9      -7.9383      1.00000
     10      -7.8420      1.00000
     11      -7.8094      1.00000
     12      -7.3906      1.00000
     13      -7.3520      1.00000
     14      -7.1731      1.00000
     15      -6.9962      1.00000
     16      -6.6562      1.00000
     17      -6.4002      1.00000
     18      -6.1896      1.00000
     19      -6.1055      1.00000
     20      -5.8173      1.00000
     21      -5.7628      1.00000
     22      -5.6436      1.00000
     23      -5.4467      1.00000
     24      -5.4278      1.00000
     25      -0.8646      0.00000
     26      -0.8462      0.00000
     27      -0.6784      0.00000
     28      -0.5480      0.00000
     29      -0.5041      0.00000
     30      -0.4629      0.00000
     31      -0.3204      0.00000
     32      -0.0845      0.00000
     33       0.0316      0.00000
     34       0.0359      0.00000
     35       3.3303      0.00000
     36       3.3857      0.00000


--------------------------------------------------------------------------------------------------------


 soft charge-density along one line, spin component           1
         0         1         2         3         4         5         6         7         8         9
 total charge-density along one line

 soft charge-density along one line, spin component           2
         0         1         2         3         4         5         6         7         8         9
 total charge-density along one line

 pseudopotential strength for first ion, spin component:           1
-10.864   1.181  -0.000   0.000   0.000 -11.208   1.203  -0.000
  1.181 -10.029  -0.000   0.000  -0.000   1.203 -10.358  -0.000
 -0.000  -0.000 -11.698  -0.000   0.000  -0.000  -0.000 -12.056
  0.000   0.000  -0.000 -10.029  -1.181   0.000   0.000  -0.000
  0.000  -0.000   0.000  -1.181 -10.864   0.000  -0.000   0.000
-11.208   1.203  -0.000   0.000   0.000 -11.525   1.235  -0.000
  1.203 -10.358  -0.000   0.000  -0.000   1.235 -10.651  -0.000
 -0.000  -0.000 -12.056  -0.000   0.000  -0.000  -0.000 -12.396
  0.000   0.000  -0.000 -10.358  -1.203   0.000   0.000  -0.000
  0.000  -0.000   0.000  -1.203 -11.208   0.000  -0.000   0.000
 -0.000  -0.000   0.000  -0.000   0.000  -0.000  -0.000   0.000
 -0.000  -0.000   0.000  -0.000   0.000  -0.000  -0.000   0.000
 -0.000  -0.000  -0.000   0.000  -0.002  -0.000  -0.000  -0.000
  0.000  -0.000   0.000   0.000   0.000   0.000  -0.000   0.000
 -0.002   0.000   0.000   0.000  -0.000  -0.002   0.000   0.000
 -0.000  -0.000  -0.000   0.000  -0.002  -0.000  -0.000  -0.000
  0.000   0.000   0.000  -0.000   0.000   0.000   0.000   0.000
 -0.002   0.000   0.000   0.000  -0.000  -0.002   0.000   0.000
 pseudopotential strength for first ion, spin component:           2
 -6.735  -0.528   0.000   0.000   0.000  -7.072  -0.527   0.000
 -0.528  -7.103  -0.000  -0.000  -0.000  -0.527  -7.438  -0.000
  0.000  -0.000  -6.347  -0.000  -0.000   0.000  -0.000  -6.684
  0.000  -0.000  -0.000  -7.103   0.528   0.000  -0.000  -0.000
  0.000  -0.000  -0.000   0.528  -6.735   0.000  -0.000  -0.000
 -7.072  -0.527   0.000   0.000   0.000  -7.354  -0.529   0.000
 -0.527  -7.438  -0.000  -0.000  -0.000  -0.529  -7.721  -0.000
  0.000  -0.000  -6.684  -0.000  -0.000   0.000  -0.000  -6.965
  0.000  -0.000  -0.000  -7.438   0.527   0.000   0.000  -0.000
  0.000  -0.000  -0.000   0.527  -7.072   0.000  -0.000  -0.000
  0.000  -0.000  -0.001  -0.000  -0.000   0.000  -0.000  -0.001
  0.000  -0.000  -0.002  -0.000  -0.000   0.000  -0.000  -0.002
  0.000  -0.000   0.000   0.000  -0.000   0.000  -0.000   0.000
  0.000  -0.000   0.000   0.000   0.000   0.000  -0.000   0.000
 -0.000   0.000  -0.000   0.000   0.000  -0.001   0.000  -0.000
  0.000  -0.000   0.000   0.000  -0.000   0.000  -0.000   0.000
  0.000  -0.000   0.000   0.000   0.000   0.000  -0.000   0.000
 -0.000   0.000  -0.000   0.000   0.000  -0.000   0.000  -0.000
 total augmentation occupancy for first ion, spin component:           1
  3.872  -1.678   0.000   0.000   0.000  -2.776   0.534  -0.000  -0.000  -0.000   0.000  -0.000   0.000  -0.000   0.086  -0.000
 -1.678   2.615  -0.000  -0.000   0.000   0.535  -2.311   0.000   0.000  -0.000   0.000  -0.000  -0.000   0.000  -0.028   0.000
  0.000  -0.000   4.922   0.000   0.000  -0.000   0.000  -3.006  -0.000  -0.000   0.064  -0.008   0.000  -0.000   0.000  -0.000
  0.000  -0.000   0.000   2.615   1.678  -0.000   0.000  -0.000  -2.311  -0.535   0.000  -0.000   0.028   0.000   0.000  -0.000
  0.000   0.000   0.000   1.678   3.872  -0.000  -0.000  -0.000  -0.534  -2.776   0.000  -0.000   0.086  -0.000  -0.000  -0.003
 -2.776   0.535  -0.000  -0.000  -0.000   2.624   0.326   0.000  -0.000  -0.000  -0.000   0.000  -0.000   0.000  -0.093   0.000
  0.534  -2.311   0.000   0.000  -0.000   0.326   2.750   0.000  -0.000  -0.000  -0.000   0.000   0.000  -0.000   0.024   0.000
 -0.000   0.000  -3.006  -0.000  -0.000   0.000   0.000   2.230  -0.000   0.000  -0.070   0.010  -0.000   0.000  -0.000   0.000
 -0.000   0.000  -0.000  -2.311  -0.534  -0.000  -0.000  -0.000   2.750  -0.326   0.000  -0.000  -0.024   0.000  -0.000   0.000
  0.000  -0.000  -0.000  -0.535  -2.776  -0.000  -0.000   0.000  -0.326   2.624  -0.000   0.000  -0.093  -0.000   0.000   0.003
  0.000   0.000   0.064   0.000   0.000  -0.000   0.000  -0.070  -0.000  -0.000   1.755  -0.194   0.000   0.000   0.000   0.000
 -0.000  -0.000  -0.008  -0.000  -0.000   0.000   0.000   0.010   0.000   0.000  -0.194   0.030   0.000   0.000  -0.000   0.000
  0.000   0.000   0.000   0.028   0.086  -0.000   0.000  -0.000  -0.024  -0.093  -0.000   0.000   0.278   0.000  -0.000  -0.007
 -0.000   0.000  -0.000   0.000   0.000   0.000  -0.000   0.000   0.000  -0.000   0.000   0.000  -0.000   0.270   0.000  -0.000
  0.086  -0.028   0.000   0.000  -0.000  -0.093   0.024  -0.000  -0.000   0.000  -0.000   0.000  -0.000  -0.000   0.278   0.000
 -0.000   0.000  -0.000  -0.000  -0.003   0.000  -0.000   0.000   0.000   0.003  -0.000  -0.000  -0.007  -0.000   0.000   0.000
 -0.000   0.000  -0.000   0.000   0.000   0.000   0.000   0.000  -0.000  -0.000   0.000   0.000   0.000  -0.007   0.000  -0.000
 -0.003   0.000  -0.000  -0.000   0.000   0.003  -0.000   0.000   0.000  -0.000   0.000   0.000   0.000   0.000  -0.007  -0.000
 total augmentation occupancy for first ion, spin component:           2
  2.936  -2.359   0.000   0.000  -0.000  -1.498   1.465  -0.000  -0.000   0.000   0.000  -0.000   0.000  -0.000   0.024  -0.000
 -2.359   1.266  -0.000  -0.000   0.000   1.466  -0.459   0.000   0.000  -0.000   0.000   0.000   0.000   0.000  -0.024   0.000
  0.000  -0.000   4.523   0.000   0.000  -0.000   0.000  -2.460  -0.000  -0.000   0.007   0.001   0.000  -0.000   0.000  -0.000
  0.000  -0.000   0.000   1.266   2.359  -0.000   0.000  -0.000  -0.459  -1.466  -0.000   0.000   0.024  -0.000   0.000  -0.000
 -0.000   0.000   0.000   2.359   2.936   0.000  -0.000  -0.000  -1.465  -1.498   0.000  -0.000   0.024   0.000  -0.000   0.000
 -1.498   1.466  -0.000  -0.000   0.000   0.846  -0.991   0.000   0.000  -0.000  -0.000   0.000  -0.000   0.000  -0.016  -0.000
  1.465  -0.459   0.000   0.000  -0.000  -0.991   0.143  -0.000  -0.000   0.000  -0.000   0.000   0.000   0.000   0.015   0.000
 -0.000   0.000  -2.460  -0.000  -0.000   0.000  -0.000   1.481   0.000   0.000  -0.003  -0.001  -0.000   0.000  -0.000  -0.000
 -0.000   0.000  -0.000  -0.459  -1.465   0.000  -0.000   0.000   0.143   0.991  -0.000   0.000  -0.015   0.000  -0.000   0.000
 -0.000  -0.000  -0.000  -1.466  -1.498   0.000   0.000   0.000   0.991   0.846  -0.000   0.000  -0.016  -0.000   0.000  -0.000
  0.000   0.000   0.007  -0.000   0.000  -0.000   0.000  -0.003  -0.000  -0.000  -0.050   0.054   0.000   0.000   0.000   0.000
 -0.000  -0.000   0.001   0.000   0.000  -0.000   0.000  -0.001   0.000   0.000   0.054  -0.009  -0.000   0.000   0.000  -0.000
  0.000   0.000   0.000   0.024   0.024  -0.000   0.000  -0.000  -0.015  -0.016   0.000  -0.000   0.017   0.000  -0.000   0.002
 -0.000  -0.000  -0.000   0.000   0.000   0.000  -0.000   0.000  -0.000   0.000   0.000   0.000  -0.000   0.015   0.000   0.000
  0.024  -0.024   0.000   0.000  -0.000  -0.016   0.015  -0.000  -0.000   0.000   0.000   0.000  -0.000   0.000   0.017  -0.000
 -0.000  -0.000  -0.000  -0.000   0.000  -0.000   0.000   0.000   0.000  -0.000   0.000   0.000   0.002   0.000  -0.000  -0.000
 -0.000   0.000  -0.000   0.000   0.000   0.000   0.000   0.000   0.000  -0.000   0.000   0.000  -0.000   0.002   0.000   0.000
  0.000   0.000   0.000   0.000  -0.000  -0.000  -0.000  -0.000   0.000   0.000   0.000   0.000  -0.000  -0.000   0.002   0.000


------------------------ aborting loop because EDIFF is reached ----------------------------------------





 total charge

# of ion       s       p       d       tot
------------------------------------------
    1        0.351   0.517   4.071   4.938
    2        0.351   0.517   4.071   4.938
    3        1.604   3.521   0.000   5.125
    4        1.604   3.521   0.000   5.125
    5        1.604   3.521   0.000   5.125
    6        1.604   3.521   0.000   5.125
    7        1.604   3.521   0.000   5.125
    8        1.604   3.521   0.000   5.125
--------------------------------------------------
tot         10.325  22.159   8.141  40.625



 magnetization (x)

# of ion       s       p       d       tot
------------------------------------------
    1        0.032   0.040   3.083   3.155
    2        0.032   0.040   3.083   3.155
    3       -0.002  -0.070   0.000  -0.072
    4       -0.002  -0.070   0.000  -0.072
    5       -0.002  -0.070   0.000  -0.072
    6       -0.002  -0.070   0.000  -0.072
    7       -0.002  -0.070   0.000  -0.072
    8       -0.002  -0.070   0.000  -0.072
--------------------------------------------------
tot          0.054  -0.340   6.166   5.880

    CHARGE:  cpu time      0.2071: real time      0.2087
    FORLOC:  cpu time      0.0047: real time      0.0047
    FORNL :  cpu time      0.3411: real time      0.3442
    STRESS:  cpu time      0.6404: real time      0.6452
    FORCOR:  cpu time      0.1785: real time      0.1805
    FORHAR:  cpu time      0.0221: real time      0.0223
    MIXING:  cpu time      0.0092: real time      0.0093
    OFIELD:  cpu time      0.0001: real time      0.0001

 ---------------------------------------------------------------------------------------------

         DFTD3 V3.0 Rev 1        
 DF pbe       
 parameters
 rs18     =    1.0000
 alpha6   =   14.0000
 alpha8   =   16.0000
 k1-k3    =   16.0000    1.3333   -4.0000
 Edisp (eV)   -0.91919

 E6    (eV) :    -0.3567
 E8    (eV) :    -0.5624
 % E8        : 61.19
    FORVDW:  cpu time      0.0193: real time      0.0209

  FORCE on cell =-STRESS in cart. coord.  units (eV):
  Direction    XX          YY          ZZ          XY          YZ          ZX
  --------------------------------------------------------------------------------------
  Alpha Z    30.74992    30.74992    30.74992
  Ewald    6160.71891  6160.71891 -7849.80039    -0.00000    -0.00000    -0.00000
  Hartree  6796.34060  6796.34060 -6419.87987    -0.00000     0.00000     0.00000
  E(xc)    -209.37550  -209.37551  -209.67826    -0.00000    -0.00000    -0.00000
  Local  -13988.40868-13988.40859 13234.69850     0.00009     0.00000     0.00000
  n-local   480.11982   480.26372   479.20253    -0.42625     0.04443     0.04772
  augment   -58.58871   -58.58880   -58.74604    -0.00007    -0.00000     0.00000
  Kinetic   790.23244   789.72661   794.34520     0.59839    -0.32505     0.05367
  Fock        0.00000     0.00000     0.00000     0.00000     0.00000     0.00000
  vdW        -0.75666    -0.75666    -0.01415    -0.00000     0.00000    -0.00000
  -------------------------------------------------------------------------------------
  Total       0.85117     0.85117     0.87744     0.00000     0.00000     0.00000
  in kB       2.43593     2.43593     2.51112     0.00000     0.00000     0.00000
  external pressure =        2.46 kB  Pullay stress =        0.00 kB


 VOLUME and BASIS-vectors are now :
 -----------------------------------------------------------------------------
  energy-cutoff  :      400.00
  volume of cell :      559.84
      direct lattice vectors                 reciprocal lattice vectors
     6.048498000  0.000000000  0.000000000     0.165330302  0.095453494 -0.000000000
    -3.024249000  5.238152923  0.000000000     0.000000000  0.190906989  0.000000000
     0.000000000  0.000000000 17.670000000     0.000000000 -0.000000000  0.056593096

  length of vectors
     6.048498000  6.048498000 17.670000000     0.190906989  0.190906989  0.056593096


 FORCES acting on ions
    electron-ion (+dipol)            ewald-force                    non-local-force                 convergence-correction
 -----------------------------------------------------------------------------------------------
   0.312E-06 -.180E-06 0.212E-12   -.513E-11 0.295E-11 -.248E-13   -.746E-18 -.729E-18 -.115E-19   0.312E-10 -.180E-10 0.197E-12
   -.312E-06 0.180E-06 -.119E-10   0.506E-11 -.292E-11 -.946E-14   -.663E-20 0.819E-18 -.815E-20   -.312E-10 0.180E-10 0.186E-12
   0.686E+02 0.109E-05 0.459E+03   -.706E+02 -.246E-11 -.462E+03   0.196E+01 0.275E-18 0.277E+01   -.784E-04 0.489E-08 0.720E-04
   -.343E+02 0.594E+02 0.459E+03   0.353E+02 -.612E+02 -.462E+03   -.982E+00 0.170E+01 0.277E+01   0.392E-04 -.679E-04 0.720E-04
   -.343E+02 -.594E+02 0.459E+03   0.353E+02 0.612E+02 -.462E+03   -.982E+00 -.170E+01 0.277E+01   0.392E-04 0.679E-04 0.720E-04
   -.686E+02 -.109E-05 -.459E+03   0.706E+02 0.245E-11 0.462E+03   -.196E+01 -.265E-18 -.277E+01   0.784E-04 -.489E-08 -.720E-04
   0.343E+02 -.594E+02 -.459E+03   -.353E+02 0.612E+02 0.462E+03   0.982E+00 -.170E+01 -.277E+01   -.392E-04 0.679E-04 -.720E-04
   0.343E+02 0.594E+02 -.459E+03   -.353E+02 -.612E+02 0.462E+03   0.982E+00 0.170E+01 -.277E+01   -.392E-04 -.679E-04 -.720E-04
 -----------------------------------------------------------------------------------------------
   0.400E-12 0.517E-12 -.198E-10   0.711E-14 0.000E+00 -.568E-13   0.111E-15 0.000E+00 0.000E+00   0.335E-13 0.115E-13 0.147E-11


 POSITION                                       TOTAL-FORCE (eV/Angst)
 -----------------------------------------------------------------------------------
      0.00000      3.49210      8.83500        -0.000000     -0.000000     -0.000000
      3.02425      1.74605      8.83500        -0.000000      0.000000     -0.000000
      2.14722      0.00000      7.48501        -0.072472     -0.000000     -0.121264
     -1.07361      1.85954      7.48501         0.036236     -0.062763     -0.121264
      1.95064      3.37861      7.48501         0.036236      0.062763     -0.121264
      3.90128      0.00000     10.18499         0.072472      0.000000      0.121264
     -1.95064      3.37861     10.18499        -0.036236      0.062763      0.121264
      1.07361      1.85954     10.18499        -0.036236     -0.062763      0.121264
 -----------------------------------------------------------------------------------
    total drift:                                0.000000      0.000000     -0.000000


--------------------------------------------------------------------------------------------------------



  FREE ENERGIE OF THE ION-ELECTRON SYSTEM (eV)
  ---------------------------------------------------
  free  energy   TOTEN  =       -35.56477835 eV

  energy  without entropy=      -35.56477835  energy(sigma->0) =      -35.56477835



--------------------------------------------------------------------------------------------------------


    POTLOK:  cpu time      0.3626: real time      0.3658


--------------------------------------------------------------------------------------------------------




--------------------------------------------------------------------------------------------------------


      MLFF:  cpu time      2.2929: real time      2.3041
    WAVPRE:  cpu time      0.0100: real time      0.0101
    FEWALD:  cpu time      0.0009: real time      0.0009
    GENKIN:  cpu time      0.0111: real time      0.0112
    ORTHCH:  cpu time      0.0896: real time      0.0901
     LOOP+:  cpu time    160.9975: real time    163.2288


--------------------------------------- Ionic step        2  -------------------------------------------




--------------------------------------- Iteration      2(   1)  ---------------------------------------


    POTLOK:  cpu time      0.1569: real time      0.1585
    SETDIJ:  cpu time      0.1129: real time      0.1134
     EDDAV:  cpu time      4.3148: real time      4.3663
       DOS:  cpu time      0.0015: real time      0.0015
    CHARGE:  cpu time      0.1794: real time      0.1805
    MIXING:  cpu time      0.0049: real time      0.0049
    --------------------------------------------
      LOOP:  cpu time      4.7703: real time      4.8252

 eigenvalue-minimisations  :  2608
 total energy-change (2. order) :-0.3443261E-01  (-0.1484723E+00)
 number of electron      53.9999984 magnetization       5.9999998
 augmentation part       -0.5995455 magnetization       4.3786611

 Broyden mixing:
  rms(total) = 0.13509E+00    rms(broyden)= 0.13503E+00
  rms(prec ) = 0.14208E+00
  weight for this iteration     100.00

 Free energy of the ion-electron system (eV)
  ---------------------------------------------------
  alpha Z        PSCENC =        30.43666738
  Ewald energy   TEWEN  =      4391.40458743
  -Hartree energ DENC   =     -7086.59140007
  -exchange      EXHF   =         0.00000000
  -V(xc)+E(xc)   XCENC  =        86.06041817
  PAW double counting   =      3682.85631225    -3633.43504615
  entropy T*S    EENTRO =        -0.00000000
  eigenvalues    EBANDS =      -517.48161897
  atomic energy  EATOM  =      3012.07006103
  Solvation  Ediel_sol  =         0.00000000
  ext. energy  EPLUGINS =         0.00000000
  ---------------------------------------------------
  free energy    TOTEN  =       -34.68001893 eV

  energy without entropy =      -34.68001893  energy(sigma->0) =      -34.68001893


--------------------------------------------------------------------------------------------------------




--------------------------------------- Iteration      2(   2)  ---------------------------------------


    POTLOK:  cpu time      0.1678: real time      0.1696
    SETDIJ:  cpu time      0.1168: real time      0.1173
     EDDAV:  cpu time      6.0569: real time      6.1367
       DOS:  cpu time      0.0017: real time      0.0017
    CHARGE:  cpu time      0.2295: real time      0.2317
    MIXING:  cpu time      0.0067: real time      0.0069
    --------------------------------------------
      LOOP:  cpu time      6.5794: real time      6.6639

 eigenvalue-minimisations  :  3480
 total energy-change (2. order) : 0.1613170E-01  (-0.1226655E-01)
 number of electron      53.9999984 magnetization       5.9999997
 augmentation part       -0.5500528 magnetization       4.3957044

 Broyden mixing:
  rms(total) = 0.64910E-01    rms(broyden)= 0.64904E-01
  rms(prec ) = 0.68480E-01
  weight for this iteration     100.00

 eigenvalues of (default mixing * dielectric matrix)
  average eigenvalue GAMMA=   0.7908
  0.7908

 Free energy of the ion-electron system (eV)
  ---------------------------------------------------
  alpha Z        PSCENC =        30.43666738
  Ewald energy   TEWEN  =      4391.40458743
  -Hartree energ DENC   =     -7089.61038356
  -exchange      EXHF   =         0.00000000
  -V(xc)+E(xc)   XCENC  =        86.35913999
  PAW double counting   =      3637.44930428    -3587.99674362
  entropy T*S    EENTRO =        -0.00000000
  eigenvalues    EBANDS =      -514.77652016
  atomic energy  EATOM  =      3012.07006103
  Solvation  Ediel_sol  =         0.00000000
  ext. energy  EPLUGINS =         0.00000000
  ---------------------------------------------------
  free energy    TOTEN  =       -34.66388723 eV

  energy without entropy =      -34.66388723  energy(sigma->0) =      -34.66388723


--------------------------------------------------------------------------------------------------------




--------------------------------------- Iteration      2(   3)  ---------------------------------------


    POTLOK:  cpu time      0.1971: real time      0.1997
    SETDIJ:  cpu time      0.1655: real time      0.1664
     EDDAV:  cpu time      6.2655: real time      6.3599
       DOS:  cpu time      0.0016: real time      0.0016
    CHARGE:  cpu time      0.2007: real time      0.2023
    MIXING:  cpu time      0.0056: real time      0.0057
    --------------------------------------------
      LOOP:  cpu time      6.8361: real time      6.9358

 eigenvalue-minimisations  :  3292
 total energy-change (2. order) : 0.4478229E-02  (-0.1666432E-02)
 number of electron      53.9999984 magnetization       5.9999997
 augmentation part       -0.5775880 magnetization       4.3841920

 Broyden mixing:
  rms(total) = 0.53475E-01    rms(broyden)= 0.53474E-01
  rms(prec ) = 0.54497E-01
  weight for this iteration     100.00

 eigenvalues of (default mixing * dielectric matrix)
  average eigenvalue GAMMA=   0.6620
  0.8651  0.4589

 Free energy of the ion-electron system (eV)
  ---------------------------------------------------
  alpha Z        PSCENC =        30.43666738
  Ewald energy   TEWEN  =      4391.40458743
  -Hartree energ DENC   =     -7090.98776693
  -exchange      EXHF   =         0.00000000
  -V(xc)+E(xc)   XCENC  =        86.42625593
  PAW double counting   =      3636.32120911    -3586.96841760
  entropy T*S    EENTRO =        -0.00000000
  eigenvalues    EBANDS =      -513.36200535
  atomic energy  EATOM  =      3012.07006103
  Solvation  Ediel_sol  =         0.00000000
  ext. energy  EPLUGINS =         0.00000000
  ---------------------------------------------------
  free energy    TOTEN  =       -34.65940900 eV

  energy without entropy =      -34.65940900  energy(sigma->0) =      -34.65940900


--------------------------------------------------------------------------------------------------------




--------------------------------------- Iteration      2(   4)  ---------------------------------------


    POTLOK:  cpu time      0.1874: real time      0.1899
    SETDIJ:  cpu time      0.1316: real time      0.1322
     EDDAV:  cpu time      6.7115: real time      6.8065
       DOS:  cpu time      0.0019: real time      0.0019
    CHARGE:  cpu time      0.2177: real time      0.2192
    MIXING:  cpu time      0.0063: real time      0.0063
    --------------------------------------------
      LOOP:  cpu time      7.2563: real time      7.3561

 eigenvalue-minimisations  :  3576
 total energy-change (2. order) : 0.8266373E-03  (-0.1964651E-03)
 number of electron      53.9999984 magnetization       5.9999997
 augmentation part       -0.5703812 magnetization       4.3835799

 Broyden mixing:
  rms(total) = 0.23565E-01    rms(broyden)= 0.23565E-01
  rms(prec ) = 0.24259E-01
  weight for this iteration     100.00

 eigenvalues of (default mixing * dielectric matrix)
  average eigenvalue GAMMA=   0.8699
  1.0377  1.0377  0.5344

 Free energy of the ion-electron system (eV)
  ---------------------------------------------------
  alpha Z        PSCENC =        30.43666738
  Ewald energy   TEWEN  =      4391.40458743
  -Hartree energ DENC   =     -7091.25613875
  -exchange      EXHF   =         0.00000000
  -V(xc)+E(xc)   XCENC  =        86.44356246
  PAW double counting   =      3637.86122836    -3588.45736413
  entropy T*S    EENTRO =        -0.00000000
  eigenvalues    EBANDS =      -513.16118614
  atomic energy  EATOM  =      3012.07006103
  Solvation  Ediel_sol  =         0.00000000
  ext. energy  EPLUGINS =         0.00000000
  ---------------------------------------------------
  free energy    TOTEN  =       -34.65858237 eV

  energy without entropy =      -34.65858237  energy(sigma->0) =      -34.65858237


--------------------------------------------------------------------------------------------------------




--------------------------------------- Iteration      2(   5)  ---------------------------------------


    POTLOK:  cpu time      0.1899: real time      0.1938
    SETDIJ:  cpu time      0.1182: real time      0.1194
     EDDAV:  cpu time      6.3292: real time      6.4454
       DOS:  cpu time      0.0020: real time      0.0020
    CHARGE:  cpu time      0.1712: real time      0.1726
    MIXING:  cpu time      0.0070: real time      0.0071
    --------------------------------------------
      LOOP:  cpu time      6.8175: real time      6.9404

 eigenvalue-minimisations  :  3216
 total energy-change (2. order) : 0.3982136E-03  (-0.1006166E-03)
 number of electron      53.9999984 magnetization       5.9999997
 augmentation part       -0.5661721 magnetization       4.3831105

 Broyden mixing:
  rms(total) = 0.15129E-01    rms(broyden)= 0.15129E-01
  rms(prec ) = 0.15375E-01
  weight for this iteration     100.00

 eigenvalues of (default mixing * dielectric matrix)
  average eigenvalue GAMMA=   1.1149
  1.5593  1.5593  0.7634  0.5776

 Free energy of the ion-electron system (eV)
  ---------------------------------------------------
  alpha Z        PSCENC =        30.43666738
  Ewald energy   TEWEN  =      4391.40458743
  -Hartree energ DENC   =     -7091.52356930
  -exchange      EXHF   =         0.00000000
  -V(xc)+E(xc)   XCENC  =        86.46147795
  PAW double counting   =      3640.68264417    -3591.23721192
  entropy T*S    EENTRO =        -0.00000000
  eigenvalues    EBANDS =      -512.95284089
  atomic energy  EATOM  =      3012.07006103
  Solvation  Ediel_sol  =         0.00000000
  ext. energy  EPLUGINS =         0.00000000
  ---------------------------------------------------
  free energy    TOTEN  =       -34.65818415 eV

  energy without entropy =      -34.65818415  energy(sigma->0) =      -34.65818415


--------------------------------------------------------------------------------------------------------




--------------------------------------- Iteration      2(   6)  ---------------------------------------


    POTLOK:  cpu time      0.1846: real time      0.1867
    SETDIJ:  cpu time      0.1210: real time      0.1217
     EDDAV:  cpu time      6.5122: real time      6.5947
       DOS:  cpu time      0.0019: real time      0.0019
    CHARGE:  cpu time      0.1957: real time      0.1969
    MIXING:  cpu time      0.0064: real time      0.0064
    --------------------------------------------
      LOOP:  cpu time      7.0216: real time      7.1083

 eigenvalue-minimisations  :  3424
 total energy-change (2. order) : 0.1780218E-04  (-0.1798170E-04)
 number of electron      53.9999984 magnetization       5.9999996
 augmentation part       -0.5710634 magnetization       4.3811939

 Broyden mixing:
  rms(total) = 0.64524E-02    rms(broyden)= 0.64522E-02
  rms(prec ) = 0.67016E-02
  weight for this iteration     100.00

 eigenvalues of (default mixing * dielectric matrix)
  average eigenvalue GAMMA=   1.1432
  1.8149  1.8149  0.8624  0.6118  0.6118

 Free energy of the ion-electron system (eV)
  ---------------------------------------------------
  alpha Z        PSCENC =        30.43666738
  Ewald energy   TEWEN  =      4391.40458743
  -Hartree energ DENC   =     -7091.59139797
  -exchange      EXHF   =         0.00000000
  -V(xc)+E(xc)   XCENC  =        86.46799765
  PAW double counting   =      3645.98807084    -3596.51201978
  entropy T*S    EENTRO =        -0.00000000
  eigenvalues    EBANDS =      -512.92213292
  atomic energy  EATOM  =      3012.07006103
  Solvation  Ediel_sol  =         0.00000000
  ext. energy  EPLUGINS =         0.00000000
  ---------------------------------------------------
  free energy    TOTEN  =       -34.65816635 eV

  energy without entropy =      -34.65816635  energy(sigma->0) =      -34.65816635


--------------------------------------------------------------------------------------------------------




--------------------------------------- Iteration      2(   7)  ---------------------------------------


    POTLOK:  cpu time      0.1888: real time      0.1909
    SETDIJ:  cpu time      0.1339: real time      0.1346
     EDDAV:  cpu time      6.6128: real time      6.6990
       DOS:  cpu time      0.0021: real time      0.0021
    CHARGE:  cpu time      0.2341: real time      0.2357
    MIXING:  cpu time      0.0065: real time      0.0066
    --------------------------------------------
      LOOP:  cpu time      7.1782: real time      7.2690

 eigenvalue-minimisations  :  3516
 total energy-change (2. order) :-0.2887305E-04  (-0.6797673E-05)
 number of electron      53.9999984 magnetization       5.9999996
 augmentation part       -0.5683521 magnetization       4.3813941

 Broyden mixing:
  rms(total) = 0.17800E-02    rms(broyden)= 0.17799E-02
  rms(prec ) = 0.18647E-02
  weight for this iteration     100.00

 eigenvalues of (default mixing * dielectric matrix)
  average eigenvalue GAMMA=   1.1486
  2.3217  1.3254  1.3254  0.6411  0.6411  0.6369

 Free energy of the ion-electron system (eV)
  ---------------------------------------------------
  alpha Z        PSCENC =        30.43666738
  Ewald energy   TEWEN  =      4391.40458743
  -Hartree energ DENC   =     -7091.57576353
  -exchange      EXHF   =         0.00000000
  -V(xc)+E(xc)   XCENC  =        86.46905233
  PAW double counting   =      3647.21433923    -3597.71882552
  entropy T*S    EENTRO =        -0.00000000
  eigenvalues    EBANDS =      -512.95831357
  atomic energy  EATOM  =      3012.07006103
  Solvation  Ediel_sol  =         0.00000000
  ext. energy  EPLUGINS =         0.00000000
  ---------------------------------------------------
  free energy    TOTEN  =       -34.65819522 eV

  energy without entropy =      -34.65819522  energy(sigma->0) =      -34.65819522


--------------------------------------------------------------------------------------------------------




--------------------------------------- Iteration      2(   8)  ---------------------------------------


    POTLOK:  cpu time      0.1849: real time      0.1869
    SETDIJ:  cpu time      0.1871: real time      0.1880
     EDDAV:  cpu time      5.9472: real time      6.0283
       DOS:  cpu time      0.0018: real time      0.0018
    CHARGE:  cpu time      0.2201: real time      0.2217
    MIXING:  cpu time      0.0084: real time      0.0085
    --------------------------------------------
      LOOP:  cpu time      6.5496: real time      6.6351

 eigenvalue-minimisations  :  2896
 total energy-change (2. order) :-0.3731377E-04  (-0.1872649E-05)
 number of electron      53.9999984 magnetization       5.9999996
 augmentation part       -0.5679201 magnetization       4.3814807

 Broyden mixing:
  rms(total) = 0.12597E-02    rms(broyden)= 0.12597E-02
  rms(prec ) = 0.13135E-02
  weight for this iteration     100.00

 eigenvalues of (default mixing * dielectric matrix)
  average eigenvalue GAMMA=   1.2014
  2.3635  1.6323  1.6323  0.8333  0.6448  0.6448  0.6586

 Free energy of the ion-electron system (eV)
  ---------------------------------------------------
  alpha Z        PSCENC =        30.43666738
  Ewald energy   TEWEN  =      4391.40458743
  -Hartree energ DENC   =     -7091.56255961
  -exchange      EXHF   =         0.00000000
  -V(xc)+E(xc)   XCENC  =        86.47182175
  PAW double counting   =      3647.18367152    -3597.68629226
  entropy T*S    EENTRO =        -0.00000000
  eigenvalues    EBANDS =      -512.97618978
  atomic energy  EATOM  =      3012.07006103
  Solvation  Ediel_sol  =         0.00000000
  ext. energy  EPLUGINS =         0.00000000
  ---------------------------------------------------
  free energy    TOTEN  =       -34.65823254 eV

  energy without entropy =      -34.65823254  energy(sigma->0) =      -34.65823254


--------------------------------------------------------------------------------------------------------




--------------------------------------- Iteration      2(   9)  ---------------------------------------


    POTLOK:  cpu time      0.2040: real time      0.2060
    SETDIJ:  cpu time      0.1245: real time      0.1252
     EDDAV:  cpu time      4.3075: real time      4.3632
       DOS:  cpu time      0.0019: real time      0.0019
    CHARGE:  cpu time      0.2172: real time      0.2188
    MIXING:  cpu time      0.0075: real time      0.0076
    --------------------------------------------
      LOOP:  cpu time      4.8626: real time      4.9228

 eigenvalue-minimisations  :  1764
 total energy-change (2. order) :-0.5178881E-04  (-0.1410647E-06)
 number of electron      53.9999984 magnetization       5.9999996
 augmentation part       -0.5682814 magnetization       4.3813688

 Broyden mixing:
  rms(total) = 0.59407E-03    rms(broyden)= 0.59406E-03
  rms(prec ) = 0.64583E-03
  weight for this iteration     100.00

 eigenvalues of (default mixing * dielectric matrix)
  average eigenvalue GAMMA=   1.2010
  2.5059  2.1400  1.5165  0.9051  0.6629  0.6629  0.6075  0.6075

 Free energy of the ion-electron system (eV)
  ---------------------------------------------------
  alpha Z        PSCENC =        30.43666738
  Ewald energy   TEWEN  =      4391.40458743
  -Hartree energ DENC   =     -7091.50139799
  -exchange      EXHF   =         0.00000000
  -V(xc)+E(xc)   XCENC  =        86.47197568
  PAW double counting   =      3646.88123723    -3597.38589958
  entropy T*S    EENTRO =        -0.00000000
  eigenvalues    EBANDS =      -513.03551549
  atomic energy  EATOM  =      3012.07006103
  Solvation  Ediel_sol  =         0.00000000
  ext. energy  EPLUGINS =         0.00000000
  ---------------------------------------------------
  free energy    TOTEN  =       -34.65828433 eV

  energy without entropy =      -34.65828433  energy(sigma->0) =      -34.65828433


--------------------------------------------------------------------------------------------------------




--------------------------------------- Iteration      2(  10)  ---------------------------------------


    POTLOK:  cpu time      0.1956: real time      0.1981
    SETDIJ:  cpu time      0.1314: real time      0.1320
     EDDAV:  cpu time      3.8438: real time      3.8936
       DOS:  cpu time      0.0018: real time      0.0018
    CHARGE:  cpu time      0.2231: real time      0.2247
    MIXING:  cpu time      0.0076: real time      0.0077
    --------------------------------------------
      LOOP:  cpu time      4.4034: real time      4.4580

 eigenvalue-minimisations  :  1656
 total energy-change (2. order) :-0.1377943E-04  (-0.9250713E-07)
 number of electron      53.9999984 magnetization       5.9999996
 augmentation part       -0.5681226 magnetization       4.3814203

 Broyden mixing:
  rms(total) = 0.19106E-03    rms(broyden)= 0.19106E-03
  rms(prec ) = 0.27588E-03
  weight for this iteration     100.00

 eigenvalues of (default mixing * dielectric matrix)
  average eigenvalue GAMMA=   1.2327
  2.7960  2.3664  1.4159  1.0936  0.8937  0.6404  0.6404  0.5892  0.6585

 Free energy of the ion-electron system (eV)
  ---------------------------------------------------
  alpha Z        PSCENC =        30.43666738
  Ewald energy   TEWEN  =      4391.40458743
  -Hartree energ DENC   =     -7091.47363547
  -exchange      EXHF   =         0.00000000
  -V(xc)+E(xc)   XCENC  =        86.47170297
  PAW double counting   =      3646.81255368    -3597.31709453
  entropy T*S    EENTRO =        -0.00000000
  eigenvalues    EBANDS =      -513.06314059
  atomic energy  EATOM  =      3012.07006103
  Solvation  Ediel_sol  =         0.00000000
  ext. energy  EPLUGINS =         0.00000000
  ---------------------------------------------------
  free energy    TOTEN  =       -34.65829811 eV

  energy without entropy =      -34.65829811  energy(sigma->0) =      -34.65829811


--------------------------------------------------------------------------------------------------------




--------------------------------------- Iteration      2(  11)  ---------------------------------------


    POTLOK:  cpu time      0.2043: real time      0.2068
    SETDIJ:  cpu time      0.1866: real time      0.1876
     EDDAV:  cpu time      3.7895: real time      3.8371
       DOS:  cpu time      0.0019: real time      0.0019
    CHARGE:  cpu time      0.1717: real time      0.1728
    MIXING:  cpu time      0.0068: real time      0.0069
    --------------------------------------------
      LOOP:  cpu time      4.3607: real time      4.4131

 eigenvalue-minimisations  :  1616
 total energy-change (2. order) :-0.1302103E-04  (-0.9593572E-07)
 number of electron      53.9999984 magnetization       5.9999996
 augmentation part       -0.5682213 magnetization       4.3813768

 Broyden mixing:
  rms(total) = 0.22715E-03    rms(broyden)= 0.22714E-03
  rms(prec ) = 0.27589E-03
  weight for this iteration     100.00

 eigenvalues of (default mixing * dielectric matrix)
  average eigenvalue GAMMA=   1.1564
  2.6595  2.4099  1.4286  1.0492  1.0492  0.6571  0.6571  0.6017  0.6017  0.4499

 Free energy of the ion-electron system (eV)
  ---------------------------------------------------
  alpha Z        PSCENC =        30.43666738
  Ewald energy   TEWEN  =      4391.40458743
  -Hartree energ DENC   =     -7091.44592697
  -exchange      EXHF   =         0.00000000
  -V(xc)+E(xc)   XCENC  =        86.47138657
  PAW double counting   =      3646.79289606    -3597.29768700
  entropy T*S    EENTRO =        -0.00000000
  eigenvalues    EBANDS =      -513.09029562
  atomic energy  EATOM  =      3012.07006103
  Solvation  Ediel_sol  =         0.00000000
  ext. energy  EPLUGINS =         0.00000000
  ---------------------------------------------------
  free energy    TOTEN  =       -34.65831113 eV

  energy without entropy =      -34.65831113  energy(sigma->0) =      -34.65831113


--------------------------------------------------------------------------------------------------------




--------------------------------------- Iteration      2(  12)  ---------------------------------------


    POTLOK:  cpu time      0.1844: real time      0.1865
    SETDIJ:  cpu time      0.1143: real time      0.1148
     EDDAV:  cpu time      3.8003: real time      3.8480
       DOS:  cpu time      0.0019: real time      0.0019
    CHARGE:  cpu time      0.2280: real time      0.2296
    MIXING:  cpu time      0.0083: real time      0.0084
    --------------------------------------------
      LOOP:  cpu time      4.3371: real time      4.3891

 eigenvalue-minimisations  :  1616
 total energy-change (2. order) :-0.6080659E-05  (-0.4204835E-07)
 number of electron      53.9999984 magnetization       5.9999996
 augmentation part       -0.5681506 magnetization       4.3814132

 Broyden mixing:
  rms(total) = 0.12013E-03    rms(broyden)= 0.12012E-03
  rms(prec ) = 0.18070E-03
  weight for this iteration     100.00

 eigenvalues of (default mixing * dielectric matrix)
  average eigenvalue GAMMA=   1.1793
  2.7146  2.2804  1.8061  1.1915  1.1915  0.7354  0.7354  0.6363  0.6363  0.6054
  0.4398

 Free energy of the ion-electron system (eV)
  ---------------------------------------------------
  alpha Z        PSCENC =        30.43666738
  Ewald energy   TEWEN  =      4391.40458743
  -Hartree energ DENC   =     -7091.43277707
  -exchange      EXHF   =         0.00000000
  -V(xc)+E(xc)   XCENC  =        86.47122419
  PAW double counting   =      3646.78880111    -3597.29357124
  entropy T*S    EENTRO =        -0.00000000
  eigenvalues    EBANDS =      -513.10331004
  atomic energy  EATOM  =      3012.07006103
  Solvation  Ediel_sol  =         0.00000000
  ext. energy  EPLUGINS =         0.00000000
  ---------------------------------------------------
  free energy    TOTEN  =       -34.65831721 eV

  energy without entropy =      -34.65831721  energy(sigma->0) =      -34.65831721


--------------------------------------------------------------------------------------------------------




--------------------------------------- Iteration      2(  13)  ---------------------------------------


    POTLOK:  cpu time      0.2094: real time      0.2120
    SETDIJ:  cpu time      0.1593: real time      0.1601
     EDDAV:  cpu time      4.6460: real time      4.7055
       DOS:  cpu time      0.0019: real time      0.0020
    CHARGE:  cpu time      0.1897: real time      0.1912
    MIXING:  cpu time      0.0077: real time      0.0078
    --------------------------------------------
      LOOP:  cpu time      5.2142: real time      5.2785

 eigenvalue-minimisations  :  2080
 total energy-change (2. order) :-0.1975783E-04  (-0.2043428E-06)
 number of electron      53.9999984 magnetization       5.9999996
 augmentation part       -0.5681804 magnetization       4.3814040

 Broyden mixing:
  rms(total) = 0.48087E-04    rms(broyden)= 0.48078E-04
  rms(prec ) = 0.77228E-04
  weight for this iteration     100.00

 eigenvalues of (default mixing * dielectric matrix)
  average eigenvalue GAMMA=   1.3026
  3.3512  2.4662  2.4662  1.3331  1.0851  1.0851  0.8294  0.6534  0.6534  0.6315
  0.6315  0.4452

 Free energy of the ion-electron system (eV)
  ---------------------------------------------------
  alpha Z        PSCENC =        30.43666738
  Ewald energy   TEWEN  =      4391.40458743
  -Hartree energ DENC   =     -7091.38077824
  -exchange      EXHF   =         0.00000000
  -V(xc)+E(xc)   XCENC  =        86.47089022
  PAW double counting   =      3646.74065099    -3597.24552630
  entropy T*S    EENTRO =        -0.00000000
  eigenvalues    EBANDS =      -513.15488947
  atomic energy  EATOM  =      3012.07006103
  Solvation  Ediel_sol  =         0.00000000
  ext. energy  EPLUGINS =         0.00000000
  ---------------------------------------------------
  free energy    TOTEN  =       -34.65833697 eV

  energy without entropy =      -34.65833697  energy(sigma->0) =      -34.65833697


--------------------------------------------------------------------------------------------------------




--------------------------------------- Iteration      2(  14)  ---------------------------------------


    POTLOK:  cpu time      0.1790: real time      0.1811
    SETDIJ:  cpu time      0.1138: real time      0.1144
     EDDAV:  cpu time      3.9659: real time      4.0136
       DOS:  cpu time      0.0019: real time      0.0020
    CHARGE:  cpu time      0.1807: real time      0.1820
    MIXING:  cpu time      0.0073: real time      0.0074
    --------------------------------------------
      LOOP:  cpu time      4.4486: real time      4.5004

 eigenvalue-minimisations  :  1728
 total energy-change (2. order) :-0.4260361E-05  (-0.2568470E-07)
 number of electron      53.9999984 magnetization       5.9999996
 augmentation part       -0.5681625 magnetization       4.3814249

 Broyden mixing:
  rms(total) = 0.62625E-04    rms(broyden)= 0.62624E-04
  rms(prec ) = 0.73328E-04
  weight for this iteration     100.00

 eigenvalues of (default mixing * dielectric matrix)
  average eigenvalue GAMMA=   1.2973
  3.9549  2.4586  2.4586  1.3606  1.1137  1.1137  0.7353  0.7353  0.6529  0.6529
  0.5719  0.5719  0.4843

 Free energy of the ion-electron system (eV)
  ---------------------------------------------------
  alpha Z        PSCENC =        30.43666738
  Ewald energy   TEWEN  =      4391.40458743
  -Hartree energ DENC   =     -7091.36099943
  -exchange      EXHF   =         0.00000000
  -V(xc)+E(xc)   XCENC  =        86.47079047
  PAW double counting   =      3646.72711780    -3597.23206720
  entropy T*S    EENTRO =        -0.00000000
  eigenvalues    EBANDS =      -513.17449870
  atomic energy  EATOM  =      3012.07006103
  Solvation  Ediel_sol  =         0.00000000
  ext. energy  EPLUGINS =         0.00000000
  ---------------------------------------------------
  free energy    TOTEN  =       -34.65834123 eV

  energy without entropy =      -34.65834123  energy(sigma->0) =      -34.65834123


--------------------------------------------------------------------------------------------------------




--------------------------------------- Iteration      2(  15)  ---------------------------------------


    POTLOK:  cpu time      0.2016: real time      0.2037
    SETDIJ:  cpu time      0.1666: real time      0.1684
     EDDAV:  cpu time      3.6401: real time      3.6846
       DOS:  cpu time      0.0018: real time      0.0019
    --------------------------------------------
      LOOP:  cpu time      4.0103: real time      4.0589

 eigenvalue-minimisations  :  1440
 total energy-change (2. order) :-0.7195072E-06  (-0.1079157E-07)
 number of electron      53.9999984 magnetization       5.9999996
 augmentation part       -0.5681625 magnetization       4.3814249

 Free energy of the ion-electron system (eV)
  ---------------------------------------------------
  alpha Z        PSCENC =        30.43666738
  Ewald energy   TEWEN  =      4391.40458743
  -Hartree energ DENC   =     -7091.35530553
  -exchange      EXHF   =         0.00000000
  -V(xc)+E(xc)   XCENC  =        86.47077722
  PAW double counting   =      3646.72620127    -3597.23123289
  entropy T*S    EENTRO =        -0.00000000
  eigenvalues    EBANDS =      -513.18009786
  atomic energy  EATOM  =      3012.07006103
  Solvation  Ediel_sol  =         0.00000000
  ext. energy  EPLUGINS =         0.00000000
  ---------------------------------------------------
  free energy    TOTEN  =       -34.65834195 eV

  energy without entropy =      -34.65834195  energy(sigma->0) =      -34.65834195


--------------------------------------------------------------------------------------------------------




 average (electrostatic) potential at core
  the test charge radii are     1.1394  0.9406
  (the norm of the test charge is              1.0000)
       1 -53.2243       2 -53.2243       3 -98.9539       4 -98.9539       5 -98.9539
       6 -98.9539       7 -98.9539       8 -98.9539



 E-fermi :  -4.9082     XC(G=0):  -3.3056     alpha+bet : -2.6667

 val. band max:       -5.1363880366   @ k =   0.0909   0.0909   0.0000
 cond. band min:      -2.5561864639   @ k =   0.3636   0.2727   0.0000
 fundamental gap:      2.5802015728
 Fermi energy:        -4.9082228125

 spin component 1

 k-point     1 :       0.0000    0.0000    0.0000
  band No.  band energies     occupation 
      1     -19.2200      1.00000
      2     -18.4474      1.00000
      3     -18.2773      1.00000
      4     -18.2773      1.00000
      5     -18.1837      1.00000
      6     -18.1837      1.00000
      7      -9.0933      1.00000
      8      -9.0461      1.00000
      9      -8.6132      1.00000
     10      -8.6132      1.00000
     11      -8.5979      1.00000
     12      -8.5979      1.00000
     13      -7.6324      1.00000
     14      -7.6324      1.00000
     15      -7.6089      1.00000
     16      -7.4142      1.00000
     17      -7.1245      1.00000
     18      -7.0904      1.00000
     19      -7.0904      1.00000
     20      -6.6277      1.00000
     21      -6.6277      1.00000
     22      -6.2000      1.00000
     23      -6.1469      1.00000
     24      -6.1469      1.00000
     25      -5.9263      1.00000
     26      -5.7916      1.00000
     27      -5.3780      1.00000
     28      -5.3780      1.00000
     29      -5.1409      1.00000
     30      -5.1409      1.00000
     31      -2.5193      0.00000
     32      -2.5193      0.00000
     33      -2.3106      0.00000
     34      -2.3106      0.00000
     35       1.5492      0.00000
     36       2.3186      0.00000

 k-point     2 :       0.0909    0.0000    0.0000
  band No.  band energies     occupation 
      1     -19.2034      1.00000
      2     -18.4405      1.00000
      3     -18.2971      1.00000
      4     -18.2832      1.00000
      5     -18.1863      1.00000
      6     -18.1851      1.00000
      7      -9.1036      1.00000
      8      -9.0327      1.00000
      9      -8.6708      1.00000
     10      -8.6691      1.00000
     11      -8.5247      1.00000
     12      -8.5188      1.00000
     13      -7.6544      1.00000
     14      -7.6325      1.00000
     15      -7.6212      1.00000
     16      -7.3779      1.00000
     17      -7.1509      1.00000
     18      -7.0846      1.00000
     19      -7.0517      1.00000
     20      -6.6981      1.00000
     21      -6.6226      1.00000
     22      -6.1725      1.00000
     23      -6.1667      1.00000
     24      -6.1226      1.00000
     25      -5.9243      1.00000
     26      -5.7581      1.00000
     27      -5.3845      1.00000
     28      -5.3806      1.00000
     29      -5.1845      1.00000
     30      -5.1386      1.00000
     31      -2.5203      0.00000
     32      -2.5156      0.00000
     33      -2.3430      0.00000
     34      -2.3143      0.00000
     35       1.6307      0.00000
     36       2.3670      0.00000

 k-point     3 :       0.1818    0.0000    0.0000
  band No.  band energies     occupation 
      1     -19.1549      1.00000
      2     -18.4206      1.00000
      3     -18.3532      1.00000
      4     -18.2977      1.00000
      5     -18.1941      1.00000
      6     -18.1912      1.00000
      7      -9.1343      1.00000
      8      -8.9938      1.00000
      9      -8.7188      1.00000
     10      -8.6833      1.00000
     11      -8.4303      1.00000
     12      -8.4280      1.00000
     13      -7.7134      1.00000
     14      -7.6844      1.00000
     15      -7.5941      1.00000
     16      -7.3262      1.00000
     17      -7.2018      1.00000
     18      -7.0572      1.00000
     19      -6.9663      1.00000
     20      -6.8305      1.00000
     21      -6.6098      1.00000
     22      -6.2287      1.00000
     23      -6.1729      1.00000
     24      -6.0433      1.00000
     25      -5.9138      1.00000
     26      -5.6580      1.00000
     27      -5.4054      1.00000
     28      -5.3906      1.00000
     29      -5.2814      1.00000
     30      -5.1392      1.00000
     31      -2.5220      0.00000
     32      -2.5043      0.00000
     33      -2.4148      0.00000
     34      -2.3290      0.00000
     35       1.8555      0.00000
     36       2.4994      0.00000

 k-point     4 :       0.2727    0.0000    0.0000
  band No.  band energies     occupation 
      1     -19.0789      1.00000
      2     -18.4383      1.00000
      3     -18.3900      1.00000
      4     -18.3147      1.00000
      5     -18.2059      1.00000
      6     -18.2052      1.00000
      7      -9.1854      1.00000
      8      -8.9286      1.00000
      9      -8.7500      1.00000
     10      -8.6177      1.00000
     11      -8.3648      1.00000
     12      -8.3254      1.00000
     13      -7.7916      1.00000
     14      -7.7382      1.00000
     15      -7.5680      1.00000
     16      -7.4052      1.00000
     17      -7.1765      1.00000
     18      -7.0287      1.00000
     19      -7.0149      1.00000
     20      -6.7914      1.00000
     21      -6.5829      1.00000
     22      -6.3212      1.00000
     23      -6.2069      1.00000
     24      -5.9635      1.00000
     25      -5.8852      1.00000
     26      -5.5181      1.00000
     27      -5.4415      1.00000
     28      -5.4231      1.00000
     29      -5.3679      1.00000
     30      -5.1476      1.00000
     31      -2.5209      0.00000
     32      -2.4835      0.00000
     33      -2.4805      0.00000
     34      -2.3592      0.00000
     35       2.1817      0.00000
     36       2.6960      0.00000

 k-point     5 :       0.3636    0.0000    0.0000
  band No.  band energies     occupation 
      1     -18.9846      1.00000
      2     -18.5407      1.00000
      3     -18.3537      1.00000
      4     -18.3276      1.00000
      5     -18.2303      1.00000
      6     -18.2157      1.00000
      7      -9.2386      1.00000
      8      -8.8458      1.00000
      9      -8.7664      1.00000
     10      -8.4818      1.00000
     11      -8.3467      1.00000
     12      -8.2193      1.00000
     13      -7.8735      1.00000
     14      -7.7775      1.00000
     15      -7.6319      1.00000
     16      -7.4863      1.00000
     17      -7.1587      1.00000
     18      -7.1269      1.00000
     19      -7.0091      1.00000
     20      -6.6466      1.00000
     21      -6.5487      1.00000
     22      -6.3873      1.00000
     23      -6.2685      1.00000
     24      -5.8957      1.00000
     25      -5.8392      1.00000
     26      -5.5021      1.00000
     27      -5.4767      1.00000
     28      -5.4249      1.00000
     29      -5.3698      1.00000
     30      -5.1598      1.00000
     31      -2.5226      0.00000
     32      -2.5123      0.00000
     33      -2.4501      0.00000
     34      -2.4015      0.00000
     35       2.5754      0.00000
     36       2.9431      0.00000

 k-point     6 :       0.4545    0.0000    0.0000
  band No.  band energies     occupation 
      1     -18.8975      1.00000
      2     -18.6325      1.00000
      3     -18.3401      1.00000
      4     -18.3112      1.00000
      5     -18.2609      1.00000
      6     -18.2219      1.00000
      7      -9.2708      1.00000
      8      -8.7803      1.00000
      9      -8.7725      1.00000
     10      -8.3837      1.00000
     11      -8.3029      1.00000
     12      -8.1349      1.00000
     13      -7.9407      1.00000
     14      -7.7966      1.00000
     15      -7.7963      1.00000
     16      -7.4859      1.00000
     17      -7.2394      1.00000
     18      -7.0889      1.00000
     19      -7.0270      1.00000
     20      -6.5541      1.00000
     21      -6.5066      1.00000
     22      -6.3838      1.00000
     23      -6.3528      1.00000
     24      -5.8481      1.00000
     25      -5.7989      1.00000
     26      -5.5738      1.00000
     27      -5.4910      1.00000
     28      -5.4630      1.00000
     29      -5.2608      1.00000
     30      -5.1885      1.00000
     31      -2.5418      0.00000
     32      -2.4940      0.00000
     33      -2.4431      0.00000
     34      -2.4219      0.00000
     35       2.9484      0.00000
     36       3.0254      0.00000

 k-point     7 :       0.0909    0.0909    0.0000
  band No.  band energies     occupation 
      1     -19.1708      1.00000
      2     -18.4271      1.00000
      3     -18.3332      1.00000
      4     -18.2955      1.00000
      5     -18.1909      1.00000
      6     -18.1892      1.00000
      7      -9.1180      1.00000
      8      -9.0101      1.00000
      9      -8.7533      1.00000
     10      -8.6242      1.00000
     11      -8.5048      1.00000
     12      -8.4224      1.00000
     13      -7.6984      1.00000
     14      -7.6708      1.00000
     15      -7.5969      1.00000
     16      -7.3272      1.00000
     17      -7.1961      1.00000
     18      -7.0706      1.00000
     19      -6.9852      1.00000
     20      -6.8032      1.00000
     21      -6.6078      1.00000
     22      -6.2327      1.00000
     23      -6.1098      1.00000
     24      -6.1022      1.00000
     25      -5.9181      1.00000
     26      -5.6905      1.00000
     27      -5.3959      1.00000
     28      -5.3882      1.00000
     29      -5.2558      1.00000
     30      -5.1364      1.00000
     31      -2.5230      0.00000
     32      -2.5072      0.00000
     33      -2.3968      0.00000
     34      -2.3206      0.00000
     35       1.7832      0.00000
     36       2.4568      0.00000

 k-point     8 :       0.1818    0.0909    0.0000
  band No.  band energies     occupation 
      1     -19.1084      1.00000
      2     -18.4019      1.00000
      3     -18.4008      1.00000
      4     -18.3151      1.00000
      5     -18.1999      1.00000
      6     -18.1992      1.00000
      7      -9.1411      1.00000
      8      -8.9734      1.00000
      9      -8.7929      1.00000
     10      -8.5795      1.00000
     11      -8.4395      1.00000
     12      -8.3326      1.00000
     13      -7.7733      1.00000
     14      -7.7207      1.00000
     15      -7.5602      1.00000
     16      -7.3285      1.00000
     17      -7.2308      1.00000
     18      -7.0528      1.00000
     19      -6.9388      1.00000
     20      -6.8655      1.00000
     21      -6.5760      1.00000
     22      -6.3220      1.00000
     23      -6.1282      1.00000
     24      -6.0275      1.00000
     25      -5.8979      1.00000
     26      -5.5692      1.00000
     27      -5.4371      1.00000
     28      -5.3923      1.00000
     29      -5.3463      1.00000
     30      -5.1406      1.00000
     31      -2.5269      0.00000
     32      -2.4901      0.00000
     33      -2.4647      0.00000
     34      -2.3368      0.00000
     35       2.0551      0.00000
     36       2.6190      0.00000

 k-point     9 :       0.2727    0.0909    0.0000
  band No.  band energies     occupation 
      1     -19.0223      1.00000
      2     -18.4932      1.00000
      3     -18.3686      1.00000
      4     -18.3333      1.00000
      5     -18.2177      1.00000
      6     -18.2108      1.00000
      7      -9.1836      1.00000
      8      -8.9117      1.00000
      9      -8.7848      1.00000
     10      -8.5085      1.00000
     11      -8.3737      1.00000
     12      -8.2569      1.00000
     13      -7.8575      1.00000
     14      -7.7617      1.00000
     15      -7.5489      1.00000
     16      -7.4404      1.00000
     17      -7.2077      1.00000
     18      -7.1262      1.00000
     19      -6.9551      1.00000
     20      -6.7508      1.00000
     21      -6.5231      1.00000
     22      -6.4127      1.00000
     23      -6.1778      1.00000
     24      -5.9557      1.00000
     25      -5.8583      1.00000
     26      -5.5064      1.00000
     27      -5.4361      1.00000
     28      -5.4208      1.00000
     29      -5.3942      1.00000
     30      -5.1510      1.00000
     31      -2.5269      0.00000
     32      -2.5096      0.00000
     33      -2.4660      0.00000
     34      -2.3646      0.00000
     35       2.4071      0.00000
     36       2.8373      0.00000

 k-point    10 :       0.3636    0.0909    0.0000
  band No.  band energies     occupation 
      1     -18.9265      1.00000
      2     -18.5941      1.00000
      3     -18.3509      1.00000
      4     -18.3258      1.00000
      5     -18.2449      1.00000
      6     -18.2192      1.00000
      7      -9.2246      1.00000
      8      -8.8350      1.00000
      9      -8.7718      1.00000
     10      -8.4001      1.00000
     11      -8.3556      1.00000
     12      -8.1752      1.00000
     13      -7.9335      1.00000
     14      -7.7843      1.00000
     15      -7.6850      1.00000
     16      -7.4600      1.00000
     17      -7.2558      1.00000
     18      -7.1269      1.00000
     19      -6.9758      1.00000
     20      -6.6491      1.00000
     21      -6.5185      1.00000
     22      -6.3989      1.00000
     23      -6.2439      1.00000
     24      -5.8947      1.00000
     25      -5.8129      1.00000
     26      -5.5783      1.00000
     27      -5.4769      1.00000
     28      -5.4260      1.00000
     29      -5.3002      1.00000
     30      -5.1678      1.00000
     31      -2.5390      0.00000
     32      -2.5071      0.00000
     33      -2.4547      0.00000
     34      -2.3849      0.00000
     35       2.8149      0.00000
     36       3.0163      0.00000

 k-point    11 :       0.4545    0.0909    0.0000
  band No.  band energies     occupation 
      1     -18.8699      1.00000
      2     -18.6528      1.00000
      3     -18.3544      1.00000
      4     -18.2990      1.00000
      5     -18.2690      1.00000
      6     -18.2224      1.00000
      7      -9.2407      1.00000
      8      -8.7943      1.00000
      9      -8.7703      1.00000
     10      -8.3833      1.00000
     11      -8.3048      1.00000
     12      -8.1280      1.00000
     13      -7.9719      1.00000
     14      -7.7903      1.00000
     15      -7.7880      1.00000
     16      -7.4530      1.00000
     17      -7.2897      1.00000
     18      -7.1080      1.00000
     19      -6.9908      1.00000
     20      -6.6195      1.00000
     21      -6.5215      1.00000
     22      -6.3245      1.00000
     23      -6.3176      1.00000
     24      -5.8645      1.00000
     25      -5.7929      1.00000
     26      -5.6202      1.00000
     27      -5.4840      1.00000
     28      -5.4459      1.00000
     29      -5.2272      1.00000
     30      -5.1993      1.00000
     31      -2.5463      0.00000
     32      -2.4855      0.00000
     33      -2.4734      0.00000
     34      -2.3833      0.00000
     35       2.9465      0.00000
     36       3.2197      0.00000

 k-point    12 :       0.1818    0.1818    0.0000
  band No.  band energies     occupation 
      1     -19.0354      1.00000
      2     -18.4711      1.00000
      3     -18.3742      1.00000
      4     -18.3420      1.00000
      5     -18.2119      1.00000
      6     -18.2088      1.00000
      7      -9.1157      1.00000
      8      -8.9873      1.00000
      9      -8.8034      1.00000
     10      -8.4634      1.00000
     11      -8.4322      1.00000
     12      -8.2631      1.00000
     13      -7.8604      1.00000
     14      -7.7544      1.00000
     15      -7.5085      1.00000
     16      -7.3498      1.00000
     17      -7.3083      1.00000
     18      -7.1306      1.00000
     19      -6.8947      1.00000
     20      -6.8236      1.00000
     21      -6.4978      1.00000
     22      -6.4387      1.00000
     23      -6.0723      1.00000
     24      -6.0461      1.00000
     25      -5.8656      1.00000
     26      -5.5133      1.00000
     27      -5.4387      1.00000
     28      -5.4167      1.00000
     29      -5.3808      1.00000
     30      -5.1458      1.00000
     31      -2.5362      0.00000
     32      -2.5066      0.00000
     33      -2.4696      0.00000
     34      -2.3432      0.00000
     35       2.3458      0.00000
     36       2.7994      0.00000

 k-point    13 :       0.2727    0.1818    0.0000
  band No.  band energies     occupation 
      1     -18.9440      1.00000
      2     -18.5604      1.00000
      3     -18.3703      1.00000
      4     -18.3354      1.00000
      5     -18.2311      1.00000
      6     -18.2189      1.00000
      7      -9.1168      1.00000
      8      -8.9538      1.00000
      9      -8.7737      1.00000
     10      -8.4135      1.00000
     11      -8.3863      1.00000
     12      -8.2070      1.00000
     13      -7.9436      1.00000
     14      -7.7702      1.00000
     15      -7.5352      1.00000
     16      -7.4361      1.00000
     17      -7.3160      1.00000
     18      -7.1795      1.00000
     19      -6.8897      1.00000
     20      -6.7574      1.00000
     21      -6.5390      1.00000
     22      -6.3888      1.00000
     23      -6.1165      1.00000
     24      -5.9897      1.00000
     25      -5.8233      1.00000
     26      -5.5928      1.00000
     27      -5.4616      1.00000
     28      -5.3882      1.00000
     29      -5.3229      1.00000
     30      -5.1543      1.00000
     31      -2.5428      0.00000
     32      -2.5180      0.00000
     33      -2.4585      0.00000
     34      -2.3451      0.00000
     35       2.6959      0.00000
     36       3.0159      0.00000

 k-point    14 :       0.3636    0.1818    0.0000
  band No.  band energies     occupation 
      1     -18.8560      1.00000
      2     -18.6479      1.00000
      3     -18.3829      1.00000
      4     -18.3009      1.00000
      5     -18.2574      1.00000
      6     -18.2250      1.00000
      7      -9.1408      1.00000
      8      -8.8669      1.00000
      9      -8.7733      1.00000
     10      -8.3850      1.00000
     11      -8.3743      1.00000
     12      -8.1451      1.00000
     13      -8.0014      1.00000
     14      -7.7699      1.00000
     15      -7.6783      1.00000
     16      -7.3991      1.00000
     17      -7.3402      1.00000
     18      -7.1761      1.00000
     19      -6.9186      1.00000
     20      -6.7095      1.00000
     21      -6.5912      1.00000
     22      -6.2798      1.00000
     23      -6.1850      1.00000
     24      -5.9376      1.00000
     25      -5.7989      1.00000
     26      -5.6614      1.00000
     27      -5.4685      1.00000
     28      -5.4136      1.00000
     29      -5.2338      1.00000
     30      -5.1725      1.00000
     31      -2.5503      0.00000
     32      -2.4998      0.00000
     33      -2.4719      0.00000
     34      -2.3367      0.00000
     35       2.9990      0.00000
     36       3.0672      0.00000

 k-point    15 :       0.2727    0.2727    0.0000
  band No.  band energies     occupation 
      1     -18.8532      1.00000
      2     -18.6395      1.00000
      3     -18.3983      1.00000
      4     -18.3037      1.00000
      5     -18.2461      1.00000
      6     -18.2303      1.00000
      7      -8.9997      1.00000
      8      -8.9981      1.00000
      9      -8.7746      1.00000
     10      -8.4107      1.00000
     11      -8.3826      1.00000
     12      -8.1543      1.00000
     13      -8.0138      1.00000
     14      -7.7592      1.00000
     15      -7.6037      1.00000
     16      -7.4039      1.00000
     17      -7.3288      1.00000
     18      -7.2298      1.00000
     19      -6.8741      1.00000
     20      -6.7555      1.00000
     21      -6.6234      1.00000
     22      -6.2628      1.00000
     23      -6.0793      1.00000
     24      -6.0263      1.00000
     25      -5.8035      1.00000
     26      -5.6740      1.00000
     27      -5.4617      1.00000
     28      -5.3993      1.00000
     29      -5.2384      1.00000
     30      -5.1594      1.00000
     31      -2.5524      0.00000
     32      -2.5078      0.00000
     33      -2.4673      0.00000
     34      -2.3155      0.00000
     35       2.9955      0.00000
     36       3.0651      0.00000

 k-point    16 :       0.3636    0.2727    0.0000
  band No.  band energies     occupation 
      1     -18.7860      1.00000
      2     -18.7021      1.00000
      3     -18.4092      1.00000
      4     -18.2791      1.00000
      5     -18.2635      1.00000
      6     -18.2355      1.00000
      7      -9.0153      1.00000
      8      -8.8962      1.00000
      9      -8.8264      1.00000
     10      -8.4078      1.00000
     11      -8.3989      1.00000
     12      -8.1115      1.00000
     13      -8.0543      1.00000
     14      -7.7498      1.00000
     15      -7.6543      1.00000
     16      -7.3496      1.00000
     17      -7.3407      1.00000
     18      -7.2568      1.00000
     19      -6.8907      1.00000
     20      -6.7289      1.00000
     21      -6.6664      1.00000
     22      -6.1758      1.00000
     23      -6.1215      1.00000
     24      -6.0152      1.00000
     25      -5.8117      1.00000
     26      -5.6988      1.00000
     27      -5.4462      1.00000
     28      -5.4190      1.00000
     29      -5.1932      1.00000
     30      -5.1728      1.00000
     31      -2.5562      0.00000
     32      -2.4920      0.00000
     33      -2.4815      0.00000
     34      -2.3010      0.00000
     35       3.0261      0.00000
     36       3.0935      0.00000
 Fermi energy:        -4.9082228125

 spin component 2

 k-point     1 :       0.0000    0.0000    0.0000
  band No.  band energies     occupation 
      1     -19.2579      1.00000
      2     -18.5300      1.00000
      3     -18.3523      1.00000
      4     -18.3523      1.00000
      5     -18.2485      1.00000
      6     -18.2485      1.00000
      7      -8.7172      1.00000
      8      -8.2708      1.00000
      9      -7.8679      1.00000
     10      -7.8679      1.00000
     11      -7.6736      1.00000
     12      -7.6736      1.00000
     13      -7.6066      1.00000
     14      -6.9724      1.00000
     15      -6.9724      1.00000
     16      -6.7573      1.00000
     17      -6.4859      1.00000
     18      -6.4859      1.00000
     19      -6.2234      1.00000
     20      -5.8266      1.00000
     21      -5.5021      1.00000
     22      -5.5021      1.00000
     23      -5.3275      1.00000
     24      -5.3275      1.00000
     25      -0.7579      0.00000
     26      -0.7579      0.00000
     27      -0.5572      0.00000
     28      -0.5572      0.00000
     29      -0.5448      0.00000
     30      -0.4998      0.00000
     31      -0.2538      0.00000
     32      -0.2538      0.00000
     33      -0.2016      0.00000
     34      -0.2016      0.00000
     35       1.7051      0.00000
     36       2.3337      0.00000

 k-point     2 :       0.0909    0.0000    0.0000
  band No.  band energies     occupation 
      1     -19.2419      1.00000
      2     -18.5227      1.00000
      3     -18.3716      1.00000
      4     -18.3587      1.00000
      5     -18.2506      1.00000
      6     -18.2498      1.00000
      7      -8.7236      1.00000
      8      -8.2672      1.00000
      9      -7.8771      1.00000
     10      -7.8113      1.00000
     11      -7.7833      1.00000
     12      -7.6920      1.00000
     13      -7.4683      1.00000
     14      -7.0072      1.00000
     15      -6.9790      1.00000
     16      -6.6877      1.00000
     17      -6.4927      1.00000
     18      -6.4664      1.00000
     19      -6.2075      1.00000
     20      -5.8189      1.00000
     21      -5.5217      1.00000
     22      -5.5039      1.00000
     23      -5.4153      1.00000
     24      -5.3441      1.00000
     25      -0.7709      0.00000
     26      -0.7530      0.00000
     27      -0.5676      0.00000
     28      -0.5658      0.00000
     29      -0.5614      0.00000
     30      -0.4623      0.00000
     31      -0.2776      0.00000
     32      -0.2631      0.00000
     33      -0.2016      0.00000
     34      -0.1887      0.00000
     35       1.7791      0.00000
     36       2.3835      0.00000

 k-point     3 :       0.1818    0.0000    0.0000
  band No.  band energies     occupation 
      1     -19.1950      1.00000
      2     -18.5015      1.00000
      3     -18.4259      1.00000
      4     -18.3746      1.00000
      5     -18.2571      1.00000
      6     -18.2562      1.00000
      7      -8.7301      1.00000
      8      -8.2591      1.00000
      9      -7.9131      1.00000
     10      -7.8654      1.00000
     11      -7.7151      1.00000
     12      -7.6652      1.00000
     13      -7.2885      1.00000
     14      -7.0998      1.00000
     15      -6.9986      1.00000
     16      -6.5593      1.00000
     17      -6.4685      1.00000
     18      -6.4206      1.00000
     19      -6.1679      1.00000
     20      -5.8085      1.00000
     21      -5.7011      1.00000
     22      -5.5233      1.00000
     23      -5.5082      1.00000
     24      -5.3778      1.00000
     25      -0.8002      0.00000
     26      -0.7349      0.00000
     27      -0.6336      0.00000
     28      -0.5889      0.00000
     29      -0.5764      0.00000
     30      -0.3719      0.00000
     31      -0.3334      0.00000
     32      -0.2887      0.00000
     33      -0.2023      0.00000
     34      -0.1526      0.00000
     35       1.9865      0.00000
     36       2.5214      0.00000

 k-point     4 :       0.2727    0.0000    0.0000
  band No.  band energies     occupation 
      1     -19.1215      1.00000
      2     -18.5082      1.00000
      3     -18.4689      1.00000
      4     -18.3932      1.00000
      5     -18.2717      1.00000
      6     -18.2668      1.00000
      7      -8.7255      1.00000
      8      -8.2446      1.00000
      9      -7.9821      1.00000
     10      -7.8649      1.00000
     11      -7.6817      1.00000
     12      -7.4997      1.00000
     13      -7.2556      1.00000
     14      -7.0815      1.00000
     15      -7.0243      1.00000
     16      -6.5780      1.00000
     17      -6.3782      1.00000
     18      -6.2723      1.00000
     19      -6.1126      1.00000
     20      -6.0396      1.00000
     21      -5.8492      1.00000
     22      -5.5681      1.00000
     23      -5.4919      1.00000
     24      -5.3977      1.00000
     25      -0.8435      0.00000
     26      -0.7205      0.00000
     27      -0.7011      0.00000
     28      -0.6151      0.00000
     29      -0.5941      0.00000
     30      -0.3953      0.00000
     31      -0.3335      0.00000
     32      -0.2608      0.00000
     33      -0.2040      0.00000
     34      -0.1084      0.00000
     35       2.2935      0.00000
     36       2.7285      0.00000

 k-point     5 :       0.3636    0.0000    0.0000
  band No.  band energies     occupation 
      1     -19.0302      1.00000
      2     -18.6071      1.00000
      3     -18.4294      1.00000
      4     -18.4083      1.00000
      5     -18.2974      1.00000
      6     -18.2761      1.00000
      7      -8.7183      1.00000
      8      -8.2134      1.00000
      9      -8.0333      1.00000
     10      -7.8164      1.00000
     11      -7.5958      1.00000
     12      -7.4085      1.00000
     13      -7.3657      1.00000
     14      -7.0315      1.00000
     15      -6.9068      1.00000
     16      -6.6378      1.00000
     17      -6.3911      1.00000
     18      -6.3600      1.00000
     19      -6.0628      1.00000
     20      -6.0591      1.00000
     21      -5.9406      1.00000
     22      -5.6101      1.00000
     23      -5.4772      1.00000
     24      -5.3727      1.00000
     25      -0.9141      0.00000
     26      -0.7768      0.00000
     27      -0.6733      0.00000
     28      -0.6200      0.00000
     29      -0.6066      0.00000
     30      -0.4466      0.00000
     31      -0.3715      0.00000
     32      -0.2059      0.00000
     33      -0.1729      0.00000
     34      -0.0755      0.00000
     35       2.6691      0.00000
     36       2.9903      0.00000

 k-point     6 :       0.4545    0.0000    0.0000
  band No.  band energies     occupation 
      1     -18.9452      1.00000
      2     -18.6966      1.00000
      3     -18.4183      1.00000
      4     -18.3889      1.00000
      5     -18.3288      1.00000
      6     -18.2818      1.00000
      7      -8.7161      1.00000
      8      -8.1798      1.00000
      9      -8.0598      1.00000
     10      -7.7296      1.00000
     11      -7.5553      1.00000
     12      -7.5083      1.00000
     13      -7.2968      1.00000
     14      -6.9750      1.00000
     15      -6.7995      1.00000
     16      -6.7774      1.00000
     17      -6.5590      1.00000
     18      -6.3605      1.00000
     19      -6.1049      1.00000
     20      -5.9494      1.00000
     21      -5.9259      1.00000
     22      -5.6454      1.00000
     23      -5.4894      1.00000
     24      -5.3299      1.00000
     25      -0.9738      0.00000
     26      -0.7977      0.00000
     27      -0.6733      0.00000
     28      -0.6112      0.00000
     29      -0.5990      0.00000
     30      -0.4761      0.00000
     31      -0.3973      0.00000
     32      -0.2063      0.00000
     33      -0.1175      0.00000
     34      -0.0637      0.00000
     35       3.0969      0.00000
     36       3.2863      0.00000

 k-point     7 :       0.0909    0.0909    0.0000
  band No.  band energies     occupation 
      1     -19.2104      1.00000
      2     -18.5084      1.00000
      3     -18.4065      1.00000
      4     -18.3719      1.00000
      5     -18.2543      1.00000
      6     -18.2541      1.00000
      7      -8.7282      1.00000
      8      -8.2623      1.00000
      9      -7.8919      1.00000
     10      -7.8630      1.00000
     11      -7.7115      1.00000
     12      -7.7082      1.00000
     13      -7.3346      1.00000
     14      -7.0749      1.00000
     15      -6.9881      1.00000
     16      -6.5835      1.00000
     17      -6.4946      1.00000
     18      -6.4297      1.00000
     19      -6.1814      1.00000
     20      -5.8186      1.00000
     21      -5.5949      1.00000
     22      -5.5483      1.00000
     23      -5.4819      1.00000
     24      -5.3753      1.00000
     25      -0.7859      0.00000
     26      -0.7499      0.00000
     27      -0.6096      0.00000
     28      -0.5853      0.00000
     29      -0.5664      0.00000
     30      -0.4021      0.00000
     31      -0.3146      0.00000
     32      -0.2822      0.00000
     33      -0.1984      0.00000
     34      -0.1660      0.00000
     35       1.9193      0.00000
     36       2.4768      0.00000

 k-point     8 :       0.1818    0.0909    0.0000
  band No.  band energies     occupation 
      1     -19.1501      1.00000
      2     -18.4815      1.00000
      3     -18.4717      1.00000
      4     -18.3929      1.00000
      5     -18.2649      1.00000
      6     -18.2620      1.00000
      7      -8.7203      1.00000
      8      -8.2565      1.00000
      9      -7.9430      1.00000
     10      -7.8950      1.00000
     11      -7.7042      1.00000
     12      -7.5549      1.00000
     13      -7.2052      1.00000
     14      -7.1541      1.00000
     15      -6.9965      1.00000
     16      -6.5746      1.00000
     17      -6.3777      1.00000
     18      -6.3510      1.00000
     19      -6.1443      1.00000
     20      -5.9733      1.00000
     21      -5.7210      1.00000
     22      -5.5783      1.00000
     23      -5.4964      1.00000
     24      -5.4114      1.00000
     25      -0.8137      0.00000
     26      -0.7381      0.00000
     27      -0.6860      0.00000
     28      -0.6108      0.00000
     29      -0.5792      0.00000
     30      -0.3663      0.00000
     31      -0.3341      0.00000
     32      -0.2957      0.00000
     33      -0.1902      0.00000
     34      -0.1269      0.00000
     35       2.1740      0.00000
     36       2.6476      0.00000

 k-point     9 :       0.2727    0.0909    0.0000
  band No.  band energies     occupation 
      1     -19.0669      1.00000
      2     -18.5608      1.00000
      3     -18.4455      1.00000
      4     -18.4129      1.00000
      5     -18.2843      1.00000
      6     -18.2719      1.00000
      7      -8.7004      1.00000
      8      -8.2406      1.00000
      9      -7.9994      1.00000
     10      -7.8703      1.00000
     11      -7.6403      1.00000
     12      -7.4146      1.00000
     13      -7.3522      1.00000
     14      -7.0562      1.00000
     15      -6.9219      1.00000
     16      -6.6264      1.00000
     17      -6.3463      1.00000
     18      -6.3188      1.00000
     19      -6.1436      1.00000
     20      -6.0637      1.00000
     21      -5.8281      1.00000
     22      -5.5942      1.00000
     23      -5.4841      1.00000
     24      -5.4160      1.00000
     25      -0.8667      0.00000
     26      -0.7732      0.00000
     27      -0.6956      0.00000
     28      -0.6319      0.00000
     29      -0.5939      0.00000
     30      -0.4192      0.00000
     31      -0.3639      0.00000
     32      -0.2275      0.00000
     33      -0.1694      0.00000
     34      -0.0876      0.00000
     35       2.5094      0.00000
     36       2.8799      0.00000

 k-point    10 :       0.3636    0.0909    0.0000
  band No.  band energies     occupation 
      1     -18.9739      1.00000
      2     -18.6584      1.00000
      3     -18.4283      1.00000
      4     -18.4039      1.00000
      5     -18.3128      1.00000
      6     -18.2798      1.00000
      7      -8.6854      1.00000
      8      -8.2075      1.00000
      9      -8.0351      1.00000
     10      -7.8013      1.00000
     11      -7.5384      1.00000
     12      -7.5129      1.00000
     13      -7.3293      1.00000
     14      -7.0290      1.00000
     15      -6.7921      1.00000
     16      -6.7189      1.00000
     17      -6.5509      1.00000
     18      -6.3342      1.00000
     19      -6.0446      1.00000
     20      -5.9936      1.00000
     21      -5.9099      1.00000
     22      -5.6298      1.00000
     23      -5.4834      1.00000
     24      -5.3718      1.00000
     25      -0.9386      0.00000
     26      -0.8089      0.00000
     27      -0.6690      0.00000
     28      -0.6355      0.00000
     29      -0.6005      0.00000
     30      -0.4659      0.00000
     31      -0.3915      0.00000
     32      -0.2014      0.00000
     33      -0.1211      0.00000
     34      -0.0642      0.00000
     35       2.9016      0.00000
     36       3.1587      0.00000

 k-point    11 :       0.4545    0.0909    0.0000
  band No.  band energies     occupation 
      1     -18.9183      1.00000
      2     -18.7158      1.00000
      3     -18.4330      1.00000
      4     -18.3766      1.00000
      5     -18.3362      1.00000
      6     -18.2827      1.00000
      7      -8.6811      1.00000
      8      -8.1875      1.00000
      9      -8.0474      1.00000
     10      -7.7227      1.00000
     11      -7.6253      1.00000
     12      -7.4796      1.00000
     13      -7.2965      1.00000
     14      -6.9735      1.00000
     15      -6.9214      1.00000
     16      -6.6697      1.00000
     17      -6.5980      1.00000
     18      -6.3373      1.00000
     19      -6.0616      1.00000
     20      -5.9936      1.00000
     21      -5.8602      1.00000
     22      -5.6547      1.00000
     23      -5.4893      1.00000
     24      -5.3462      1.00000
     25      -0.9712      0.00000
     26      -0.8192      0.00000
     27      -0.6657      0.00000
     28      -0.6222      0.00000
     29      -0.6047      0.00000
     30      -0.4866      0.00000
     31      -0.4013      0.00000
     32      -0.1959      0.00000
     33      -0.0953      0.00000
     34      -0.0596      0.00000
     35       3.3055      0.00000
     36       3.3360      0.00000

 k-point    12 :       0.1818    0.1818    0.0000
  band No.  band energies     occupation 
      1     -19.0795      1.00000
      2     -18.5387      1.00000
      3     -18.4513      1.00000
      4     -18.4216      1.00000
      5     -18.2789      1.00000
      6     -18.2700      1.00000
      7      -8.6812      1.00000
      8      -8.2596      1.00000
      9      -7.9575      1.00000
     10      -7.9237      1.00000
     11      -7.6612      1.00000
     12      -7.4324      1.00000
     13      -7.3351      1.00000
     14      -7.0706      1.00000
     15      -6.9032      1.00000
     16      -6.6358      1.00000
     17      -6.3261      1.00000
     18      -6.3199      1.00000
     19      -6.1805      1.00000
     20      -6.0729      1.00000
     21      -5.6700      1.00000
     22      -5.6464      1.00000
     23      -5.4966      1.00000
     24      -5.4483      1.00000
     25      -0.8315      0.00000
     26      -0.7785      0.00000
     27      -0.7261      0.00000
     28      -0.6286      0.00000
     29      -0.5916      0.00000
     30      -0.3888      0.00000
     31      -0.3779      0.00000
     32      -0.2409      0.00000
     33      -0.1548      0.00000
     34      -0.0953      0.00000
     35       2.4519      0.00000
     36       2.8411      0.00000

 k-point    13 :       0.2727    0.1818    0.0000
  band No.  band energies     occupation 
      1     -18.9912      1.00000
      2     -18.6242      1.00000
      3     -18.4482      1.00000
      4     -18.4131      1.00000
      5     -18.2995      1.00000
      6     -18.2795      1.00000
      7      -8.6258      1.00000
      8      -8.2545      1.00000
      9      -7.9813      1.00000
     10      -7.8940      1.00000
     11      -7.5713      1.00000
     12      -7.4988      1.00000
     13      -7.3572      1.00000
     14      -7.0411      1.00000
     15      -6.7740      1.00000
     16      -6.7082      1.00000
     17      -6.5623      1.00000
     18      -6.2845      1.00000
     19      -6.1102      1.00000
     20      -5.9567      1.00000
     21      -5.7892      1.00000
     22      -5.6288      1.00000
     23      -5.4831      1.00000
     24      -5.4460      1.00000
     25      -0.8814      0.00000
     26      -0.8355      0.00000
     27      -0.7092      0.00000
     28      -0.6367      0.00000
     29      -0.6047      0.00000
     30      -0.4421      0.00000
     31      -0.3969      0.00000
     32      -0.1984      0.00000
     33      -0.1082      0.00000
     34      -0.0656      0.00000
     35       2.7910      0.00000
     36       3.0879      0.00000

 k-point    14 :       0.3636    0.1818    0.0000
  band No.  band energies     occupation 
      1     -18.9056      1.00000
      2     -18.7089      1.00000
      3     -18.4619      1.00000
      4     -18.3769      1.00000
      5     -18.3262      1.00000
      6     -18.2857      1.00000
      7      -8.5894      1.00000
      8      -8.2351      1.00000
      9      -7.9992      1.00000
     10      -7.8111      1.00000
     11      -7.6592      1.00000
     12      -7.4637      1.00000
     13      -7.3281      1.00000
     14      -7.0232      1.00000
     15      -6.9754      1.00000
     16      -6.6354      1.00000
     17      -6.5590      1.00000
     18      -6.2796      1.00000
     19      -6.0694      1.00000
     20      -5.9270      1.00000
     21      -5.8242      1.00000
     22      -5.6539      1.00000
     23      -5.4827      1.00000
     24      -5.4103      1.00000
     25      -0.9348      0.00000
     26      -0.8569      0.00000
     27      -0.6879      0.00000
     28      -0.6431      0.00000
     29      -0.5949      0.00000
     30      -0.4958      0.00000
     31      -0.4011      0.00000
     32      -0.1779      0.00000
     33      -0.0728      0.00000
     34      -0.0507      0.00000
     35       3.1530      0.00000
     36       3.3760      0.00000

 k-point    15 :       0.2727    0.2727    0.0000
  band No.  band energies     occupation 
      1     -18.9035      1.00000
      2     -18.6991      1.00000
      3     -18.4777      1.00000
      4     -18.3791      1.00000
      5     -18.3172      1.00000
      6     -18.2895      1.00000
      7      -8.5197      1.00000
      8      -8.2835      1.00000
      9      -7.9300      1.00000
     10      -7.9084      1.00000
     11      -7.6655      1.00000
     12      -7.4677      1.00000
     13      -7.3435      1.00000
     14      -7.0130      1.00000
     15      -7.0130      1.00000
     16      -6.6502      1.00000
     17      -6.5198      1.00000
     18      -6.2315      1.00000
     19      -6.1245      1.00000
     20      -5.8445      1.00000
     21      -5.8076      1.00000
     22      -5.6570      1.00000
     23      -5.4695      1.00000
     24      -5.4679      1.00000
     25      -0.8912      0.00000
     26      -0.8896      0.00000
     27      -0.7292      0.00000
     28      -0.6230      0.00000
     29      -0.6028      0.00000
     30      -0.4942      0.00000
     31      -0.4016      0.00000
     32      -0.1707      0.00000
     33      -0.0629      0.00000
     34      -0.0460      0.00000
     35       3.0902      0.00000
     36       3.3467      0.00000

 k-point    16 :       0.3636    0.2727    0.0000
  band No.  band energies     occupation 
      1     -18.8385      1.00000
      2     -18.7590      1.00000
      3     -18.4891      1.00000
      4     -18.3542      1.00000
      5     -18.3350      1.00000
      6     -18.2942      1.00000
      7      -8.4554      1.00000
      8      -8.3080      1.00000
      9      -7.9271      1.00000
     10      -7.8309      1.00000
     11      -7.7996      1.00000
     12      -7.3816      1.00000
     13      -7.3426      1.00000
     14      -7.1639      1.00000
     15      -6.9994      1.00000
     16      -6.6727      1.00000
     17      -6.4295      1.00000
     18      -6.2141      1.00000
     19      -6.1322      1.00000
     20      -5.8430      1.00000
     21      -5.7942      1.00000
     22      -5.6642      1.00000
     23      -5.4777      1.00000
     24      -5.4593      1.00000
     25      -0.9130      0.00000
     26      -0.8936      0.00000
     27      -0.7398      0.00000
     28      -0.6167      0.00000
     29      -0.5778      0.00000
     30      -0.5362      0.00000
     31      -0.4009      0.00000
     32      -0.1596      0.00000
     33      -0.0450      0.00000
     34      -0.0393      0.00000
     35       3.2830      0.00000
     36       3.3345      0.00000


--------------------------------------------------------------------------------------------------------


 soft charge-density along one line, spin component           1
         0         1         2         3         4         5         6         7         8         9
 total charge-density along one line

 soft charge-density along one line, spin component           2
         0         1         2         3         4         5         6         7         8         9
 total charge-density along one line

 pseudopotential strength for first ion, spin component:           1
-10.913   1.184  -0.000   0.000   0.000 -11.254   1.205  -0.000
  1.184 -10.081  -0.000   0.000  -0.000   1.205 -10.408  -0.000
 -0.000  -0.000 -11.749  -0.000   0.000  -0.000  -0.000 -12.106
  0.000   0.000  -0.000 -10.081  -1.184   0.000   0.000  -0.000
  0.000  -0.000   0.000  -1.184 -10.913   0.000  -0.000   0.000
-11.254   1.205  -0.000   0.000   0.000 -11.570   1.238  -0.000
  1.205 -10.408  -0.000   0.000  -0.000   1.238 -10.700  -0.000
 -0.000  -0.000 -12.106  -0.000   0.000  -0.000  -0.000 -12.444
  0.000   0.000  -0.000 -10.408  -1.205   0.000   0.000  -0.000
  0.000  -0.000   0.000  -1.205 -11.254   0.000  -0.000   0.000
 -0.000  -0.000   0.000  -0.000   0.000  -0.000  -0.000   0.000
 -0.000  -0.000   0.000  -0.000   0.000  -0.000  -0.000   0.000
 -0.000  -0.000  -0.000   0.000  -0.001  -0.000  -0.000  -0.000
  0.000   0.000  -0.000  -0.000   0.000   0.000  -0.000  -0.000
 -0.001   0.000   0.000   0.000  -0.000  -0.001   0.000   0.000
 -0.000  -0.000  -0.000   0.000  -0.002  -0.000  -0.000  -0.000
  0.000   0.000  -0.000  -0.000   0.000   0.000   0.000  -0.000
 -0.002   0.000   0.000   0.000  -0.000  -0.002   0.000   0.000
 pseudopotential strength for first ion, spin component:           2
 -6.773  -0.521   0.000   0.000   0.000  -7.108  -0.519   0.000
 -0.521  -7.132  -0.000   0.000  -0.000  -0.519  -7.465  -0.000
  0.000  -0.000  -6.390  -0.000  -0.000   0.000  -0.000  -6.725
  0.000   0.000  -0.000  -7.132   0.521   0.000   0.000  -0.000
  0.000  -0.000  -0.000   0.521  -6.773   0.000  -0.000  -0.000
 -7.108  -0.519   0.000   0.000   0.000  -7.388  -0.521   0.000
 -0.519  -7.465  -0.000   0.000  -0.000  -0.521  -7.747  -0.000
  0.000  -0.000  -6.725  -0.000  -0.000   0.000  -0.000  -7.005
  0.000   0.000  -0.000  -7.465   0.519   0.000   0.000  -0.000
  0.000  -0.000  -0.000   0.519  -7.108   0.000  -0.000  -0.000
  0.000  -0.000  -0.001  -0.000  -0.000   0.000  -0.000  -0.001
  0.000  -0.000  -0.002  -0.000  -0.000   0.000  -0.000  -0.003
  0.000  -0.000   0.000   0.000  -0.000   0.000  -0.000   0.000
  0.000  -0.000  -0.000   0.000   0.000   0.000  -0.000  -0.000
 -0.000   0.000  -0.000   0.000   0.000  -0.001   0.000  -0.000
  0.000  -0.000   0.000   0.000  -0.000   0.000  -0.000   0.000
  0.000  -0.000  -0.000   0.000   0.000   0.000  -0.000  -0.000
 -0.000   0.000  -0.000   0.000   0.000  -0.000   0.000  -0.000
 total augmentation occupancy for first ion, spin component:           1
  3.829  -1.722   0.000   0.000  -0.000  -2.708   0.585  -0.000  -0.000   0.000   0.000   0.000   0.000   0.000   0.081  -0.000
 -1.722   2.552  -0.000  -0.000   0.000   0.586  -2.212   0.000   0.000  -0.000   0.000   0.000   0.000   0.000  -0.027   0.000
  0.000  -0.000   4.919  -0.000  -0.000  -0.000   0.000  -2.982   0.000   0.000   0.066  -0.008  -0.000   0.000   0.000   0.000
  0.000  -0.000  -0.000   2.552   1.722  -0.000   0.000   0.000  -2.212  -0.586   0.000  -0.000   0.027  -0.000  -0.000  -0.000
 -0.000   0.000  -0.000   1.722   3.829   0.000  -0.000   0.000  -0.585  -2.708  -0.000   0.000   0.081  -0.000  -0.000  -0.003
 -2.708   0.586  -0.000  -0.000  -0.000   2.529   0.265   0.000  -0.000  -0.000  -0.000  -0.000  -0.000  -0.000  -0.087   0.000
  0.585  -2.212   0.000   0.000  -0.000   0.265   2.614   0.000  -0.000  -0.000   0.000  -0.000   0.000   0.000   0.023   0.000
 -0.000   0.000  -2.982   0.000   0.000   0.000   0.000   2.185   0.000  -0.000  -0.072   0.010   0.000  -0.000  -0.000  -0.000
 -0.000   0.000   0.000  -2.212  -0.585  -0.000  -0.000   0.000   2.614  -0.265   0.000   0.000  -0.023   0.000  -0.000   0.000
  0.000  -0.000   0.000  -0.586  -2.708  -0.000  -0.000  -0.000  -0.265   2.529   0.000  -0.000  -0.087   0.000   0.000   0.003
  0.000  -0.000   0.066   0.000  -0.000  -0.000   0.000  -0.072   0.000   0.000   1.706  -0.185  -0.000   0.000   0.000   0.000
  0.000   0.000  -0.008  -0.000   0.000  -0.000   0.000   0.010   0.000  -0.000  -0.185   0.028   0.000   0.000   0.000   0.000
  0.000   0.000  -0.000   0.027   0.081  -0.000   0.000   0.000  -0.023  -0.087   0.000   0.000   0.269  -0.000  -0.000  -0.007
 -0.000  -0.000   0.000  -0.000  -0.000  -0.000  -0.000  -0.000   0.000   0.000   0.000   0.000   0.000   0.261   0.000  -0.000
  0.081  -0.027   0.000  -0.000  -0.000  -0.087   0.023  -0.000  -0.000   0.000   0.000  -0.000  -0.000   0.000   0.269   0.000
 -0.000   0.000   0.000  -0.000  -0.003   0.000  -0.000  -0.000   0.000   0.003  -0.000   0.000  -0.007   0.000   0.000   0.000
  0.000   0.000   0.000  -0.000  -0.000   0.000   0.000  -0.000   0.000   0.000   0.000   0.000  -0.000  -0.006   0.000  -0.000
 -0.003   0.000  -0.000   0.000   0.000   0.003  -0.000   0.000  -0.000  -0.000   0.000   0.000   0.000   0.000  -0.007  -0.000
 total augmentation occupancy for first ion, spin component:           2
  2.950  -2.361   0.000   0.000  -0.000  -1.502   1.464  -0.000  -0.000   0.000   0.000   0.000   0.000   0.000   0.022   0.000
 -2.361   1.289  -0.000  -0.000   0.000   1.465  -0.469   0.000   0.000  -0.000   0.000  -0.000  -0.000  -0.000  -0.022   0.000
  0.000  -0.000   4.546  -0.000  -0.000  -0.000   0.000  -2.468   0.000   0.000   0.009   0.001  -0.000   0.000   0.000  -0.000
  0.000  -0.000  -0.000   1.289   2.361  -0.000   0.000   0.000  -0.469  -1.465  -0.000   0.000   0.022  -0.000  -0.000  -0.000
 -0.000   0.000  -0.000   2.361   2.950   0.000  -0.000   0.000  -1.464  -1.502   0.000   0.000   0.022  -0.000  -0.000   0.000
 -1.502   1.465  -0.000  -0.000   0.000   0.841  -0.986   0.000   0.000  -0.000  -0.000  -0.000  -0.000  -0.000  -0.015  -0.000
  1.464  -0.469   0.000   0.000  -0.000  -0.986   0.145  -0.000  -0.000   0.000  -0.000  -0.000   0.000   0.000   0.014   0.000
 -0.000   0.000  -2.468   0.000   0.000   0.000  -0.000   1.477  -0.000  -0.000  -0.004  -0.001   0.000  -0.000  -0.000   0.000
 -0.000   0.000   0.000  -0.469  -1.464   0.000  -0.000  -0.000   0.145   0.986   0.000   0.000  -0.014  -0.000   0.000   0.000
 -0.000  -0.000   0.000  -1.465  -1.502  -0.000   0.000  -0.000   0.986   0.841   0.000  -0.000  -0.015   0.000   0.000  -0.000
  0.000   0.000   0.009  -0.000   0.000  -0.000   0.000  -0.004   0.000   0.000  -0.047   0.053   0.000  -0.000   0.000   0.000
  0.000   0.000   0.001  -0.000   0.000  -0.000   0.000  -0.001  -0.000  -0.000   0.053  -0.009   0.000   0.000   0.000  -0.000
  0.000   0.000  -0.000   0.022   0.022  -0.000   0.000   0.000  -0.014  -0.015   0.000   0.000   0.017   0.000  -0.000   0.002
 -0.000  -0.000   0.000   0.000  -0.000  -0.000  -0.000  -0.000   0.000   0.000  -0.000   0.000   0.000   0.015   0.000   0.000
  0.022  -0.022   0.000  -0.000  -0.000  -0.015   0.014  -0.000   0.000   0.000   0.000   0.000  -0.000  -0.000   0.017  -0.000
  0.000   0.000  -0.000  -0.000   0.000  -0.000  -0.000   0.000   0.000  -0.000   0.000   0.000   0.002   0.000  -0.000  -0.000
  0.000   0.000   0.000   0.000  -0.000  -0.000  -0.000  -0.000   0.000   0.000  -0.000   0.000   0.000   0.002   0.000   0.000
  0.000   0.000   0.000  -0.000  -0.000  -0.000  -0.000  -0.000   0.000   0.000   0.000   0.000  -0.000   0.000   0.002   0.000


------------------------ aborting loop because EDIFF is reached ----------------------------------------





 total charge

# of ion       s       p       d       tot
------------------------------------------
    1        0.344   0.501   4.053   4.899
    2        0.344   0.501   4.053   4.899
    3        1.604   3.516   0.000   5.120
    4        1.604   3.516   0.000   5.120
    5        1.604   3.516   0.000   5.120
    6        1.604   3.516   0.000   5.120
    7        1.604   3.516   0.000   5.120
    8        1.604   3.516   0.000   5.120
--------------------------------------------------
tot         10.311  22.098   8.107  40.516



 magnetization (x)

# of ion       s       p       d       tot
------------------------------------------
    1        0.032   0.040   3.095   3.167
    2        0.032   0.040   3.095   3.167
    3       -0.002  -0.074   0.000  -0.075
    4       -0.002  -0.074   0.000  -0.075
    5       -0.002  -0.074   0.000  -0.075
    6       -0.002  -0.074   0.000  -0.075
    7       -0.002  -0.074   0.000  -0.075
    8       -0.002  -0.074   0.000  -0.075
--------------------------------------------------
tot          0.054  -0.362   6.190   5.882

    CHARGE:  cpu time      0.1857: real time      0.1870
    FORLOC:  cpu time      0.0060: real time      0.0061
    FORNL :  cpu time      0.3301: real time      0.3331
    STRESS:  cpu time      0.5999: real time      0.6042
    FORCOR:  cpu time      0.1820: real time      0.1840
    FORHAR:  cpu time      0.0228: real time      0.0231
    MIXING:  cpu time      0.0079: real time      0.0080
    OFIELD:  cpu time      0.0003: real time      0.0003

 ---------------------------------------------------------------------------------------------

         DFTD3 V3.0 Rev 1        
 Edisp (eV)   -0.91236

 E6    (eV) :    -0.3525
 E8    (eV) :    -0.5598
 % E8        : 61.36
    FORVDW:  cpu time      0.0162: real time      0.0165

  FORCE on cell =-STRESS in cart. coord.  units (eV):
  Direction    XX          YY          ZZ          XY          YZ          ZX
  --------------------------------------------------------------------------------------
  Alpha Z    30.43667    30.43667    30.43667
  Ewald    6073.80412  6073.80412 -7756.20687    -0.00000     0.00000     0.00000
  Hartree  6712.55105  6712.55105 -6333.76976    -0.00000     0.00000     0.00000
  E(xc)    -209.13325  -209.13325  -209.42832    -0.00000    -0.00000    -0.00000
  Local  -13817.02251-13817.02241 13055.61924     0.00009     0.00000     0.00000
  n-local   479.50038   479.63912   478.57789    -0.41103     0.04251     0.04740
  augment   -58.53469   -58.53478   -58.68444    -0.00007    -0.00000    -0.00000
  Kinetic   789.08511   788.59852   793.42904     0.56991    -0.31852     0.05239
  Fock        0.00000     0.00000     0.00000     0.00000     0.00000     0.00000
  vdW        -0.75483    -0.75483    -0.01913    -0.00000    -0.00000    -0.00000
  -------------------------------------------------------------------------------------
  Total      -0.24187    -0.24187    -0.04570     0.00000     0.00000     0.00000
  in kB      -0.68515    -0.68515    -0.12945     0.00000     0.00000     0.00000
  external pressure =       -0.50 kB  Pullay stress =        0.00 kB


 VOLUME and BASIS-vectors are now :
 -----------------------------------------------------------------------------
  energy-cutoff  :      400.00
  volume of cell :      565.60
      direct lattice vectors                 reciprocal lattice vectors
     6.079543997  0.000000000  0.000000000     0.164486021  0.094966048 -0.000000000
    -3.039771999  5.265039545  0.000000000     0.000000000  0.189932097  0.000000000
     0.000000000  0.000000000 17.670000000     0.000000000 -0.000000000  0.056593096

  length of vectors
     6.079543997  6.079543997 17.670000000     0.189932097  0.189932097  0.056593096


 FORCES acting on ions
    electron-ion (+dipol)            ewald-force                    non-local-force                 convergence-correction
 -----------------------------------------------------------------------------------------------
   0.146E-06 -.842E-07 0.228E-12   -.495E-11 0.291E-11 -.658E-13   0.575E-18 0.133E-19 -.761E-20   0.283E-09 -.163E-09 -.100E-12
   -.146E-06 0.842E-07 -.118E-10   0.497E-11 -.289E-11 0.318E-13   -.656E-18 0.507E-19 -.756E-20   -.283E-09 0.163E-09 -.955E-13
   0.677E+02 0.110E-05 0.454E+03   -.697E+02 -.331E-11 -.457E+03   0.205E+01 0.222E-18 0.287E+01   0.983E-04 0.440E-08 0.329E-03
   -.339E+02 0.586E+02 0.454E+03   0.349E+02 -.604E+02 -.457E+03   -.102E+01 0.177E+01 0.287E+01   -.492E-04 0.852E-04 0.329E-03
   -.339E+02 -.586E+02 0.454E+03   0.349E+02 0.604E+02 -.457E+03   -.102E+01 -.177E+01 0.287E+01   -.492E-04 -.852E-04 0.329E-03
   -.677E+02 -.110E-05 -.454E+03   0.697E+02 0.332E-11 0.457E+03   -.205E+01 0.991E-18 -.287E+01   -.983E-04 -.440E-08 -.329E-03
   0.339E+02 -.586E+02 -.454E+03   -.349E+02 0.604E+02 0.457E+03   0.102E+01 -.177E+01 -.287E+01   0.492E-04 -.852E-04 -.329E-03
   0.339E+02 0.586E+02 -.454E+03   -.349E+02 -.604E+02 0.457E+03   0.102E+01 0.177E+01 -.287E+01   0.492E-04 0.852E-04 -.329E-03
 -----------------------------------------------------------------------------------------------
   0.720E-12 0.769E-12 0.565E-10   -.213E-13 -.711E-14 -.171E-12   0.444E-15 0.000E+00 0.888E-15   0.202E-13 0.446E-13 -.911E-12


 POSITION                                       TOTAL-FORCE (eV/Angst)
 -----------------------------------------------------------------------------------
      0.00000      3.51003      8.83500        -0.000000      0.000000      0.000000
      3.03977      1.75501      8.83500        -0.000000      0.000000      0.000000
     -0.88505      5.26504      7.47916         0.009927      0.000000     -0.007757
     -1.07736      1.86605      7.47916        -0.004963      0.008597     -0.007757
      1.96241      3.39899      7.47916        -0.004963     -0.008597     -0.007757
      3.92482      0.00000     10.19084        -0.009927      0.000000      0.007757
      4.11713      3.39899     10.19084         0.004963     -0.008597      0.007757
      1.07736      1.86605     10.19084         0.004963      0.008597      0.007757
 -----------------------------------------------------------------------------------
    total drift:                                0.000000      0.000000      0.000000


--------------------------------------------------------------------------------------------------------



  FREE ENERGIE OF THE ION-ELECTRON SYSTEM (eV)
  ---------------------------------------------------
  free  energy   TOTEN  =       -35.57070248 eV

  energy  without entropy=      -35.57070248  energy(sigma->0) =      -35.57070248
 d Force = 0.2923751E-02[ 0.630E-04, 0.578E-02]  d Energy = 0.5924124E-02-0.300E-02
 d Force = 0.1760359E+02[ 0.175E+02, 0.177E+02]  d Ewald  = 0.8023592E+02-0.626E+02



--------------------------------------------------------------------------------------------------------


    POTLOK:  cpu time      0.2993: real time      0.3017


--------------------------------------------------------------------------------------------------------


 Steepest descent step on ions:
 trial-energy change:   -0.005924  1 .order   -0.006048   -0.014515    0.002419
  (g-gl).g = 0.145E-01      g.g   = 0.145E-01  gl.gl    = 0.000E+00
 g(Force)  = 0.578E-02   g(Stress)= 0.874E-02 ortho     = 0.000E+00
 gamma     =   0.00000
 trial     =   1.00000
 opt step  =   0.85161  (harmonic =   0.85715) maximal distance =0.00498202
 next E    =   -35.570882   (d E  =  -0.00610)


--------------------------------------------------------------------------------------------------------


      MLFF:  cpu time      0.0051: real time      0.0052
    WAVPRE:  cpu time      0.0154: real time      0.0156
    FEWALD:  cpu time      0.0014: real time      0.0014
    GENKIN:  cpu time      0.0118: real time      0.0119
    ORTHCH:  cpu time      0.0946: real time      0.0952
     LOOP+:  cpu time     86.5560: real time     87.6800


--------------------------------------- Ionic step        3  -------------------------------------------




--------------------------------------- Iteration      3(   1)  ---------------------------------------


    POTLOK:  cpu time      0.1780: real time      0.1799
    SETDIJ:  cpu time      0.1286: real time      0.1294
     EDDAV:  cpu time      5.3697: real time      5.4412
       DOS:  cpu time      0.0019: real time      0.0019
    CHARGE:  cpu time      0.1733: real time      0.1746
    MIXING:  cpu time      0.0071: real time      0.0071
    --------------------------------------------
      LOOP:  cpu time      5.8585: real time      5.9342

 eigenvalue-minimisations  :  2712
 total energy-change (2. order) : 0.3650574E-03  (-0.3267559E-02)
 number of electron      53.9999985 magnetization       5.9999996
 augmentation part       -0.5637685 magnetization       4.3785208

 Broyden mixing:
  rms(total) = 0.20286E-01    rms(broyden)= 0.20277E-01
  rms(prec ) = 0.21310E-01
  weight for this iteration     100.00

 Free energy of the ion-electron system (eV)
  ---------------------------------------------------
  alpha Z        PSCENC =        30.48284726
  Ewald energy   TEWEN  =      4403.21977536
  -Hartree energ DENC   =     -7104.05042196
  -exchange      EXHF   =         0.00000000
  -V(xc)+E(xc)   XCENC  =        86.55608383
  PAW double counting   =      3646.73789688    -3597.24290272
  entropy T*S    EENTRO =        -0.00000000
  eigenvalues    EBANDS =      -512.43131584
  atomic energy  EATOM  =      3012.07006103
  Solvation  Ediel_sol  =         0.00000000
  ext. energy  EPLUGINS =         0.00000000
  ---------------------------------------------------
  free energy    TOTEN  =       -34.65797617 eV

  energy without entropy =      -34.65797617  energy(sigma->0) =      -34.65797617


--------------------------------------------------------------------------------------------------------




--------------------------------------- Iteration      3(   2)  ---------------------------------------


    POTLOK:  cpu time      0.1838: real time      0.1859
    SETDIJ:  cpu time      0.1163: real time      0.1168
     EDDAV:  cpu time      6.5390: real time      6.6220
       DOS:  cpu time      0.0020: real time      0.0020
    CHARGE:  cpu time      0.2156: real time      0.2186
    MIXING:  cpu time      0.0062: real time      0.0063
    --------------------------------------------
      LOOP:  cpu time      7.0629: real time      7.1515

 eigenvalue-minimisations  :  3472
 total energy-change (2. order) : 0.3608104E-03  (-0.2740331E-03)
 number of electron      53.9999985 magnetization       5.9999996
 augmentation part       -0.5711548 magnetization       4.3759877

 Broyden mixing:
  rms(total) = 0.95910E-02    rms(broyden)= 0.95899E-02
  rms(prec ) = 0.10121E-01
  weight for this iteration     100.00

 eigenvalues of (default mixing * dielectric matrix)
  average eigenvalue GAMMA=   0.7948
  0.7948

 Free energy of the ion-electron system (eV)
  ---------------------------------------------------
  alpha Z        PSCENC =        30.48284726
  Ewald energy   TEWEN  =      4403.21977536
  -Hartree energ DENC   =     -7103.59684087
  -exchange      EXHF   =         0.00000000
  -V(xc)+E(xc)   XCENC  =        86.51158937
  PAW double counting   =      3653.57385291    -3604.08343898
  entropy T*S    EENTRO =        -0.00000000
  eigenvalues    EBANDS =      -512.83546144
  atomic energy  EATOM  =      3012.07006103
  Solvation  Ediel_sol  =         0.00000000
  ext. energy  EPLUGINS =         0.00000000
  ---------------------------------------------------
  free energy    TOTEN  =       -34.65761536 eV

  energy without entropy =      -34.65761536  energy(sigma->0) =      -34.65761536


--------------------------------------------------------------------------------------------------------




--------------------------------------- Iteration      3(   3)  ---------------------------------------


    POTLOK:  cpu time      0.1866: real time      0.1887
    SETDIJ:  cpu time      0.1331: real time      0.1340
     EDDAV:  cpu time      6.2643: real time      6.3427
       DOS:  cpu time      0.0019: real time      0.0019
    CHARGE:  cpu time      0.1690: real time      0.1704
    MIXING:  cpu time      0.0062: real time      0.0063
    --------------------------------------------
      LOOP:  cpu time      6.7611: real time      6.8439

 eigenvalue-minimisations  :  3304
 total energy-change (2. order) : 0.1017786E-03  (-0.3645763E-04)
 number of electron      53.9999985 magnetization       5.9999996
 augmentation part       -0.5671597 magnetization       4.3776883

 Broyden mixing:
  rms(total) = 0.78225E-02    rms(broyden)= 0.78224E-02
  rms(prec ) = 0.79742E-02
  weight for this iteration     100.00

 eigenvalues of (default mixing * dielectric matrix)
  average eigenvalue GAMMA=   0.6620
  0.8603  0.4636

 Free energy of the ion-electron system (eV)
  ---------------------------------------------------
  alpha Z        PSCENC =        30.48284726
  Ewald energy   TEWEN  =      4403.21977536
  -Hartree energ DENC   =     -7103.39351679
  -exchange      EXHF   =         0.00000000
  -V(xc)+E(xc)   XCENC  =        86.50156276
  PAW double counting   =      3653.69619841    -3604.19102429
  entropy T*S    EENTRO =        -0.00000000
  eigenvalues    EBANDS =      -513.04341732
  atomic energy  EATOM  =      3012.07006103
  Solvation  Ediel_sol  =         0.00000000
  ext. energy  EPLUGINS =         0.00000000
  ---------------------------------------------------
  free energy    TOTEN  =       -34.65751358 eV

  energy without entropy =      -34.65751358  energy(sigma->0) =      -34.65751358


--------------------------------------------------------------------------------------------------------




--------------------------------------- Iteration      3(   4)  ---------------------------------------


    POTLOK:  cpu time      0.1797: real time      0.1818
    SETDIJ:  cpu time      0.1177: real time      0.1183
     EDDAV:  cpu time      6.6787: real time      6.7776
       DOS:  cpu time      0.0017: real time      0.0017
    CHARGE:  cpu time      0.2094: real time      0.2111
    MIXING:  cpu time      0.0081: real time      0.0083
    --------------------------------------------
      LOOP:  cpu time      7.1952: real time      7.2989

 eigenvalue-minimisations  :  3580
 total energy-change (2. order) : 0.1685050E-04  (-0.4125776E-05)
 number of electron      53.9999985 magnetization       5.9999996
 augmentation part       -0.5682374 magnetization       4.3777741

 Broyden mixing:
  rms(total) = 0.34827E-02    rms(broyden)= 0.34826E-02
  rms(prec ) = 0.35875E-02
  weight for this iteration     100.00

 eigenvalues of (default mixing * dielectric matrix)
  average eigenvalue GAMMA=   0.8727
  1.0430  1.0430  0.5322

 Free energy of the ion-electron system (eV)
  ---------------------------------------------------
  alpha Z        PSCENC =        30.48284726
  Ewald energy   TEWEN  =      4403.21977536
  -Hartree energ DENC   =     -7103.35495755
  -exchange      EXHF   =         0.00000000
  -V(xc)+E(xc)   XCENC  =        86.49907991
  PAW double counting   =      3653.42522179    -3603.92766700
  entropy T*S    EENTRO =        -0.00000000
  eigenvalues    EBANDS =      -513.07185753
  atomic energy  EATOM  =      3012.07006103
  Solvation  Ediel_sol  =         0.00000000
  ext. energy  EPLUGINS =         0.00000000
  ---------------------------------------------------
  free energy    TOTEN  =       -34.65749673 eV

  energy without entropy =      -34.65749673  energy(sigma->0) =      -34.65749673


--------------------------------------------------------------------------------------------------------




--------------------------------------- Iteration      3(   5)  ---------------------------------------


    POTLOK:  cpu time      0.1971: real time      0.1995
    SETDIJ:  cpu time      0.1213: real time      0.1219
     EDDAV:  cpu time      5.9789: real time      6.0939
       DOS:  cpu time      0.0017: real time      0.0017
    CHARGE:  cpu time      0.2187: real time      0.2206
    MIXING:  cpu time      0.0063: real time      0.0064
    --------------------------------------------
      LOOP:  cpu time      6.5239: real time      6.6440

 eigenvalue-minimisations  :  3044
 total energy-change (2. order) : 0.6636881E-05  (-0.2239286E-05)
 number of electron      53.9999985 magnetization       5.9999996
 augmentation part       -0.5688241 magnetization       4.3778599

 Broyden mixing:
  rms(total) = 0.22390E-02    rms(broyden)= 0.22389E-02
  rms(prec ) = 0.22765E-02
  weight for this iteration     100.00

 eigenvalues of (default mixing * dielectric matrix)
  average eigenvalue GAMMA=   1.1172
  1.5647  1.5647  0.7599  0.5794

 Free energy of the ion-electron system (eV)
  ---------------------------------------------------
  alpha Z        PSCENC =        30.48284726
  Ewald energy   TEWEN  =      4403.21977536
  -Hartree energ DENC   =     -7103.31452422
  -exchange      EXHF   =         0.00000000
  -V(xc)+E(xc)   XCENC  =        86.49641891
  PAW double counting   =      3652.95737733    -3603.46594008
  entropy T*S    EENTRO =        -0.00000000
  eigenvalues    EBANDS =      -513.10350567
  atomic energy  EATOM  =      3012.07006103
  Solvation  Ediel_sol  =         0.00000000
  ext. energy  EPLUGINS =         0.00000000
  ---------------------------------------------------
  free energy    TOTEN  =       -34.65749009 eV

  energy without entropy =      -34.65749009  energy(sigma->0) =      -34.65749009


--------------------------------------------------------------------------------------------------------




--------------------------------------- Iteration      3(   6)  ---------------------------------------


    POTLOK:  cpu time      0.1901: real time      0.1928
    SETDIJ:  cpu time      0.1167: real time      0.1174
     EDDAV:  cpu time      4.8416: real time      4.9097
       DOS:  cpu time      0.0021: real time      0.0021
    CHARGE:  cpu time      0.1725: real time      0.1738
    MIXING:  cpu time      0.0061: real time      0.0062
    --------------------------------------------
      LOOP:  cpu time      5.3290: real time      5.4020

 eigenvalue-minimisations  :  2248
 total energy-change (2. order) :-0.6985170E-05  (-0.3617749E-06)
 number of electron      53.9999985 magnetization       5.9999996
 augmentation part       -0.5680890 magnetization       4.3781358

 Broyden mixing:
  rms(total) = 0.89359E-03    rms(broyden)= 0.89356E-03
  rms(prec ) = 0.93013E-03
  weight for this iteration     100.00

 eigenvalues of (default mixing * dielectric matrix)
  average eigenvalue GAMMA=   1.1490
  1.8246  1.8246  0.8609  0.6175  0.6175

 Free energy of the ion-electron system (eV)
  ---------------------------------------------------
  alpha Z        PSCENC =        30.48284726
  Ewald energy   TEWEN  =      4403.21977536
  -Hartree energ DENC   =     -7103.30260571
  -exchange      EXHF   =         0.00000000
  -V(xc)+E(xc)   XCENC  =        86.49544077
  PAW double counting   =      3652.12764097    -3602.64067568
  entropy T*S    EENTRO =        -0.00000000
  eigenvalues    EBANDS =      -513.10998107
  atomic energy  EATOM  =      3012.07006103
  Solvation  Ediel_sol  =         0.00000000
  ext. energy  EPLUGINS =         0.00000000
  ---------------------------------------------------
  free energy    TOTEN  =       -34.65749708 eV

  energy without entropy =      -34.65749708  energy(sigma->0) =      -34.65749708


--------------------------------------------------------------------------------------------------------




--------------------------------------- Iteration      3(   7)  ---------------------------------------


    POTLOK:  cpu time      0.1840: real time      0.1863
    SETDIJ:  cpu time      0.1227: real time      0.1234
     EDDAV:  cpu time      3.8940: real time      3.9507
       DOS:  cpu time      0.0019: real time      0.0019
    CHARGE:  cpu time      0.1802: real time      0.1816
    MIXING:  cpu time      0.0075: real time      0.0076
    --------------------------------------------
      LOOP:  cpu time      4.3903: real time      4.4515

 eigenvalue-minimisations  :  1684
 total energy-change (2. order) :-0.5234219E-05  (-0.1312269E-06)
 number of electron      53.9999985 magnetization       5.9999996
 augmentation part       -0.5684809 magnetization       4.3781018

 Broyden mixing:
  rms(total) = 0.30004E-03    rms(broyden)= 0.30003E-03
  rms(prec ) = 0.31612E-03
  weight for this iteration     100.00

 eigenvalues of (default mixing * dielectric matrix)
  average eigenvalue GAMMA=   1.1269
  2.3498  1.3805  1.1424  0.6127  0.6127  0.6632

 Free energy of the ion-electron system (eV)
  ---------------------------------------------------
  alpha Z        PSCENC =        30.48284726
  Ewald energy   TEWEN  =      4403.21977536
  -Hartree energ DENC   =     -7103.30394974
  -exchange      EXHF   =         0.00000000
  -V(xc)+E(xc)   XCENC  =        86.49531553
  PAW double counting   =      3651.92777057    -3602.44364874
  entropy T*S    EENTRO =        -0.00000000
  eigenvalues    EBANDS =      -513.10567357
  atomic energy  EATOM  =      3012.07006103
  Solvation  Ediel_sol  =         0.00000000
  ext. energy  EPLUGINS =         0.00000000
  ---------------------------------------------------
  free energy    TOTEN  =       -34.65750231 eV

  energy without entropy =      -34.65750231  energy(sigma->0) =      -34.65750231


--------------------------------------------------------------------------------------------------------




--------------------------------------- Iteration      3(   8)  ---------------------------------------


    POTLOK:  cpu time      0.1919: real time      0.1964
    SETDIJ:  cpu time      0.1225: real time      0.1230
     EDDAV:  cpu time      3.7064: real time      3.7728
       DOS:  cpu time      0.0017: real time      0.0017
    CHARGE:  cpu time      0.2099: real time      0.2143
    MIXING:  cpu time      0.0067: real time      0.0068
    --------------------------------------------
      LOOP:  cpu time      4.2389: real time      4.3149

 eigenvalue-minimisations  :  1436
 total energy-change (2. order) :-0.3303523E-05  (-0.1594516E-06)
 number of electron      53.9999985 magnetization       5.9999996
 augmentation part       -0.5685110 magnetization       4.3781109

 Broyden mixing:
  rms(total) = 0.22940E-03    rms(broyden)= 0.22940E-03
  rms(prec ) = 0.23541E-03
  weight for this iteration     100.00

 eigenvalues of (default mixing * dielectric matrix)
  average eigenvalue GAMMA=   1.1004
  2.3501  1.4429  1.4429  0.7434  0.6053  0.6053  0.5129

 Free energy of the ion-electron system (eV)
  ---------------------------------------------------
  alpha Z        PSCENC =        30.48284726
  Ewald energy   TEWEN  =      4403.21977536
  -Hartree energ DENC   =     -7103.30422791
  -exchange      EXHF   =         0.00000000
  -V(xc)+E(xc)   XCENC  =        86.49484230
  PAW double counting   =      3651.91443558    -3602.43061251
  entropy T*S    EENTRO =        -0.00000000
  eigenvalues    EBANDS =      -513.10462672
  atomic energy  EATOM  =      3012.07006103
  Solvation  Ediel_sol  =         0.00000000
  ext. energy  EPLUGINS =         0.00000000
  ---------------------------------------------------
  free energy    TOTEN  =       -34.65750561 eV

  energy without entropy =      -34.65750561  energy(sigma->0) =      -34.65750561


--------------------------------------------------------------------------------------------------------




--------------------------------------- Iteration      3(   9)  ---------------------------------------


    POTLOK:  cpu time      0.1831: real time      0.1851
    SETDIJ:  cpu time      0.1667: real time      0.1676
     EDDAV:  cpu time      3.3287: real time      3.3720
       DOS:  cpu time      0.0013: real time      0.0013
    CHARGE:  cpu time      0.1358: real time      0.1367
    MIXING:  cpu time      0.0055: real time      0.0056
    --------------------------------------------
      LOOP:  cpu time      3.8212: real time      3.8683

 eigenvalue-minimisations  :  1400
 total energy-change (2. order) :-0.2790764E-05  (-0.3767618E-07)
 number of electron      53.9999985 magnetization       5.9999996
 augmentation part       -0.5685442 magnetization       4.3781004

 Broyden mixing:
  rms(total) = 0.16600E-03    rms(broyden)= 0.16599E-03
  rms(prec ) = 0.17229E-03
  weight for this iteration     100.00

 eigenvalues of (default mixing * dielectric matrix)
  average eigenvalue GAMMA=   1.1351
  2.5460  1.7160  1.7160  0.7948  0.6705  0.6030  0.6030  0.4318

 Free energy of the ion-electron system (eV)
  ---------------------------------------------------
  alpha Z        PSCENC =        30.48284726
  Ewald energy   TEWEN  =      4403.21977536
  -Hartree energ DENC   =     -7103.30805979
  -exchange      EXHF   =         0.00000000
  -V(xc)+E(xc)   XCENC  =        86.49474896
  PAW double counting   =      3651.96233664    -3602.47827043
  entropy T*S    EENTRO =        -0.00000000
  eigenvalues    EBANDS =      -513.10094743
  atomic energy  EATOM  =      3012.07006103
  Solvation  Ediel_sol  =         0.00000000
  ext. energy  EPLUGINS =         0.00000000
  ---------------------------------------------------
  free energy    TOTEN  =       -34.65750841 eV

  energy without entropy =      -34.65750841  energy(sigma->0) =      -34.65750841


--------------------------------------------------------------------------------------------------------




--------------------------------------- Iteration      3(  10)  ---------------------------------------


    POTLOK:  cpu time      0.1433: real time      0.1449
    SETDIJ:  cpu time      0.1075: real time      0.1080
     EDDAV:  cpu time      2.5166: real time      2.5483
       DOS:  cpu time      0.0013: real time      0.0013
    CHARGE:  cpu time      0.1396: real time      0.1405
    MIXING:  cpu time      0.0051: real time      0.0052
    --------------------------------------------
      LOOP:  cpu time      2.9133: real time      2.9482

 eigenvalue-minimisations  :  1428
 total energy-change (2. order) :-0.2661316E-05  (-0.1397574E-07)
 number of electron      53.9999985 magnetization       5.9999996
 augmentation part       -0.5685040 magnetization       4.3781180

 Broyden mixing:
  rms(total) = 0.12637E-03    rms(broyden)= 0.12637E-03
  rms(prec ) = 0.13138E-03
  weight for this iteration     100.00

 eigenvalues of (default mixing * dielectric matrix)
  average eigenvalue GAMMA=   1.1303
  2.5246  2.1934  1.4743  0.7803  0.7803  0.7423  0.6252  0.6252  0.4265

 Free energy of the ion-electron system (eV)
  ---------------------------------------------------
  alpha Z        PSCENC =        30.48284726
  Ewald energy   TEWEN  =      4403.21977536
  -Hartree energ DENC   =     -7103.31277803
  -exchange      EXHF   =         0.00000000
  -V(xc)+E(xc)   XCENC  =        86.49474416
  PAW double counting   =      3651.98223159    -3602.49812416
  entropy T*S    EENTRO =        -0.00000000
  eigenvalues    EBANDS =      -513.09626827
  atomic energy  EATOM  =      3012.07006103
  Solvation  Ediel_sol  =         0.00000000
  ext. energy  EPLUGINS =         0.00000000
  ---------------------------------------------------
  free energy    TOTEN  =       -34.65751107 eV

  energy without entropy =      -34.65751107  energy(sigma->0) =      -34.65751107


--------------------------------------------------------------------------------------------------------




--------------------------------------- Iteration      3(  11)  ---------------------------------------


    POTLOK:  cpu time      0.1480: real time      0.1496
    SETDIJ:  cpu time      0.1244: real time      0.1249
     EDDAV:  cpu time      2.4713: real time      2.5002
       DOS:  cpu time      0.0013: real time      0.0013
    CHARGE:  cpu time      0.1383: real time      0.1393
    MIXING:  cpu time      0.0058: real time      0.0059
    --------------------------------------------
      LOOP:  cpu time      2.8891: real time      2.9212

 eigenvalue-minimisations  :  1456
 total energy-change (2. order) :-0.1406988E-05  (-0.8029454E-08)
 number of electron      53.9999985 magnetization       5.9999996
 augmentation part       -0.5685257 magnetization       4.3781114

 Broyden mixing:
  rms(total) = 0.73703E-04    rms(broyden)= 0.73702E-04
  rms(prec ) = 0.77362E-04
  weight for this iteration     100.00

 eigenvalues of (default mixing * dielectric matrix)
  average eigenvalue GAMMA=   1.2181
  3.4426  2.4720  1.1296  1.1047  1.1047  0.6670  0.6670  0.5994  0.5994  0.3944

 Free energy of the ion-electron system (eV)
  ---------------------------------------------------
  alpha Z        PSCENC =        30.48284726
  Ewald energy   TEWEN  =      4403.21977536
  -Hartree energ DENC   =     -7103.31839840
  -exchange      EXHF   =         0.00000000
  -V(xc)+E(xc)   XCENC  =        86.49486495
  PAW double counting   =      3651.99336934    -3602.50930606
  entropy T*S    EENTRO =        -0.00000000
  eigenvalues    EBANDS =      -513.09072595
  atomic energy  EATOM  =      3012.07006103
  Solvation  Ediel_sol  =         0.00000000
  ext. energy  EPLUGINS =         0.00000000
  ---------------------------------------------------
  free energy    TOTEN  =       -34.65751247 eV

  energy without entropy =      -34.65751247  energy(sigma->0) =      -34.65751247


--------------------------------------------------------------------------------------------------------




--------------------------------------- Iteration      3(  12)  ---------------------------------------


    POTLOK:  cpu time      0.1428: real time      0.1442
    SETDIJ:  cpu time      0.1083: real time      0.1088
     EDDAV:  cpu time      2.4820: real time      2.5117
       DOS:  cpu time      0.0016: real time      0.0016
    --------------------------------------------
      LOOP:  cpu time      2.7349: real time      2.7665

 eigenvalue-minimisations  :  1452
 total energy-change (2. order) :-0.6475143E-06  (-0.4124773E-08)
 number of electron      53.9999985 magnetization       5.9999996
 augmentation part       -0.5685257 magnetization       4.3781114

 Free energy of the ion-electron system (eV)
  ---------------------------------------------------
  alpha Z        PSCENC =        30.48284726
  Ewald energy   TEWEN  =      4403.21977536
  -Hartree energ DENC   =     -7103.32306767
  -exchange      EXHF   =         0.00000000
  -V(xc)+E(xc)   XCENC  =        86.49493276
  PAW double counting   =      3652.00310847    -3602.51898900
  entropy T*S    EENTRO =        -0.00000000
  eigenvalues    EBANDS =      -513.08618132
  atomic energy  EATOM  =      3012.07006103
  Solvation  Ediel_sol  =         0.00000000
  ext. energy  EPLUGINS =         0.00000000
  ---------------------------------------------------
  free energy    TOTEN  =       -34.65751312 eV

  energy without entropy =      -34.65751312  energy(sigma->0) =      -34.65751312


--------------------------------------------------------------------------------------------------------




 average (electrostatic) potential at core
  the test charge radii are     1.1394  0.9406
  (the norm of the test charge is              1.0000)
       1 -53.2130       2 -53.2130       3 -98.9507       4 -98.9507       5 -98.9507
       6 -98.9507       7 -98.9507       8 -98.9507



 E-fermi :  -4.9036     XC(G=0):  -3.3308     alpha+bet : -2.6707

 val. band max:       -5.1292567610   @ k =   0.0909   0.0909   0.0000
 cond. band min:      -2.5395784303   @ k =   0.3636   0.2727   0.0000
 fundamental gap:      2.5896783307
 Fermi energy:        -4.9036119059

 spin component 1

 k-point     1 :       0.0000    0.0000    0.0000
  band No.  band energies     occupation 
      1     -19.2243      1.00000
      2     -18.4477      1.00000
      3     -18.2765      1.00000
      4     -18.2765      1.00000
      5     -18.1824      1.00000
      6     -18.1824      1.00000
      7      -9.0975      1.00000
      8      -9.0480      1.00000
      9      -8.6139      1.00000
     10      -8.6139      1.00000
     11      -8.5983      1.00000
     12      -8.5983      1.00000
     13      -7.6325      1.00000
     14      -7.6325      1.00000
     15      -7.6112      1.00000
     16      -7.4109      1.00000
     17      -7.1138      1.00000
     18      -7.0877      1.00000
     19      -7.0877      1.00000
     20      -6.6203      1.00000
     21      -6.6203      1.00000
     22      -6.1969      1.00000
     23      -6.1396      1.00000
     24      -6.1396      1.00000
     25      -5.9190      1.00000
     26      -5.7896      1.00000
     27      -5.3734      1.00000
     28      -5.3734      1.00000
     29      -5.1342      1.00000
     30      -5.1342      1.00000
     31      -2.5031      0.00000
     32      -2.5031      0.00000
     33      -2.2938      0.00000
     34      -2.2938      0.00000
     35       1.5547      0.00000
     36       2.3070      0.00000

 k-point     2 :       0.0909    0.0000    0.0000
  band No.  band energies     occupation 
      1     -19.2076      1.00000
      2     -18.4408      1.00000
      3     -18.2964      1.00000
      4     -18.2824      1.00000
      5     -18.1850      1.00000
      6     -18.1837      1.00000
      7      -9.1077      1.00000
      8      -9.0345      1.00000
      9      -8.6715      1.00000
     10      -8.6700      1.00000
     11      -8.5251      1.00000
     12      -8.5190      1.00000
     13      -7.6546      1.00000
     14      -7.6347      1.00000
     15      -7.6213      1.00000
     16      -7.3742      1.00000
     17      -7.1407      1.00000
     18      -7.0819      1.00000
     19      -7.0488      1.00000
     20      -6.6915      1.00000
     21      -6.6151      1.00000
     22      -6.1685      1.00000
     23      -6.1598      1.00000
     24      -6.1162      1.00000
     25      -5.9171      1.00000
     26      -5.7557      1.00000
     27      -5.3800      1.00000
     28      -5.3760      1.00000
     29      -5.1777      1.00000
     30      -5.1317      1.00000
     31      -2.5041      0.00000
     32      -2.4994      0.00000
     33      -2.3264      0.00000
     34      -2.2975      0.00000
     35       1.6356      0.00000
     36       2.3550      0.00000

 k-point     3 :       0.1818    0.0000    0.0000
  band No.  band energies     occupation 
      1     -19.1588      1.00000
      2     -18.4208      1.00000
      3     -18.3528      1.00000
      4     -18.2970      1.00000
      5     -18.1929      1.00000
      6     -18.1900      1.00000
      7      -9.1379      1.00000
      8      -8.9954      1.00000
      9      -8.7196      1.00000
     10      -8.6845      1.00000
     11      -8.4306      1.00000
     12      -8.4279      1.00000
     13      -7.7138      1.00000
     14      -7.6861      1.00000
     15      -7.5941      1.00000
     16      -7.3213      1.00000
     17      -7.1927      1.00000
     18      -7.0545      1.00000
     19      -6.9624      1.00000
     20      -6.8256      1.00000
     21      -6.6022      1.00000
     22      -6.2225      1.00000
     23      -6.1683      1.00000
     24      -6.0380      1.00000
     25      -5.9067      1.00000
     26      -5.6548      1.00000
     27      -5.4010      1.00000
     28      -5.3861      1.00000
     29      -5.2742      1.00000
     30      -5.1320      1.00000
     31      -2.5058      0.00000
     32      -2.4881      0.00000
     33      -2.3984      0.00000
     34      -2.3123      0.00000
     35       1.8588      0.00000
     36       2.4869      0.00000

 k-point     4 :       0.2727    0.0000    0.0000
  band No.  band energies     occupation 
      1     -19.0824      1.00000
      2     -18.4384      1.00000
      3     -18.3901      1.00000
      4     -18.3139      1.00000
      5     -18.2048      1.00000
      6     -18.2040      1.00000
      7      -9.1887      1.00000
      8      -8.9299      1.00000
      9      -8.7509      1.00000
     10      -8.6189      1.00000
     11      -8.3643      1.00000
     12      -8.3258      1.00000
     13      -7.7922      1.00000
     14      -7.7391      1.00000
     15      -7.5679      1.00000
     16      -7.3996      1.00000
     17      -7.1687      1.00000
     18      -7.0238      1.00000
     19      -7.0117      1.00000
     20      -6.7878      1.00000
     21      -6.5756      1.00000
     22      -6.3162      1.00000
     23      -6.2029      1.00000
     24      -5.9588      1.00000
     25      -5.8780      1.00000
     26      -5.5140      1.00000
     27      -5.4366      1.00000
     28      -5.4183      1.00000
     29      -5.3609      1.00000
     30      -5.1402      1.00000
     31      -2.5047      0.00000
     32      -2.4672      0.00000
     33      -2.4643      0.00000
     34      -2.3426      0.00000
     35       2.1827      0.00000
     36       2.6839      0.00000

 k-point     5 :       0.3636    0.0000    0.0000
  band No.  band energies     occupation 
      1     -18.9877      1.00000
      2     -18.5413      1.00000
      3     -18.3536      1.00000
      4     -18.3270      1.00000
      5     -18.2294      1.00000
      6     -18.2146      1.00000
      7      -9.2418      1.00000
      8      -8.8466      1.00000
      9      -8.7672      1.00000
     10      -8.4824      1.00000
     11      -8.3461      1.00000
     12      -8.2204      1.00000
     13      -7.8738      1.00000
     14      -7.7772      1.00000
     15      -7.6297      1.00000
     16      -7.4835      1.00000
     17      -7.1550      1.00000
     18      -7.1191      1.00000
     19      -7.0056      1.00000
     20      -6.6424      1.00000
     21      -6.5419      1.00000
     22      -6.3826      1.00000
     23      -6.2648      1.00000
     24      -5.8912      1.00000
     25      -5.8316      1.00000
     26      -5.4981      1.00000
     27      -5.4709      1.00000
     28      -5.4191      1.00000
     29      -5.3640      1.00000
     30      -5.1524      1.00000
     31      -2.5063      0.00000
     32      -2.4960      0.00000
     33      -2.4339      0.00000
     34      -2.3852      0.00000
     35       2.5744      0.00000
     36       2.9326      0.00000

 k-point     6 :       0.4545    0.0000    0.0000
  band No.  band energies     occupation 
      1     -18.9003      1.00000
      2     -18.6336      1.00000
      3     -18.3395      1.00000
      4     -18.3108      1.00000
      5     -18.2602      1.00000
      6     -18.2209      1.00000
      7      -9.2741      1.00000
      8      -8.7806      1.00000
      9      -8.7733      1.00000
     10      -8.3833      1.00000
     11      -8.3025      1.00000
     12      -8.1376      1.00000
     13      -7.9396      1.00000
     14      -7.7954      1.00000
     15      -7.7944      1.00000
     16      -7.4839      1.00000
     17      -7.2368      1.00000
     18      -7.0808      1.00000
     19      -7.0237      1.00000
     20      -6.5482      1.00000
     21      -6.5016      1.00000
     22      -6.3783      1.00000
     23      -6.3498      1.00000
     24      -5.8436      1.00000
     25      -5.7908      1.00000
     26      -5.5698      1.00000
     27      -5.4846      1.00000
     28      -5.4583      1.00000
     29      -5.2548      1.00000
     30      -5.1811      1.00000
     31      -2.5255      0.00000
     32      -2.4776      0.00000
     33      -2.4270      0.00000
     34      -2.4057      0.00000
     35       2.9631      0.00000
     36       3.0224      0.00000

 k-point     7 :       0.0909    0.0909    0.0000
  band No.  band energies     occupation 
      1     -19.1748      1.00000
      2     -18.4273      1.00000
      3     -18.3327      1.00000
      4     -18.2947      1.00000
      5     -18.1896      1.00000
      6     -18.1879      1.00000
      7      -9.1218      1.00000
      8      -9.0117      1.00000
      9      -8.7544      1.00000
     10      -8.6249      1.00000
     11      -8.5051      1.00000
     12      -8.4224      1.00000
     13      -7.6988      1.00000
     14      -7.6727      1.00000
     15      -7.5969      1.00000
     16      -7.3228      1.00000
     17      -7.1865      1.00000
     18      -7.0680      1.00000
     19      -6.9817      1.00000
     20      -6.7975      1.00000
     21      -6.6003      1.00000
     22      -6.2269      1.00000
     23      -6.1032      1.00000
     24      -6.0982      1.00000
     25      -5.9110      1.00000
     26      -5.6875      1.00000
     27      -5.3915      1.00000
     28      -5.3838      1.00000
     29      -5.2487      1.00000
     30      -5.1293      1.00000
     31      -2.5068      0.00000
     32      -2.4910      0.00000
     33      -2.3804      0.00000
     34      -2.3038      0.00000
     35       1.7871      0.00000
     36       2.4444      0.00000

 k-point     8 :       0.1818    0.0909    0.0000
  band No.  band energies     occupation 
      1     -19.1121      1.00000
      2     -18.4021      1.00000
      3     -18.4007      1.00000
      4     -18.3144      1.00000
      5     -18.1987      1.00000
      6     -18.1980      1.00000
      7      -9.1444      1.00000
      8      -8.9749      1.00000
      9      -8.7942      1.00000
     10      -8.5803      1.00000
     11      -8.4397      1.00000
     12      -8.3324      1.00000
     13      -7.7739      1.00000
     14      -7.7220      1.00000
     15      -7.5599      1.00000
     16      -7.3229      1.00000
     17      -7.2229      1.00000
     18      -7.0493      1.00000
     19      -6.9342      1.00000
     20      -6.8614      1.00000
     21      -6.5688      1.00000
     22      -6.3169      1.00000
     23      -6.1235      1.00000
     24      -6.0229      1.00000
     25      -5.8908      1.00000
     26      -5.5654      1.00000
     27      -5.4327      1.00000
     28      -5.3877      1.00000
     29      -5.3390      1.00000
     30      -5.1332      1.00000
     31      -2.5108      0.00000
     32      -2.4739      0.00000
     33      -2.4483      0.00000
     34      -2.3202      0.00000
     35       2.0570      0.00000
     36       2.6066      0.00000

 k-point     9 :       0.2727    0.0909    0.0000
  band No.  band energies     occupation 
      1     -19.0256      1.00000
      2     -18.4937      1.00000
      3     -18.3685      1.00000
      4     -18.3326      1.00000
      5     -18.2166      1.00000
      6     -18.2096      1.00000
      7      -9.1866      1.00000
      8      -8.9129      1.00000
      9      -8.7858      1.00000
     10      -8.5091      1.00000
     11      -8.3734      1.00000
     12      -8.2573      1.00000
     13      -7.8584      1.00000
     14      -7.7619      1.00000
     15      -7.5479      1.00000
     16      -7.4358      1.00000
     17      -7.2013      1.00000
     18      -7.1213      1.00000
     19      -6.9511      1.00000
     20      -6.7461      1.00000
     21      -6.5167      1.00000
     22      -6.4084      1.00000
     23      -6.1737      1.00000
     24      -5.9512      1.00000
     25      -5.8510      1.00000
     26      -5.5026      1.00000
     27      -5.4297      1.00000
     28      -5.4152      1.00000
     29      -5.3887      1.00000
     30      -5.1435      1.00000
     31      -2.5110      0.00000
     32      -2.4931      0.00000
     33      -2.4498      0.00000
     34      -2.3482      0.00000
     35       2.4070      0.00000
     36       2.8263      0.00000

 k-point    10 :       0.3636    0.0909    0.0000
  band No.  band energies     occupation 
      1     -18.9294      1.00000
      2     -18.5951      1.00000
      3     -18.3504      1.00000
      4     -18.3254      1.00000
      5     -18.2441      1.00000
      6     -18.2182      1.00000
      7      -9.2277      1.00000
      8      -8.8358      1.00000
      9      -8.7724      1.00000
     10      -8.4000      1.00000
     11      -8.3552      1.00000
     12      -8.1769      1.00000
     13      -7.9340      1.00000
     14      -7.7832      1.00000
     15      -7.6829      1.00000
     16      -7.4574      1.00000
     17      -7.2523      1.00000
     18      -7.1194      1.00000
     19      -6.9722      1.00000
     20      -6.6440      1.00000
     21      -6.5132      1.00000
     22      -6.3940      1.00000
     23      -6.2398      1.00000
     24      -5.8902      1.00000
     25      -5.8050      1.00000
     26      -5.5748      1.00000
     27      -5.4701      1.00000
     28      -5.4209      1.00000
     29      -5.2943      1.00000
     30      -5.1605      1.00000
     31      -2.5227      0.00000
     32      -2.4909      0.00000
     33      -2.4384      0.00000
     34      -2.3685      0.00000
     35       2.8135      0.00000
     36       3.0258      0.00000

 k-point    11 :       0.4545    0.0909    0.0000
  band No.  band energies     occupation 
      1     -18.8725      1.00000
      2     -18.6540      1.00000
      3     -18.3538      1.00000
      4     -18.2985      1.00000
      5     -18.2683      1.00000
      6     -18.2214      1.00000
      7      -9.2437      1.00000
      8      -8.7951      1.00000
      9      -8.7706      1.00000
     10      -8.3829      1.00000
     11      -8.3041      1.00000
     12      -8.1310      1.00000
     13      -7.9715      1.00000
     14      -7.7885      1.00000
     15      -7.7865      1.00000
     16      -7.4503      1.00000
     17      -7.2870      1.00000
     18      -7.1000      1.00000
     19      -6.9876      1.00000
     20      -6.6148      1.00000
     21      -6.5157      1.00000
     22      -6.3191      1.00000
     23      -6.3142      1.00000
     24      -5.8600      1.00000
     25      -5.7846      1.00000
     26      -5.6169      1.00000
     27      -5.4773      1.00000
     28      -5.4410      1.00000
     29      -5.2215      1.00000
     30      -5.1915      1.00000
     31      -2.5300      0.00000
     32      -2.4690      0.00000
     33      -2.4574      0.00000
     34      -2.3669      0.00000
     35       2.9605      0.00000
     36       3.2182      0.00000

 k-point    12 :       0.1818    0.1818    0.0000
  band No.  band energies     occupation 
      1     -19.0388      1.00000
      2     -18.4714      1.00000
      3     -18.3741      1.00000
      4     -18.3414      1.00000
      5     -18.2108      1.00000
      6     -18.2077      1.00000
      7      -9.1186      1.00000
      8      -8.9889      1.00000
      9      -8.8045      1.00000
     10      -8.4637      1.00000
     11      -8.4323      1.00000
     12      -8.2630      1.00000
     13      -7.8615      1.00000
     14      -7.7548      1.00000
     15      -7.5076      1.00000
     16      -7.3463      1.00000
     17      -7.3002      1.00000
     18      -7.1261      1.00000
     19      -6.8908      1.00000
     20      -6.8183      1.00000
     21      -6.4917      1.00000
     22      -6.4343      1.00000
     23      -6.0668      1.00000
     24      -6.0428      1.00000
     25      -5.8583      1.00000
     26      -5.5096      1.00000
     27      -5.4334      1.00000
     28      -5.4094      1.00000
     29      -5.3759      1.00000
     30      -5.1382      1.00000
     31      -2.5203      0.00000
     32      -2.4901      0.00000
     33      -2.4534      0.00000
     34      -2.3266      0.00000
     35       2.3460      0.00000
     36       2.7884      0.00000

 k-point    13 :       0.2727    0.1818    0.0000
  band No.  band energies     occupation 
      1     -18.9470      1.00000
      2     -18.5612      1.00000
      3     -18.3698      1.00000
      4     -18.3351      1.00000
      5     -18.2302      1.00000
      6     -18.2179      1.00000
      7      -9.1194      1.00000
      8      -8.9554      1.00000
      9      -8.7743      1.00000
     10      -8.4135      1.00000
     11      -8.3860      1.00000
     12      -8.2079      1.00000
     13      -7.9452      1.00000
     14      -7.7693      1.00000
     15      -7.5333      1.00000
     16      -7.4338      1.00000
     17      -7.3096      1.00000
     18      -7.1738      1.00000
     19      -6.8858      1.00000
     20      -6.7520      1.00000
     21      -6.5346      1.00000
     22      -6.3834      1.00000
     23      -6.1121      1.00000
     24      -5.9855      1.00000
     25      -5.8154      1.00000
     26      -5.5896      1.00000
     27      -5.4544      1.00000
     28      -5.3829      1.00000
     29      -5.3173      1.00000
     30      -5.1470      1.00000
     31      -2.5266      0.00000
     32      -2.5017      0.00000
     33      -2.4423      0.00000
     34      -2.3287      0.00000
     35       2.6949      0.00000
     36       3.0095      0.00000

 k-point    14 :       0.3636    0.1818    0.0000
  band No.  band energies     occupation 
      1     -18.8585      1.00000
      2     -18.6492      1.00000
      3     -18.3825      1.00000
      4     -18.3004      1.00000
      5     -18.2566      1.00000
      6     -18.2241      1.00000
      7      -9.1433      1.00000
      8      -8.8681      1.00000
      9      -8.7736      1.00000
     10      -8.3846      1.00000
     11      -8.3739      1.00000
     12      -8.1474      1.00000
     13      -8.0028      1.00000
     14      -7.7679      1.00000
     15      -7.6774      1.00000
     16      -7.3955      1.00000
     17      -7.3359      1.00000
     18      -7.1688      1.00000
     19      -6.9155      1.00000
     20      -6.7049      1.00000
     21      -6.5859      1.00000
     22      -6.2748      1.00000
     23      -6.1805      1.00000
     24      -5.9331      1.00000
     25      -5.7906      1.00000
     26      -5.6584      1.00000
     27      -5.4619      1.00000
     28      -5.4081      1.00000
     29      -5.2277      1.00000
     30      -5.1653      1.00000
     31      -2.5338      0.00000
     32      -2.4837      0.00000
     33      -2.4557      0.00000
     34      -2.3202      0.00000
     35       3.0115      0.00000
     36       3.0666      0.00000

 k-point    15 :       0.2727    0.2727    0.0000
  band No.  band energies     occupation 
      1     -18.8557      1.00000
      2     -18.6408      1.00000
      3     -18.3978      1.00000
      4     -18.3032      1.00000
      5     -18.2453      1.00000
      6     -18.2294      1.00000
      7      -9.0014      1.00000
      8      -9.0000      1.00000
      9      -8.7750      1.00000
     10      -8.4104      1.00000
     11      -8.3822      1.00000
     12      -8.1562      1.00000
     13      -8.0160      1.00000
     14      -7.7572      1.00000
     15      -7.6036      1.00000
     16      -7.4004      1.00000
     17      -7.3217      1.00000
     18      -7.2239      1.00000
     19      -6.8716      1.00000
     20      -6.7501      1.00000
     21      -6.6187      1.00000
     22      -6.2577      1.00000
     23      -6.0744      1.00000
     24      -6.0223      1.00000
     25      -5.7954      1.00000
     26      -5.6710      1.00000
     27      -5.4550      1.00000
     28      -5.3935      1.00000
     29      -5.2323      1.00000
     30      -5.1523      1.00000
     31      -2.5358      0.00000
     32      -2.4918      0.00000
     33      -2.4511      0.00000
     34      -2.2989      0.00000
     35       2.9941      0.00000
     36       3.0775      0.00000

 k-point    16 :       0.3636    0.2727    0.0000
  band No.  band energies     occupation 
      1     -18.7881      1.00000
      2     -18.7037      1.00000
      3     -18.4088      1.00000
      4     -18.2785      1.00000
      5     -18.2628      1.00000
      6     -18.2346      1.00000
      7      -9.0172      1.00000
      8      -8.8974      1.00000
      9      -8.8268      1.00000
     10      -8.4075      1.00000
     11      -8.3985      1.00000
     12      -8.1140      1.00000
     13      -8.0564      1.00000
     14      -7.7474      1.00000
     15      -7.6548      1.00000
     16      -7.3444      1.00000
     17      -7.3351      1.00000
     18      -7.2501      1.00000
     19      -6.8888      1.00000
     20      -6.7241      1.00000
     21      -6.6613      1.00000
     22      -6.1707      1.00000
     23      -6.1169      1.00000
     24      -6.0105      1.00000
     25      -5.8046      1.00000
     26      -5.6949      1.00000
     27      -5.4399      1.00000
     28      -5.4130      1.00000
     29      -5.1868      1.00000
     30      -5.1660      1.00000
     31      -2.5396      0.00000
     32      -2.4760      0.00000
     33      -2.4654      0.00000
     34      -2.2844      0.00000
     35       3.0370      0.00000
     36       3.0993      0.00000
 Fermi energy:        -4.9036119059

 spin component 2

 k-point     1 :       0.0000    0.0000    0.0000
  band No.  band energies     occupation 
      1     -19.2612      1.00000
      2     -18.5296      1.00000
      3     -18.3506      1.00000
      4     -18.3506      1.00000
      5     -18.2462      1.00000
      6     -18.2462      1.00000
      7      -8.7209      1.00000
      8      -8.2725      1.00000
      9      -7.8693      1.00000
     10      -7.8693      1.00000
     11      -7.6763      1.00000
     12      -7.6763      1.00000
     13      -7.6081      1.00000
     14      -6.9725      1.00000
     15      -6.9725      1.00000
     16      -6.7568      1.00000
     17      -6.4838      1.00000
     18      -6.4838      1.00000
     19      -6.2193      1.00000
     20      -5.8242      1.00000
     21      -5.4984      1.00000
     22      -5.4984      1.00000
     23      -5.3213      1.00000
     24      -5.3213      1.00000
     25      -0.7497      0.00000
     26      -0.7497      0.00000
     27      -0.5464      0.00000
     28      -0.5464      0.00000
     29      -0.5374      0.00000
     30      -0.4920      0.00000
     31      -0.2420      0.00000
     32      -0.2420      0.00000
     33      -0.1920      0.00000
     34      -0.1920      0.00000
     35       1.7039      0.00000
     36       2.3166      0.00000

 k-point     2 :       0.0909    0.0000    0.0000
  band No.  band energies     occupation 
      1     -19.2451      1.00000
      2     -18.5222      1.00000
      3     -18.3700      1.00000
      4     -18.3571      1.00000
      5     -18.2483      1.00000
      6     -18.2475      1.00000
      7      -8.7272      1.00000
      8      -8.2687      1.00000
      9      -7.8785      1.00000
     10      -7.8125      1.00000
     11      -7.7858      1.00000
     12      -7.6949      1.00000
     13      -7.4699      1.00000
     14      -7.0074      1.00000
     15      -6.9791      1.00000
     16      -6.6868      1.00000
     17      -6.4907      1.00000
     18      -6.4643      1.00000
     19      -6.2034      1.00000
     20      -5.8165      1.00000
     21      -5.5179      1.00000
     22      -5.5000      1.00000
     23      -5.4097      1.00000
     24      -5.3380      1.00000
     25      -0.7629      0.00000
     26      -0.7446      0.00000
     27      -0.5600      0.00000
     28      -0.5553      0.00000
     29      -0.5510      0.00000
     30      -0.4541      0.00000
     31      -0.2660      0.00000
     32      -0.2514      0.00000
     33      -0.1919      0.00000
     34      -0.1791      0.00000
     35       1.7771      0.00000
     36       2.3661      0.00000

 k-point     3 :       0.1818    0.0000    0.0000
  band No.  band energies     occupation 
      1     -19.1980      1.00000
      2     -18.5009      1.00000
      3     -18.4246      1.00000
      4     -18.3730      1.00000
      5     -18.2549      1.00000
      6     -18.2541      1.00000
      7      -8.7335      1.00000
      8      -8.2605      1.00000
      9      -7.9150      1.00000
     10      -7.8677      1.00000
     11      -7.7178      1.00000
     12      -7.6664      1.00000
     13      -7.2897      1.00000
     14      -7.1002      1.00000
     15      -6.9987      1.00000
     16      -6.5576      1.00000
     17      -6.4668      1.00000
     18      -6.4182      1.00000
     19      -6.1638      1.00000
     20      -5.8061      1.00000
     21      -5.6964      1.00000
     22      -5.5197      1.00000
     23      -5.5040      1.00000
     24      -5.3723      1.00000
     25      -0.7925      0.00000
     26      -0.7259      0.00000
     27      -0.6264      0.00000
     28      -0.5788      0.00000
     29      -0.5660      0.00000
     30      -0.3627      0.00000
     31      -0.3224      0.00000
     32      -0.2775      0.00000
     33      -0.1924      0.00000
     34      -0.1428      0.00000
     35       1.9824      0.00000
     36       2.5037      0.00000

 k-point     4 :       0.2727    0.0000    0.0000
  band No.  band energies     occupation 
      1     -19.1242      1.00000
      2     -18.5074      1.00000
      3     -18.4681      1.00000
      4     -18.3916      1.00000
      5     -18.2697      1.00000
      6     -18.2647      1.00000
      7      -8.7286      1.00000
      8      -8.2457      1.00000
      9      -7.9843      1.00000
     10      -7.8670      1.00000
     11      -7.6844      1.00000
     12      -7.5006      1.00000
     13      -7.2566      1.00000
     14      -7.0818      1.00000
     15      -7.0244      1.00000
     16      -6.5763      1.00000
     17      -6.3755      1.00000
     18      -6.2697      1.00000
     19      -6.1086      1.00000
     20      -6.0363      1.00000
     21      -5.8466      1.00000
     22      -5.5648      1.00000
     23      -5.4876      1.00000
     24      -5.3926      1.00000
     25      -0.8361      0.00000
     26      -0.7136      0.00000
     27      -0.6914      0.00000
     28      -0.6056      0.00000
     29      -0.5837      0.00000
     30      -0.3848      0.00000
     31      -0.3218      0.00000
     32      -0.2516      0.00000
     33      -0.1939      0.00000
     34      -0.0984      0.00000
     35       2.2866      0.00000
     36       2.7115      0.00000

 k-point     5 :       0.3636    0.0000    0.0000
  band No.  band energies     occupation 
      1     -19.0324      1.00000
      2     -18.6069      1.00000
      3     -18.4284      1.00000
      4     -18.4068      1.00000
      5     -18.2955      1.00000
      6     -18.2741      1.00000
      7      -8.7213      1.00000
      8      -8.2140      1.00000
      9      -8.0356      1.00000
     10      -7.8184      1.00000
     11      -7.5980      1.00000
     12      -7.4097      1.00000
     13      -7.3669      1.00000
     14      -7.0313      1.00000
     15      -6.9065      1.00000
     16      -6.6365      1.00000
     17      -6.3884      1.00000
     18      -6.3572      1.00000
     19      -6.0595      1.00000
     20      -6.0563      1.00000
     21      -5.9376      1.00000
     22      -5.6069      1.00000
     23      -5.4732      1.00000
     24      -5.3674      1.00000
     25      -0.9074      0.00000
     26      -0.7701      0.00000
     27      -0.6635      0.00000
     28      -0.6105      0.00000
     29      -0.5961      0.00000
     30      -0.4366      0.00000
     31      -0.3604      0.00000
     32      -0.1956      0.00000
     33      -0.1629      0.00000
     34      -0.0654      0.00000
     35       2.6594      0.00000
     36       2.9753      0.00000

 k-point     6 :       0.4545    0.0000    0.0000
  band No.  band energies     occupation 
      1     -18.9470      1.00000
      2     -18.6968      1.00000
      3     -18.4168      1.00000
      4     -18.3877      1.00000
      5     -18.3271      1.00000
      6     -18.2798      1.00000
      7      -8.7191      1.00000
      8      -8.1800      1.00000
      9      -8.0621      1.00000
     10      -7.7316      1.00000
     11      -7.5567      1.00000
     12      -7.5097      1.00000
     13      -7.2985      1.00000
     14      -6.9742      1.00000
     15      -6.7992      1.00000
     16      -6.7765      1.00000
     17      -6.5568      1.00000
     18      -6.3577      1.00000
     19      -6.1037      1.00000
     20      -5.9448      1.00000
     21      -5.9226      1.00000
     22      -5.6424      1.00000
     23      -5.4855      1.00000
     24      -5.3245      1.00000
     25      -0.9674      0.00000
     26      -0.7910      0.00000
     27      -0.6642      0.00000
     28      -0.6007      0.00000
     29      -0.5886      0.00000
     30      -0.4663      0.00000
     31      -0.3864      0.00000
     32      -0.1959      0.00000
     33      -0.1069      0.00000
     34      -0.0537      0.00000
     35       3.0857      0.00000
     36       3.2750      0.00000

 k-point     7 :       0.0909    0.0909    0.0000
  band No.  band energies     occupation 
      1     -19.2135      1.00000
      2     -18.5078      1.00000
      3     -18.4051      1.00000
      4     -18.3702      1.00000
      5     -18.2521      1.00000
      6     -18.2519      1.00000
      7      -8.7316      1.00000
      8      -8.2637      1.00000
      9      -7.8934      1.00000
     10      -7.8655      1.00000
     11      -7.7145      1.00000
     12      -7.7093      1.00000
     13      -7.3359      1.00000
     14      -7.0753      1.00000
     15      -6.9883      1.00000
     16      -6.5821      1.00000
     17      -6.4928      1.00000
     18      -6.4274      1.00000
     19      -6.1773      1.00000
     20      -5.8161      1.00000
     21      -5.5900      1.00000
     22      -5.5445      1.00000
     23      -5.4779      1.00000
     24      -5.3697      1.00000
     25      -0.7780      0.00000
     26      -0.7412      0.00000
     27      -0.6024      0.00000
     28      -0.5749      0.00000
     29      -0.5559      0.00000
     30      -0.3933      0.00000
     31      -0.3034      0.00000
     32      -0.2708      0.00000
     33      -0.1885      0.00000
     34      -0.1563      0.00000
     35       1.9160      0.00000
     36       2.4592      0.00000

 k-point     8 :       0.1818    0.0909    0.0000
  band No.  band energies     occupation 
      1     -19.1529      1.00000
      2     -18.4808      1.00000
      3     -18.4707      1.00000
      4     -18.3913      1.00000
      5     -18.2628      1.00000
      6     -18.2599      1.00000
      7      -8.7234      1.00000
      8      -8.2578      1.00000
      9      -7.9452      1.00000
     10      -7.8969      1.00000
     11      -7.7073      1.00000
     12      -7.5557      1.00000
     13      -7.2060      1.00000
     14      -7.1548      1.00000
     15      -6.9965      1.00000
     16      -6.5729      1.00000
     17      -6.3751      1.00000
     18      -6.3488      1.00000
     19      -6.1405      1.00000
     20      -5.9701      1.00000
     21      -5.7176      1.00000
     22      -5.5745      1.00000
     23      -5.4924      1.00000
     24      -5.4064      1.00000
     25      -0.8061      0.00000
     26      -0.7293      0.00000
     27      -0.6787      0.00000
     28      -0.6008      0.00000
     29      -0.5690      0.00000
     30      -0.3555      0.00000
     31      -0.3225      0.00000
     32      -0.2867      0.00000
     33      -0.1801      0.00000
     34      -0.1171      0.00000
     35       2.1682      0.00000
     36       2.6302      0.00000

 k-point     9 :       0.2727    0.0909    0.0000
  band No.  band energies     occupation 
      1     -19.0692      1.00000
      2     -18.5603      1.00000
      3     -18.4446      1.00000
      4     -18.4114      1.00000
      5     -18.2824      1.00000
      6     -18.2699      1.00000
      7      -8.7033      1.00000
      8      -8.2416      1.00000
      9      -8.0017      1.00000
     10      -7.8723      1.00000
     11      -7.6430      1.00000
     12      -7.4155      1.00000
     13      -7.3532      1.00000
     14      -7.0566      1.00000
     15      -6.9214      1.00000
     16      -6.6250      1.00000
     17      -6.3434      1.00000
     18      -6.3161      1.00000
     19      -6.1413      1.00000
     20      -6.0596      1.00000
     21      -5.8251      1.00000
     22      -5.5909      1.00000
     23      -5.4800      1.00000
     24      -5.4111      1.00000
     25      -0.8596      0.00000
     26      -0.7664      0.00000
     27      -0.6859      0.00000
     28      -0.6224      0.00000
     29      -0.5838      0.00000
     30      -0.4087      0.00000
     31      -0.3525      0.00000
     32      -0.2180      0.00000
     33      -0.1591      0.00000
     34      -0.0775      0.00000
     35       2.5009      0.00000
     36       2.8640      0.00000

 k-point    10 :       0.3636    0.0909    0.0000
  band No.  band energies     occupation 
      1     -18.9758      1.00000
      2     -18.6584      1.00000
      3     -18.4268      1.00000
      4     -18.4027      1.00000
      5     -18.3110      1.00000
      6     -18.2778      1.00000
      7      -8.6881      1.00000
      8      -8.2080      1.00000
      9      -8.0374      1.00000
     10      -7.8033      1.00000
     11      -7.5403      1.00000
     12      -7.5143      1.00000
     13      -7.3307      1.00000
     14      -7.0289      1.00000
     15      -6.7917      1.00000
     16      -6.7177      1.00000
     17      -6.5487      1.00000
     18      -6.3314      1.00000
     19      -6.0412      1.00000
     20      -5.9908      1.00000
     21      -5.9063      1.00000
     22      -5.6267      1.00000
     23      -5.4794      1.00000
     24      -5.3667      1.00000
     25      -0.9321      0.00000
     26      -0.8022      0.00000
     27      -0.6594      0.00000
     28      -0.6259      0.00000
     29      -0.5902      0.00000
     30      -0.4557      0.00000
     31      -0.3804      0.00000
     32      -0.1911      0.00000
     33      -0.1106      0.00000
     34      -0.0541      0.00000
     35       2.8913      0.00000
     36       3.1456      0.00000

 k-point    11 :       0.4545    0.0909    0.0000
  band No.  band energies     occupation 
      1     -18.9199      1.00000
      2     -18.7161      1.00000
      3     -18.4315      1.00000
      4     -18.3753      1.00000
      5     -18.3346      1.00000
      6     -18.2808      1.00000
      7      -8.6838      1.00000
      8      -8.1877      1.00000
      9      -8.0497      1.00000
     10      -7.7247      1.00000
     11      -7.6267      1.00000
     12      -7.4810      1.00000
     13      -7.2983      1.00000
     14      -6.9727      1.00000
     15      -6.9223      1.00000
     16      -6.6677      1.00000
     17      -6.5959      1.00000
     18      -6.3344      1.00000
     19      -6.0601      1.00000
     20      -5.9895      1.00000
     21      -5.8562      1.00000
     22      -5.6518      1.00000
     23      -5.4854      1.00000
     24      -5.3409      1.00000
     25      -0.9649      0.00000
     26      -0.8125      0.00000
     27      -0.6566      0.00000
     28      -0.6123      0.00000
     29      -0.5942      0.00000
     30      -0.4767      0.00000
     31      -0.3903      0.00000
     32      -0.1855      0.00000
     33      -0.0846      0.00000
     34      -0.0497      0.00000
     35       3.2974      0.00000
     36       3.3268      0.00000

 k-point    12 :       0.1818    0.1818    0.0000
  band No.  band energies     occupation 
      1     -19.0820      1.00000
      2     -18.5381      1.00000
      3     -18.4505      1.00000
      4     -18.4201      1.00000
      5     -18.2769      1.00000
      6     -18.2679      1.00000
      7      -8.6839      1.00000
      8      -8.2607      1.00000
      9      -7.9601      1.00000
     10      -7.9254      1.00000
     11      -7.6642      1.00000
     12      -7.4332      1.00000
     13      -7.3361      1.00000
     14      -7.0712      1.00000
     15      -6.9024      1.00000
     16      -6.6345      1.00000
     17      -6.3234      1.00000
     18      -6.3170      1.00000
     19      -6.1784      1.00000
     20      -6.0688      1.00000
     21      -5.6657      1.00000
     22      -5.6433      1.00000
     23      -5.4926      1.00000
     24      -5.4440      1.00000
     25      -0.8240      0.00000
     26      -0.7718      0.00000
     27      -0.7169      0.00000
     28      -0.6188      0.00000
     29      -0.5817      0.00000
     30      -0.3779      0.00000
     31      -0.3665      0.00000
     32      -0.2317      0.00000
     33      -0.1442      0.00000
     34      -0.0853      0.00000
     35       2.4439      0.00000
     36       2.8250      0.00000

 k-point    13 :       0.2727    0.1818    0.0000
  band No.  band energies     occupation 
      1     -18.9932      1.00000
      2     -18.6241      1.00000
      3     -18.4468      1.00000
      4     -18.4120      1.00000
      5     -18.2977      1.00000
      6     -18.2776      1.00000
      7      -8.6281      1.00000
      8      -8.2553      1.00000
      9      -7.9836      1.00000
     10      -7.8960      1.00000
     11      -7.5739      1.00000
     12      -7.5002      1.00000
     13      -7.3583      1.00000
     14      -7.0413      1.00000
     15      -6.7738      1.00000
     16      -6.7065      1.00000
     17      -6.5601      1.00000
     18      -6.2816      1.00000
     19      -6.1069      1.00000
     20      -5.9529      1.00000
     21      -5.7856      1.00000
     22      -5.6256      1.00000
     23      -5.4790      1.00000
     24      -5.4416      1.00000
     25      -0.8745      0.00000
     26      -0.8289      0.00000
     27      -0.6998      0.00000
     28      -0.6272      0.00000
     29      -0.5948      0.00000
     30      -0.4313      0.00000
     31      -0.3858      0.00000
     32      -0.1885      0.00000
     33      -0.0975      0.00000
     34      -0.0555      0.00000
     35       2.7817      0.00000
     36       3.0742      0.00000

 k-point    14 :       0.3636    0.1818    0.0000
  band No.  band energies     occupation 
      1     -18.9072      1.00000
      2     -18.7092      1.00000
      3     -18.4606      1.00000
      4     -18.3756      1.00000
      5     -18.3245      1.00000
      6     -18.2838      1.00000
      7      -8.5916      1.00000
      8      -8.2354      1.00000
      9      -8.0014      1.00000
     10      -7.8132      1.00000
     11      -7.6609      1.00000
     12      -7.4656      1.00000
     13      -7.3297      1.00000
     14      -7.0237      1.00000
     15      -6.9760      1.00000
     16      -6.6334      1.00000
     17      -6.5561      1.00000
     18      -6.2767      1.00000
     19      -6.0657      1.00000
     20      -5.9243      1.00000
     21      -5.8201      1.00000
     22      -5.6510      1.00000
     23      -5.4787      1.00000
     24      -5.4056      1.00000
     25      -0.9282      0.00000
     26      -0.8504      0.00000
     27      -0.6787      0.00000
     28      -0.6337      0.00000
     29      -0.5845      0.00000
     30      -0.4855      0.00000
     31      -0.3900      0.00000
     32      -0.1676      0.00000
     33      -0.0621      0.00000
     34      -0.0405      0.00000
     35       3.1455      0.00000
     36       3.3655      0.00000

 k-point    15 :       0.2727    0.2727    0.0000
  band No.  band energies     occupation 
      1     -18.9050      1.00000
      2     -18.6995      1.00000
      3     -18.4764      1.00000
      4     -18.3778      1.00000
      5     -18.3155      1.00000
      6     -18.2876      1.00000
      7      -8.5213      1.00000
      8      -8.2842      1.00000
      9      -7.9324      1.00000
     10      -7.9103      1.00000
     11      -7.6671      1.00000
     12      -7.4701      1.00000
     13      -7.3449      1.00000
     14      -7.0142      1.00000
     15      -7.0131      1.00000
     16      -6.6482      1.00000
     17      -6.5168      1.00000
     18      -6.2284      1.00000
     19      -6.1211      1.00000
     20      -5.8405      1.00000
     21      -5.8040      1.00000
     22      -5.6543      1.00000
     23      -5.4653      1.00000
     24      -5.4638      1.00000
     25      -0.8843      0.00000
     26      -0.8833      0.00000
     27      -0.7204      0.00000
     28      -0.6134      0.00000
     29      -0.5927      0.00000
     30      -0.4836      0.00000
     31      -0.3904      0.00000
     32      -0.1604      0.00000
     33      -0.0522      0.00000
     34      -0.0356      0.00000
     35       3.0834      0.00000
     36       3.3360      0.00000

 k-point    16 :       0.3636    0.2727    0.0000
  band No.  band energies     occupation 
      1     -18.8397      1.00000
      2     -18.7598      1.00000
      3     -18.4879      1.00000
      4     -18.3527      1.00000
      5     -18.3334      1.00000
      6     -18.2923      1.00000
      7      -8.4567      1.00000
      8      -8.3086      1.00000
      9      -7.9293      1.00000
     10      -7.8330      1.00000
     11      -7.8016      1.00000
     12      -7.3834      1.00000
     13      -7.3445      1.00000
     14      -7.1658      1.00000
     15      -6.9994      1.00000
     16      -6.6707      1.00000
     17      -6.4257      1.00000
     18      -6.2109      1.00000
     19      -6.1288      1.00000
     20      -5.8397      1.00000
     21      -5.7901      1.00000
     22      -5.6616      1.00000
     23      -5.4736      1.00000
     24      -5.4551      1.00000
     25      -0.9064      0.00000
     26      -0.8871      0.00000
     27      -0.7313      0.00000
     28      -0.6070      0.00000
     29      -0.5675      0.00000
     30      -0.5259      0.00000
     31      -0.3896      0.00000
     32      -0.1492      0.00000
     33      -0.0343      0.00000
     34      -0.0288      0.00000
     35       3.2825      0.00000
     36       3.3361      0.00000


--------------------------------------------------------------------------------------------------------


 soft charge-density along one line, spin component           1
         0         1         2         3         4         5         6         7         8         9
 total charge-density along one line

 soft charge-density along one line, spin component           2
         0         1         2         3         4         5         6         7         8         9
 total charge-density along one line

 pseudopotential strength for first ion, spin component:           1
-10.906   1.183  -0.000   0.000   0.000 -11.248   1.205  -0.000
  1.183 -10.074  -0.000   0.000  -0.000   1.205 -10.401  -0.000
 -0.000  -0.000 -11.742  -0.000   0.000  -0.000  -0.000 -12.099
  0.000   0.000  -0.000 -10.074  -1.183   0.000   0.000  -0.000
  0.000  -0.000   0.000  -1.183 -10.906   0.000  -0.000   0.000
-11.248   1.205  -0.000   0.000   0.000 -11.563   1.237  -0.000
  1.205 -10.401  -0.000   0.000  -0.000   1.237 -10.693  -0.000
 -0.000  -0.000 -12.099  -0.000   0.000  -0.000  -0.000 -12.437
  0.000   0.000  -0.000 -10.401  -1.205   0.000   0.000  -0.000
  0.000  -0.000   0.000  -1.205 -11.248   0.000  -0.000   0.000
 -0.000  -0.000   0.000  -0.000   0.000  -0.000  -0.000   0.000
 -0.000  -0.000   0.000  -0.000   0.000  -0.000  -0.000   0.000
 -0.000  -0.000  -0.000   0.000  -0.001  -0.000  -0.000  -0.000
  0.000   0.000   0.000  -0.000   0.000   0.000  -0.000   0.000
 -0.001   0.000   0.000   0.000  -0.000  -0.001   0.000   0.000
 -0.000  -0.000  -0.000   0.000  -0.002  -0.000  -0.000  -0.000
  0.000   0.000   0.000  -0.000   0.000   0.000   0.000   0.000
 -0.002   0.000   0.000   0.000  -0.000  -0.002   0.000   0.000
 pseudopotential strength for first ion, spin component:           2
 -6.768  -0.522   0.000   0.000   0.000  -7.103  -0.520   0.000
 -0.522  -7.128  -0.000   0.000  -0.000  -0.520  -7.462  -0.000
  0.000  -0.000  -6.384  -0.000  -0.000   0.000  -0.000  -6.720
  0.000   0.000  -0.000  -7.128   0.522   0.000   0.000  -0.000
  0.000  -0.000  -0.000   0.522  -6.768   0.000  -0.000  -0.000
 -7.103  -0.520   0.000   0.000   0.000  -7.384  -0.522   0.000
 -0.520  -7.462  -0.000   0.000  -0.000  -0.522  -7.743  -0.000
  0.000  -0.000  -6.720  -0.000  -0.000   0.000  -0.000  -6.999
  0.000   0.000  -0.000  -7.462   0.520   0.000   0.000  -0.000
  0.000  -0.000  -0.000   0.520  -7.103   0.000  -0.000  -0.000
  0.000  -0.000  -0.001  -0.000  -0.000   0.000  -0.000  -0.001
  0.000  -0.000  -0.002  -0.000  -0.000   0.000  -0.000  -0.003
  0.000  -0.000   0.000   0.000  -0.000   0.000  -0.000   0.000
  0.000  -0.000   0.000   0.000   0.000   0.000  -0.000   0.000
 -0.000   0.000  -0.000   0.000   0.000  -0.001   0.000  -0.000
  0.000  -0.000   0.000   0.000  -0.000   0.000  -0.000   0.000
  0.000  -0.000   0.000   0.000   0.000   0.000  -0.000   0.000
 -0.000   0.000  -0.000   0.000   0.000  -0.000   0.000  -0.000
 total augmentation occupancy for first ion, spin component:           1
  3.835  -1.715   0.000   0.000   0.000  -2.718   0.577  -0.000  -0.000   0.000   0.000  -0.000   0.000   0.000   0.081  -0.000
 -1.715   2.561  -0.000  -0.000   0.000   0.579  -2.227   0.000   0.000  -0.000  -0.000   0.000   0.000  -0.000  -0.027   0.000
  0.000  -0.000   4.920   0.000   0.000  -0.000   0.000  -2.985  -0.000  -0.000   0.066  -0.008   0.000  -0.000   0.000  -0.000
  0.000  -0.000   0.000   2.561   1.715  -0.000   0.000  -0.000  -2.227  -0.579   0.000   0.000   0.027   0.000  -0.000  -0.000
  0.000   0.000   0.000   1.715   3.835  -0.000  -0.000  -0.000  -0.577  -2.718   0.000  -0.000   0.081  -0.000  -0.000  -0.003
 -2.718   0.579  -0.000  -0.000  -0.000   2.543   0.274   0.000  -0.000  -0.000  -0.000   0.000  -0.000   0.000  -0.088   0.000
  0.577  -2.227   0.000   0.000  -0.000   0.274   2.634   0.000  -0.000  -0.000   0.000   0.000   0.000   0.000   0.023  -0.000
 -0.000   0.000  -2.985  -0.000  -0.000   0.000   0.000   2.192  -0.000   0.000  -0.072   0.010  -0.000   0.000  -0.000   0.000
 -0.000   0.000  -0.000  -2.227  -0.577  -0.000  -0.000  -0.000   2.634  -0.274   0.000   0.000  -0.023   0.000  -0.000   0.000
 -0.000  -0.000  -0.000  -0.579  -2.718   0.000  -0.000   0.000  -0.274   2.543  -0.000   0.000  -0.088   0.000   0.000   0.003
  0.000  -0.000   0.066   0.000   0.000  -0.000  -0.000  -0.072   0.000  -0.000   1.713  -0.186  -0.000   0.000  -0.000  -0.000
 -0.000   0.000  -0.008   0.000  -0.000   0.000   0.000   0.010  -0.000   0.000  -0.186   0.028  -0.000   0.000   0.000   0.000
  0.000  -0.000   0.000   0.027   0.081  -0.000   0.000  -0.000  -0.023  -0.088   0.000   0.000   0.270  -0.000  -0.000  -0.007
  0.000   0.000  -0.000   0.000   0.000  -0.000   0.000   0.000   0.000  -0.000   0.000   0.000  -0.000   0.262  -0.000   0.000
  0.081  -0.027   0.000   0.000  -0.000  -0.088   0.023  -0.000  -0.000   0.000   0.000  -0.000  -0.000   0.000   0.270   0.000
 -0.000  -0.000  -0.000  -0.000  -0.003   0.000  -0.000   0.000   0.000   0.003   0.000   0.000  -0.007   0.000   0.000   0.000
  0.000  -0.000  -0.000   0.000  -0.000   0.000   0.000   0.000   0.000   0.000   0.000   0.000   0.000  -0.006  -0.000   0.000
 -0.003   0.000  -0.000  -0.000   0.000   0.003  -0.000   0.000   0.000  -0.000   0.000   0.000   0.000   0.000  -0.007  -0.000
 total augmentation occupancy for first ion, spin component:           2
  2.948  -2.361   0.000   0.000   0.000  -1.502   1.464  -0.000  -0.000  -0.000   0.000  -0.000   0.000   0.000   0.023   0.000
 -2.361   1.285  -0.000  -0.000   0.000   1.465  -0.468   0.000   0.000  -0.000  -0.000   0.000  -0.000   0.000  -0.023  -0.000
  0.000  -0.000   4.542   0.000   0.000  -0.000   0.000  -2.467  -0.000  -0.000   0.008   0.001   0.000  -0.000   0.000   0.000
  0.000  -0.000   0.000   1.285   2.361  -0.000   0.000  -0.000  -0.468  -1.465  -0.000   0.000   0.023   0.000  -0.000  -0.000
  0.000   0.000   0.000   2.361   2.948  -0.000  -0.000  -0.000  -1.464  -1.502   0.000   0.000   0.023   0.000  -0.000   0.000
 -1.502   1.465  -0.000  -0.000  -0.000   0.842  -0.986   0.000   0.000   0.000  -0.000   0.000  -0.000  -0.000  -0.016  -0.000
  1.464  -0.468   0.000   0.000  -0.000  -0.986   0.145  -0.000  -0.000   0.000  -0.000  -0.000   0.000   0.000   0.014  -0.000
 -0.000   0.000  -2.467  -0.000  -0.000   0.000  -0.000   1.478   0.000   0.000  -0.004  -0.001  -0.000   0.000  -0.000  -0.000
 -0.000   0.000  -0.000  -0.468  -1.464   0.000  -0.000   0.000   0.145   0.986   0.000   0.000  -0.014   0.000  -0.000   0.000
  0.000  -0.000  -0.000  -1.465  -1.502   0.000   0.000   0.000   0.986   0.842  -0.000  -0.000  -0.016  -0.000   0.000  -0.000
  0.000   0.000   0.008  -0.000   0.000  -0.000  -0.000  -0.004   0.000  -0.000  -0.048   0.053   0.000   0.000   0.000   0.000
 -0.000   0.000   0.001   0.000   0.000   0.000  -0.000  -0.001   0.000   0.000   0.053  -0.009   0.000   0.000  -0.000   0.000
  0.000   0.000   0.000   0.023   0.023  -0.000   0.000  -0.000  -0.014  -0.016  -0.000   0.000   0.017   0.000  -0.000   0.002
 -0.000  -0.000  -0.000  -0.000   0.000  -0.000  -0.000   0.000   0.000   0.000   0.000   0.000  -0.000   0.015   0.000  -0.000
  0.023  -0.023   0.000   0.000  -0.000  -0.016   0.014  -0.000  -0.000   0.000   0.000   0.000  -0.000   0.000   0.017  -0.000
  0.000   0.000   0.000  -0.000   0.000  -0.000   0.000  -0.000   0.000  -0.000   0.000  -0.000   0.002   0.000  -0.000  -0.000
  0.000  -0.000  -0.000   0.000  -0.000  -0.000   0.000   0.000   0.000  -0.000   0.000   0.000   0.000   0.002  -0.000  -0.000
  0.000   0.000   0.000   0.000  -0.000  -0.000  -0.000  -0.000   0.000   0.000   0.000  -0.000  -0.000   0.000   0.002   0.000


------------------------ aborting loop because EDIFF is reached ----------------------------------------





 total charge

# of ion       s       p       d       tot
------------------------------------------
    1        0.345   0.504   4.056   4.905
    2        0.345   0.504   4.056   4.905
    3        1.604   3.517   0.000   5.120
    4        1.604   3.517   0.000   5.120
    5        1.604   3.517   0.000   5.120
    6        1.604   3.517   0.000   5.120
    7        1.604   3.517   0.000   5.120
    8        1.604   3.517   0.000   5.120
--------------------------------------------------
tot         10.313  22.107   8.112  40.532



 magnetization (x)

# of ion       s       p       d       tot
------------------------------------------
    1        0.032   0.040   3.093   3.165
    2        0.032   0.040   3.093   3.165
    3       -0.002  -0.073   0.000  -0.075
    4       -0.002  -0.073   0.000  -0.075
    5       -0.002  -0.073   0.000  -0.075
    6       -0.002  -0.073   0.000  -0.075
    7       -0.002  -0.073   0.000  -0.075
    8       -0.002  -0.073   0.000  -0.075
--------------------------------------------------
tot          0.054  -0.359   6.187   5.882

    CHARGE:  cpu time      0.2006: real time      0.2018
    FORLOC:  cpu time      0.0047: real time      0.0048
    FORNL :  cpu time      0.5174: real time      0.5204
    STRESS:  cpu time      0.6806: real time      0.6847
    FORCOR:  cpu time      0.1557: real time      0.1569
    FORHAR:  cpu time      0.0199: real time      0.0201
    MIXING:  cpu time      0.0067: real time      0.0068
    OFIELD:  cpu time      0.0001: real time      0.0001

 ---------------------------------------------------------------------------------------------

         DFTD3 V3.0 Rev 1        
 Edisp (eV)   -0.91337

 E6    (eV) :    -0.3531
 E8    (eV) :    -0.5602
 % E8        : 61.34
    FORVDW:  cpu time      0.0145: real time      0.0147

  FORCE on cell =-STRESS in cart. coord.  units (eV):
  Direction    XX          YY          ZZ          XY          YZ          ZX
  --------------------------------------------------------------------------------------
  Alpha Z    30.48285    30.48285    30.48285
  Ewald    6086.60776  6086.60776 -7769.99893    -0.00000    -0.00000     0.00000
  Hartree  6724.89943  6724.89943 -6346.46368    -0.00000     0.00000     0.00000
  E(xc)    -209.16857  -209.16857  -209.46478    -0.00000    -0.00000    -0.00000
  Local  -13842.27580-13842.27570 13082.01349     0.00009     0.00000     0.00000
  n-local   479.59234   479.73189   478.66999    -0.41326     0.04280     0.04745
  augment   -58.54226   -58.54235   -58.69298    -0.00007    -0.00000    -0.00000
  Kinetic   789.25268   788.76326   793.56313     0.57409    -0.31945     0.05258
  Fock        0.00000     0.00000     0.00000     0.00000     0.00000     0.00000
  vdW        -0.75496    -0.75496    -0.01836    -0.00000    -0.00000     0.00000
  -------------------------------------------------------------------------------------
  Total      -0.08147    -0.08147     0.09072     0.00000     0.00000    -0.00000
  in kB      -0.23114    -0.23114     0.25737     0.00000     0.00000    -0.00000
  external pressure =       -0.07 kB  Pullay stress =        0.00 kB


 VOLUME and BASIS-vectors are now :
 -----------------------------------------------------------------------------
  energy-cutoff  :      400.00
  volume of cell :      564.74
      direct lattice vectors                 reciprocal lattice vectors
     6.074937161  0.000000000  0.000000000     0.164610756  0.095038064 -0.000000000
    -3.037468580  5.261049907  0.000000000     0.000000000  0.190076129  0.000000000
     0.000000000  0.000000000 17.670000000     0.000000000 -0.000000000  0.056593096

  length of vectors
     6.074937161  6.074937161 17.670000000     0.190076129  0.190076129  0.056593096


 FORCES acting on ions
    electron-ion (+dipol)            ewald-force                    non-local-force                 convergence-correction
 -----------------------------------------------------------------------------------------------
   0.201E-06 -.116E-06 0.193E-12   -.509E-11 0.288E-11 -.247E-13   -.173E-18 0.779E-19 -.780E-20   -.322E-10 0.186E-10 0.161E-11
   -.201E-06 0.116E-06 -.119E-10   0.507E-11 -.287E-11 0.355E-14   0.366E-18 0.103E-19 0.558E-20   0.322E-10 -.186E-10 0.162E-11
   0.678E+02 0.109E-05 0.454E+03   -.698E+02 -.329E-11 -.457E+03   0.204E+01 0.585E-19 0.285E+01   -.143E-03 -.453E-08 -.194E-03
   -.339E+02 0.588E+02 0.454E+03   0.349E+02 -.605E+02 -.457E+03   -.102E+01 0.176E+01 0.285E+01   0.716E-04 -.124E-03 -.194E-03
   -.339E+02 -.588E+02 0.454E+03   0.349E+02 0.605E+02 -.457E+03   -.102E+01 -.176E+01 0.285E+01   0.716E-04 0.124E-03 -.194E-03
   -.678E+02 -.109E-05 -.454E+03   0.698E+02 0.332E-11 0.457E+03   -.204E+01 -.770E-19 -.285E+01   0.143E-03 0.453E-08 0.194E-03
   0.339E+02 -.588E+02 -.454E+03   -.349E+02 0.605E+02 0.457E+03   0.102E+01 -.176E+01 -.285E+01   -.716E-04 0.124E-03 0.194E-03
   0.339E+02 0.588E+02 -.454E+03   -.349E+02 -.605E+02 0.457E+03   0.102E+01 0.176E+01 -.285E+01   -.716E-04 -.124E-03 0.194E-03
 -----------------------------------------------------------------------------------------------
   -.212E-13 -.137E-11 -.661E-10   0.711E-14 0.000E+00 0.568E-13   -.444E-15 0.000E+00 -.888E-15   -.867E-14 0.134E-13 0.128E-10


 POSITION                                       TOTAL-FORCE (eV/Angst)
 -----------------------------------------------------------------------------------
      0.00000      3.50737      8.83500        -0.000000     -0.000000      0.000000
      3.03747      1.75368      8.83500        -0.000000     -0.000000      0.000000
      2.15361      0.00000      7.48003        -0.002150     -0.000000     -0.023797
     -1.07680      1.86508      7.48003         0.001075     -0.001862     -0.023797
      1.96066      3.39597      7.48003         0.001075      0.001862     -0.023797
      3.92133      0.00000     10.18997         0.002150      0.000000      0.023797
     -1.96066      3.39597     10.18997        -0.001075      0.001862      0.023797
      1.07680      1.86508     10.18997        -0.001075     -0.001862      0.023797
 -----------------------------------------------------------------------------------
    total drift:                               -0.000000     -0.000000     -0.000000


--------------------------------------------------------------------------------------------------------



  FREE ENERGIE OF THE ION-ELECTRON SYSTEM (eV)
  ---------------------------------------------------
  free  energy   TOTEN  =       -35.57088673 eV

  energy  without entropy=      -35.57088673  energy(sigma->0) =      -35.57088673
 d Force =-0.7007938E-04[-0.131E-03,-0.953E-05]  d Energy = 0.1842507E-03-0.254E-03
 d Force =-0.2596939E+01[-0.260E+01,-0.259E+01]  d Ewald  =-0.1181519E+02 0.922E+01



--------------------------------------------------------------------------------------------------------


    POTLOK:  cpu time      0.3389: real time      0.3413


--------------------------------------------------------------------------------------------------------




--------------------------------------------------------------------------------------------------------


      MLFF:  cpu time      0.0021: real time      0.0021
    WAVPRE:  cpu time      0.0105: real time      0.0106
    FEWALD:  cpu time      0.0009: real time      0.0009
    GENKIN:  cpu time      0.0097: real time      0.0098
    ORTHCH:  cpu time      0.0727: real time      0.0731
     LOOP+:  cpu time     61.9290: real time     62.7695


--------------------------------------- Ionic step        4  -------------------------------------------




--------------------------------------- Iteration      4(   1)  ---------------------------------------


    POTLOK:  cpu time      0.1443: real time      0.1458
    SETDIJ:  cpu time      0.1113: real time      0.1117
     EDDAV:  cpu time      3.6965: real time      3.7423
       DOS:  cpu time      0.0012: real time      0.0013
    CHARGE:  cpu time      0.1357: real time      0.1367
    MIXING:  cpu time      0.0043: real time      0.0044
    --------------------------------------------
      LOOP:  cpu time      4.0933: real time      4.1422

 eigenvalue-minimisations  :  2596
 total energy-change (2. order) : 0.3811142E-03  (-0.2100401E-02)
 number of electron      53.9999985 magnetization       5.9999996
 augmentation part       -0.5674182 magnetization       4.3775781

 Broyden mixing:
  rms(total) = 0.10241E-01    rms(broyden)= 0.10236E-01
  rms(prec ) = 0.10900E-01
  weight for this iteration     100.00

 Free energy of the ion-electron system (eV)
  ---------------------------------------------------
  alpha Z        PSCENC =        30.50771517
  Ewald energy   TEWEN  =      4404.84801650
  -Hartree energ DENC   =     -7105.56018493
  -exchange      EXHF   =         0.00000000
  -V(xc)+E(xc)   XCENC  =        86.52344115
  PAW double counting   =      3652.00301749    -3602.51889674
  entropy T*S    EENTRO =        -0.00000000
  eigenvalues    EBANDS =      -512.53030103
  atomic energy  EATOM  =      3012.07006103
  Solvation  Ediel_sol  =         0.00000000
  ext. energy  EPLUGINS =         0.00000000
  ---------------------------------------------------
  free energy    TOTEN  =       -34.65713136 eV

  energy without entropy =      -34.65713136  energy(sigma->0) =      -34.65713136


--------------------------------------------------------------------------------------------------------




--------------------------------------- Iteration      4(   2)  ---------------------------------------


    POTLOK:  cpu time      0.1448: real time      0.1463
    SETDIJ:  cpu time      0.1082: real time      0.1086
     EDDAV:  cpu time      4.4579: real time      4.5130
       DOS:  cpu time      0.0018: real time      0.0018
    CHARGE:  cpu time      0.2099: real time      0.2110
    MIXING:  cpu time      0.0051: real time      0.0052
    --------------------------------------------
      LOOP:  cpu time      4.9277: real time      4.9858

 eigenvalue-minimisations  :  3296
 total energy-change (2. order) : 0.2217399E-04  (-0.1954498E-03)
 number of electron      53.9999985 magnetization       5.9999996
 augmentation part       -0.5698694 magnetization       4.3768508

 Broyden mixing:
  rms(total) = 0.50003E-02    rms(broyden)= 0.49982E-02
  rms(prec ) = 0.53455E-02
  weight for this iteration     100.00

 eigenvalues of (default mixing * dielectric matrix)
  average eigenvalue GAMMA=   0.6815
  0.6815

 Free energy of the ion-electron system (eV)
  ---------------------------------------------------
  alpha Z        PSCENC =        30.50771517
  Ewald energy   TEWEN  =      4404.84801650
  -Hartree energ DENC   =     -7105.32567982
  -exchange      EXHF   =         0.00000000
  -V(xc)+E(xc)   XCENC  =        86.50273687
  PAW double counting   =      3653.44552271    -3603.95772007
  entropy T*S    EENTRO =        -0.00000000
  eigenvalues    EBANDS =      -512.74776157
  atomic energy  EATOM  =      3012.07006103
  Solvation  Ediel_sol  =         0.00000000
  ext. energy  EPLUGINS =         0.00000000
  ---------------------------------------------------
  free energy    TOTEN  =       -34.65710919 eV

  energy without entropy =      -34.65710919  energy(sigma->0) =      -34.65710919


--------------------------------------------------------------------------------------------------------




--------------------------------------- Iteration      4(   3)  ---------------------------------------


    POTLOK:  cpu time      0.1619: real time      0.1632
    SETDIJ:  cpu time      0.1644: real time      0.1650
     EDDAV:  cpu time      4.5643: real time      4.6157
       DOS:  cpu time      0.0013: real time      0.0013
    CHARGE:  cpu time      0.1358: real time      0.1368
    MIXING:  cpu time      0.0053: real time      0.0054
    --------------------------------------------
      LOOP:  cpu time      5.0330: real time      5.0874

 eigenvalue-minimisations  :  3108
 total energy-change (2. order) : 0.2803318E-04  (-0.7127773E-05)
 number of electron      53.9999985 magnetization       5.9999996
 augmentation part       -0.5675563 magnetization       4.3779142

 Broyden mixing:
  rms(total) = 0.43920E-02    rms(broyden)= 0.43920E-02
  rms(prec ) = 0.45011E-02
  weight for this iteration     100.00

 eigenvalues of (default mixing * dielectric matrix)
  average eigenvalue GAMMA=   0.6271
  0.7701  0.4841

 Free energy of the ion-electron system (eV)
  ---------------------------------------------------
  alpha Z        PSCENC =        30.50771517
  Ewald energy   TEWEN  =      4404.84801650
  -Hartree energ DENC   =     -7105.19886807
  -exchange      EXHF   =         0.00000000
  -V(xc)+E(xc)   XCENC  =        86.49948837
  PAW double counting   =      3653.13290212    -3603.64004993
  entropy T*S    EENTRO =        -0.00000000
  eigenvalues    EBANDS =      -512.87634634
  atomic energy  EATOM  =      3012.07006103
  Solvation  Ediel_sol  =         0.00000000
  ext. energy  EPLUGINS =         0.00000000
  ---------------------------------------------------
  free energy    TOTEN  =       -34.65708115 eV

  energy without entropy =      -34.65708115  energy(sigma->0) =      -34.65708115


--------------------------------------------------------------------------------------------------------




--------------------------------------- Iteration      4(   4)  ---------------------------------------


    POTLOK:  cpu time      0.1462: real time      0.1477
    SETDIJ:  cpu time      0.1068: real time      0.1072
     EDDAV:  cpu time      4.3527: real time      4.4057
       DOS:  cpu time      0.0013: real time      0.0013
    CHARGE:  cpu time      0.1352: real time      0.1362
    MIXING:  cpu time      0.0047: real time      0.0048
    --------------------------------------------
      LOOP:  cpu time      4.7470: real time      4.8029

 eigenvalue-minimisations  :  3192
 total energy-change (2. order) : 0.5502750E-05  (-0.1523998E-05)
 number of electron      53.9999985 magnetization       5.9999996
 augmentation part       -0.5682879 magnetization       4.3779144

 Broyden mixing:
  rms(total) = 0.22359E-02    rms(broyden)= 0.22358E-02
  rms(prec ) = 0.23228E-02
  weight for this iteration     100.00

 eigenvalues of (default mixing * dielectric matrix)
  average eigenvalue GAMMA=   0.8831
  1.0766  1.0766  0.4961

 Free energy of the ion-electron system (eV)
  ---------------------------------------------------
  alpha Z        PSCENC =        30.50771517
  Ewald energy   TEWEN  =      4404.84801650
  -Hartree energ DENC   =     -7105.16727143
  -exchange      EXHF   =         0.00000000
  -V(xc)+E(xc)   XCENC  =        86.49845384
  PAW double counting   =      3653.08341602    -3603.59368462
  entropy T*S    EENTRO =        -0.00000000
  eigenvalues    EBANDS =      -512.90378216
  atomic energy  EATOM  =      3012.07006103
  Solvation  Ediel_sol  =         0.00000000
  ext. energy  EPLUGINS =         0.00000000
  ---------------------------------------------------
  free energy    TOTEN  =       -34.65707565 eV

  energy without entropy =      -34.65707565  energy(sigma->0) =      -34.65707565


--------------------------------------------------------------------------------------------------------




--------------------------------------- Iteration      4(   5)  ---------------------------------------


    POTLOK:  cpu time      0.1425: real time      0.1442
    SETDIJ:  cpu time      0.1078: real time      0.1083
     EDDAV:  cpu time      4.5419: real time      4.6045
       DOS:  cpu time      0.0013: real time      0.0013
    CHARGE:  cpu time      0.1357: real time      0.1367
    MIXING:  cpu time      0.0052: real time      0.0053
    --------------------------------------------
      LOOP:  cpu time      4.9345: real time      5.0003

 eigenvalue-minimisations  :  3356
 total energy-change (2. order) : 0.2315758E-05  (-0.1363567E-05)
 number of electron      53.9999985 magnetization       5.9999996
 augmentation part       -0.5689977 magnetization       4.3778890

 Broyden mixing:
  rms(total) = 0.14150E-02    rms(broyden)= 0.14149E-02
  rms(prec ) = 0.14566E-02
  weight for this iteration     100.00

 eigenvalues of (default mixing * dielectric matrix)
  average eigenvalue GAMMA=   1.0191
  1.4399  1.4399  0.5983  0.5983

 Free energy of the ion-electron system (eV)
  ---------------------------------------------------
  alpha Z        PSCENC =        30.50771517
  Ewald energy   TEWEN  =      4404.84801650
  -Hartree energ DENC   =     -7105.12216231
  -exchange      EXHF   =         0.00000000
  -V(xc)+E(xc)   XCENC  =        86.49634762
  PAW double counting   =      3652.96092846    -3603.47414135
  entropy T*S    EENTRO =        -0.00000000
  eigenvalues    EBANDS =      -512.94383846
  atomic energy  EATOM  =      3012.07006103
  Solvation  Ediel_sol  =         0.00000000
  ext. energy  EPLUGINS =         0.00000000
  ---------------------------------------------------
  free energy    TOTEN  =       -34.65707333 eV

  energy without entropy =      -34.65707333  energy(sigma->0) =      -34.65707333


--------------------------------------------------------------------------------------------------------




--------------------------------------- Iteration      4(   6)  ---------------------------------------


    POTLOK:  cpu time      0.1447: real time      0.1462
    SETDIJ:  cpu time      0.1105: real time      0.1110
     EDDAV:  cpu time      2.8585: real time      2.8942
       DOS:  cpu time      0.0012: real time      0.0013
    --------------------------------------------
      LOOP:  cpu time      3.1151: real time      3.1527

 eigenvalue-minimisations  :  1836
 total energy-change (2. order) :-0.7361864E-06  (-0.1623084E-06)
 number of electron      53.9999985 magnetization       5.9999996
 augmentation part       -0.5689977 magnetization       4.3778890

 Free energy of the ion-electron system (eV)
  ---------------------------------------------------
  alpha Z        PSCENC =        30.50771517
  Ewald energy   TEWEN  =      4404.84801650
  -Hartree energ DENC   =     -7105.10763493
  -exchange      EXHF   =         0.00000000
  -V(xc)+E(xc)   XCENC  =        86.49565230
  PAW double counting   =      3652.66675655    -3603.18058239
  entropy T*S    EENTRO =        -0.00000000
  eigenvalues    EBANDS =      -512.95705830
  atomic energy  EATOM  =      3012.07006103
  Solvation  Ediel_sol  =         0.00000000
  ext. energy  EPLUGINS =         0.00000000
  ---------------------------------------------------
  free energy    TOTEN  =       -34.65707407 eV

  energy without entropy =      -34.65707407  energy(sigma->0) =      -34.65707407


--------------------------------------------------------------------------------------------------------




 average (electrostatic) potential at core
  the test charge radii are     1.1394  0.9406
  (the norm of the test charge is              1.0000)
       1 -53.2107       2 -53.2107       3 -98.9482       4 -98.9482       5 -98.9482
       6 -98.9482       7 -98.9482       8 -98.9482



 E-fermi :  -4.9083     XC(G=0):  -3.3366     alpha+bet : -2.6729

 val. band max:       -5.1250569175   @ k =   0.0909   0.0909   0.0000
 cond. band min:      -2.5358261832   @ k =   0.3636   0.2727   0.0000
 fundamental gap:      2.5892307343
 Fermi energy:        -4.9082833680

 spin component 1

 k-point     1 :       0.0000    0.0000    0.0000
  band No.  band energies     occupation 
      1     -19.2220      1.00000
      2     -18.4474      1.00000
      3     -18.2730      1.00000
      4     -18.2730      1.00000
      5     -18.1796      1.00000
      6     -18.1796      1.00000
      7      -9.0961      1.00000
      8      -9.0463      1.00000
      9      -8.6117      1.00000
     10      -8.6117      1.00000
     11      -8.5956      1.00000
     12      -8.5956      1.00000
     13      -7.6281      1.00000
     14      -7.6281      1.00000
     15      -7.6109      1.00000
     16      -7.4102      1.00000
     17      -7.1085      1.00000
     18      -7.0865      1.00000
     19      -7.0865      1.00000
     20      -6.6179      1.00000
     21      -6.6179      1.00000
     22      -6.1974      1.00000
     23      -6.1368      1.00000
     24      -6.1368      1.00000
     25      -5.9172      1.00000
     26      -5.7893      1.00000
     27      -5.3709      1.00000
     28      -5.3709      1.00000
     29      -5.1298      1.00000
     30      -5.1298      1.00000
     31      -2.5001      0.00000
     32      -2.5001      0.00000
     33      -2.2921      0.00000
     34      -2.2921      0.00000
     35       1.5549      0.00000
     36       2.3038      0.00000

 k-point     2 :       0.0909    0.0000    0.0000
  band No.  band energies     occupation 
      1     -19.2053      1.00000
      2     -18.4404      1.00000
      3     -18.2929      1.00000
      4     -18.2789      1.00000
      5     -18.1823      1.00000
      6     -18.1810      1.00000
      7      -9.1062      1.00000
      8      -9.0328      1.00000
      9      -8.6690      1.00000
     10      -8.6677      1.00000
     11      -8.5227      1.00000
     12      -8.5165      1.00000
     13      -7.6503      1.00000
     14      -7.6342      1.00000
     15      -7.6168      1.00000
     16      -7.3733      1.00000
     17      -7.1356      1.00000
     18      -7.0806      1.00000
     19      -7.0476      1.00000
     20      -6.6893      1.00000
     21      -6.6125      1.00000
     22      -6.1684      1.00000
     23      -6.1568      1.00000
     24      -6.1138      1.00000
     25      -5.9152      1.00000
     26      -5.7552      1.00000
     27      -5.3775      1.00000
     28      -5.3736      1.00000
     29      -5.1736      1.00000
     30      -5.1274      1.00000
     31      -2.5011      0.00000
     32      -2.4965      0.00000
     33      -2.3246      0.00000
     34      -2.2958      0.00000
     35       1.6356      0.00000
     36       2.3517      0.00000

 k-point     3 :       0.1818    0.0000    0.0000
  band No.  band energies     occupation 
      1     -19.1564      1.00000
      2     -18.4203      1.00000
      3     -18.3493      1.00000
      4     -18.2935      1.00000
      5     -18.1902      1.00000
      6     -18.1874      1.00000
      7      -9.1364      1.00000
      8      -8.9935      1.00000
      9      -8.7170      1.00000
     10      -8.6826      1.00000
     11      -8.4283      1.00000
     12      -8.4254      1.00000
     13      -7.7098      1.00000
     14      -7.6851      1.00000
     15      -7.5896      1.00000
     16      -7.3199      1.00000
     17      -7.1882      1.00000
     18      -7.0532      1.00000
     19      -6.9612      1.00000
     20      -6.8235      1.00000
     21      -6.5992      1.00000
     22      -6.2194      1.00000
     23      -6.1672      1.00000
     24      -6.0367      1.00000
     25      -5.9046      1.00000
     26      -5.6537      1.00000
     27      -5.3987      1.00000
     28      -5.3840      1.00000
     29      -5.2707      1.00000
     30      -5.1278      1.00000
     31      -2.5029      0.00000
     32      -2.4854      0.00000
     33      -2.3965      0.00000
     34      -2.3104      0.00000
     35       1.8581      0.00000
     36       2.4835      0.00000

 k-point     4 :       0.2727    0.0000    0.0000
  band No.  band energies     occupation 
      1     -19.0799      1.00000
      2     -18.4350      1.00000
      3     -18.3893      1.00000
      4     -18.3105      1.00000
      5     -18.2024      1.00000
      6     -18.2014      1.00000
      7      -9.1871      1.00000
      8      -8.9278      1.00000
      9      -8.7481      1.00000
     10      -8.6173      1.00000
     11      -8.3620      1.00000
     12      -8.3238      1.00000
     13      -7.7883      1.00000
     14      -7.7376      1.00000
     15      -7.5633      1.00000
     16      -7.3966      1.00000
     17      -7.1657      1.00000
     18      -7.0221      1.00000
     19      -7.0105      1.00000
     20      -6.7862      1.00000
     21      -6.5723      1.00000
     22      -6.3127      1.00000
     23      -6.2017      1.00000
     24      -5.9576      1.00000
     25      -5.8757      1.00000
     26      -5.5126      1.00000
     27      -5.4348      1.00000
     28      -5.4165      1.00000
     29      -5.3578      1.00000
     30      -5.1364      1.00000
     31      -2.5018      0.00000
     32      -2.4644      0.00000
     33      -2.4624      0.00000
     34      -2.3407      0.00000
     35       2.1808      0.00000
     36       2.6810      0.00000

 k-point     5 :       0.3636    0.0000    0.0000
  band No.  band energies     occupation 
      1     -18.9850      1.00000
      2     -18.5381      1.00000
      3     -18.3523      1.00000
      4     -18.3238      1.00000
      5     -18.2273      1.00000
      6     -18.2121      1.00000
      7      -9.2401      1.00000
      8      -8.8442      1.00000
      9      -8.7643      1.00000
     10      -8.4809      1.00000
     11      -8.3441      1.00000
     12      -8.2187      1.00000
     13      -7.8703      1.00000
     14      -7.7750      1.00000
     15      -7.6262      1.00000
     16      -7.4790      1.00000
     17      -7.1532      1.00000
     18      -7.1162      1.00000
     19      -7.0045      1.00000
     20      -6.6405      1.00000
     21      -6.5388      1.00000
     22      -6.3784      1.00000
     23      -6.2636      1.00000
     24      -5.8904      1.00000
     25      -5.8293      1.00000
     26      -5.4973      1.00000
     27      -5.4692      1.00000
     28      -5.4162      1.00000
     29      -5.3616      1.00000
     30      -5.1490      1.00000
     31      -2.5035      0.00000
     32      -2.4932      0.00000
     33      -2.4318      0.00000
     34      -2.3833      0.00000
     35       2.5714      0.00000
     36       2.9305      0.00000

 k-point     6 :       0.4545    0.0000    0.0000
  band No.  band energies     occupation 
      1     -18.8974      1.00000
      2     -18.6305      1.00000
      3     -18.3362      1.00000
      4     -18.3095      1.00000
      5     -18.2584      1.00000
      6     -18.2184      1.00000
      7      -9.2724      1.00000
      8      -8.7779      1.00000
      9      -8.7703      1.00000
     10      -8.3817      1.00000
     11      -8.3011      1.00000
     12      -8.1363      1.00000
     13      -7.9363      1.00000
     14      -7.7925      1.00000
     15      -7.7911      1.00000
     16      -7.4790      1.00000
     17      -7.2350      1.00000
     18      -7.0778      1.00000
     19      -7.0227      1.00000
     20      -6.5452      1.00000
     21      -6.4989      1.00000
     22      -6.3738      1.00000
     23      -6.3490      1.00000
     24      -5.8430      1.00000
     25      -5.7886      1.00000
     26      -5.5693      1.00000
     27      -5.4820      1.00000
     28      -5.4563      1.00000
     29      -5.2519      1.00000
     30      -5.1780      1.00000
     31      -2.5224      0.00000
     32      -2.4744      0.00000
     33      -2.4255      0.00000
     34      -2.4037      0.00000
     35       2.9650      0.00000
     36       3.0188      0.00000

 k-point     7 :       0.0909    0.0909    0.0000
  band No.  band energies     occupation 
      1     -19.1725      1.00000
      2     -18.4269      1.00000
      3     -18.3292      1.00000
      4     -18.2912      1.00000
      5     -18.1869      1.00000
      6     -18.1853      1.00000
      7      -9.1203      1.00000
      8      -9.0099      1.00000
      9      -8.7521      1.00000
     10      -8.6225      1.00000
     11      -8.5029      1.00000
     12      -8.4200      1.00000
     13      -7.6946      1.00000
     14      -7.6719      1.00000
     15      -7.5925      1.00000
     16      -7.3219      1.00000
     17      -7.1815      1.00000
     18      -7.0667      1.00000
     19      -6.9805      1.00000
     20      -6.7954      1.00000
     21      -6.5974      1.00000
     22      -6.2245      1.00000
     23      -6.1003      1.00000
     24      -6.0979      1.00000
     25      -5.9089      1.00000
     26      -5.6866      1.00000
     27      -5.3893      1.00000
     28      -5.3813      1.00000
     29      -5.2451      1.00000
     30      -5.1251      1.00000
     31      -2.5040      0.00000
     32      -2.4881      0.00000
     33      -2.3785      0.00000
     34      -2.3020      0.00000
     35       1.7866      0.00000
     36       2.4410      0.00000

 k-point     8 :       0.1818    0.0909    0.0000
  band No.  band energies     occupation 
      1     -19.1096      1.00000
      2     -18.4014      1.00000
      3     -18.3973      1.00000
      4     -18.3110      1.00000
      5     -18.1961      1.00000
      6     -18.1955      1.00000
      7      -9.1429      1.00000
      8      -8.9727      1.00000
      9      -8.7920      1.00000
     10      -8.5781      1.00000
     11      -8.4376      1.00000
     12      -8.3301      1.00000
     13      -7.7700      1.00000
     14      -7.7206      1.00000
     15      -7.5554      1.00000
     16      -7.3206      1.00000
     17      -7.2192      1.00000
     18      -7.0480      1.00000
     19      -6.9325      1.00000
     20      -6.8599      1.00000
     21      -6.5656      1.00000
     22      -6.3140      1.00000
     23      -6.1218      1.00000
     24      -6.0217      1.00000
     25      -5.8886      1.00000
     26      -5.5640      1.00000
     27      -5.4309      1.00000
     28      -5.3855      1.00000
     29      -5.3360      1.00000
     30      -5.1292      1.00000
     31      -2.5083      0.00000
     32      -2.4711      0.00000
     33      -2.4459      0.00000
     34      -2.3184      0.00000
     35       2.0556      0.00000
     36       2.6035      0.00000

 k-point     9 :       0.2727    0.0909    0.0000
  band No.  band energies     occupation 
      1     -19.0230      1.00000
      2     -18.4904      1.00000
      3     -18.3675      1.00000
      4     -18.3294      1.00000
      5     -18.2144      1.00000
      6     -18.2071      1.00000
      7      -9.1849      1.00000
      8      -8.9105      1.00000
      9      -8.7834      1.00000
     10      -8.5074      1.00000
     11      -8.3714      1.00000
     12      -8.2553      1.00000
     13      -7.8547      1.00000
     14      -7.7600      1.00000
     15      -7.5438      1.00000
     16      -7.4323      1.00000
     17      -7.1982      1.00000
     18      -7.1197      1.00000
     19      -6.9498      1.00000
     20      -6.7443      1.00000
     21      -6.5135      1.00000
     22      -6.4050      1.00000
     23      -6.1720      1.00000
     24      -5.9501      1.00000
     25      -5.8487      1.00000
     26      -5.5018      1.00000
     27      -5.4277      1.00000
     28      -5.4128      1.00000
     29      -5.3860      1.00000
     30      -5.1399      1.00000
     31      -2.5089      0.00000
     32      -2.4899      0.00000
     33      -2.4472      0.00000
     34      -2.3464      0.00000
     35       2.4045      0.00000
     36       2.8239      0.00000

 k-point    10 :       0.3636    0.0909    0.0000
  band No.  band energies     occupation 
      1     -18.9266      1.00000
      2     -18.5919      1.00000
      3     -18.3472      1.00000
      4     -18.3241      1.00000
      5     -18.2422      1.00000
      6     -18.2157      1.00000
      7      -9.2259      1.00000
      8      -8.8331      1.00000
      9      -8.7697      1.00000
     10      -8.3986      1.00000
     11      -8.3535      1.00000
     12      -8.1752      1.00000
     13      -7.9307      1.00000
     14      -7.7805      1.00000
     15      -7.6799      1.00000
     16      -7.4527      1.00000
     17      -7.2503      1.00000
     18      -7.1166      1.00000
     19      -6.9711      1.00000
     20      -6.6419      1.00000
     21      -6.5099      1.00000
     22      -6.3907      1.00000
     23      -6.2379      1.00000
     24      -5.8894      1.00000
     25      -5.8028      1.00000
     26      -5.5744      1.00000
     27      -5.4675      1.00000
     28      -5.4186      1.00000
     29      -5.2917      1.00000
     30      -5.1572      1.00000
     31      -2.5197      0.00000
     32      -2.4881      0.00000
     33      -2.4359      0.00000
     34      -2.3670      0.00000
     35       2.8104      0.00000
     36       3.0276      0.00000

 k-point    11 :       0.4545    0.0909    0.0000
  band No.  band energies     occupation 
      1     -18.8696      1.00000
      2     -18.6510      1.00000
      3     -18.3505      1.00000
      4     -18.2972      1.00000
      5     -18.2666      1.00000
      6     -18.2189      1.00000
      7      -9.2420      1.00000
      8      -8.7922      1.00000
      9      -8.7678      1.00000
     10      -8.3813      1.00000
     11      -8.3029      1.00000
     12      -8.1296      1.00000
     13      -7.9682      1.00000
     14      -7.7855      1.00000
     15      -7.7835      1.00000
     16      -7.4455      1.00000
     17      -7.2852      1.00000
     18      -7.0970      1.00000
     19      -6.9867      1.00000
     20      -6.6124      1.00000
     21      -6.5122      1.00000
     22      -6.3145      1.00000
     23      -6.3137      1.00000
     24      -5.8594      1.00000
     25      -5.7825      1.00000
     26      -5.6166      1.00000
     27      -5.4741      1.00000
     28      -5.4392      1.00000
     29      -5.2185      1.00000
     30      -5.1887      1.00000
     31      -2.5267      0.00000
     32      -2.4657      0.00000
     33      -2.4558      0.00000
     34      -2.3653      0.00000
     35       2.9627      0.00000
     36       3.2168      0.00000

 k-point    12 :       0.1818    0.1818    0.0000
  band No.  band energies     occupation 
      1     -19.0362      1.00000
      2     -18.4681      1.00000
      3     -18.3731      1.00000
      4     -18.3382      1.00000
      5     -18.2086      1.00000
      6     -18.2052      1.00000
      7      -9.1169      1.00000
      8      -8.9865      1.00000
      9      -8.8023      1.00000
     10      -8.4617      1.00000
     11      -8.4305      1.00000
     12      -8.2608      1.00000
     13      -7.8579      1.00000
     14      -7.7529      1.00000
     15      -7.5031      1.00000
     16      -7.3446      1.00000
     17      -7.2957      1.00000
     18      -7.1246      1.00000
     19      -6.8893      1.00000
     20      -6.8167      1.00000
     21      -6.4883      1.00000
     22      -6.4312      1.00000
     23      -6.0640      1.00000
     24      -6.0427      1.00000
     25      -5.8560      1.00000
     26      -5.5089      1.00000
     27      -5.4311      1.00000
     28      -5.4069      1.00000
     29      -5.3735      1.00000
     30      -5.1345      1.00000
     31      -2.5186      0.00000
     32      -2.4867      0.00000
     33      -2.4505      0.00000
     34      -2.3250      0.00000
     35       2.3438      0.00000
     36       2.7859      0.00000

 k-point    13 :       0.2727    0.1818    0.0000
  band No.  band energies     occupation 
      1     -18.9442      1.00000
      2     -18.5580      1.00000
      3     -18.3665      1.00000
      4     -18.3339      1.00000
      5     -18.2281      1.00000
      6     -18.2155      1.00000
      7      -9.1174      1.00000
      8      -8.9529      1.00000
      9      -8.7718      1.00000
     10      -8.4120      1.00000
     11      -8.3843      1.00000
     12      -8.2058      1.00000
     13      -7.9420      1.00000
     14      -7.7666      1.00000
     15      -7.5306      1.00000
     16      -7.4299      1.00000
     17      -7.3059      1.00000
     18      -7.1718      1.00000
     19      -6.8848      1.00000
     20      -6.7500      1.00000
     21      -6.5313      1.00000
     22      -6.3801      1.00000
     23      -6.1101      1.00000
     24      -5.9846      1.00000
     25      -5.8133      1.00000
     26      -5.5893      1.00000
     27      -5.4517      1.00000
     28      -5.3803      1.00000
     29      -5.3148      1.00000
     30      -5.1436      1.00000
     31      -2.5241      0.00000
     32      -2.4987      0.00000
     33      -2.4394      0.00000
     34      -2.3272      0.00000
     35       2.6923      0.00000
     36       3.0083      0.00000

 k-point    14 :       0.3636    0.1818    0.0000
  band No.  band energies     occupation 
      1     -18.8556      1.00000
      2     -18.6461      1.00000
      3     -18.3792      1.00000
      4     -18.2990      1.00000
      5     -18.2548      1.00000
      6     -18.2217      1.00000
      7      -9.1414      1.00000
      8      -8.8653      1.00000
      9      -8.7707      1.00000
     10      -8.3831      1.00000
     11      -8.3727      1.00000
     12      -8.1455      1.00000
     13      -7.9998      1.00000
     14      -7.7647      1.00000
     15      -7.6750      1.00000
     16      -7.3911      1.00000
     17      -7.3332      1.00000
     18      -7.1659      1.00000
     19      -6.9148      1.00000
     20      -6.7027      1.00000
     21      -6.5826      1.00000
     22      -6.2713      1.00000
     23      -6.1786      1.00000
     24      -5.9324      1.00000
     25      -5.7888      1.00000
     26      -5.6583      1.00000
     27      -5.4588      1.00000
     28      -5.4055      1.00000
     29      -5.2249      1.00000
     30      -5.1624      1.00000
     31      -2.5303      0.00000
     32      -2.4814      0.00000
     33      -2.4529      0.00000
     34      -2.3188      0.00000
     35       3.0140      0.00000
     36       3.0655      0.00000

 k-point    15 :       0.2727    0.2727    0.0000
  band No.  band energies     occupation 
      1     -18.8528      1.00000
      2     -18.6377      1.00000
      3     -18.3946      1.00000
      4     -18.3019      1.00000
      5     -18.2434      1.00000
      6     -18.2271      1.00000
      7      -8.9992      1.00000
      8      -8.9974      1.00000
      9      -8.7720      1.00000
     10      -8.4093      1.00000
     11      -8.3808      1.00000
     12      -8.1540      1.00000
     13      -8.0131      1.00000
     14      -7.7539      1.00000
     15      -7.6019      1.00000
     16      -7.3965      1.00000
     17      -7.3175      1.00000
     18      -7.2214      1.00000
     19      -6.8713      1.00000
     20      -6.7476      1.00000
     21      -6.6154      1.00000
     22      -6.2542      1.00000
     23      -6.0718      1.00000
     24      -6.0222      1.00000
     25      -5.7936      1.00000
     26      -5.6710      1.00000
     27      -5.4520      1.00000
     28      -5.3906      1.00000
     29      -5.2296      1.00000
     30      -5.1493      1.00000
     31      -2.5323      0.00000
     32      -2.4894      0.00000
     33      -2.4483      0.00000
     34      -2.2976      0.00000
     35       2.9933      0.00000
     36       3.0803      0.00000

 k-point    16 :       0.3636    0.2727    0.0000
  band No.  band energies     occupation 
      1     -18.7852      1.00000
      2     -18.7007      1.00000
      3     -18.4056      1.00000
      4     -18.2769      1.00000
      5     -18.2610      1.00000
      6     -18.2323      1.00000
      7      -9.0148      1.00000
      8      -8.8947      1.00000
      9      -8.8240      1.00000
     10      -8.4065      1.00000
     11      -8.3972      1.00000
     12      -8.1117      1.00000
     13      -8.0537      1.00000
     14      -7.7438      1.00000
     15      -7.6530      1.00000
     16      -7.3414      1.00000
     17      -7.3306      1.00000
     18      -7.2469      1.00000
     19      -6.8888      1.00000
     20      -6.7213      1.00000
     21      -6.6581      1.00000
     22      -6.1655      1.00000
     23      -6.1165      1.00000
     24      -6.0100      1.00000
     25      -5.8033      1.00000
     26      -5.6947      1.00000
     27      -5.4366      1.00000
     28      -5.4100      1.00000
     29      -5.1840      1.00000
     30      -5.1631      1.00000
     31      -2.5358      0.00000
     32      -2.4737      0.00000
     33      -2.4627      0.00000
     34      -2.2830      0.00000
     35       3.0402      0.00000
     36       3.1024      0.00000
 Fermi energy:        -4.9082833680

 spin component 2

 k-point     1 :       0.0000    0.0000    0.0000
  band No.  band energies     occupation 
      1     -19.2590      1.00000
      2     -18.5292      1.00000
      3     -18.3471      1.00000
      4     -18.3471      1.00000
      5     -18.2434      1.00000
      6     -18.2434      1.00000
      7      -8.7179      1.00000
      8      -8.2714      1.00000
      9      -7.8664      1.00000
     10      -7.8664      1.00000
     11      -7.6739      1.00000
     12      -7.6739      1.00000
     13      -7.6078      1.00000
     14      -6.9683      1.00000
     15      -6.9683      1.00000
     16      -6.7546      1.00000
     17      -6.4835      1.00000
     18      -6.4835      1.00000
     19      -6.2200      1.00000
     20      -5.8236      1.00000
     21      -5.4954      1.00000
     22      -5.4954      1.00000
     23      -5.3163      1.00000
     24      -5.3163      1.00000
     25      -0.7477      0.00000
     26      -0.7477      0.00000
     27      -0.5430      0.00000
     28      -0.5430      0.00000
     29      -0.5366      0.00000
     30      -0.4873      0.00000
     31      -0.2406      0.00000
     32      -0.2406      0.00000
     33      -0.1902      0.00000
     34      -0.1902      0.00000
     35       1.7113      0.00000
     36       2.3291      0.00000

 k-point     2 :       0.0909    0.0000    0.0000
  band No.  band energies     occupation 
      1     -19.2428      1.00000
      2     -18.5218      1.00000
      3     -18.3664      1.00000
      4     -18.3535      1.00000
      5     -18.2456      1.00000
      6     -18.2448      1.00000
      7      -8.7243      1.00000
      8      -8.2676      1.00000
      9      -7.8756      1.00000
     10      -7.8094      1.00000
     11      -7.7844      1.00000
     12      -7.6927      1.00000
     13      -7.4683      1.00000
     14      -7.0032      1.00000
     15      -6.9750      1.00000
     16      -6.6845      1.00000
     17      -6.4903      1.00000
     18      -6.4639      1.00000
     19      -6.2040      1.00000
     20      -5.8156      1.00000
     21      -5.5147      1.00000
     22      -5.4973      1.00000
     23      -5.4051      1.00000
     24      -5.3332      1.00000
     25      -0.7608      0.00000
     26      -0.7427      0.00000
     27      -0.5590      0.00000
     28      -0.5518      0.00000
     29      -0.5476      0.00000
     30      -0.4497      0.00000
     31      -0.2646      0.00000
     32      -0.2499      0.00000
     33      -0.1901      0.00000
     34      -0.1772      0.00000
     35       1.7849      0.00000
     36       2.3787      0.00000

 k-point     3 :       0.1818    0.0000    0.0000
  band No.  band energies     occupation 
      1     -19.1956      1.00000
      2     -18.5003      1.00000
      3     -18.4212      1.00000
      4     -18.3695      1.00000
      5     -18.2523      1.00000
      6     -18.2515      1.00000
      7      -8.7309      1.00000
      8      -8.2590      1.00000
      9      -7.9131      1.00000
     10      -7.8658      1.00000
     11      -7.7159      1.00000
     12      -7.6630      1.00000
     13      -7.2875      1.00000
     14      -7.0961      1.00000
     15      -6.9946      1.00000
     16      -6.5562      1.00000
     17      -6.4647      1.00000
     18      -6.4179      1.00000
     19      -6.1643      1.00000
     20      -5.8044      1.00000
     21      -5.6922      1.00000
     22      -5.5167      1.00000
     23      -5.5020      1.00000
     24      -5.3680      1.00000
     25      -0.7903      0.00000
     26      -0.7241      0.00000
     27      -0.6255      0.00000
     28      -0.5754      0.00000
     29      -0.5628      0.00000
     30      -0.3590      0.00000
     31      -0.3209      0.00000
     32      -0.2757      0.00000
     33      -0.1904      0.00000
     34      -0.1408      0.00000
     35       1.9912      0.00000
     36       2.5166      0.00000

 k-point     4 :       0.2727    0.0000    0.0000
  band No.  band energies     occupation 
      1     -19.1216      1.00000
      2     -18.5040      1.00000
      3     -18.4674      1.00000
      4     -18.3881      1.00000
      5     -18.2673      1.00000
      6     -18.2621      1.00000
      7      -8.7262      1.00000
      8      -8.2439      1.00000
      9      -7.9831      1.00000
     10      -7.8646      1.00000
     11      -7.6828      1.00000
     12      -7.4969      1.00000
     13      -7.2526      1.00000
     14      -7.0790      1.00000
     15      -7.0203      1.00000
     16      -6.5755      1.00000
     17      -6.3753      1.00000
     18      -6.2661      1.00000
     19      -6.1088      1.00000
     20      -6.0329      1.00000
     21      -5.8441      1.00000
     22      -5.5620      1.00000
     23      -5.4863      1.00000
     24      -5.3888      1.00000
     25      -0.8341      0.00000
     26      -0.7126      0.00000
     27      -0.6895      0.00000
     28      -0.6023      0.00000
     29      -0.5810      0.00000
     30      -0.3834      0.00000
     31      -0.3201      0.00000
     32      -0.2478      0.00000
     33      -0.1918      0.00000
     34      -0.0962      0.00000
     35       2.2967      0.00000
     36       2.7243      0.00000

 k-point     5 :       0.3636    0.0000    0.0000
  band No.  band energies     occupation 
      1     -19.0297      1.00000
      2     -18.6037      1.00000
      3     -18.4273      1.00000
      4     -18.4034      1.00000
      5     -18.2934      1.00000
      6     -18.2716      1.00000
      7      -8.7191      1.00000
      8      -8.2118      1.00000
      9      -8.0345      1.00000
     10      -7.8157      1.00000
     11      -7.5961      1.00000
     12      -7.4059      1.00000
     13      -7.3636      1.00000
     14      -7.0268      1.00000
     15      -6.9033      1.00000
     16      -6.6347      1.00000
     17      -6.3865      1.00000
     18      -6.3571      1.00000
     19      -6.0586      1.00000
     20      -6.0523      1.00000
     21      -5.9360      1.00000
     22      -5.6042      1.00000
     23      -5.4724      1.00000
     24      -5.3637      1.00000
     25      -0.9060      0.00000
     26      -0.7686      0.00000
     27      -0.6612      0.00000
     28      -0.6074      0.00000
     29      -0.5941      0.00000
     30      -0.4352      0.00000
     31      -0.3581      0.00000
     32      -0.1934      0.00000
     33      -0.1594      0.00000
     34      -0.0630      0.00000
     35       2.6707      0.00000
     36       2.9877      0.00000

 k-point     6 :       0.4545    0.0000    0.0000
  band No.  band energies     occupation 
      1     -18.9442      1.00000
      2     -18.6937      1.00000
      3     -18.4134      1.00000
      4     -18.3864      1.00000
      5     -18.3253      1.00000
      6     -18.2773      1.00000
      7      -8.7170      1.00000
      8      -8.1775      1.00000
      9      -8.0610      1.00000
     10      -7.7286      1.00000
     11      -7.5533      1.00000
     12      -7.5074      1.00000
     13      -7.2963      1.00000
     14      -6.9692      1.00000
     15      -6.7953      1.00000
     16      -6.7726      1.00000
     17      -6.5572      1.00000
     18      -6.3578      1.00000
     19      -6.1010      1.00000
     20      -5.9450      1.00000
     21      -5.9180      1.00000
     22      -5.6398      1.00000
     23      -5.4848      1.00000
     24      -5.3209      1.00000
     25      -0.9663      0.00000
     26      -0.7894      0.00000
     27      -0.6614      0.00000
     28      -0.5991      0.00000
     29      -0.5859      0.00000
     30      -0.4650      0.00000
     31      -0.3837      0.00000
     32      -0.1936      0.00000
     33      -0.1036      0.00000
     34      -0.0511      0.00000
     35       3.0978      0.00000
     36       3.2862      0.00000

 k-point     7 :       0.0909    0.0909    0.0000
  band No.  band energies     occupation 
      1     -19.2111      1.00000
      2     -18.5073      1.00000
      3     -18.4016      1.00000
      4     -18.3667      1.00000
      5     -18.2494      1.00000
      6     -18.2493      1.00000
      7      -8.7289      1.00000
      8      -8.2624      1.00000
      9      -7.8907      1.00000
     10      -7.8644      1.00000
     11      -7.7126      1.00000
     12      -7.7058      1.00000
     13      -7.3338      1.00000
     14      -7.0711      1.00000
     15      -6.9841      1.00000
     16      -6.5800      1.00000
     17      -6.4916      1.00000
     18      -6.4270      1.00000
     19      -6.1778      1.00000
     20      -5.8145      1.00000
     21      -5.5862      1.00000
     22      -5.5412      1.00000
     23      -5.4757      1.00000
     24      -5.3651      1.00000
     25      -0.7758      0.00000
     26      -0.7394      0.00000
     27      -0.6015      0.00000
     28      -0.5717      0.00000
     29      -0.5525      0.00000
     30      -0.3894      0.00000
     31      -0.3019      0.00000
     32      -0.2691      0.00000
     33      -0.1865      0.00000
     34      -0.1543      0.00000
     35       1.9244      0.00000
     36       2.4720      0.00000

 k-point     8 :       0.1818    0.0909    0.0000
  band No.  band energies     occupation 
      1     -19.1504      1.00000
      2     -18.4801      1.00000
      3     -18.4673      1.00000
      4     -18.3879      1.00000
      5     -18.2603      1.00000
      6     -18.2573      1.00000
      7      -8.7209      1.00000
      8      -8.2561      1.00000
      9      -7.9439      1.00000
     10      -7.8946      1.00000
     11      -7.7056      1.00000
     12      -7.5520      1.00000
     13      -7.2022      1.00000
     14      -7.1519      1.00000
     15      -6.9925      1.00000
     16      -6.5722      1.00000
     17      -6.3747      1.00000
     18      -6.3456      1.00000
     19      -6.1406      1.00000
     20      -5.9672      1.00000
     21      -5.7148      1.00000
     22      -5.5713      1.00000
     23      -5.4910      1.00000
     24      -5.4025      1.00000
     25      -0.8039      0.00000
     26      -0.7275      0.00000
     27      -0.6777      0.00000
     28      -0.5978      0.00000
     29      -0.5658      0.00000
     30      -0.3539      0.00000
     31      -0.3209      0.00000
     32      -0.2830      0.00000
     33      -0.1778      0.00000
     34      -0.1150      0.00000
     35       2.1778      0.00000
     36       2.6431      0.00000

 k-point     9 :       0.2727    0.0909    0.0000
  band No.  band energies     occupation 
      1     -19.0666      1.00000
      2     -18.5570      1.00000
      3     -18.4437      1.00000
      4     -18.4080      1.00000
      5     -18.2802      1.00000
      6     -18.2673      1.00000
      7      -8.7010      1.00000
      8      -8.2395      1.00000
      9      -8.0004      1.00000
     10      -7.8698      1.00000
     11      -7.6414      1.00000
     12      -7.4119      1.00000
     13      -7.3494      1.00000
     14      -7.0527      1.00000
     15      -6.9178      1.00000
     16      -6.6238      1.00000
     17      -6.3429      1.00000
     18      -6.3140      1.00000
     19      -6.1380      1.00000
     20      -6.0592      1.00000
     21      -5.8221      1.00000
     22      -5.5882      1.00000
     23      -5.4789      1.00000
     24      -5.4075      1.00000
     25      -0.8579      0.00000
     26      -0.7652      0.00000
     27      -0.6840      0.00000
     28      -0.6194      0.00000
     29      -0.5813      0.00000
     30      -0.4072      0.00000
     31      -0.3506      0.00000
     32      -0.2150      0.00000
     33      -0.1562      0.00000
     34      -0.0753      0.00000
     35       2.5117      0.00000
     36       2.8766      0.00000

 k-point    10 :       0.3636    0.0909    0.0000
  band No.  band energies     occupation 
      1     -18.9730      1.00000
      2     -18.6553      1.00000
      3     -18.4235      1.00000
      4     -18.4015      1.00000
      5     -18.3091      1.00000
      6     -18.2753      1.00000
      7      -8.6860      1.00000
      8      -8.2056      1.00000
      9      -8.0362      1.00000
     10      -7.8005      1.00000
     11      -7.5383      1.00000
     12      -7.5108      1.00000
     13      -7.3280      1.00000
     14      -7.0243      1.00000
     15      -6.7881      1.00000
     16      -6.7138      1.00000
     17      -6.5488      1.00000
     18      -6.3313      1.00000
     19      -6.0400      1.00000
     20      -5.9872      1.00000
     21      -5.9039      1.00000
     22      -5.6244      1.00000
     23      -5.4783      1.00000
     24      -5.3631      1.00000
     25      -0.9309      0.00000
     26      -0.8007      0.00000
     27      -0.6569      0.00000
     28      -0.6232      0.00000
     29      -0.5883      0.00000
     30      -0.4542      0.00000
     31      -0.3780      0.00000
     32      -0.1888      0.00000
     33      -0.1073      0.00000
     34      -0.0516      0.00000
     35       2.9030      0.00000
     36       3.1575      0.00000

 k-point    11 :       0.4545    0.0909    0.0000
  band No.  band energies     occupation 
      1     -18.9170      1.00000
      2     -18.7131      1.00000
      3     -18.4282      1.00000
      4     -18.3739      1.00000
      5     -18.3328      1.00000
      6     -18.2783      1.00000
      7      -8.6818      1.00000
      8      -8.1851      1.00000
      9      -8.0485      1.00000
     10      -7.7216      1.00000
     11      -7.6236      1.00000
     12      -7.4786      1.00000
     13      -7.2962      1.00000
     14      -6.9676      1.00000
     15      -6.9190      1.00000
     16      -6.6632      1.00000
     17      -6.5965      1.00000
     18      -6.3345      1.00000
     19      -6.0571      1.00000
     20      -5.9886      1.00000
     21      -5.8528      1.00000
     22      -5.6497      1.00000
     23      -5.4843      1.00000
     24      -5.3373      1.00000
     25      -0.9638      0.00000
     26      -0.8110      0.00000
     27      -0.6538      0.00000
     28      -0.6097      0.00000
     29      -0.5926      0.00000
     30      -0.4752      0.00000
     31      -0.3877      0.00000
     32      -0.1832      0.00000
     33      -0.0814      0.00000
     34      -0.0470      0.00000
     35       3.3081      0.00000
     36       3.3379      0.00000

 k-point    12 :       0.1818    0.1818    0.0000
  band No.  band energies     occupation 
      1     -19.0794      1.00000
      2     -18.5347      1.00000
      3     -18.4495      1.00000
      4     -18.4168      1.00000
      5     -18.2746      1.00000
      6     -18.2654      1.00000
      7      -8.6815      1.00000
      8      -8.2588      1.00000
      9      -7.9589      1.00000
     10      -7.9229      1.00000
     11      -7.6627      1.00000
     12      -7.4296      1.00000
     13      -7.3322      1.00000
     14      -7.0675      1.00000
     15      -6.8986      1.00000
     16      -6.6334      1.00000
     17      -6.3211      1.00000
     18      -6.3166      1.00000
     19      -6.1755      1.00000
     20      -6.0684      1.00000
     21      -5.6618      1.00000
     22      -5.6409      1.00000
     23      -5.4916      1.00000
     24      -5.4405      1.00000
     25      -0.8220      0.00000
     26      -0.7707      0.00000
     27      -0.7152      0.00000
     28      -0.6160      0.00000
     29      -0.5789      0.00000
     30      -0.3760      0.00000
     31      -0.3650      0.00000
     32      -0.2285      0.00000
     33      -0.1413      0.00000
     34      -0.0831      0.00000
     35       2.4545      0.00000
     36       2.8377      0.00000

 k-point    13 :       0.2727    0.1818    0.0000
  band No.  band energies     occupation 
      1     -18.9904      1.00000
      2     -18.6209      1.00000
      3     -18.4435      1.00000
      4     -18.4108      1.00000
      5     -18.2956      1.00000
      6     -18.2751      1.00000
      7      -8.6258      1.00000
      8      -8.2530      1.00000
      9      -7.9821      1.00000
     10      -7.8937      1.00000
     11      -7.5723      1.00000
     12      -7.4966      1.00000
     13      -7.3553      1.00000
     14      -7.0369      1.00000
     15      -6.7709      1.00000
     16      -6.7024      1.00000
     17      -6.5602      1.00000
     18      -6.2813      1.00000
     19      -6.1060      1.00000
     20      -5.9499      1.00000
     21      -5.7820      1.00000
     22      -5.6239      1.00000
     23      -5.4773      1.00000
     24      -5.4383      1.00000
     25      -0.8731      0.00000
     26      -0.8277      0.00000
     27      -0.6977      0.00000
     28      -0.6244      0.00000
     29      -0.5925      0.00000
     30      -0.4295      0.00000
     31      -0.3836      0.00000
     32      -0.1859      0.00000
     33      -0.0943      0.00000
     34      -0.0532      0.00000
     35       2.7929      0.00000
     36       3.0863      0.00000

 k-point    14 :       0.3636    0.1818    0.0000
  band No.  band energies     occupation 
      1     -18.9043      1.00000
      2     -18.7061      1.00000
      3     -18.4573      1.00000
      4     -18.3742      1.00000
      5     -18.3227      1.00000
      6     -18.2814      1.00000
      7      -8.5893      1.00000
      8      -8.2329      1.00000
      9      -7.9999      1.00000
     10      -7.8104      1.00000
     11      -7.6577      1.00000
     12      -7.4635      1.00000
     13      -7.3275      1.00000
     14      -7.0195      1.00000
     15      -6.9724      1.00000
     16      -6.6340      1.00000
     17      -6.5514      1.00000
     18      -6.2766      1.00000
     19      -6.0650      1.00000
     20      -5.9206      1.00000
     21      -5.8166      1.00000
     22      -5.6499      1.00000
     23      -5.4765      1.00000
     24      -5.4021      1.00000
     25      -0.9271      0.00000
     26      -0.8491      0.00000
     27      -0.6765      0.00000
     28      -0.6310      0.00000
     29      -0.5826      0.00000
     30      -0.4835      0.00000
     31      -0.3876      0.00000
     32      -0.1652      0.00000
     33      -0.0589      0.00000
     34      -0.0379      0.00000
     35       3.1559      0.00000
     36       3.3765      0.00000

 k-point    15 :       0.2727    0.2727    0.0000
  band No.  band energies     occupation 
      1     -18.9021      1.00000
      2     -18.6963      1.00000
      3     -18.4732      1.00000
      4     -18.3764      1.00000
      5     -18.3136      1.00000
      6     -18.2853      1.00000
      7      -8.5188      1.00000
      8      -8.2817      1.00000
      9      -7.9306      1.00000
     10      -7.9077      1.00000
     11      -7.6640      1.00000
     12      -7.4684      1.00000
     13      -7.3423      1.00000
     14      -7.0116      1.00000
     15      -7.0083      1.00000
     16      -6.6488      1.00000
     17      -6.5120      1.00000
     18      -6.2281      1.00000
     19      -6.1208      1.00000
     20      -5.8367      1.00000
     21      -5.7999      1.00000
     22      -5.6539      1.00000
     23      -5.4626      1.00000
     24      -5.4607      1.00000
     25      -0.8830      0.00000
     26      -0.8822      0.00000
     27      -0.7182      0.00000
     28      -0.6108      0.00000
     29      -0.5905      0.00000
     30      -0.4815      0.00000
     31      -0.3883      0.00000
     32      -0.1579      0.00000
     33      -0.0491      0.00000
     34      -0.0332      0.00000
     35       3.0935      0.00000
     36       3.3475      0.00000

 k-point    16 :       0.3636    0.2727    0.0000
  band No.  band energies     occupation 
      1     -18.8367      1.00000
      2     -18.7567      1.00000
      3     -18.4847      1.00000
      4     -18.3511      1.00000
      5     -18.3316      1.00000
      6     -18.2901      1.00000
      7      -8.4542      1.00000
      8      -8.3059      1.00000
      9      -7.9272      1.00000
     10      -7.8302      1.00000
     11      -7.7990      1.00000
     12      -7.3813      1.00000
     13      -7.3425      1.00000
     14      -7.1634      1.00000
     15      -6.9944      1.00000
     16      -6.6713      1.00000
     17      -6.4204      1.00000
     18      -6.2109      1.00000
     19      -6.1285      1.00000
     20      -5.8357      1.00000
     21      -5.7860      1.00000
     22      -5.6615      1.00000
     23      -5.4707      1.00000
     24      -5.4519      1.00000
     25      -0.9053      0.00000
     26      -0.8860      0.00000
     27      -0.7292      0.00000
     28      -0.6044      0.00000
     29      -0.5653      0.00000
     30      -0.5236      0.00000
     31      -0.3875      0.00000
     32      -0.1468      0.00000
     33      -0.0314      0.00000
     34      -0.0261      0.00000
     35       3.2900      0.00000
     36       3.3427      0.00000


--------------------------------------------------------------------------------------------------------


 soft charge-density along one line, spin component           1
         0         1         2         3         4         5         6         7         8         9
 total charge-density along one line

 soft charge-density along one line, spin component           2
         0         1         2         3         4         5         6         7         8         9
 total charge-density along one line

 pseudopotential strength for first ion, spin component:           1
-10.905   1.183  -0.000   0.000  -0.000 -11.247   1.205  -0.000
  1.183 -10.071   0.000   0.000  -0.000   1.205 -10.398   0.000
 -0.000   0.000 -11.741   0.000   0.000  -0.000   0.000 -12.098
  0.000   0.000   0.000 -10.071  -1.183   0.000   0.000   0.000
 -0.000  -0.000   0.000  -1.183 -10.905  -0.000  -0.000   0.000
-11.247   1.205  -0.000   0.000  -0.000 -11.563   1.237  -0.000
  1.205 -10.398   0.000   0.000  -0.000   1.237 -10.691   0.000
 -0.000   0.000 -12.098   0.000   0.000  -0.000   0.000 -12.436
  0.000   0.000   0.000 -10.398  -1.205   0.000   0.000   0.000
 -0.000  -0.000   0.000  -1.205 -11.247  -0.000  -0.000   0.000
 -0.000  -0.000   0.000  -0.000   0.000  -0.000  -0.000   0.000
 -0.000  -0.000   0.000  -0.000   0.000  -0.000  -0.000   0.000
 -0.000  -0.000  -0.000   0.000  -0.001  -0.000  -0.000  -0.000
  0.000  -0.000   0.000   0.000   0.000   0.000  -0.000   0.000
 -0.001   0.000   0.000   0.000  -0.000  -0.001   0.000   0.000
 -0.000  -0.000  -0.000   0.000  -0.002  -0.000  -0.000  -0.000
  0.000   0.000   0.000  -0.000   0.000   0.000   0.000   0.000
 -0.002   0.000   0.000   0.000  -0.000  -0.002   0.000   0.000
 pseudopotential strength for first ion, spin component:           2
 -6.766  -0.522   0.000   0.000   0.000  -7.101  -0.520   0.000
 -0.522  -7.127   0.000   0.000  -0.000  -0.520  -7.461   0.000
  0.000   0.000  -6.383   0.000  -0.000   0.000   0.000  -6.719
  0.000   0.000   0.000  -7.127   0.522   0.000   0.000   0.000
  0.000  -0.000  -0.000   0.522  -6.766   0.000  -0.000  -0.000
 -7.101  -0.520   0.000   0.000   0.000  -7.382  -0.522   0.000
 -0.520  -7.461   0.000   0.000  -0.000  -0.522  -7.743   0.000
  0.000   0.000  -6.719   0.000  -0.000   0.000   0.000  -6.998
  0.000   0.000   0.000  -7.461   0.520   0.000   0.000   0.000
  0.000  -0.000  -0.000   0.520  -7.101   0.000  -0.000  -0.000
  0.000  -0.000  -0.001  -0.000  -0.000   0.000  -0.000  -0.001
  0.000  -0.000  -0.002  -0.000  -0.000   0.000  -0.000  -0.002
  0.000  -0.000   0.000   0.000  -0.000   0.000  -0.000   0.000
  0.000  -0.000   0.000   0.000   0.000   0.000  -0.000   0.000
 -0.000   0.000  -0.000   0.000   0.000  -0.001   0.000  -0.000
  0.000  -0.000   0.000   0.000  -0.000   0.000  -0.000   0.000
  0.000  -0.000   0.000   0.000   0.000   0.000  -0.000   0.000
 -0.000   0.000  -0.000   0.000   0.000  -0.000   0.000  -0.000
 total augmentation occupancy for first ion, spin component:           1
  3.835  -1.714   0.000  -0.000  -0.000  -2.717   0.577  -0.000   0.000   0.000  -0.000  -0.000  -0.000  -0.000   0.081   0.000
 -1.714   2.559  -0.000   0.000   0.000   0.578  -2.226   0.000  -0.000  -0.000  -0.000   0.000   0.000   0.000  -0.027  -0.000
  0.000  -0.000   4.920  -0.000  -0.000  -0.000   0.000  -2.986   0.000   0.000   0.063  -0.008  -0.000  -0.000   0.000   0.000
 -0.000   0.000  -0.000   2.559   1.714   0.000  -0.000   0.000  -2.226  -0.578   0.000   0.000   0.027  -0.000  -0.000  -0.000
  0.000   0.000  -0.000   1.714   3.835   0.000  -0.000   0.000  -0.577  -2.717  -0.000   0.000   0.081   0.000  -0.000  -0.003
 -2.717   0.578  -0.000   0.000   0.000   2.541   0.274   0.000   0.000  -0.000   0.000   0.000   0.000   0.000  -0.088   0.000
  0.577  -2.226   0.000  -0.000  -0.000   0.274   2.635   0.000   0.000  -0.000  -0.000  -0.000   0.000   0.000   0.023  -0.000
 -0.000   0.000  -2.986   0.000   0.000   0.000   0.000   2.192   0.000  -0.000  -0.069   0.010   0.000   0.000  -0.000  -0.000
  0.000  -0.000   0.000  -2.226  -0.577   0.000   0.000   0.000   2.635  -0.274   0.000  -0.000  -0.023   0.000   0.000   0.000
  0.000  -0.000   0.000  -0.578  -2.717  -0.000  -0.000  -0.000  -0.274   2.541   0.000  -0.000  -0.088  -0.000   0.000   0.003
 -0.000   0.000   0.063   0.000  -0.000   0.000   0.000  -0.069  -0.000   0.000   1.713  -0.186  -0.000  -0.000  -0.000   0.000
 -0.000   0.000  -0.008   0.000   0.000   0.000   0.000   0.010  -0.000  -0.000  -0.186   0.028  -0.000  -0.000  -0.000  -0.000
  0.000   0.000  -0.000   0.027   0.081  -0.000   0.000   0.000  -0.023  -0.088   0.000  -0.000   0.270   0.000  -0.000  -0.007
 -0.000  -0.000  -0.000   0.000   0.000  -0.000  -0.000   0.000  -0.000  -0.000  -0.000  -0.000  -0.000   0.262   0.000   0.000
  0.081  -0.027   0.000  -0.000  -0.000  -0.088   0.023  -0.000   0.000   0.000  -0.000   0.000  -0.000   0.000   0.270   0.000
 -0.000   0.000   0.000  -0.000  -0.003   0.000   0.000  -0.000   0.000   0.003   0.000  -0.000  -0.007  -0.000   0.000   0.000
 -0.000   0.000  -0.000   0.000   0.000   0.000   0.000   0.000  -0.000  -0.000  -0.000  -0.000   0.000  -0.006  -0.000   0.000
 -0.003   0.000  -0.000   0.000   0.000   0.003  -0.000   0.000  -0.000  -0.000  -0.000   0.000   0.000   0.000  -0.007  -0.000
 total augmentation occupancy for first ion, spin component:           2
  2.949  -2.360   0.000  -0.000  -0.000  -1.502   1.463  -0.000   0.000   0.000  -0.000  -0.000  -0.000   0.000   0.022  -0.000
 -2.360   1.283  -0.000   0.000   0.000   1.464  -0.466   0.000  -0.000  -0.000  -0.000   0.000   0.000   0.000  -0.023   0.000
  0.000  -0.000   4.542  -0.000  -0.000  -0.000   0.000  -2.467   0.000   0.000   0.008   0.001  -0.000  -0.000   0.000  -0.000
 -0.000   0.000  -0.000   1.283   2.360  -0.000  -0.000   0.000  -0.466  -1.464   0.000   0.000   0.023   0.000  -0.000  -0.000
 -0.000   0.000  -0.000   2.360   2.949   0.000  -0.000   0.000  -1.463  -1.502  -0.000   0.000   0.022   0.000  -0.000   0.000
 -1.502   1.464  -0.000   0.000   0.000   0.842  -0.986   0.000  -0.000  -0.000   0.000   0.000   0.000   0.000  -0.015   0.000
  1.463  -0.466   0.000  -0.000  -0.000  -0.986   0.144  -0.000   0.000   0.000   0.000  -0.000  -0.000  -0.000   0.014   0.000
 -0.000   0.000  -2.467   0.000   0.000   0.000  -0.000   1.478  -0.000  -0.000  -0.003  -0.001   0.000   0.000  -0.000   0.000
  0.000  -0.000   0.000  -0.466  -1.463  -0.000   0.000  -0.000   0.144   0.986  -0.000  -0.000  -0.014   0.000   0.000   0.000
  0.000  -0.000   0.000  -1.464  -1.502  -0.000   0.000  -0.000   0.986   0.842   0.000   0.000  -0.015   0.000   0.000  -0.000
 -0.000   0.000   0.008   0.000  -0.000   0.000  -0.000  -0.003  -0.000   0.000  -0.048   0.053   0.000   0.000  -0.000  -0.000
  0.000   0.000   0.001   0.000  -0.000   0.000  -0.000  -0.001   0.000  -0.000   0.053  -0.009   0.000  -0.000  -0.000  -0.000
  0.000   0.000  -0.000   0.023   0.022   0.000   0.000   0.000  -0.014  -0.015   0.000   0.000   0.017  -0.000  -0.000   0.002
  0.000  -0.000  -0.000   0.000   0.000  -0.000  -0.000   0.000  -0.000  -0.000   0.000  -0.000   0.000   0.015   0.000   0.000
  0.022  -0.023   0.000  -0.000  -0.000  -0.015   0.014   0.000   0.000   0.000   0.000  -0.000  -0.000   0.000   0.017  -0.000
 -0.000   0.000  -0.000  -0.000   0.000   0.000  -0.000   0.000   0.000  -0.000  -0.000   0.000   0.002  -0.000   0.000  -0.000
 -0.000  -0.000  -0.000   0.000   0.000  -0.000   0.000   0.000   0.000  -0.000   0.000  -0.000   0.000   0.002  -0.000  -0.000
  0.000   0.000  -0.000   0.000   0.000  -0.000  -0.000  -0.000  -0.000  -0.000   0.000  -0.000  -0.000   0.000   0.002   0.000


------------------------ aborting loop because EDIFF is reached ----------------------------------------





 total charge

# of ion       s       p       d       tot
------------------------------------------
    1        0.345   0.503   4.056   4.905
    2        0.345   0.503   4.056   4.905
    3        1.604   3.517   0.000   5.120
    4        1.604   3.517   0.000   5.120
    5        1.604   3.517   0.000   5.120
    6        1.604   3.517   0.000   5.120
    7        1.604   3.517   0.000   5.120
    8        1.604   3.517   0.000   5.120
--------------------------------------------------
tot         10.314  22.106   8.112  40.531



 magnetization (x)

# of ion       s       p       d       tot
------------------------------------------
    1        0.032   0.040   3.093   3.165
    2        0.032   0.040   3.093   3.165
    3       -0.002  -0.073   0.000  -0.075
    4       -0.002  -0.073   0.000  -0.075
    5       -0.002  -0.073   0.000  -0.075
    6       -0.002  -0.073   0.000  -0.075
    7       -0.002  -0.073   0.000  -0.075
    8       -0.002  -0.073   0.000  -0.075
--------------------------------------------------
tot          0.054  -0.359   6.187   5.882

    CHARGE:  cpu time      0.1329: real time      0.1337
    FORLOC:  cpu time      0.0031: real time      0.0031
    FORNL :  cpu time      0.2978: real time      0.3004
    STRESS:  cpu time      0.5047: real time      0.5090
    FORCOR:  cpu time      0.1482: real time      0.1496
    FORHAR:  cpu time      0.0153: real time      0.0154
    MIXING:  cpu time      0.0056: real time      0.0057
    OFIELD:  cpu time      0.0001: real time      0.0001

 ---------------------------------------------------------------------------------------------

         DFTD3 V3.0 Rev 1        
 Edisp (eV)   -0.91402

 E6    (eV) :    -0.3534
 E8    (eV) :    -0.5606
 % E8        : 61.33
    FORVDW:  cpu time      0.0159: real time      0.0162

  FORCE on cell =-STRESS in cart. coord.  units (eV):
  Direction    XX          YY          ZZ          XY          YZ          ZX
  --------------------------------------------------------------------------------------
  Alpha Z    30.50772    30.50772    30.50772
  Ewald    6088.45480  6088.45480 -7772.06478    -0.00000    -0.00000     0.00000
  Hartree  6726.90091  6726.90091 -6348.69598    -0.00000     0.00000     0.00000
  E(xc)    -209.16903  -209.16903  -209.46443    -0.00000    -0.00000    -0.00000
  Local  -13846.18433-13846.18423 13086.35970     0.00009     0.00000     0.00000
  n-local   479.58819   479.72769   478.67702    -0.41402     0.04148     0.04782
  augment   -58.54157   -58.54165   -58.69307    -0.00007    -0.00000    -0.00000
  Kinetic   789.30308   788.81074   793.43849     0.57807    -0.32104     0.05291
  Fock        0.00000     0.00000     0.00000     0.00000     0.00000     0.00000
  vdW        -0.75507    -0.75507    -0.01984    -0.00000     0.00000    -0.00000
  -------------------------------------------------------------------------------------
  Total      -0.07172    -0.07172     0.04481     0.00000     0.00000    -0.00000
  in kB      -0.20362    -0.20362     0.12724     0.00000     0.00000    -0.00000
  external pressure =       -0.09 kB  Pullay stress =        0.00 kB


 VOLUME and BASIS-vectors are now :
 -----------------------------------------------------------------------------
  energy-cutoff  :      400.00
  volume of cell :      564.28
      direct lattice vectors                 reciprocal lattice vectors
     6.072460708  0.000000000  0.000000000     0.164677887  0.095076823 -0.000000000
    -3.036230354  5.258905237  0.000000000     0.000000000  0.190153645  0.000000000
     0.000000000  0.000000000 17.670000000     0.000000000 -0.000000000  0.056593096

  length of vectors
     6.072460708  6.072460708 17.670000000     0.190153645  0.190153645  0.056593096


 FORCES acting on ions
    electron-ion (+dipol)            ewald-force                    non-local-force                 convergence-correction
 -----------------------------------------------------------------------------------------------
   0.175E-06 -.101E-06 0.224E-12   -.493E-11 0.290E-11 0.113E-12   -.450E-18 0.306E-18 -.145E-20   0.880E-08 -.508E-08 -.182E-11
   -.175E-06 0.101E-06 -.119E-10   0.496E-11 -.289E-11 -.695E-13   -.445E-18 -.259E-18 -.508E-20   -.880E-08 0.508E-08 -.180E-11
   0.678E+02 0.111E-05 0.455E+03   -.698E+02 -.323E-11 -.458E+03   0.204E+01 -.322E-18 0.286E+01   0.140E-02 -.162E-06 0.837E-03
   -.339E+02 0.587E+02 0.455E+03   0.349E+02 -.604E+02 -.458E+03   -.102E+01 0.176E+01 0.286E+01   -.701E-03 0.121E-02 0.837E-03
   -.339E+02 -.587E+02 0.455E+03   0.349E+02 0.604E+02 -.458E+03   -.102E+01 -.176E+01 0.286E+01   -.701E-03 -.121E-02 0.837E-03
   -.678E+02 -.111E-05 -.455E+03   0.698E+02 0.327E-11 0.458E+03   -.204E+01 -.262E-18 -.286E+01   -.140E-02 0.162E-06 -.837E-03
   0.339E+02 -.587E+02 -.455E+03   -.349E+02 0.604E+02 0.458E+03   0.102E+01 -.176E+01 -.286E+01   0.701E-03 -.121E-02 -.837E-03
   0.339E+02 0.587E+02 -.455E+03   -.349E+02 -.604E+02 0.458E+03   0.102E+01 0.176E+01 -.286E+01   0.701E-03 0.121E-02 -.837E-03
 -----------------------------------------------------------------------------------------------
   0.728E-12 0.103E-11 0.190E-10   -.284E-13 0.142E-13 0.114E-12   0.000E+00 -.222E-15 0.888E-15   0.287E-12 -.151E-13 -.144E-10


 POSITION                                       TOTAL-FORCE (eV/Angst)
 -----------------------------------------------------------------------------------
      0.00000      3.50594      8.83500         0.000000     -0.000000      0.000000
      3.03623      1.75297      8.83500         0.000000      0.000000      0.000000
     -0.88365      5.25891      7.47884        -0.002016     -0.000000     -0.019074
     -1.07629      1.86419      7.47884         0.001008     -0.001746     -0.019074
      1.95994      3.39471      7.47884         0.001008      0.001746     -0.019074
      3.91988      0.00000     10.19116         0.002016      0.000000      0.019074
     -1.95994      3.39471     10.19116        -0.001008      0.001746      0.019074
      1.07629      1.86419     10.19116        -0.001008     -0.001746      0.019074
 -----------------------------------------------------------------------------------
    total drift:                                0.000000      0.000000      0.000000


--------------------------------------------------------------------------------------------------------



  FREE ENERGIE OF THE ION-ELECTRON SYSTEM (eV)
  ---------------------------------------------------
  free  energy   TOTEN  =       -35.57109589 eV

  energy  without entropy=      -35.57109589  energy(sigma->0) =      -35.57109589
 d Force = 0.1552370E-03[ 0.138E-03, 0.172E-03]  d Energy = 0.2091584E-03-0.539E-04
 d Force = 0.3335932E+01[ 0.334E+01, 0.333E+01]  d Ewald  =-0.1628241E+01 0.496E+01



--------------------------------------------------------------------------------------------------------


    POTLOK:  cpu time      0.2550: real time      0.2570


--------------------------------------------------------------------------------------------------------


 Conjugate gradient step on ions:
 trial-energy change:   -0.000209  1 .order   -0.000218   -0.000239   -0.000197
  (g-gl).g = 0.201E-03      g.g   = 0.245E-03  gl.gl    = 0.145E-01
 g(Force)  = 0.165E-03   g(Stress)= 0.801E-04 ortho     = 0.440E-04
 gamma     =   0.01387
 trial     =   0.97032
 opt step  =   3.88129  (harmonic =   5.52953) maximal distance =0.00477073
 next E    =   -35.571567   (d E  =  -0.00068)


--------------------------------------------------------------------------------------------------------


      MLFF:  cpu time      0.0020: real time      0.0021
    WAVPRE:  cpu time      0.0121: real time      0.0123
    FEWALD:  cpu time      0.0019: real time      0.0019
    GENKIN:  cpu time      0.0098: real time      0.0098
    ORTHCH:  cpu time      0.0852: real time      0.0857
     LOOP+:  cpu time     28.4658: real time     28.7999


--------------------------------------- Ionic step        5  -------------------------------------------




--------------------------------------- Iteration      5(   1)  ---------------------------------------


    POTLOK:  cpu time      0.1451: real time      0.1467
    SETDIJ:  cpu time      0.1084: real time      0.1088
     EDDAV:  cpu time      3.6793: real time      3.7239
       DOS:  cpu time      0.0015: real time      0.0016
    CHARGE:  cpu time      0.1375: real time      0.1386
    MIXING:  cpu time      0.0046: real time      0.0046
    --------------------------------------------
      LOOP:  cpu time      4.0765: real time      4.1241

 eigenvalue-minimisations  :  2584
 total energy-change (2. order) : 0.1146840E-02  (-0.1886373E-01)
 number of electron      53.9999983 magnetization       5.9999996
 augmentation part       -0.5651488 magnetization       4.3765300

 Broyden mixing:
  rms(total) = 0.30619E-01    rms(broyden)= 0.30605E-01
  rms(prec ) = 0.32616E-01
  weight for this iteration     100.00

 Free energy of the ion-electron system (eV)
  ---------------------------------------------------
  alpha Z        PSCENC =        30.58250178
  Ewald energy   TEWEN  =      4409.73928143
  -Hartree energ DENC   =     -7111.81843755
  -exchange      EXHF   =         0.00000000
  -V(xc)+E(xc)   XCENC  =        86.58117286
  PAW double counting   =      3652.44505460    -3602.96026020
  entropy T*S    EENTRO =        -0.00000000
  eigenvalues    EBANDS =      -511.29530044
  atomic energy  EATOM  =      3012.07006103
  Solvation  Ediel_sol  =         0.00000000
  ext. energy  EPLUGINS =         0.00000000
  ---------------------------------------------------
  free energy    TOTEN  =       -34.65592649 eV

  energy without entropy =      -34.65592649  energy(sigma->0) =      -34.65592649


--------------------------------------------------------------------------------------------------------




--------------------------------------- Iteration      5(   2)  ---------------------------------------


    POTLOK:  cpu time      0.1437: real time      0.1451
    SETDIJ:  cpu time      0.1075: real time      0.1079
     EDDAV:  cpu time      4.4928: real time      4.5487
       DOS:  cpu time      0.0017: real time      0.0017
    CHARGE:  cpu time      0.1433: real time      0.1442
    MIXING:  cpu time      0.0048: real time      0.0048
    --------------------------------------------
      LOOP:  cpu time      4.8937: real time      4.9525

 eigenvalue-minimisations  :  3296
 total energy-change (2. order) : 0.1543403E-03  (-0.1765553E-02)
 number of electron      53.9999983 magnetization       5.9999996
 augmentation part       -0.5726864 magnetization       4.3743125

 Broyden mixing:
  rms(total) = 0.15056E-01    rms(broyden)= 0.15050E-01
  rms(prec ) = 0.16099E-01
  weight for this iteration     100.00

 eigenvalues of (default mixing * dielectric matrix)
  average eigenvalue GAMMA=   0.6790
  0.6790

 Free energy of the ion-electron system (eV)
  ---------------------------------------------------
  alpha Z        PSCENC =        30.58250178
  Ewald energy   TEWEN  =      4409.73928143
  -Hartree energ DENC   =     -7111.11252968
  -exchange      EXHF   =         0.00000000
  -V(xc)+E(xc)   XCENC  =        86.51892046
  PAW double counting   =      3656.76556404    -3607.27010464
  entropy T*S    EENTRO =        -0.00000000
  eigenvalues    EBANDS =      -511.94946657
  atomic energy  EATOM  =      3012.07006103
  Solvation  Ediel_sol  =         0.00000000
  ext. energy  EPLUGINS =         0.00000000
  ---------------------------------------------------
  free energy    TOTEN  =       -34.65577215 eV

  energy without entropy =      -34.65577215  energy(sigma->0) =      -34.65577215


--------------------------------------------------------------------------------------------------------




--------------------------------------- Iteration      5(   3)  ---------------------------------------


    POTLOK:  cpu time      0.1441: real time      0.1456
    SETDIJ:  cpu time      0.1072: real time      0.1076
     EDDAV:  cpu time      4.2858: real time      4.3402
       DOS:  cpu time      0.0013: real time      0.0013
    CHARGE:  cpu time      0.1371: real time      0.1381
    MIXING:  cpu time      0.0043: real time      0.0044
    --------------------------------------------
      LOOP:  cpu time      4.6797: real time      4.7372

 eigenvalue-minimisations  :  3132
 total energy-change (2. order) : 0.2686987E-03  (-0.6431274E-04)
 number of electron      53.9999983 magnetization       5.9999996
 augmentation part       -0.5656594 magnetization       4.3775258

 Broyden mixing:
  rms(total) = 0.13209E-01    rms(broyden)= 0.13209E-01
  rms(prec ) = 0.13539E-01
  weight for this iteration     100.00

 eigenvalues of (default mixing * dielectric matrix)
  average eigenvalue GAMMA=   0.6257
  0.7675  0.4838

 Free energy of the ion-electron system (eV)
  ---------------------------------------------------
  alpha Z        PSCENC =        30.58250178
  Ewald energy   TEWEN  =      4409.73928143
  -Hartree energ DENC   =     -7110.73196992
  -exchange      EXHF   =         0.00000000
  -V(xc)+E(xc)   XCENC  =        86.50917137
  PAW double counting   =      3655.76216342    -3606.25151168
  entropy T*S    EENTRO =        -0.00000000
  eigenvalues    EBANDS =      -512.33520088
  atomic energy  EATOM  =      3012.07006103
  Solvation  Ediel_sol  =         0.00000000
  ext. energy  EPLUGINS =         0.00000000
  ---------------------------------------------------
  free energy    TOTEN  =       -34.65550345 eV

  energy without entropy =      -34.65550345  energy(sigma->0) =      -34.65550345


--------------------------------------------------------------------------------------------------------




--------------------------------------- Iteration      5(   4)  ---------------------------------------


    POTLOK:  cpu time      0.1553: real time      0.1569
    SETDIJ:  cpu time      0.1099: real time      0.1105
     EDDAV:  cpu time      4.3463: real time      4.4041
       DOS:  cpu time      0.0012: real time      0.0013
    CHARGE:  cpu time      0.1350: real time      0.1360
    MIXING:  cpu time      0.0047: real time      0.0048
    --------------------------------------------
      LOOP:  cpu time      4.7525: real time      4.8135

 eigenvalue-minimisations  :  3240
 total energy-change (2. order) : 0.5385197E-04  (-0.1382396E-04)
 number of electron      53.9999983 magnetization       5.9999997
 augmentation part       -0.5678587 magnetization       4.3775308

 Broyden mixing:
  rms(total) = 0.67400E-02    rms(broyden)= 0.67399E-02
  rms(prec ) = 0.70027E-02
  weight for this iteration     100.00

 eigenvalues of (default mixing * dielectric matrix)
  average eigenvalue GAMMA=   0.8841
  1.0786  1.0786  0.4951

 Free energy of the ion-electron system (eV)
  ---------------------------------------------------
  alpha Z        PSCENC =        30.58250178
  Ewald energy   TEWEN  =      4409.73928143
  -Hartree energ DENC   =     -7110.63665618
  -exchange      EXHF   =         0.00000000
  -V(xc)+E(xc)   XCENC  =        86.50607076
  PAW double counting   =      3655.58101216    -3606.07977000
  entropy T*S    EENTRO =        -0.00000000
  eigenvalues    EBANDS =      -512.41795058
  atomic energy  EATOM  =      3012.07006103
  Solvation  Ediel_sol  =         0.00000000
  ext. energy  EPLUGINS =         0.00000000
  ---------------------------------------------------
  free energy    TOTEN  =       -34.65544960 eV

  energy without entropy =      -34.65544960  energy(sigma->0) =      -34.65544960


--------------------------------------------------------------------------------------------------------




--------------------------------------- Iteration      5(   5)  ---------------------------------------


    POTLOK:  cpu time      0.1440: real time      0.1455
    SETDIJ:  cpu time      0.1144: real time      0.1150
     EDDAV:  cpu time      4.5652: real time      4.6231
       DOS:  cpu time      0.0013: real time      0.0013
    CHARGE:  cpu time      0.1359: real time      0.1369
    MIXING:  cpu time      0.0048: real time      0.0049
    --------------------------------------------
      LOOP:  cpu time      4.9658: real time      5.0266

 eigenvalue-minimisations  :  3372
 total energy-change (2. order) : 0.3367373E-04  (-0.1248210E-04)
 number of electron      53.9999983 magnetization       5.9999997
 augmentation part       -0.5700239 magnetization       4.3774529

 Broyden mixing:
  rms(total) = 0.42878E-02    rms(broyden)= 0.42877E-02
  rms(prec ) = 0.44145E-02
  weight for this iteration     100.00

 eigenvalues of (default mixing * dielectric matrix)
  average eigenvalue GAMMA=   1.0188
  1.4398  1.4398  0.5979  0.5979

 Free energy of the ion-electron system (eV)
  ---------------------------------------------------
  alpha Z        PSCENC =        30.58250178
  Ewald energy   TEWEN  =      4409.73928143
  -Hartree energ DENC   =     -7110.49987146
  -exchange      EXHF   =         0.00000000
  -V(xc)+E(xc)   XCENC  =        86.49971587
  PAW double counting   =      3655.15567256    -3605.66336494
  entropy T*S    EENTRO =        -0.00000000
  eigenvalues    EBANDS =      -512.53941220
  atomic energy  EATOM  =      3012.07006103
  Solvation  Ediel_sol  =         0.00000000
  ext. energy  EPLUGINS =         0.00000000
  ---------------------------------------------------
  free energy    TOTEN  =       -34.65541593 eV

  energy without entropy =      -34.65541593  energy(sigma->0) =      -34.65541593


--------------------------------------------------------------------------------------------------------




--------------------------------------- Iteration      5(   6)  ---------------------------------------


    POTLOK:  cpu time      0.1429: real time      0.1444
    SETDIJ:  cpu time      0.1076: real time      0.1080
     EDDAV:  cpu time      4.5230: real time      4.5783
       DOS:  cpu time      0.0013: real time      0.0013
    CHARGE:  cpu time      0.1343: real time      0.1352
    MIXING:  cpu time      0.0047: real time      0.0047
    --------------------------------------------
      LOOP:  cpu time      4.9138: real time      4.9719

 eigenvalue-minimisations  :  3440
 total energy-change (2. order) : 0.2738860E-05  (-0.2148935E-05)
 number of electron      53.9999983 magnetization       5.9999997
 augmentation part       -0.5684387 magnetization       4.3780364

 Broyden mixing:
  rms(total) = 0.20651E-02    rms(broyden)= 0.20651E-02
  rms(prec ) = 0.20890E-02
  weight for this iteration     100.00

 eigenvalues of (default mixing * dielectric matrix)
  average eigenvalue GAMMA=   1.0912
  1.7591  1.7591  0.6982  0.6199  0.6199

 Free energy of the ion-electron system (eV)
  ---------------------------------------------------
  alpha Z        PSCENC =        30.58250178
  Ewald energy   TEWEN  =      4409.73928143
  -Hartree energ DENC   =     -7110.45508569
  -exchange      EXHF   =         0.00000000
  -V(xc)+E(xc)   XCENC  =        86.49758889
  PAW double counting   =      3654.23832460    -3604.74782568
  entropy T*S    EENTRO =        -0.00000000
  eigenvalues    EBANDS =      -512.58025956
  atomic energy  EATOM  =      3012.07006103
  Solvation  Ediel_sol  =         0.00000000
  ext. energy  EPLUGINS =         0.00000000
  ---------------------------------------------------
  free energy    TOTEN  =       -34.65541319 eV

  energy without entropy =      -34.65541319  energy(sigma->0) =      -34.65541319


--------------------------------------------------------------------------------------------------------




--------------------------------------- Iteration      5(   7)  ---------------------------------------


    POTLOK:  cpu time      0.1468: real time      0.1484
    SETDIJ:  cpu time      0.1449: real time      0.1456
     EDDAV:  cpu time      3.0994: real time      3.1372
       DOS:  cpu time      0.0016: real time      0.0017
    CHARGE:  cpu time      0.2106: real time      0.2117
    MIXING:  cpu time      0.0055: real time      0.0056
    --------------------------------------------
      LOOP:  cpu time      3.6089: real time      3.6501

 eigenvalue-minimisations  :  2072
 total energy-change (2. order) :-0.2551955E-05  (-0.2697971E-06)
 number of electron      53.9999983 magnetization       5.9999997
 augmentation part       -0.5685793 magnetization       4.3781599

 Broyden mixing:
  rms(total) = 0.79605E-03    rms(broyden)= 0.79604E-03
  rms(prec ) = 0.81229E-03
  weight for this iteration     100.00

 eigenvalues of (default mixing * dielectric matrix)
  average eigenvalue GAMMA=   1.1393
  1.9392  1.9392  1.0369  0.7657  0.5775  0.5775

 Free energy of the ion-electron system (eV)
  ---------------------------------------------------
  alpha Z        PSCENC =        30.58250178
  Ewald energy   TEWEN  =      4409.73928143
  -Hartree energ DENC   =     -7110.45420262
  -exchange      EXHF   =         0.00000000
  -V(xc)+E(xc)   XCENC  =        86.49777763
  PAW double counting   =      3653.49347614    -3604.00683269
  entropy T*S    EENTRO =        -0.00000000
  eigenvalues    EBANDS =      -512.57747844
  atomic energy  EATOM  =      3012.07006103
  Solvation  Ediel_sol  =         0.00000000
  ext. energy  EPLUGINS =         0.00000000
  ---------------------------------------------------
  free energy    TOTEN  =       -34.65541574 eV

  energy without entropy =      -34.65541574  energy(sigma->0) =      -34.65541574


--------------------------------------------------------------------------------------------------------




--------------------------------------- Iteration      5(   8)  ---------------------------------------


    POTLOK:  cpu time      0.1622: real time      0.1637
    SETDIJ:  cpu time      0.1639: real time      0.1645
     EDDAV:  cpu time      3.0136: real time      3.0487
       DOS:  cpu time      0.0016: real time      0.0016
    CHARGE:  cpu time      0.2117: real time      0.2128
    MIXING:  cpu time      0.0059: real time      0.0059
    --------------------------------------------
      LOOP:  cpu time      3.5588: real time      3.5973

 eigenvalue-minimisations  :  1660
 total energy-change (2. order) :-0.1852113E-05  (-0.1611833E-06)
 number of electron      53.9999983 magnetization       5.9999997
 augmentation part       -0.5687960 magnetization       4.3781173

 Broyden mixing:
  rms(total) = 0.44660E-03    rms(broyden)= 0.44660E-03
  rms(prec ) = 0.45578E-03
  weight for this iteration     100.00

 eigenvalues of (default mixing * dielectric matrix)
  average eigenvalue GAMMA=   1.1272
  2.2746  1.5340  1.5340  0.7588  0.6088  0.6088  0.5716

 Free energy of the ion-electron system (eV)
  ---------------------------------------------------
  alpha Z        PSCENC =        30.58250178
  Ewald energy   TEWEN  =      4409.73928143
  -Hartree energ DENC   =     -7110.44936366
  -exchange      EXHF   =         0.00000000
  -V(xc)+E(xc)   XCENC  =        86.49711715
  PAW double counting   =      3653.14112868    -3603.65567233
  entropy T*S    EENTRO =        -0.00000000
  eigenvalues    EBANDS =      -512.58047167
  atomic energy  EATOM  =      3012.07006103
  Solvation  Ediel_sol  =         0.00000000
  ext. energy  EPLUGINS =         0.00000000
  ---------------------------------------------------
  free energy    TOTEN  =       -34.65541759 eV

  energy without entropy =      -34.65541759  energy(sigma->0) =      -34.65541759


--------------------------------------------------------------------------------------------------------




--------------------------------------- Iteration      5(   9)  ---------------------------------------


    POTLOK:  cpu time      0.1689: real time      0.1706
    SETDIJ:  cpu time      0.1645: real time      0.1650
     EDDAV:  cpu time      2.5401: real time      2.5697
       DOS:  cpu time      0.0013: real time      0.0013
    CHARGE:  cpu time      0.1581: real time      0.1593
    MIXING:  cpu time      0.0062: real time      0.0063
    --------------------------------------------
      LOOP:  cpu time      3.0391: real time      3.0723

 eigenvalue-minimisations  :  1476
 total energy-change (2. order) :-0.1249047E-05  (-0.4977005E-07)
 number of electron      53.9999983 magnetization       5.9999997
 augmentation part       -0.5686813 magnetization       4.3781853

 Broyden mixing:
  rms(total) = 0.19102E-03    rms(broyden)= 0.19102E-03
  rms(prec ) = 0.19683E-03
  weight for this iteration     100.00

 eigenvalues of (default mixing * dielectric matrix)
  average eigenvalue GAMMA=   1.1587
  2.3914  1.7440  1.7440  0.8868  0.6277  0.6277  0.6510  0.5972

 Free energy of the ion-electron system (eV)
  ---------------------------------------------------
  alpha Z        PSCENC =        30.58250178
  Ewald energy   TEWEN  =      4409.73928143
  -Hartree energ DENC   =     -7110.44803471
  -exchange      EXHF   =         0.00000000
  -V(xc)+E(xc)   XCENC  =        86.49673259
  PAW double counting   =      3653.04983433    -3603.56397904
  entropy T*S    EENTRO =        -0.00000000
  eigenvalues    EBANDS =      -512.58181626
  atomic energy  EATOM  =      3012.07006103
  Solvation  Ediel_sol  =         0.00000000
  ext. energy  EPLUGINS =         0.00000000
  ---------------------------------------------------
  free energy    TOTEN  =       -34.65541884 eV

  energy without entropy =      -34.65541884  energy(sigma->0) =      -34.65541884


--------------------------------------------------------------------------------------------------------




--------------------------------------- Iteration      5(  10)  ---------------------------------------


    POTLOK:  cpu time      0.1479: real time      0.1496
    SETDIJ:  cpu time      0.1080: real time      0.1084
     EDDAV:  cpu time      2.4414: real time      2.4702
       DOS:  cpu time      0.0013: real time      0.0013
    CHARGE:  cpu time      0.1386: real time      0.1395
    MIXING:  cpu time      0.0052: real time      0.0052
    --------------------------------------------
      LOOP:  cpu time      2.8424: real time      2.8742

 eigenvalue-minimisations  :  1468
 total energy-change (2. order) :-0.1202436E-05  (-0.2301557E-07)
 number of electron      53.9999983 magnetization       5.9999997
 augmentation part       -0.5686690 magnetization       4.3781870

 Broyden mixing:
  rms(total) = 0.12523E-03    rms(broyden)= 0.12523E-03
  rms(prec ) = 0.13127E-03
  weight for this iteration     100.00

 eigenvalues of (default mixing * dielectric matrix)
  average eigenvalue GAMMA=   1.1280
  2.2399  2.2399  1.6260  0.7827  0.7827  0.7671  0.5957  0.5957  0.5225

 Free energy of the ion-electron system (eV)
  ---------------------------------------------------
  alpha Z        PSCENC =        30.58250178
  Ewald energy   TEWEN  =      4409.73928143
  -Hartree energ DENC   =     -7110.45213261
  -exchange      EXHF   =         0.00000000
  -V(xc)+E(xc)   XCENC  =        86.49677183
  PAW double counting   =      3652.99717450    -3603.51129755
  entropy T*S    EENTRO =        -0.00000000
  eigenvalues    EBANDS =      -512.57778046
  atomic energy  EATOM  =      3012.07006103
  Solvation  Ediel_sol  =         0.00000000
  ext. energy  EPLUGINS =         0.00000000
  ---------------------------------------------------
  free energy    TOTEN  =       -34.65542005 eV

  energy without entropy =      -34.65542005  energy(sigma->0) =      -34.65542005


--------------------------------------------------------------------------------------------------------




--------------------------------------- Iteration      5(  11)  ---------------------------------------


    POTLOK:  cpu time      0.1591: real time      0.1610
    SETDIJ:  cpu time      0.1136: real time      0.1142
     EDDAV:  cpu time      2.4676: real time      2.4968
       DOS:  cpu time      0.0013: real time      0.0013
    CHARGE:  cpu time      0.1386: real time      0.1395
    MIXING:  cpu time      0.0053: real time      0.0054
    --------------------------------------------
      LOOP:  cpu time      2.8855: real time      2.9181

 eigenvalue-minimisations  :  1480
 total energy-change (2. order) :-0.1009322E-05  (-0.5745178E-08)
 number of electron      53.9999983 magnetization       5.9999997
 augmentation part       -0.5686592 magnetization       4.3781929

 Broyden mixing:
  rms(total) = 0.48818E-04    rms(broyden)= 0.48815E-04
  rms(prec ) = 0.55906E-04
  weight for this iteration     100.00

 eigenvalues of (default mixing * dielectric matrix)
  average eigenvalue GAMMA=   1.1739
  2.8212  2.4049  1.3312  1.0502  1.0502  0.7455  0.6151  0.6151  0.5529  0.5529

 Free energy of the ion-electron system (eV)
  ---------------------------------------------------
  alpha Z        PSCENC =        30.58250178
  Ewald energy   TEWEN  =      4409.73928143
  -Hartree energ DENC   =     -7110.45853978
  -exchange      EXHF   =         0.00000000
  -V(xc)+E(xc)   XCENC  =        86.49685203
  PAW double counting   =      3652.94066923    -3603.45472466
  entropy T*S    EENTRO =        -0.00000000
  eigenvalues    EBANDS =      -512.57152211
  atomic energy  EATOM  =      3012.07006103
  Solvation  Ediel_sol  =         0.00000000
  ext. energy  EPLUGINS =         0.00000000
  ---------------------------------------------------
  free energy    TOTEN  =       -34.65542106 eV

  energy without entropy =      -34.65542106  energy(sigma->0) =      -34.65542106


--------------------------------------------------------------------------------------------------------




--------------------------------------- Iteration      5(  12)  ---------------------------------------


    POTLOK:  cpu time      0.1453: real time      0.1467
    SETDIJ:  cpu time      0.1320: real time      0.1328
     EDDAV:  cpu time      2.4430: real time      2.4720
       DOS:  cpu time      0.0016: real time      0.0017
    --------------------------------------------
      LOOP:  cpu time      2.7222: real time      2.7534

 eigenvalue-minimisations  :  1456
 total energy-change (2. order) :-0.5605316E-06  (-0.2943678E-08)
 number of electron      53.9999983 magnetization       5.9999997
 augmentation part       -0.5686592 magnetization       4.3781929

 Free energy of the ion-electron system (eV)
  ---------------------------------------------------
  alpha Z        PSCENC =        30.58250178
  Ewald energy   TEWEN  =      4409.73928143
  -Hartree energ DENC   =     -7110.46235160
  -exchange      EXHF   =         0.00000000
  -V(xc)+E(xc)   XCENC  =        86.49689194
  PAW double counting   =      3652.91949125    -3603.43352830
  entropy T*S    EENTRO =        -0.00000000
  eigenvalues    EBANDS =      -512.56776915
  atomic energy  EATOM  =      3012.07006103
  Solvation  Ediel_sol  =         0.00000000
  ext. energy  EPLUGINS =         0.00000000
  ---------------------------------------------------
  free energy    TOTEN  =       -34.65542162 eV

  energy without entropy =      -34.65542162  energy(sigma->0) =      -34.65542162


--------------------------------------------------------------------------------------------------------




 average (electrostatic) potential at core
  the test charge radii are     1.1394  0.9406
  (the norm of the test charge is              1.0000)
       1 -53.2032       2 -53.2032       3 -98.9413       4 -98.9413       5 -98.9413
       6 -98.9413       7 -98.9413       8 -98.9413



 E-fermi :  -4.8882     XC(G=0):  -3.3440     alpha+bet : -2.6795

 val. band max:       -5.1121467826   @ k =   0.0909   0.0909   0.0000
 cond. band min:      -2.5249169200   @ k =   0.3636   0.2727   0.0000
 fundamental gap:      2.5872298626
 Fermi energy:        -4.8882070220

 spin component 1

 k-point     1 :       0.0000    0.0000    0.0000
  band No.  band energies     occupation 
      1     -19.2153      1.00000
      2     -18.4467      1.00000
      3     -18.2626      1.00000
      4     -18.2626      1.00000
      5     -18.1717      1.00000
      6     -18.1717      1.00000
      7      -9.0916      1.00000
      8      -9.0414      1.00000
      9      -8.6046      1.00000
     10      -8.6046      1.00000
     11      -8.5870      1.00000
     12      -8.5870      1.00000
     13      -7.6150      1.00000
     14      -7.6150      1.00000
     15      -7.6097      1.00000
     16      -7.4076      1.00000
     17      -7.0923      1.00000
     18      -7.0830      1.00000
     19      -7.0830      1.00000
     20      -6.6102      1.00000
     21      -6.6102      1.00000
     22      -6.1987      1.00000
     23      -6.1278      1.00000
     24      -6.1278      1.00000
     25      -5.9118      1.00000
     26      -5.7889      1.00000
     27      -5.3629      1.00000
     28      -5.3629      1.00000
     29      -5.1166      1.00000
     30      -5.1166      1.00000
     31      -2.4914      0.00000
     32      -2.4914      0.00000
     33      -2.2871      0.00000
     34      -2.2871      0.00000
     35       1.5619      0.00000
     36       2.3091      0.00000

 k-point     2 :       0.0909    0.0000    0.0000
  band No.  band energies     occupation 
      1     -19.1985      1.00000
      2     -18.4396      1.00000
      3     -18.2826      1.00000
      4     -18.2686      1.00000
      5     -18.1744      1.00000
      6     -18.1732      1.00000
      7      -9.1017      1.00000
      8      -9.0276      1.00000
      9      -8.6610      1.00000
     10      -8.6605      1.00000
     11      -8.5150      1.00000
     12      -8.5086      1.00000
     13      -7.6379      1.00000
     14      -7.6320      1.00000
     15      -7.6036      1.00000
     16      -7.3705      1.00000
     17      -7.1200      1.00000
     18      -7.0768      1.00000
     19      -7.0442      1.00000
     20      -6.6823      1.00000
     21      -6.6044      1.00000
     22      -6.1679      1.00000
     23      -6.1477      1.00000
     24      -6.1063      1.00000
     25      -5.9094      1.00000
     26      -5.7539      1.00000
     27      -5.3698      1.00000
     28      -5.3662      1.00000
     29      -5.1611      1.00000
     30      -5.1143      1.00000
     31      -2.4925      0.00000
     32      -2.4880      0.00000
     33      -2.3195      0.00000
     34      -2.2906      0.00000
     35       1.6425      0.00000
     36       2.3571      0.00000

 k-point     3 :       0.1818    0.0000    0.0000
  band No.  band energies     occupation 
      1     -19.1495      1.00000
      2     -18.4190      1.00000
      3     -18.3392      1.00000
      4     -18.2833      1.00000
      5     -18.1825      1.00000
      6     -18.1800      1.00000
      7      -9.1316      1.00000
      8      -8.9878      1.00000
      9      -8.7087      1.00000
     10      -8.6765      1.00000
     11      -8.4212      1.00000
     12      -8.4178      1.00000
     13      -7.6977      1.00000
     14      -7.6818      1.00000
     15      -7.5761      1.00000
     16      -7.3155      1.00000
     17      -7.1743      1.00000
     18      -7.0493      1.00000
     19      -6.9576      1.00000
     20      -6.8172      1.00000
     21      -6.5900      1.00000
     22      -6.2096      1.00000
     23      -6.1639      1.00000
     24      -6.0322      1.00000
     25      -5.8980      1.00000
     26      -5.6505      1.00000
     27      -5.3918      1.00000
     28      -5.3777      1.00000
     29      -5.2599      1.00000
     30      -5.1152      1.00000
     31      -2.4945      0.00000
     32      -2.4776      0.00000
     33      -2.3908      0.00000
     34      -2.3051      0.00000
     35       1.8647      0.00000
     36       2.4891      0.00000

 k-point     4 :       0.2727    0.0000    0.0000
  band No.  band energies     occupation 
      1     -19.0726      1.00000
      2     -18.4252      1.00000
      3     -18.3874      1.00000
      4     -18.3005      1.00000
      5     -18.1956      1.00000
      6     -18.1940      1.00000
      7      -9.1819      1.00000
      8      -8.9213      1.00000
      9      -8.7394      1.00000
     10      -8.6123      1.00000
     11      -8.3549      1.00000
     12      -8.3174      1.00000
     13      -7.7766      1.00000
     14      -7.7330      1.00000
     15      -7.5496      1.00000
     16      -7.3874      1.00000
     17      -7.1562      1.00000
     18      -7.0165      1.00000
     19      -7.0069      1.00000
     20      -6.7814      1.00000
     21      -6.5622      1.00000
     22      -6.3017      1.00000
     23      -6.1980      1.00000
     24      -5.9541      1.00000
     25      -5.8684      1.00000
     26      -5.5083      1.00000
     27      -5.4291      1.00000
     28      -5.4110      1.00000
     29      -5.3481      1.00000
     30      -5.1247      1.00000
     31      -2.4937      0.00000
     32      -2.4584      0.00000
     33      -2.4545      0.00000
     34      -2.3351      0.00000
     35       2.1870      0.00000
     36       2.6872      0.00000

 k-point     5 :       0.3636    0.0000    0.0000
  band No.  band energies     occupation 
      1     -18.9773      1.00000
      2     -18.5287      1.00000
      3     -18.3491      1.00000
      4     -18.3143      1.00000
      5     -18.2213      1.00000
      6     -18.2048      1.00000
      7      -9.2348      1.00000
      8      -8.8369      1.00000
      9      -8.7552      1.00000
     10      -8.4764      1.00000
     11      -8.3378      1.00000
     12      -8.2133      1.00000
     13      -7.8597      1.00000
     14      -7.7680      1.00000
     15      -7.6156      1.00000
     16      -7.4656      1.00000
     17      -7.1476      1.00000
     18      -7.1071      1.00000
     19      -7.0014      1.00000
     20      -6.6348      1.00000
     21      -6.5293      1.00000
     22      -6.3656      1.00000
     23      -6.2599      1.00000
     24      -5.8876      1.00000
     25      -5.8218      1.00000
     26      -5.4950      1.00000
     27      -5.4638      1.00000
     28      -5.4075      1.00000
     29      -5.3540      1.00000
     30      -5.1385      1.00000
     31      -2.4952      0.00000
     32      -2.4851      0.00000
     33      -2.4256      0.00000
     34      -2.3777      0.00000
     35       2.5772      0.00000
     36       2.9378      0.00000

 k-point     6 :       0.4545    0.0000    0.0000
  band No.  band energies     occupation 
      1     -18.8892      1.00000
      2     -18.6216      1.00000
      3     -18.3265      1.00000
      4     -18.3057      1.00000
      5     -18.2533      1.00000
      6     -18.2112      1.00000
      7      -9.2671      1.00000
      8      -8.7697      1.00000
      9      -8.7609      1.00000
     10      -8.3768      1.00000
     11      -8.2966      1.00000
     12      -8.1323      1.00000
     13      -7.9261      1.00000
     14      -7.7836      1.00000
     15      -7.7810      1.00000
     16      -7.4643      1.00000
     17      -7.2296      1.00000
     18      -7.0684      1.00000
     19      -7.0201      1.00000
     20      -6.5360      1.00000
     21      -6.4909      1.00000
     22      -6.3602      1.00000
     23      -6.3467      1.00000
     24      -5.8410      1.00000
     25      -5.7815      1.00000
     26      -5.5676      1.00000
     27      -5.4743      1.00000
     28      -5.4500      1.00000
     29      -5.2433      1.00000
     30      -5.1687      1.00000
     31      -2.5133      0.00000
     32      -2.4654      0.00000
     33      -2.4209      0.00000
     34      -2.3978      0.00000
     35       2.9714      0.00000
     36       3.0251      0.00000

 k-point     7 :       0.0909    0.0909    0.0000
  band No.  band energies     occupation 
      1     -19.1656      1.00000
      2     -18.4257      1.00000
      3     -18.3190      1.00000
      4     -18.2810      1.00000
      5     -18.1792      1.00000
      6     -18.1777      1.00000
      7      -9.1156      1.00000
      8      -9.0042      1.00000
      9      -8.7449      1.00000
     10      -8.6150      1.00000
     11      -8.4956      1.00000
     12      -8.4123      1.00000
     13      -7.6821      1.00000
     14      -7.6691      1.00000
     15      -7.5792      1.00000
     16      -7.3188      1.00000
     17      -7.1663      1.00000
     18      -7.0630      1.00000
     19      -6.9770      1.00000
     20      -6.7888      1.00000
     21      -6.5886      1.00000
     22      -6.2171      1.00000
     23      -6.0968      1.00000
     24      -6.0915      1.00000
     25      -5.9026      1.00000
     26      -5.6839      1.00000
     27      -5.3828      1.00000
     28      -5.3739      1.00000
     29      -5.2341      1.00000
     30      -5.1121      1.00000
     31      -2.4958      0.00000
     32      -2.4799      0.00000
     33      -2.3729      0.00000
     34      -2.2968      0.00000
     35       1.7933      0.00000
     36       2.4465      0.00000

 k-point     8 :       0.1818    0.0909    0.0000
  band No.  band energies     occupation 
      1     -19.1025      1.00000
      2     -18.3997      1.00000
      3     -18.3874      1.00000
      4     -18.3010      1.00000
      5     -18.1886      1.00000
      6     -18.1884      1.00000
      7      -9.1378      1.00000
      8      -8.9661      1.00000
      9      -8.7851      1.00000
     10      -8.5714      1.00000
     11      -8.4308      1.00000
     12      -8.3229      1.00000
     13      -7.7581      1.00000
     14      -7.7164      1.00000
     15      -7.5418      1.00000
     16      -7.3138      1.00000
     17      -7.2076      1.00000
     18      -7.0441      1.00000
     19      -6.9273      1.00000
     20      -6.8551      1.00000
     21      -6.5558      1.00000
     22      -6.3052      1.00000
     23      -6.1166      1.00000
     24      -6.0177      1.00000
     25      -5.8816      1.00000
     26      -5.5600      1.00000
     27      -5.4254      1.00000
     28      -5.3787      1.00000
     29      -5.3266      1.00000
     30      -5.1169      1.00000
     31      -2.5011      0.00000
     32      -2.4633      0.00000
     33      -2.4388      0.00000
     34      -2.3131      0.00000
     35       2.0619      0.00000
     36       2.6095      0.00000

 k-point     9 :       0.2727    0.0909    0.0000
  band No.  band energies     occupation 
      1     -19.0154      1.00000
      2     -18.4807      1.00000
      3     -18.3648      1.00000
      4     -18.3198      1.00000
      5     -18.2080      1.00000
      6     -18.1998      1.00000
      7      -9.1795      1.00000
      8      -8.9031      1.00000
      9      -8.7757      1.00000
     10      -8.5020      1.00000
     11      -8.3651      1.00000
     12      -8.2488      1.00000
     13      -7.8438      1.00000
     14      -7.7537      1.00000
     15      -7.5315      1.00000
     16      -7.4215      1.00000
     17      -7.1888      1.00000
     18      -7.1145      1.00000
     19      -6.9459      1.00000
     20      -6.7392      1.00000
     21      -6.5037      1.00000
     22      -6.3946      1.00000
     23      -6.1668      1.00000
     24      -5.9467      1.00000
     25      -5.8414      1.00000
     26      -5.4995      1.00000
     27      -5.4217      1.00000
     28      -5.4052      1.00000
     29      -5.3778      1.00000
     30      -5.1287      1.00000
     31      -2.5032      0.00000
     32      -2.4803      0.00000
     33      -2.4396      0.00000
     34      -2.3414      0.00000
     35       2.4105      0.00000
     36       2.8308      0.00000

 k-point    10 :       0.3636    0.0909    0.0000
  band No.  band energies     occupation 
      1     -18.9185      1.00000
      2     -18.5827      1.00000
      3     -18.3381      1.00000
      4     -18.3201      1.00000
      5     -18.2366      1.00000
      6     -18.2086      1.00000
      7      -9.2204      1.00000
      8      -8.8247      1.00000
      9      -8.7612      1.00000
     10      -8.3941      1.00000
     11      -8.3482      1.00000
     12      -8.1698      1.00000
     13      -7.9206      1.00000
     14      -7.7721      1.00000
     15      -7.6704      1.00000
     16      -7.4386      1.00000
     17      -7.2440      1.00000
     18      -7.1079      1.00000
     19      -6.9680      1.00000
     20      -6.6356      1.00000
     21      -6.4999      1.00000
     22      -6.3807      1.00000
     23      -6.2319      1.00000
     24      -5.8869      1.00000
     25      -5.7958      1.00000
     26      -5.5731      1.00000
     27      -5.4597      1.00000
     28      -5.4114      1.00000
     29      -5.2837      1.00000
     30      -5.1473      1.00000
     31      -2.5110      0.00000
     32      -2.4803      0.00000
     33      -2.4283      0.00000
     34      -2.3625      0.00000
     35       2.8164      0.00000
     36       3.0346      0.00000

 k-point    11 :       0.4545    0.0909    0.0000
  band No.  band energies     occupation 
      1     -18.8612      1.00000
      2     -18.6421      1.00000
      3     -18.3407      1.00000
      4     -18.2934      1.00000
      5     -18.2616      1.00000
      6     -18.2118      1.00000
      7      -9.2364      1.00000
      8      -8.7829      1.00000
      9      -8.7592      1.00000
     10      -8.3765      1.00000
     11      -8.2991      1.00000
     12      -8.1250      1.00000
     13      -7.9581      1.00000
     14      -7.7760      1.00000
     15      -7.7741      1.00000
     16      -7.4309      1.00000
     17      -7.2796      1.00000
     18      -7.0874      1.00000
     19      -6.9841      1.00000
     20      -6.6051      1.00000
     21      -6.5015      1.00000
     22      -6.3123      1.00000
     23      -6.3006      1.00000
     24      -5.8574      1.00000
     25      -5.7757      1.00000
     26      -5.6157      1.00000
     27      -5.4643      1.00000
     28      -5.4336      1.00000
     29      -5.2092      1.00000
     30      -5.1802      1.00000
     31      -2.5171      0.00000
     32      -2.4559      0.00000
     33      -2.4510      0.00000
     34      -2.3607      0.00000
     35       2.9699      0.00000
     36       3.2249      0.00000

 k-point    12 :       0.1818    0.1818    0.0000
  band No.  band energies     occupation 
      1     -19.0287      1.00000
      2     -18.4583      1.00000
      3     -18.3705      1.00000
      4     -18.3287      1.00000
      5     -18.2020      1.00000
      6     -18.1979      1.00000
      7      -9.1114      1.00000
      8      -8.9789      1.00000
      9      -8.7956      1.00000
     10      -8.4553      1.00000
     11      -8.4247      1.00000
     12      -8.2538      1.00000
     13      -7.8469      1.00000
     14      -7.7468      1.00000
     15      -7.4896      1.00000
     16      -7.3393      1.00000
     17      -7.2817      1.00000
     18      -7.1201      1.00000
     19      -6.8850      1.00000
     20      -6.8119      1.00000
     21      -6.4782      1.00000
     22      -6.4219      1.00000
     23      -6.0552      1.00000
     24      -6.0422      1.00000
     25      -5.8489      1.00000
     26      -5.5069      1.00000
     27      -5.4241      1.00000
     28      -5.3991      1.00000
     29      -5.3663      1.00000
     30      -5.1229      1.00000
     31      -2.5136      0.00000
     32      -2.4768      0.00000
     33      -2.4423      0.00000
     34      -2.3202      0.00000
     35       2.3499      0.00000
     36       2.7926      0.00000

 k-point    13 :       0.2727    0.1818    0.0000
  band No.  band energies     occupation 
      1     -18.9363      1.00000
      2     -18.5485      1.00000
      3     -18.3572      1.00000
      4     -18.3305      1.00000
      5     -18.2222      1.00000
      6     -18.2085      1.00000
      7      -9.1113      1.00000
      8      -8.9450      1.00000
      9      -8.7639      1.00000
     10      -8.4072      1.00000
     11      -8.3789      1.00000
     12      -8.1991      1.00000
     13      -7.9321      1.00000
     14      -7.7584      1.00000
     15      -7.5223      1.00000
     16      -7.4178      1.00000
     17      -7.2944      1.00000
     18      -7.1656      1.00000
     19      -6.8818      1.00000
     20      -6.7442      1.00000
     21      -6.5213      1.00000
     22      -6.3700      1.00000
     23      -6.1040      1.00000
     24      -5.9817      1.00000
     25      -5.8065      1.00000
     26      -5.5884      1.00000
     27      -5.4435      1.00000
     28      -5.3725      1.00000
     29      -5.3074      1.00000
     30      -5.1332      1.00000
     31      -2.5171      0.00000
     32      -2.4897      0.00000
     33      -2.4309      0.00000
     34      -2.3231      0.00000
     35       2.6986      0.00000
     36       3.0163      0.00000

 k-point    14 :       0.3636    0.1818    0.0000
  band No.  band energies     occupation 
      1     -18.8472      1.00000
      2     -18.6370      1.00000
      3     -18.3697      1.00000
      4     -18.2952      1.00000
      5     -18.2496      1.00000
      6     -18.2149      1.00000
      7      -9.1350      1.00000
      8      -8.8566      1.00000
      9      -8.7618      1.00000
     10      -8.3784      1.00000
     11      -8.3691      1.00000
     12      -8.1394      1.00000
     13      -7.9905      1.00000
     14      -7.7548      1.00000
     15      -7.6674      1.00000
     16      -7.3779      1.00000
     17      -7.3247      1.00000
     18      -7.1566      1.00000
     19      -6.9127      1.00000
     20      -6.6961      1.00000
     21      -6.5724      1.00000
     22      -6.2615      1.00000
     23      -6.1724      1.00000
     24      -5.9302      1.00000
     25      -5.7828      1.00000
     26      -5.6581      1.00000
     27      -5.4493      1.00000
     28      -5.3978      1.00000
     29      -5.2165      1.00000
     30      -5.1532      1.00000
     31      -2.5202      0.00000
     32      -2.4747      0.00000
     33      -2.4447      0.00000
     34      -2.3146      0.00000
     35       3.0228      0.00000
     36       3.0732      0.00000

 k-point    15 :       0.2727    0.2727    0.0000
  band No.  band energies     occupation 
      1     -18.8444      1.00000
      2     -18.6285      1.00000
      3     -18.3852      1.00000
      4     -18.2981      1.00000
      5     -18.2380      1.00000
      6     -18.2205      1.00000
      7      -8.9922      1.00000
      8      -8.9894      1.00000
      9      -8.7631      1.00000
     10      -8.4056      1.00000
     11      -8.3762      1.00000
     12      -8.1471      1.00000
     13      -8.0044      1.00000
     14      -7.7438      1.00000
     15      -7.5964      1.00000
     16      -7.3844      1.00000
     17      -7.3043      1.00000
     18      -7.2137      1.00000
     19      -6.8705      1.00000
     20      -6.7400      1.00000
     21      -6.6055      1.00000
     22      -6.2439      1.00000
     23      -6.0636      1.00000
     24      -6.0222      1.00000
     25      -5.7881      1.00000
     26      -5.6709      1.00000
     27      -5.4428      1.00000
     28      -5.3819      1.00000
     29      -5.2216      1.00000
     30      -5.1400      1.00000
     31      -2.5222      0.00000
     32      -2.4825      0.00000
     33      -2.4402      0.00000
     34      -2.2935      0.00000
     35       3.0016      0.00000
     36       3.0897      0.00000

 k-point    16 :       0.3636    0.2727    0.0000
  band No.  band energies     occupation 
      1     -18.7764      1.00000
      2     -18.6917      1.00000
      3     -18.3963      1.00000
      4     -18.2726      1.00000
      5     -18.2561      1.00000
      6     -18.2258      1.00000
      7      -9.0071      1.00000
      8      -8.8863      1.00000
      9      -8.8152      1.00000
     10      -8.4031      1.00000
     11      -8.3931      1.00000
     12      -8.1047      1.00000
     13      -8.0455      1.00000
     14      -7.7329      1.00000
     15      -7.6477      1.00000
     16      -7.3318      1.00000
     17      -7.3168      1.00000
     18      -7.2370      1.00000
     19      -6.8888      1.00000
     20      -6.7130      1.00000
     21      -6.6486      1.00000
     22      -6.1498      1.00000
     23      -6.1156      1.00000
     24      -6.0084      1.00000
     25      -5.7992      1.00000
     26      -5.6941      1.00000
     27      -5.4268      1.00000
     28      -5.4009      1.00000
     29      -5.1754      1.00000
     30      -5.1545      1.00000
     31      -2.5249      0.00000
     32      -2.4670      0.00000
     33      -2.4550      0.00000
     34      -2.2789      0.00000
     35       3.0508      0.00000
     36       3.1143      0.00000
 Fermi energy:        -4.8882070220

 spin component 2

 k-point     1 :       0.0000    0.0000    0.0000
  band No.  band energies     occupation 
      1     -19.2524      1.00000
      2     -18.5284      1.00000
      3     -18.3368      1.00000
      4     -18.3368      1.00000
      5     -18.2355      1.00000
      6     -18.2355      1.00000
      7      -8.7087      1.00000
      8      -8.2685      1.00000
      9      -7.8576      1.00000
     10      -7.8576      1.00000
     11      -7.6665      1.00000
     12      -7.6665      1.00000
     13      -7.6067      1.00000
     14      -6.9557      1.00000
     15      -6.9557      1.00000
     16      -6.7478      1.00000
     17      -6.4825      1.00000
     18      -6.4825      1.00000
     19      -6.2220      1.00000
     20      -5.8222      1.00000
     21      -5.4862      1.00000
     22      -5.4862      1.00000
     23      -5.3012      1.00000
     24      -5.3012      1.00000
     25      -0.7409      0.00000
     26      -0.7409      0.00000
     27      -0.5333      0.00000
     28      -0.5318      0.00000
     29      -0.5318      0.00000
     30      -0.4723      0.00000
     31      -0.2355      0.00000
     32      -0.2355      0.00000
     33      -0.1839      0.00000
     34      -0.1839      0.00000
     35       1.7184      0.00000
     36       2.3330      0.00000

 k-point     2 :       0.0909    0.0000    0.0000
  band No.  band energies     occupation 
      1     -19.2362      1.00000
      2     -18.5209      1.00000
      3     -18.3562      1.00000
      4     -18.3433      1.00000
      5     -18.2377      1.00000
      6     -18.2370      1.00000
      7      -8.7156      1.00000
      8      -8.2643      1.00000
      9      -7.8671      1.00000
     10      -7.8000      1.00000
     11      -7.7803      1.00000
     12      -7.6859      1.00000
     13      -7.4635      1.00000
     14      -6.9906      1.00000
     15      -6.9624      1.00000
     16      -6.6770      1.00000
     17      -6.4891      1.00000
     18      -6.4630      1.00000
     19      -6.2059      1.00000
     20      -5.8131      1.00000
     21      -5.5050      1.00000
     22      -5.4891      1.00000
     23      -5.3912      1.00000
     24      -5.3185      1.00000
     25      -0.7535      0.00000
     26      -0.7360      0.00000
     27      -0.5556      0.00000
     28      -0.5407      0.00000
     29      -0.5367      0.00000
     30      -0.4357      0.00000
     31      -0.2595      0.00000
     32      -0.2447      0.00000
     33      -0.1835      0.00000
     34      -0.1707      0.00000
     35       1.7921      0.00000
     36       2.3827      0.00000

 k-point     3 :       0.1818    0.0000    0.0000
  band No.  band energies     occupation 
      1     -19.1887      1.00000
      2     -18.4990      1.00000
      3     -18.4111      1.00000
      4     -18.3593      1.00000
      5     -18.2446      1.00000
      6     -18.2440      1.00000
      7      -8.7229      1.00000
      8      -8.2549      1.00000
      9      -7.9075      1.00000
     10      -7.8598      1.00000
     11      -7.7099      1.00000
     12      -7.6526      1.00000
     13      -7.2807      1.00000
     14      -7.0838      1.00000
     15      -6.9824      1.00000
     16      -6.5522      1.00000
     17      -6.4580      1.00000
     18      -6.4171      1.00000
     19      -6.1658      1.00000
     20      -5.7991      1.00000
     21      -5.6794      1.00000
     22      -5.5077      1.00000
     23      -5.4959      1.00000
     24      -5.3548      1.00000
     25      -0.7828      0.00000
     26      -0.7176      0.00000
     27      -0.6220      0.00000
     28      -0.5645      0.00000
     29      -0.5525      0.00000
     30      -0.3470      0.00000
     31      -0.3157      0.00000
     32      -0.2693      0.00000
     33      -0.1832      0.00000
     34      -0.1338      0.00000
     35       1.9988      0.00000
     36       2.5208      0.00000

 k-point     4 :       0.2727    0.0000    0.0000
  band No.  band energies     occupation 
      1     -19.1144      1.00000
      2     -18.4942      1.00000
      3     -18.4654      1.00000
      4     -18.3781      1.00000
      5     -18.2605      1.00000
      6     -18.2546      1.00000
      7      -8.7190      1.00000
      8      -8.2386      1.00000
      9      -7.9792      1.00000
     10      -7.8572      1.00000
     11      -7.6776      1.00000
     12      -7.4857      1.00000
     13      -7.2407      1.00000
     14      -7.0704      1.00000
     15      -7.0080      1.00000
     16      -6.5731      1.00000
     17      -6.3747      1.00000
     18      -6.2549      1.00000
     19      -6.1096      1.00000
     20      -6.0225      1.00000
     21      -5.8366      1.00000
     22      -5.5534      1.00000
     23      -5.4825      1.00000
     24      -5.3772      1.00000
     25      -0.8273      0.00000
     26      -0.7085      0.00000
     27      -0.6830      0.00000
     28      -0.5915      0.00000
     29      -0.5724      0.00000
     30      -0.3782      0.00000
     31      -0.3142      0.00000
     32      -0.2352      0.00000
     33      -0.1842      0.00000
     34      -0.0887      0.00000
     35       2.3046      0.00000
     36       2.7293      0.00000

 k-point     5 :       0.3636    0.0000    0.0000
  band No.  band energies     occupation 
      1     -19.0220      1.00000
      2     -18.5943      1.00000
      3     -18.4244      1.00000
      4     -18.3937      1.00000
      5     -18.2875      1.00000
      6     -18.2643      1.00000
      7      -8.7125      1.00000
      8      -8.2053      1.00000
      9      -8.0309      1.00000
     10      -7.8077      1.00000
     11      -7.5906      1.00000
     12      -7.3945      1.00000
     13      -7.3540      1.00000
     14      -7.0131      1.00000
     15      -6.8932      1.00000
     16      -6.6294      1.00000
     17      -6.3801      1.00000
     18      -6.3569      1.00000
     19      -6.0559      1.00000
     20      -6.0398      1.00000
     21      -5.9309      1.00000
     22      -5.5958      1.00000
     23      -5.4700      1.00000
     24      -5.3525      1.00000
     25      -0.9010      0.00000
     26      -0.7633      0.00000
     27      -0.6535      0.00000
     28      -0.5973      0.00000
     29      -0.5874      0.00000
     30      -0.4303      0.00000
     31      -0.3504      0.00000
     32      -0.1856      0.00000
     33      -0.1479      0.00000
     34      -0.0548      0.00000
     35       2.6790      0.00000
     36       2.9937      0.00000

 k-point     6 :       0.4545    0.0000    0.0000
  band No.  band energies     occupation 
      1     -18.9360      1.00000
      2     -18.6848      1.00000
      3     -18.4035      1.00000
      4     -18.3828      1.00000
      5     -18.3202      1.00000
      6     -18.2702      1.00000
      7      -8.7109      1.00000
      8      -8.1700      1.00000
      9      -8.0576      1.00000
     10      -7.7194      1.00000
     11      -7.5430      1.00000
     12      -7.5006      1.00000
     13      -7.2894      1.00000
     14      -6.9541      1.00000
     15      -6.7833      1.00000
     16      -6.7610      1.00000
     17      -6.5585      1.00000
     18      -6.3583      1.00000
     19      -6.0927      1.00000
     20      -5.9458      1.00000
     21      -5.9041      1.00000
     22      -5.6318      1.00000
     23      -5.4828      1.00000
     24      -5.3099      1.00000
     25      -0.9622      0.00000
     26      -0.7836      0.00000
     27      -0.6523      0.00000
     28      -0.5938      0.00000
     29      -0.5766      0.00000
     30      -0.4603      0.00000
     31      -0.3748      0.00000
     32      -0.1859      0.00000
     33      -0.0929      0.00000
     34      -0.0423      0.00000
     35       3.1067      0.00000
     36       3.2937      0.00000

 k-point     7 :       0.0909    0.0909    0.0000
  band No.  band energies     occupation 
      1     -19.2043      1.00000
      2     -18.5062      1.00000
      3     -18.3915      1.00000
      4     -18.3566      1.00000
      5     -18.2417      1.00000
      6     -18.2416      1.00000
      7      -8.7207      1.00000
      8      -8.2586      1.00000
      9      -7.8824      1.00000
     10      -7.8608      1.00000
     11      -7.7067      1.00000
     12      -7.6955      1.00000
     13      -7.3275      1.00000
     14      -7.0586      1.00000
     15      -6.9718      1.00000
     16      -6.5736      1.00000
     17      -6.4880      1.00000
     18      -6.4261      1.00000
     19      -6.1795      1.00000
     20      -5.8096      1.00000
     21      -5.5747      1.00000
     22      -5.5313      1.00000
     23      -5.4687      1.00000
     24      -5.3512      1.00000
     25      -0.7683      0.00000
     26      -0.7329      0.00000
     27      -0.5982      0.00000
     28      -0.5611      0.00000
     29      -0.5414      0.00000
     30      -0.3769      0.00000
     31      -0.2966      0.00000
     32      -0.2632      0.00000
     33      -0.1793      0.00000
     34      -0.1476      0.00000
     35       1.9319      0.00000
     36       2.4762      0.00000

 k-point     8 :       0.1818    0.0909    0.0000
  band No.  band energies     occupation 
      1     -19.1433      1.00000
      2     -18.4785      1.00000
      3     -18.4574      1.00000
      4     -18.3779      1.00000
      5     -18.2532      1.00000
      6     -18.2497      1.00000
      7      -8.7133      1.00000
      8      -8.2513      1.00000
      9      -7.9397      1.00000
     10      -7.8876      1.00000
     11      -7.7006      1.00000
     12      -7.5409      1.00000
     13      -7.1908      1.00000
     14      -7.1429      1.00000
     15      -6.9803      1.00000
     16      -6.5702      1.00000
     17      -6.3737      1.00000
     18      -6.3357      1.00000
     19      -6.1411      1.00000
     20      -5.9585      1.00000
     21      -5.7063      1.00000
     22      -5.5616      1.00000
     23      -5.4870      1.00000
     24      -5.3903      1.00000
     25      -0.7966      0.00000
     26      -0.7212      0.00000
     27      -0.6739      0.00000
     28      -0.5878      0.00000
     29      -0.5556      0.00000
     30      -0.3486      0.00000
     31      -0.3153      0.00000
     32      -0.2708      0.00000
     33      -0.1698      0.00000
     34      -0.1078      0.00000
     35       2.1856      0.00000
     36       2.6478      0.00000

 k-point     9 :       0.2727    0.0909    0.0000
  band No.  band energies     occupation 
      1     -19.0591      1.00000
      2     -18.5474      1.00000
      3     -18.4412      1.00000
      4     -18.3983      1.00000
      5     -18.2738      1.00000
      6     -18.2600      1.00000
      7      -8.6940      1.00000
      8      -8.2335      1.00000
      9      -7.9965      1.00000
     10      -7.8624      1.00000
     11      -7.6364      1.00000
     12      -7.4013      1.00000
     13      -7.3377      1.00000
     14      -7.0409      1.00000
     15      -6.9068      1.00000
     16      -6.6202      1.00000
     17      -6.3416      1.00000
     18      -6.3071      1.00000
     19      -6.1283      1.00000
     20      -6.0578      1.00000
     21      -5.8130      1.00000
     22      -5.5800      1.00000
     23      -5.4758      1.00000
     24      -5.3962      1.00000
     25      -0.8519      0.00000
     26      -0.7605      0.00000
     27      -0.6773      0.00000
     28      -0.6096      0.00000
     29      -0.5729      0.00000
     30      -0.4019      0.00000
     31      -0.3438      0.00000
     32      -0.2050      0.00000
     33      -0.1463      0.00000
     34      -0.0675      0.00000
     35       2.5199      0.00000
     36       2.8822      0.00000

 k-point    10 :       0.3636    0.0909    0.0000
  band No.  band energies     occupation 
      1     -18.9650      1.00000
      2     -18.6461      1.00000
      3     -18.4139      1.00000
      4     -18.3981      1.00000
      5     -18.3036      1.00000
      6     -18.2682      1.00000
      7      -8.6795      1.00000
      8      -8.1984      1.00000
      9      -8.0324      1.00000
     10      -7.7922      1.00000
     11      -7.5324      1.00000
     12      -7.5001      1.00000
     13      -7.3200      1.00000
     14      -7.0103      1.00000
     15      -6.7775      1.00000
     16      -6.7023      1.00000
     17      -6.5490      1.00000
     18      -6.3313      1.00000
     19      -6.0369      1.00000
     20      -5.9760      1.00000
     21      -5.8964      1.00000
     22      -5.6174      1.00000
     23      -5.4748      1.00000
     24      -5.3522      1.00000
     25      -0.9263      0.00000
     26      -0.7954      0.00000
     27      -0.6488      0.00000
     28      -0.6142      0.00000
     29      -0.5817      0.00000
     30      -0.4489      0.00000
     31      -0.3698      0.00000
     32      -0.1806      0.00000
     33      -0.0965      0.00000
     34      -0.0432      0.00000
     35       2.9117      0.00000
     36       3.1644      0.00000

 k-point    11 :       0.4545    0.0909    0.0000
  band No.  band energies     occupation 
      1     -18.9087      1.00000
      2     -18.7043      1.00000
      3     -18.4184      1.00000
      4     -18.3701      1.00000
      5     -18.3278      1.00000
      6     -18.2713      1.00000
      7      -8.6754      1.00000
      8      -8.1774      1.00000
      9      -8.0448      1.00000
     10      -7.7121      1.00000
     11      -7.6140      1.00000
     12      -7.4716      1.00000
     13      -7.2900      1.00000
     14      -6.9523      1.00000
     15      -6.9088      1.00000
     16      -6.6497      1.00000
     17      -6.5983      1.00000
     18      -6.3351      1.00000
     19      -6.0477      1.00000
     20      -5.9863      1.00000
     21      -5.8419      1.00000
     22      -5.6434      1.00000
     23      -5.4807      1.00000
     24      -5.3264      1.00000
     25      -0.9597      0.00000
     26      -0.8056      0.00000
     27      -0.6446      0.00000
     28      -0.6011      0.00000
     29      -0.5871      0.00000
     30      -0.4697      0.00000
     31      -0.3789      0.00000
     32      -0.1753      0.00000
     33      -0.0709      0.00000
     34      -0.0382      0.00000
     35       3.3184      0.00000
     36       3.3465      0.00000

 k-point    12 :       0.1818    0.1818    0.0000
  band No.  band energies     occupation 
      1     -19.0719      1.00000
      2     -18.5250      1.00000
      3     -18.4471      1.00000
      4     -18.4071      1.00000
      5     -18.2681      1.00000
      6     -18.2581      1.00000
      7      -8.6741      1.00000
      8      -8.2531      1.00000
      9      -7.9552      1.00000
     10      -7.9154      1.00000
     11      -7.6581      1.00000
     12      -7.4188      1.00000
     13      -7.3204      1.00000
     14      -7.0562      1.00000
     15      -6.8870      1.00000
     16      -6.6304      1.00000
     17      -6.3157      1.00000
     18      -6.3138      1.00000
     19      -6.1667      1.00000
     20      -6.0670      1.00000
     21      -5.6498      1.00000
     22      -5.6338      1.00000
     23      -5.4887      1.00000
     24      -5.4296      1.00000
     25      -0.8151      0.00000
     26      -0.7666      0.00000
     27      -0.7089      0.00000
     28      -0.6068      0.00000
     29      -0.5697      0.00000
     30      -0.3696      0.00000
     31      -0.3597      0.00000
     32      -0.2178      0.00000
     33      -0.1316      0.00000
     34      -0.0758      0.00000
     35       2.4626      0.00000
     36       2.8432      0.00000

 k-point    13 :       0.2727    0.1818    0.0000
  band No.  band energies     occupation 
      1     -18.9825      1.00000
      2     -18.6114      1.00000
      3     -18.4340      1.00000
      4     -18.4077      1.00000
      5     -18.2897      1.00000
      6     -18.2682      1.00000
      7      -8.6185      1.00000
      8      -8.2462      1.00000
      9      -7.9776      1.00000
     10      -7.8864      1.00000
     11      -7.5674      1.00000
     12      -7.4857      1.00000
     13      -7.3462      1.00000
     14      -7.0236      1.00000
     15      -6.7623      1.00000
     16      -6.6899      1.00000
     17      -6.5601      1.00000
     18      -6.2804      1.00000
     19      -6.1036      1.00000
     20      -5.9403      1.00000
     21      -5.7710      1.00000
     22      -5.6188      1.00000
     23      -5.4718      1.00000
     24      -5.4281      1.00000
     25      -0.8680      0.00000
     26      -0.8230      0.00000
     27      -0.6905      0.00000
     28      -0.6153      0.00000
     29      -0.5850      0.00000
     30      -0.4234      0.00000
     31      -0.3763      0.00000
     32      -0.1770      0.00000
     33      -0.0837      0.00000
     34      -0.0453      0.00000
     35       2.8015      0.00000
     36       3.0929      0.00000

 k-point    14 :       0.3636    0.1818    0.0000
  band No.  band energies     occupation 
      1     -18.8959      1.00000
      2     -18.6971      1.00000
      3     -18.4478      1.00000
      4     -18.3704      1.00000
      5     -18.3175      1.00000
      6     -18.2746      1.00000
      7      -8.5823      1.00000
      8      -8.2251      1.00000
      9      -7.9952      1.00000
     10      -7.8020      1.00000
     11      -7.6482      1.00000
     12      -7.4574      1.00000
     13      -7.3208      1.00000
     14      -7.0072      1.00000
     15      -6.9613      1.00000
     16      -6.6358      1.00000
     17      -6.5370      1.00000
     18      -6.2767      1.00000
     19      -6.0632      1.00000
     20      -5.9093      1.00000
     21      -5.8059      1.00000
     22      -5.6466      1.00000
     23      -5.4700      1.00000
     24      -5.3916      1.00000
     25      -0.9228      0.00000
     26      -0.8444      0.00000
     27      -0.6689      0.00000
     28      -0.6219      0.00000
     29      -0.5761      0.00000
     30      -0.4768      0.00000
     31      -0.3798      0.00000
     32      -0.1568      0.00000
     33      -0.0486      0.00000
     34      -0.0294      0.00000
     35       3.1657      0.00000
     36       3.3847      0.00000

 k-point    15 :       0.2727    0.2727    0.0000
  band No.  band energies     occupation 
      1     -18.8938      1.00000
      2     -18.6871      1.00000
      3     -18.4638      1.00000
      4     -18.3726      1.00000
      5     -18.3082      1.00000
      6     -18.2786      1.00000
      7      -8.5112      1.00000
      8      -8.2742      1.00000
      9      -7.9254      1.00000
     10      -7.9001      1.00000
     11      -7.6544      1.00000
     12      -7.4633      1.00000
     13      -7.3348      1.00000
     14      -7.0036      1.00000
     15      -6.9936      1.00000
     16      -6.6507      1.00000
     17      -6.4974      1.00000
     18      -6.2272      1.00000
     19      -6.1200      1.00000
     20      -5.8250      1.00000
     21      -5.7872      1.00000
     22      -5.6528      1.00000
     23      -5.4542      1.00000
     24      -5.4511      1.00000
     25      -0.8783      0.00000
     26      -0.8781      0.00000
     27      -0.7110      0.00000
     28      -0.6020      0.00000
     29      -0.5831      0.00000
     30      -0.4744      0.00000
     31      -0.3810      0.00000
     32      -0.1494      0.00000
     33      -0.0389      0.00000
     34      -0.0248      0.00000
     35       3.1034      0.00000
     36       3.3554      0.00000

 k-point    16 :       0.3636    0.2727    0.0000
  band No.  band energies     occupation 
      1     -18.8280      1.00000
      2     -18.7477      1.00000
      3     -18.4754      1.00000
      4     -18.3468      1.00000
      5     -18.3267      1.00000
      6     -18.2836      1.00000
      7      -8.4465      1.00000
      8      -8.2979      1.00000
      9      -7.9209      1.00000
     10      -7.8218      1.00000
     11      -7.7914      1.00000
     12      -7.3749      1.00000
     13      -7.3366      1.00000
     14      -7.1563      1.00000
     15      -6.9793      1.00000
     16      -6.6732      1.00000
     17      -6.4046      1.00000
     18      -6.2110      1.00000
     19      -6.1277      1.00000
     20      -5.8232      1.00000
     21      -5.7736      1.00000
     22      -5.6614      1.00000
     23      -5.4617      1.00000
     24      -5.4419      1.00000
     25      -0.9011      0.00000
     26      -0.8819      0.00000
     27      -0.7222      0.00000
     28      -0.5957      0.00000
     29      -0.5579      0.00000
     30      -0.5160      0.00000
     31      -0.3802      0.00000
     32      -0.1384      0.00000
     33      -0.0217      0.00000
     34      -0.0173      0.00000
     35       3.3016      0.00000
     36       3.3537      0.00000


--------------------------------------------------------------------------------------------------------


 soft charge-density along one line, spin component           1
         0         1         2         3         4         5         6         7         8         9
 total charge-density along one line

 soft charge-density along one line, spin component           2
         0         1         2         3         4         5         6         7         8         9
 total charge-density along one line

 pseudopotential strength for first ion, spin component:           1
-10.904   1.182  -0.000   0.000   0.000 -11.246   1.203  -0.000
  1.182 -10.064  -0.000   0.000  -0.000   1.203 -10.391  -0.000
 -0.000  -0.000 -11.737  -0.000   0.000  -0.000  -0.000 -12.095
  0.000   0.000  -0.000 -10.064  -1.182   0.000   0.000  -0.000
  0.000  -0.000   0.000  -1.182 -10.904   0.000  -0.000   0.000
-11.246   1.203  -0.000   0.000   0.000 -11.562   1.236  -0.000
  1.203 -10.391  -0.000   0.000  -0.000   1.236 -10.684  -0.000
 -0.000  -0.000 -12.095  -0.000   0.000  -0.000  -0.000 -12.433
  0.000   0.000  -0.000 -10.391  -1.203   0.000   0.000  -0.000
  0.000  -0.000   0.000  -1.203 -11.246   0.000  -0.000   0.000
 -0.000  -0.000   0.000  -0.000   0.000  -0.000  -0.000   0.000
 -0.000  -0.000   0.000  -0.000   0.000  -0.000  -0.000   0.000
 -0.000  -0.000  -0.000   0.000  -0.001  -0.000  -0.000  -0.000
  0.000   0.000   0.000  -0.000   0.000   0.000   0.000   0.000
 -0.001   0.000   0.000   0.000  -0.000  -0.001   0.000   0.000
 -0.000  -0.000  -0.000   0.000  -0.002  -0.000  -0.000  -0.000
  0.000   0.000   0.000  -0.000   0.000   0.000   0.000   0.000
 -0.002   0.000   0.000   0.000  -0.000  -0.002   0.000   0.000
 pseudopotential strength for first ion, spin component:           2
 -6.759  -0.521   0.000   0.000   0.000  -7.095  -0.519   0.000
 -0.521  -7.124  -0.000   0.000  -0.000  -0.519  -7.458  -0.000
  0.000  -0.000  -6.379  -0.000  -0.000   0.000  -0.000  -6.715
  0.000   0.000  -0.000  -7.124   0.521   0.000   0.000  -0.000
  0.000  -0.000  -0.000   0.521  -6.759   0.000  -0.000  -0.000
 -7.095  -0.519   0.000   0.000   0.000  -7.376  -0.521   0.000
 -0.519  -7.458  -0.000   0.000  -0.000  -0.521  -7.740  -0.000
  0.000  -0.000  -6.715  -0.000  -0.000   0.000  -0.000  -6.994
  0.000   0.000  -0.000  -7.458   0.519   0.000   0.000  -0.000
  0.000  -0.000  -0.000   0.519  -7.095   0.000  -0.000  -0.000
  0.000  -0.000  -0.001  -0.000  -0.000   0.000  -0.000  -0.001
  0.000  -0.000  -0.001  -0.000  -0.000   0.000  -0.000  -0.001
  0.000  -0.000   0.000   0.000  -0.000   0.000  -0.000   0.000
  0.000  -0.000   0.000   0.000   0.000   0.000  -0.000   0.000
 -0.000   0.000  -0.000   0.000   0.000  -0.001   0.000  -0.000
  0.000  -0.000   0.000   0.000  -0.000   0.000  -0.000   0.000
  0.000  -0.000   0.000   0.000   0.000   0.000  -0.000   0.000
 -0.000   0.000  -0.000   0.000   0.000  -0.000   0.000  -0.000
 total augmentation occupancy for first ion, spin component:           1
  3.838  -1.714  -0.000  -0.000  -0.000  -2.716   0.578   0.000   0.000   0.000   0.000   0.000  -0.000   0.000   0.081   0.000
 -1.714   2.555  -0.000  -0.000   0.000   0.579  -2.225   0.000   0.000  -0.000  -0.000   0.000  -0.000  -0.000  -0.027  -0.000
 -0.000  -0.000   4.925   0.000   0.000   0.000   0.000  -2.991  -0.000  -0.000   0.055  -0.008  -0.000   0.000   0.000  -0.000
  0.000  -0.000   0.000   2.555   1.714   0.000   0.000  -0.000  -2.225  -0.579  -0.000  -0.000   0.027  -0.000   0.000  -0.000
 -0.000   0.000   0.000   1.714   3.838   0.000  -0.000  -0.000  -0.578  -2.716   0.000  -0.000   0.081   0.000  -0.000  -0.003
 -2.716   0.579   0.000   0.000   0.000   2.537   0.272   0.000   0.000  -0.000  -0.000  -0.000   0.000  -0.000  -0.087  -0.000
  0.578  -2.225   0.000   0.000  -0.000   0.272   2.635   0.000  -0.000  -0.000  -0.000  -0.000   0.000   0.000   0.023   0.000
  0.000   0.000  -2.991   0.000  -0.000   0.000   0.000   2.197   0.000   0.000  -0.060   0.009  -0.000  -0.000  -0.000   0.000
  0.000   0.000  -0.000  -2.225  -0.578   0.000  -0.000  -0.000   2.635  -0.272   0.000   0.000  -0.023  -0.000  -0.000   0.000
  0.000  -0.000  -0.000  -0.579  -2.716  -0.000  -0.000   0.000  -0.272   2.537  -0.000   0.000  -0.087   0.000  -0.000   0.003
 -0.000   0.000   0.055   0.000   0.000  -0.000   0.000  -0.060   0.000  -0.000   1.713  -0.186  -0.000   0.000   0.000  -0.000
  0.000   0.000  -0.008   0.000  -0.000  -0.000   0.000   0.009  -0.000  -0.000  -0.186   0.028  -0.000   0.000   0.000   0.000
 -0.000   0.000   0.000   0.027   0.081   0.000   0.000  -0.000  -0.023  -0.087  -0.000  -0.000   0.270  -0.000   0.000  -0.007
 -0.000  -0.000   0.000   0.000  -0.000  -0.000  -0.000  -0.000  -0.000   0.000   0.000   0.000   0.000   0.263   0.000  -0.000
  0.081  -0.027   0.000   0.000   0.000  -0.087   0.023  -0.000  -0.000  -0.000   0.000   0.000   0.000   0.000   0.270  -0.000
  0.000   0.000  -0.000  -0.000  -0.003  -0.000   0.000   0.000   0.000   0.003   0.000  -0.000  -0.007   0.000   0.000   0.000
 -0.000   0.000   0.000  -0.000   0.000  -0.000  -0.000  -0.000  -0.000  -0.000   0.000   0.000   0.000  -0.007  -0.000   0.000
 -0.003   0.000  -0.000   0.000  -0.000   0.003  -0.000  -0.000  -0.000  -0.000   0.000   0.000  -0.000   0.000  -0.007   0.000
 total augmentation occupancy for first ion, spin component:           2
  2.955  -2.358  -0.000  -0.000  -0.000  -1.506   1.462   0.000   0.000   0.000   0.000  -0.000  -0.000   0.000   0.022   0.000
 -2.358   1.277  -0.000  -0.000   0.000   1.463  -0.463   0.000   0.000  -0.000   0.000   0.000   0.000  -0.000  -0.022  -0.000
 -0.000  -0.000   4.547   0.000   0.000   0.000   0.000  -2.471  -0.000  -0.000   0.005   0.001   0.000   0.000   0.000  -0.000
  0.000  -0.000   0.000   1.277   2.358   0.000   0.000  -0.000  -0.463  -1.463   0.000  -0.000   0.022   0.000   0.000  -0.000
 -0.000   0.000   0.000   2.358   2.955   0.000  -0.000  -0.000  -1.462  -1.506   0.000   0.000   0.022   0.000  -0.000   0.000
 -1.506   1.463   0.000   0.000   0.000   0.844  -0.985  -0.000   0.000  -0.000  -0.000  -0.000   0.000  -0.000  -0.015   0.000
  1.462  -0.463   0.000   0.000  -0.000  -0.985   0.142  -0.000  -0.000   0.000   0.000  -0.000  -0.000   0.000   0.014  -0.000
  0.000   0.000  -2.471  -0.000  -0.000  -0.000  -0.000   1.481   0.000   0.000  -0.001  -0.001   0.000  -0.000   0.000   0.000
  0.000   0.000  -0.000  -0.463  -1.462  -0.000  -0.000   0.000   0.142   0.985   0.000   0.000  -0.014   0.000  -0.000   0.000
  0.000  -0.000  -0.000  -1.463  -1.506  -0.000   0.000   0.000   0.985   0.844  -0.000  -0.000  -0.015   0.000   0.000  -0.000
  0.000   0.000   0.005   0.000   0.000  -0.000  -0.000  -0.001   0.000  -0.000  -0.048   0.053   0.000   0.000   0.000   0.000
  0.000   0.000   0.001   0.000   0.000  -0.000   0.000  -0.001   0.000  -0.000   0.053  -0.009   0.000   0.000  -0.000  -0.000
 -0.000  -0.000  -0.000   0.022   0.022   0.000   0.000   0.000  -0.014  -0.015   0.000  -0.000   0.017   0.000   0.000   0.002
  0.000  -0.000   0.000  -0.000  -0.000  -0.000   0.000  -0.000   0.000   0.000   0.000   0.000   0.000   0.015  -0.000   0.000
  0.022  -0.022   0.000   0.000   0.000  -0.015   0.014   0.000  -0.000   0.000  -0.000   0.000   0.000   0.000   0.017  -0.000
  0.000   0.000  -0.000  -0.000   0.000   0.000  -0.000  -0.000   0.000  -0.000   0.000  -0.000   0.002   0.000   0.000  -0.000
  0.000  -0.000   0.000   0.000   0.000  -0.000  -0.000  -0.000  -0.000   0.000   0.000   0.000   0.000   0.002  -0.000   0.000
  0.000   0.000  -0.000  -0.000  -0.000  -0.000  -0.000   0.000   0.000   0.000  -0.000   0.000   0.000   0.000   0.002  -0.000


------------------------ aborting loop because EDIFF is reached ----------------------------------------





 total charge

# of ion       s       p       d       tot
------------------------------------------
    1        0.345   0.503   4.056   4.904
    2        0.345   0.503   4.056   4.904
    3        1.604   3.516   0.000   5.120
    4        1.604   3.516   0.000   5.120
    5        1.604   3.516   0.000   5.120
    6        1.604   3.516   0.000   5.120
    7        1.604   3.516   0.000   5.120
    8        1.604   3.516   0.000   5.120
--------------------------------------------------
tot         10.314  22.105   8.111  40.530



 magnetization (x)

# of ion       s       p       d       tot
------------------------------------------
    1        0.032   0.040   3.093   3.165
    2        0.032   0.040   3.093   3.165
    3       -0.002  -0.073   0.000  -0.075
    4       -0.002  -0.073   0.000  -0.075
    5       -0.002  -0.073   0.000  -0.075
    6       -0.002  -0.073   0.000  -0.075
    7       -0.002  -0.073   0.000  -0.075
    8       -0.002  -0.073   0.000  -0.075
--------------------------------------------------
tot          0.054  -0.359   6.187   5.882

    CHARGE:  cpu time      0.1396: real time      0.1405
    FORLOC:  cpu time      0.0030: real time      0.0030
    FORNL :  cpu time      0.3040: real time      0.3068
    STRESS:  cpu time      0.4967: real time      0.5008
    FORCOR:  cpu time      0.1365: real time      0.1379
    FORHAR:  cpu time      0.0157: real time      0.0159
    MIXING:  cpu time      0.0063: real time      0.0063
    OFIELD:  cpu time      0.0001: real time      0.0001

 ---------------------------------------------------------------------------------------------

         DFTD3 V3.0 Rev 1        
 Edisp (eV)   -0.91596

 E6    (eV) :    -0.3543
 E8    (eV) :    -0.5617
 % E8        : 61.32
    FORVDW:  cpu time      0.0158: real time      0.0161

  FORCE on cell =-STRESS in cart. coord.  units (eV):
  Direction    XX          YY          ZZ          XY          YZ          ZX
  --------------------------------------------------------------------------------------
  Alpha Z    30.58250    30.58250    30.58250
  Ewald    6094.00870  6094.00870 -7778.28127    -0.00000     0.00000    -0.00000
  Hartree  6732.94655  6732.94655 -6355.41070    -0.00000     0.00000     0.00000
  E(xc)    -209.16696  -209.16696  -209.46390    -0.00000    -0.00000    -0.00000
  Local  -13857.94197-13857.94187 13099.40031     0.00009     0.00000     0.00000
  n-local   479.56249   479.70187   478.71847    -0.41644     0.03741     0.04897
  augment   -58.54556   -58.54564   -58.70022    -0.00007    -0.00000    -0.00000
  Kinetic   789.49243   788.99149   793.08606     0.58966    -0.32571     0.05389
  Fock        0.00000     0.00000     0.00000     0.00000     0.00000     0.00000
  vdW        -0.75545    -0.75545    -0.02434    -0.00000    -0.00000     0.00000
  -------------------------------------------------------------------------------------
  Total       0.00196     0.00196    -0.09309     0.00000     0.00000     0.00000
  in kB       0.00558     0.00558    -0.26495     0.00000     0.00000     0.00000
  external pressure =       -0.08 kB  Pullay stress =        0.00 kB


 VOLUME and BASIS-vectors are now :
 -----------------------------------------------------------------------------
  energy-cutoff  :      400.00
  volume of cell :      562.90
      direct lattice vectors                 reciprocal lattice vectors
     6.065031350  0.000000000  0.000000000     0.164879609  0.095193287 -0.000000000
    -3.032515675  5.252471224  0.000000000     0.000000000  0.190386574  0.000000000
     0.000000000  0.000000000 17.670000000     0.000000000 -0.000000000  0.056593096

  length of vectors
     6.065031350  6.065031350 17.670000000     0.190386574  0.190386574  0.056593096


 FORCES acting on ions
    electron-ion (+dipol)            ewald-force                    non-local-force                 convergence-correction
 -----------------------------------------------------------------------------------------------
   0.209E-06 -.121E-06 0.199E-12   -.500E-11 0.282E-11 -.189E-13   0.662E-18 -.118E-18 0.105E-19   -.536E-10 0.310E-10 -.371E-12
   -.209E-06 0.121E-06 -.118E-10   0.498E-11 -.282E-11 -.189E-13   -.499E-18 0.149E-18 -.105E-19   0.537E-10 -.310E-10 -.383E-12
   0.676E+02 0.117E-05 0.456E+03   -.696E+02 -.331E-11 -.459E+03   0.203E+01 0.447E-19 0.287E+01   -.102E-03 0.152E-07 -.657E-03
   -.338E+02 0.586E+02 0.456E+03   0.348E+02 -.603E+02 -.459E+03   -.101E+01 0.175E+01 0.287E+01   0.512E-04 -.886E-04 -.657E-03
   -.338E+02 -.586E+02 0.456E+03   0.348E+02 0.603E+02 -.459E+03   -.101E+01 -.175E+01 0.287E+01   0.512E-04 0.886E-04 -.657E-03
   -.676E+02 -.117E-05 -.456E+03   0.696E+02 0.329E-11 0.459E+03   -.203E+01 -.842E-18 -.287E+01   0.102E-03 -.152E-07 0.657E-03
   0.338E+02 -.586E+02 -.456E+03   -.348E+02 0.603E+02 0.459E+03   0.101E+01 -.175E+01 -.287E+01   -.512E-04 0.886E-04 0.657E-03
   0.338E+02 0.586E+02 -.456E+03   -.348E+02 -.603E+02 0.459E+03   0.101E+01 0.175E+01 -.287E+01   -.512E-04 -.886E-04 0.657E-03
 -----------------------------------------------------------------------------------------------
   0.596E-13 0.412E-12 -.408E-11   0.000E+00 -.711E-14 -.114E-12   0.444E-15 -.222E-15 0.000E+00   0.232E-13 0.938E-14 -.307E-11


 POSITION                                       TOTAL-FORCE (eV/Angst)
 -----------------------------------------------------------------------------------
      0.00000      3.50165      8.83500         0.000000     -0.000000      0.000000
      3.03252      1.75082      8.83500         0.000000      0.000000      0.000000
      2.14951      0.00000      7.47526        -0.000036     -0.000000     -0.001512
     -1.07475      1.86153      7.47526         0.000018     -0.000031     -0.001512
      1.95776      3.39094      7.47526         0.000018      0.000031     -0.001512
      3.91552      0.00000     10.19474         0.000036      0.000000      0.001512
     -1.95776      3.39094     10.19474        -0.000018      0.000031      0.001512
      1.07475      1.86153     10.19474        -0.000018     -0.000031      0.001512
 -----------------------------------------------------------------------------------
    total drift:                                0.000000      0.000000     -0.000000


--------------------------------------------------------------------------------------------------------



  FREE ENERGIE OF THE ION-ELECTRON SYSTEM (eV)
  ---------------------------------------------------
  free  energy   TOTEN  =       -35.57138285 eV

  energy  without entropy=      -35.57138285  energy(sigma->0) =      -35.57138285
 d Force = 0.2236880E-03[ 0.325E-04, 0.415E-03]  d Energy = 0.2869662E-03-0.633E-04
 d Force = 0.1002239E+02[ 0.100E+02, 0.100E+02]  d Ewald  =-0.4891265E+01 0.149E+02



--------------------------------------------------------------------------------------------------------


    POTLOK:  cpu time      0.2626: real time      0.2647


--------------------------------------------------------------------------------------------------------




--------------------------------------------------------------------------------------------------------


  
 reached required accuracy - stopping structural energy minimisation
 writing wavefunctions
     LOOP+:  cpu time     48.9187: real time     49.5171
    4ORBIT:  cpu time      0.0000: real time      0.0000



 total charge

# of ion       s       p       d       tot
------------------------------------------
    1        0.345   0.503   4.056   4.904
    2        0.345   0.503   4.056   4.904
    3        1.604   3.516   0.000   5.120
    4        1.604   3.516   0.000   5.120
    5        1.604   3.516   0.000   5.120
    6        1.604   3.516   0.000   5.120
    7        1.604   3.516   0.000   5.120
    8        1.604   3.516   0.000   5.120
--------------------------------------------------
tot         10.314  22.105   8.111  40.530



 magnetization (x)

# of ion       s       p       d       tot
------------------------------------------
    1        0.032   0.040   3.093   3.165
    2        0.032   0.040   3.093   3.165
    3       -0.002  -0.073   0.000  -0.075
    4       -0.002  -0.073   0.000  -0.075
    5       -0.002  -0.073   0.000  -0.075
    6       -0.002  -0.073   0.000  -0.075
    7       -0.002  -0.073   0.000  -0.075
    8       -0.002  -0.073   0.000  -0.075
--------------------------------------------------
tot          0.054  -0.359   6.187   5.882


 total amount of memory used by VASP MPI-rank0    70272. kBytes
=======================================================================

   base                                    :      30000. kBytes
   nonl-proj                               :      12067. kBytes
   fftplans                                :       4689. kBytes
   grid                                    :      11584. kBytes
   one-center                              :         62. kBytes
   wavefun                                 :      11870. kBytes

  
  
 General timing and accounting informations for this job:
 ========================================================
  
                  Total CPU time used (sec):      392.923
                            User time (sec):      372.204
                          System time (sec):       20.719
                         Elapsed time (sec):      398.685
  
                   Maximum memory used (kb):      138536.
                   Average memory used (kb):          N/A
  
                          Minor page faults:       247661
                          Major page faults:            5
                 Voluntary context switches:          491
