 vasp.6.6.1 17Jul2026 (build Sep  1 2026 13:17:54) complex                       
 executed on             LinuxGNU date 2026.09.08  15:14:33
 running   16 mpi-ranks, with    1 threads/rank, on    1 nodes
 distrk:  each k-point on   16 cores,    1 groups
 distr:  one band on NCORE=   4 cores,    4 groups


--------------------------------------------------------------------------------------------------------


 INCAR:
   SYSTEM = CrCl3-1x1 ISIF3 LATTICE_CONSTRAINTS U\=4.0eV
   PREC = Accurate
   ENCUT = 500.0
   ALGO = Normal
   EDIFF = 1.0E-06
   NELM = 100
   ISPIN = 2
   MAGMOM = 2*3.0 6*0.0
   ISMEAR = 0
   SIGMA = 0.05
   IVDW = 11
   IBRION = 2
   NSW = 100
   ISIF = 3
   LATTICE_CONSTRAINTS = .TRUE. .TRUE. .FALSE.
   EDIFFG = -0.01
   LORBIT = 11
   LWAVE = .FALSE.
   LCHARG = .FALSE.
   NCORE = 4
   LASPH = .TRUE.
   LMAXMIX = 4
   LDAU = .TRUE.
   LDAUTYPE = 2
   LDAUL = 2 -1
   LDAUU = 4.0 0.0
   LDAUJ = 0.0 0.0

 POTCAR:    PAW_PBE Cr 06Sep2000                  
 POTCAR:    PAW_PBE Cl 06Sep2000                  
 POTCAR:    PAW_PBE Cr 06Sep2000                  
   SHA256 =  56e7271fac8042f322b235801e26979132a24da65eb043fa6a03029023cb2fcc Cr/POTCAR             
   COPYR  = (c) Copyright 06Sep2000 Georg Kresse                                                    
   COPYR  = This file is part of the software VASP. Any use, copying, and all other rights are regul
   COPYR  = If you do not have a valid VASP license, you may not use, copy or distribute this file. 
   VRHFIN =Cr : d5 s1                                                                               
   LEXCH  = PE                                                                                      
   EATOM  =   276.8859 eV,   20.3505 Ry                                                             
                                                                                                    
   TITEL  = PAW_PBE Cr 06Sep2000                                                                    
   LULTRA =        F    use ultrasoft PP ?                                                          
   IUNSCR =        1    unscreen: 0-lin 1-nonlin 2-no                                               
   RPACOR =    2.080    partial core radius                                                         
   POMASS =   51.996; ZVAL   =    6.000    mass and valenz                                          
   RCORE  =    2.500    outmost cutoff radius                                                       
   RWIGS  =    2.500; RWIGS  =    1.323    wigner-seitz radius (au A)                               
   ENMAX  =  227.080; ENMIN  =  170.310 eV                                                          
   RCLOC  =    1.721    cutoff for local pot                                                        
   LCOR   =        T    correct aug charges                                                         
   LPAW   =        T    paw PP                                                                      
   EAUG   =  402.108                                                                                
   DEXC   =    0.000                                                                                
   RMAX   =    2.552    core radius for proj-oper                                                   
   RAUG   =    1.300    factor for augmentation sphere                                              
   RDEP   =    2.609    radius for radial grids                                                     
   RDEPT  =    2.065    core radius for aug-charge                                                  
                                                                                                    
   Atomic configuration                                                                             
    9 entries                                                                                       
     n  l   j            E        occ.                                                              
     1  0  0.50     -5880.4963   2.0000                                                             
     2  0  0.50      -667.0865   2.0000                                                             
     2  1  1.50      -560.6250   6.0000                                                             
     3  0  0.50       -73.9860   2.0000                                                             
     3  1  1.50       -45.4378   6.0000                                                             
     3  2  2.50        -2.9137   5.0000                                                             
     4  0  0.50        -4.0071   1.0000                                                             
     4  1  0.50        -1.2789   0.0000                                                             
     4  3  2.50        -1.3606   0.0000                                                             
   Description                                                                                      
     l       E           TYP  RCUT    TYP  RCUT                                                     
     2     -2.9136677     23  2.500                                                                 
     2     -4.2742503     23  2.500                                                                 
     0     -4.0071322     23  2.500                                                                 
     0      9.4498801     23  2.500                                                                 
     1     -5.4423304     23  2.500                                                                 
     1     27.2116520     23  2.500                                                                 
  local pseudopotential read in
  partial core-charges read in
  partial kinetic energy density read in
  atomic valenz-charges read in
  non local Contribution for L=           2  read in
    real space projection operators read in
  non local Contribution for L=           2  read in
    real space projection operators read in
  non local Contribution for L=           0  read in
    real space projection operators read in
  non local Contribution for L=           0  read in
    real space projection operators read in
  non local Contribution for L=           1  read in
    real space projection operators read in
  non local Contribution for L=           1  read in
    real space projection operators read in
    PAW grid and wavefunctions read in

   number of l-projection  operators is LMAX  =           6
   number of lm-projection operators is LMMAX =          18

 POTCAR:    PAW_PBE Cl 06Sep2000                  
   SHA256 =  9f1b6e6ed4247ac726a768b330d26d7667cc3c95a39ff49c1d064c2d9dcce931 Cl/POTCAR             
   COPYR  = (c) Copyright 06Sep2000 Georg Kresse                                                    
   COPYR  = This file is part of the software VASP. Any use, copying, and all other rights are regul
   COPYR  = If you do not have a valid VASP license, you may not use, copy or distribute this file. 
   VRHFIN =Cl: s2p5                                                                                 
   LEXCH  = PE                                                                                      
   EATOM  =   409.7259 eV,   30.1140 Ry                                                             
                                                                                                    
   TITEL  = PAW_PBE Cl 06Sep2000                                                                    
   LULTRA =        F    use ultrasoft PP ?                                                          
   IUNSCR =        1    unscreen: 0-lin 1-nonlin 2-no                                               
   RPACOR =    1.500    partial core radius                                                         
   POMASS =   35.453; ZVAL   =    7.000    mass and valenz                                          
   RCORE  =    1.900    outmost cutoff radius                                                       
   RWIGS  =    2.100; RWIGS  =    1.111    wigner-seitz radius (au A)                               
   ENMAX  =  262.472; ENMIN  =  196.854 eV                                                          
   ICORE  =        2    local potential                                                             
   LCOR   =        T    correct aug charges                                                         
   LPAW   =        T    paw PP                                                                      
   EAUG   =  356.192                                                                                
   DEXC   =    0.000                                                                                
   RMAX   =    1.945    core radius for proj-oper                                                   
   RAUG   =    1.300    factor for augmentation sphere                                              
   RDEP   =    2.020    radius for radial grids                                                     
   RDEPT  =    1.678    core radius for aug-charge                                                  
                                                                                                    
   Atomic configuration                                                                             
    6 entries                                                                                       
     n  l   j            E        occ.                                                              
     1  0  0.50     -2751.1850   2.0000                                                             
     2  0  0.50      -252.6861   2.0000                                                             
     2  1  1.50      -191.6157   6.0000                                                             
     3  0  0.50       -20.6916   2.0000                                                             
     3  1  0.50        -8.5949   5.0000                                                             
     3  2  1.50        -8.1635   0.0000                                                             
   Description                                                                                      
     l       E           TYP  RCUT    TYP  RCUT                                                     
     0    -20.6915656     23  1.900                                                                 
     0    -22.0521482     23  1.900                                                                 
     1     -8.5948577     23  1.900                                                                 
     1     -5.3847331     23  1.900                                                                 
     2     -8.1634956     23  1.900                                                                 
  local pseudopotential read in
  partial core-charges read in
  partial kinetic energy density read in
  atomic valenz-charges read in
  non local Contribution for L=           0  read in
    real space projection operators read in
  non local Contribution for L=           0  read in
    real space projection operators read in
  non local Contribution for L=           1  read in
    real space projection operators read in
  non local Contribution for L=           1  read in
    real space projection operators read in
    PAW grid and wavefunctions read in

   number of l-projection  operators is LMAX  =           4
   number of lm-projection operators is LMMAX =           8

  PAW_PBE Cr 06Sep2000                  :
 energy of atom  1       EATOM= -276.8859
 kinetic energy error for atom=    0.0012 (will be added to EATOM!!)
  PAW_PBE Cl 06Sep2000                  :
 energy of atom  2       EATOM= -409.7259
 kinetic energy error for atom=    0.0030 (will be added to EATOM!!)


 POSCAR: Cr2Cl6 Monolayer 1x1 Primitive Cell
  positions in direct lattice
  No initial velocities read in
 IVDW          = 11
 DFT-D3 parameters (can be modified):
 VDW_S6        =  1.00000000  s6, scaling of the dipole-dipole dispersion
 VDW_S8        =  0.72200000  s8, scaling of the dipole-quadrupole dispersion
 VDW_SR        =  1.21700001  sr6, scaling of the dipole-dipole damping
 VDW_SR8       =  1.00000000  sr8, scaling of the dipole-quadrupole damping
 VDW_RADIUS    = 50.20216178  two-body interaction cutoff (in Angstroms)
 VDW_CNRADIUS  = 21.16708996  CN, coordination number cutoff (in Angstroms)
 Fixed parameters (cannot be modified):
 s9            =  0.00000000  s9, scaling of the three-body dispersion
 alpha6        = alpha6 (printed below), exponent of the zero damping (two-body term)


 exchange-correlation table for PE
   RHO(1)=    0.500       N(1)  =     2000
   RHO(2)=  100.500       N(2)  =     4000



--------------------------------------------------------------------------------------------------------


 ion  position               nearest neighbor table
   1  0.333  0.667  0.500-   5 2.37   8 2.37   6 2.37   4 2.37   7 2.37   3 2.37
   2  0.667  0.333  0.500-   5 2.37   8 2.37   7 2.37   3 2.37   4 2.37   6 2.37
   3  0.355  0.000  0.424-   2 2.37   1 2.37
   4  0.000  0.355  0.424-   1 2.37   2 2.37
   5  0.645  0.645  0.424-   1 2.37   2 2.37
   6  0.645  0.000  0.576-   1 2.37   2 2.37
   7  0.000  0.645  0.576-   2 2.37   1 2.37
   8  0.355  0.355  0.576-   1 2.37   2 2.37

  LATTYP: Found a hexagonal cell.
 ALAT       =     6.0484980000
 C/A-ratio  =     2.9213864335
  
  Lattice vectors:
  
 A1 = (   6.0484980000,   0.0000000000,   0.0000000000)
 A2 = (  -3.0242490000,   5.2381529227,   0.0000000000)
 A3 = (   0.0000000000,   0.0000000000,  17.6700000000)


Analysis of symmetry for initial positions (statically):
=====================================================================
 Subroutine PRICEL returns:
 Original cell was already a primitive cell.
 

 Routine SETGRP: Setting up the symmetry group for a 
 hexagonal supercell.


 Subroutine GETGRP returns: Found 12 space group operations
 (whereof 12 operations were pure point group operations)
 out of a pool of 24 trial point group operations.


The static configuration has the point symmetry D_3d.


Analysis of symmetry for dynamics (positions and initial velocities):
=====================================================================
 Subroutine PRICEL returns:
 Original cell was already a primitive cell.
 

 Routine SETGRP: Setting up the symmetry group for a 
 hexagonal supercell.


 Subroutine GETGRP returns: Found 12 space group operations
 (whereof 12 operations were pure point group operations)
 out of a pool of 24 trial point group operations.


The dynamic configuration has the point symmetry D_3d.


Analysis of structural, dynamic, and magnetic symmetry:
=====================================================================
 Subroutine PRICEL returns:
 Original cell was already a primitive cell.
 

 Routine SETGRP: Setting up the symmetry group for a 
 hexagonal supercell.


 Subroutine GETGRP returns: Found 12 space group operations
 (whereof 12 operations were pure point group operations)
 out of a pool of 24 trial point group operations.


The overall configuration has the point symmetry D_3d.


 Subroutine INISYM returns: Found 12 space group operations
 (whereof 12 operations are pure point group operations),
 and found     1 'primitive' translations


----------------------------------------------------------------------------------------

                                     Primitive cell                                     

  volume of cell :     559.8379

  direct lattice vectors                    reciprocal lattice vectors
     6.048498000  0.000000000  0.000000000     0.165330302  0.095453494 -0.000000000
    -3.024249000  5.238152923  0.000000000     0.000000000  0.190906989  0.000000000
     0.000000000  0.000000000 17.670000000     0.000000000 -0.000000000  0.056593096

  length of vectors
     6.048498000  6.048498000 17.670000000     0.190906989  0.190906989  0.056593096

  position of ions in fractional coordinates (direct lattice)
     0.333333333  0.666666667  0.500000000
     0.666666667  0.333333333  0.500000000
     0.355000000  0.000000000  0.423600000
     0.000000000  0.355000000  0.423600000
     0.645000000  0.645000000  0.423600000
     0.645000000  0.000000000  0.576400000
     0.000000000  0.645000000  0.576400000
     0.355000000  0.355000000  0.576400000

  ion indices of the primitive-cell ions
   primitive index   ion index
                 1           1
                 2           2
                 3           3
                 4           4
                 5           5
                 6           6
                 7           7
                 8           8

----------------------------------------------------------------------------------------



 KPOINTS: Automatic mesh                          

Automatic generation of k-mesh.
 Grid dimensions read from file:
 generate k-points for:   11   11    1

 Generating k-lattice:

  Cartesian coordinates                     Fractional coordinates (reciprocal lattice)
     0.015030027  0.008677590 -0.000000000     0.090909091 -0.000000000  0.000000000
     0.000000000  0.017355181  0.000000000     0.000000000  0.090909091  0.000000000
     0.000000000 -0.000000000  0.056593096     0.000000000  0.000000000  1.000000000

  Length of vectors
     0.017355181  0.017355181  0.056593096

  Shift w.r.t. Gamma in fractional coordinates (k-lattice)
     0.000000000  0.000000000  0.000000000

 
 Subroutine IBZKPT returns following result:
 ===========================================
 
 Found     16 irreducible k-points:
 
 Following reciprocal coordinates:
            Coordinates               Weight
  0.000000  0.000000  0.000000      1.000000
  0.090909  0.000000  0.000000      6.000000
  0.181818  0.000000  0.000000      6.000000
  0.272727  0.000000  0.000000      6.000000
  0.363636  0.000000  0.000000      6.000000
  0.454545  0.000000  0.000000      6.000000
  0.090909  0.090909  0.000000      6.000000
  0.181818  0.090909  0.000000     12.000000
  0.272727  0.090909  0.000000     12.000000
  0.363636  0.090909  0.000000     12.000000
  0.454545  0.090909  0.000000      6.000000
  0.181818  0.181818  0.000000      6.000000
  0.272727  0.181818  0.000000     12.000000
  0.363636  0.181818  0.000000     12.000000
  0.272727  0.272727  0.000000      6.000000
  0.363636  0.272727  0.000000      6.000000
 
 Following cartesian coordinates:
            Coordinates               Weight
  0.000000  0.000000  0.000000      1.000000
  0.015030  0.008678  0.000000      6.000000
  0.030060  0.017355  0.000000      6.000000
  0.045090  0.026033  0.000000      6.000000
  0.060120  0.034710  0.000000      6.000000
  0.075150  0.043388  0.000000      6.000000
  0.015030  0.026033  0.000000      6.000000
  0.030060  0.034710  0.000000     12.000000
  0.045090  0.043388  0.000000     12.000000
  0.060120  0.052066  0.000000     12.000000
  0.075150  0.060743  0.000000      6.000000
  0.030060  0.052066  0.000000      6.000000
  0.045090  0.060743  0.000000     12.000000
  0.060120  0.069421  0.000000     12.000000
  0.045090  0.078098  0.000000      6.000000
  0.060120  0.086776  0.000000      6.000000
 


--------------------------------------------------------------------------------------------------------




 Dimension of arrays:
   k-points           NKPTS =     16   k-points in BZ     NKDIM =     16   number of bands    NBANDS=     36
   number of dos      NEDOS =    301   number of ions     NIONS =      8
   non local maximal  LDIM  =      6   non local SUM 2l+1 LMDIM =     18
   total plane-waves  NPLWV = 322560
   max r-space proj   IRMAX =      1   max aug-charges    IRDMAX=  29630
   dimension x,y,z NGX =    48 NGY =   48 NGZ =  140
   dimension x,y,z NGXF=    96 NGYF=   96 NGZF=  280
   support grid    NGXF=    96 NGYF=   96 NGZF=  280
   ions per type =               2   6
   NGX,Y,Z   is equivalent  to a cutoff of  13.19, 13.19, 13.17 a.u.
   NGXF,Y,Z  is equivalent  to a cutoff of  26.39, 26.39, 26.34 a.u.

 SYSTEM =  CrCl3-1x1 ISIF3 LATTICE_CONSTRAINTS U=4.
 POSCAR =  Cr2Cl6 Monolayer 1x1 Primitive Cell     

 Startparameter for this run:
   NWRITE =      2    write-flag & timer
   PREC   = accura    normal or accurate (medium, high low for compatibility)
   ISTART =      0    job   : 0-new  1-cont  2-samecut
   ICHARG =      2    charge: 1-file 2-atom 10-const
   ISPIN  =      2    spin polarized calculation?
   LNONCOLLINEAR =      F non collinear calculations
   LSORBIT =      F    spin-orbit coupling
   INIWAV =      1    electr: 0-lowe 1-rand  2-diag
   LASPH  =      T    aspherical Exc in radial PAW
 Electronic Relaxation 1
   ENCUT  =  500.0 eV  36.75 Ry    6.06 a.u.  11.03 11.03 32.22*2*pi/ulx,y,z
   ENINI  =  500.0     initial cutoff
   ENAUG  =  402.1 eV  augmentation charge cutoff
   NELM   =    100;   NELMIN=  2; NELMDL= -5     # of ELM steps 
   EDIFF  = 0.1E-05   stopping-criterion for ELM
   LREAL  =      F    real-space projection
   NLSPLINE    = F    spline interpolate recip. space projectors
   LCOMPAT=      F    compatible to vasp.4.4
   GGA_COMPAT  = T    GGA compatible to vasp.4.4-vasp.4.6
   LMAXPAW     = -100 max onsite density
   LMAXMIX     =    4 max onsite mixed and CHGCAR
   VOSKOWN=      0    Vosko Wilk Nusair interpolation
   ROPT   =    0.00000   0.00000

 Ewald summation
   EWALD_CUTOFF =   4.00

 Ionic relaxation
   EDIFFG = -.1E-01   stopping-criterion for IOM
   NSW    =    100    number of steps for IOM
   NBLOCK =      1;   KBLOCK =    100    inner block; outer block 
   IBRION =      2    ionic relax: 0-MD 1-quasi-New 2-CG
   NFREE  =      1    steps in history (QN), initial steepest desc. (CG)
   ISIF   =      3    stress and relaxation
   IWAVPR =     11    prediction:  0-non 1-charg 2-wave 3-comb
   MAXDIS =   0.00    maximum displacement; if above reset density
   ISYM   =      2    0-nonsym 1-usesym 2-fastsym
   LCORR  =      T    Harris-Foulkes like correction to forces

   POTIM  = 0.5000    time-step for ionic-motion
   TEIN   =    0.0    initial temperature
   TEBEG  =    0.0;   TEEND  =   0.0 temperature during run
   SMASS  =  -3.00    Nose mass-parameter (am)
   estimated Nose-frequenzy (Omega)   =  0.10E-29 period in steps = 0.13E+47 mass=  -0.836E-27a.u.
   SCALEE = 1.0000    scale energy and forces
   NPACO  =    256;   APACO  = 10.0  distance and # of slots for P.C.
   PSTRESS=    0.0 pullay stress

  Mass of Ions in am
   POMASS =  52.00 35.45
  Ionic Valenz
   ZVAL   =   6.00  7.00
  Atomic Wigner-Seitz radii
   RWIGS  =  -1.00 -1.00
  virtual crystal weights 
   VCA    =   1.00  1.00
   NELECT =      54.0000    total number of electrons
   NUPDOWN=      -1.0000    fix difference up-down

 DOS related values:
   EMIN   =  10.00;   EMAX   =-10.00  energy-range for DOS
   EFERMI =   0.00;   METHOD = LEGACY      
   ISMEAR =     0;   SIGMA  =   0.05  broadening in eV -4-tet -1-fermi 0-gaus
   EFERMI_NEDOS =   21; number of points for ismear=-14 and -15

 Electronic relaxation 2 (details)
   IALGO  =     38    algorithm
   LDIAG  =      T    sub-space diagonalisation (order eigenvalues)
   LSUBROT=      F    optimize rotation matrix (better conditioning)
   LROBUST=      F    robust break criterion during scf (extrapolated energy error)
   ISEARCH=      0    line search for conjugate gradient (0, 1=use gradient)
   TURBO    =      0    0=normal 1=particle mesh
   IRESTART =      0    0=no restart 2=restart with 2 vectors
   NREBOOT  =      0    no. of reboots
   NMIN     =      0    reboot dimension
   EREF     =   0.00    reference energy to select bands
   IMIX   =      4    mixing-type and parameters
     AMIX     =   0.40;   BMIX     =  1.00
     AMIX_MAG =   1.60;   BMIX_MAG =  1.00
     AMIN     =   0.10
     WC   =   100.;   INIMIX=   1;  MIXPRE=   1;  MAXMIX= -45

 Intra band minimization:
   WEIMIN = 0.0010     energy-eigenvalue tresh-hold
   EBREAK =  0.69E-08  absolut break condition
   DEPER  =   0.30     relativ break condition  

   TIME   =   0.40     timestep for ELM

  volume/ion in A,a.u.               =      69.98       472.25
  Fermi-wavevector in a.u.,A,eV,Ry     =   0.750790  1.418788  7.669415  0.563686
  Thomas-Fermi vector in A             =   1.847622

 Write flags
   LH5          =      F    write vaspwave.h5 (instead of legacy files WAVECAR, CHGCAR, etc.)
   LWAVE        =      F    write Kohn-Sham orbitals (WAVECAR/vaspwave.h5)
   LDOWNSAMPLE  =      F    k-point downsampling of WAVECAR
   LCHARG       =      F    write restart densities (CHGCAR/vaspwave.h5)
   LCHARGH5     =      F    write charge density to vaspwave.h5
   LTAU         =      F    evaluate kinetic energy density (TAUCAR/vaspwave.h5)
   LVTOT        =      F    write LOCPOT, total local potential
   LVHAR        =      F    write LOCPOT, Hartree potential only
   WRT_POTENTIAL= None    ! write potential to vaspout.h5
   WRT_DENSITY  = None    ! write densities to vaspout.h5
   LELF         =      F    write electronic localiz. function (ELF)
   LORBIT       =     11    0 simple, 1 ext, 2 COOP (PROOUT), +10 PAW based schemes


 Python interface
   PLUGINS active      =      F    recompile with -DPLUGINS to activate

 Dipole corrections
   LMONO      =      F    monopole corrections only (constant potential shift)
   LDIPOL     =      F    correct potential (dipole corrections)
   IDIPOL     =      0    1-x, 2-y, 3-z, 4-all directions 
   EPSILON    =  1.0000000 bulk dielectric constant
   LVACPOTAV  =      F  vacuum potentials using an averaging scheme for the charge density
   VACPOTFLAT =  0.1000000 required flatness to determine vacuum potential

Coulomb truncation method
  LTRUNCATE          =      F  Coulomb kernel truncation to be used


 LDA+U is selected, type is set to LDAUTYPE =  2
   angular momentum for each species LDAUL =     2   -1
   U (eV)           for each species LDAUU =   4.0  0.0
   J (eV)           for each species LDAUJ =   0.0  0.0
 Exchange correlation treatment:
   GGA     = PE    functional components
   XC_C    = 1    coefficients multiplying the functional components
   LIBXC   =     F    Libxc                    
   VOSKOWN =     0    Vosko Wilk Nusair interpolation
   LHFCALC =     F    Hartree Fock is set to
   LHFONE  =     F    Hartree Fock one center treatment
   AEXX    =    0.0000 exact exchange contribution
   BEXX    =    1.0000 short-range exact exchange contribution

 Parameters of functionals:
   PE:
     No parameter

 Van der Waals corrections
   IVDW    =    11    specifies the selected vdW correction

 Linear response parameters
   LEPSILON=     F    determine dielectric tensor
   LRPA    =     F    only Hartree local field effects (RPA)
   LNABLA  =     F    use nabla operator in PAW spheres
   LVEL    =     F    velocity operator in full k-point grid
   CSHIFT  =0.1000    complex shift for real part using Kramers Kronig
   OMEGAMAX=  -1.0    maximum frequency
   DEG_THRESHOLD= 0.2000000E-02 threshold for treating states as degnerate
   RTIME   =   -0.100 relaxation time in fs
  (WPLASMAI=    0.000 imaginary part of plasma frequency in eV, 0.658/RTIME)
   DFIELD  = 0.0000000 0.0000000 0.0000000 field for delta impulse in time

  Optional k-point grid parameters
   LKPOINTS_OPT  =     F    use optional k-point grid
   KPOINTS_OPT_MODE=     1    mode for optional k-point grid

 Orbital magnetization related:
   ORBITALMAG=     F  switch on orbital magnetization
   LCHIMAG   =     F  perturbation theory with respect to B field
   DQ        =  0.001000  dq finite difference perturbation B field
   LLRAUG    =     F  two centre corrections for induced B field
   LZORA     =     F  scalar relativistic for chemical shift
   LSOSHIFT  =     F  spin-orbit for chemical shift
   LBONE     =     F  B-component reconstruction in AE one-centre
   LVGVCALC  =     T  calculate vGv susceptibility
   LVGVAPPL  =     F  apply vGv susceptibility instead of pGv for G=0

 Random number generation:
   RANDOM_GENERATOR = DEFAULT
   PCG_SEED         = not used


--------------------------------------------------------------------------------------------------------


 conjugate gradient relaxation of ions
 charge density and potential will be updated during run
 spin polarized calculation
 Variant of blocked Davidson
 Davidson routine will perform the subspace rotation
 perform sub-space diagonalisation
    after iterative eigenvector-optimisation
 modified Broyden-mixing scheme, WC =      100.0
 initial mixing is a Kerker type mixing with AMIX =  0.4000 and BMIX =      1.0000
 Hartree-type preconditioning will be used
 using additional bands            9
 reciprocal scheme for non local part
 use partial core corrections
 calculate Harris-corrections to forces   (improved forces if not selfconsistent)
 use gradient corrections 
 use of overlap-Matrix (Vanderbilt PP)
 Gauss-broadening in eV      SIGMA  =   0.05


--------------------------------------------------------------------------------------------------------


  energy-cutoff  :      500.00
  volume of cell :      559.84
      direct lattice vectors                 reciprocal lattice vectors
     6.048498000  0.000000000  0.000000000     0.165330302  0.095453494 -0.000000000
    -3.024249000  5.238152923  0.000000000     0.000000000  0.190906989  0.000000000
     0.000000000  0.000000000 17.670000000     0.000000000 -0.000000000  0.056593096

  length of vectors
     6.048498000  6.048498000 17.670000000     0.190906989  0.190906989  0.056593096



 k-points in units of 2pi/SCALE and weight: Automatic mesh                          
   0.00000000  0.00000000  0.00000000       0.008
   0.01503003  0.00867759  0.00000000       0.050
   0.03006005  0.01735518  0.00000000       0.050
   0.04509008  0.02603277  0.00000000       0.050
   0.06012011  0.03471036  0.00000000       0.050
   0.07515014  0.04338795  0.00000000       0.050
   0.01503003  0.02603277  0.00000000       0.050
   0.03006005  0.03471036  0.00000000       0.099
   0.04509008  0.04338795  0.00000000       0.099
   0.06012011  0.05206554  0.00000000       0.099
   0.07515014  0.06074313  0.00000000       0.050
   0.03006005  0.05206554  0.00000000       0.050
   0.04509008  0.06074313  0.00000000       0.099
   0.06012011  0.06942072  0.00000000       0.099
   0.04509008  0.07809831  0.00000000       0.050
   0.06012011  0.08677590  0.00000000       0.050

 k-points in reciprocal lattice and weights: Automatic mesh                          
   0.00000000  0.00000000  0.00000000       0.008
   0.09090909  0.00000000  0.00000000       0.050
   0.18181818  0.00000000  0.00000000       0.050
   0.27272727  0.00000000  0.00000000       0.050
   0.36363636  0.00000000  0.00000000       0.050
   0.45454545  0.00000000  0.00000000       0.050
   0.09090909  0.09090909  0.00000000       0.050
   0.18181818  0.09090909  0.00000000       0.099
   0.27272727  0.09090909  0.00000000       0.099
   0.36363636  0.09090909  0.00000000       0.099
   0.45454545  0.09090909  0.00000000       0.050
   0.18181818  0.18181818  0.00000000       0.050
   0.27272727  0.18181818  0.00000000       0.099
   0.36363636  0.18181818  0.00000000       0.099
   0.27272727  0.27272727  0.00000000       0.050
   0.36363636  0.27272727  0.00000000       0.050

 position of ions in fractional coordinates (direct lattice) 
   0.33333333  0.66666667  0.50000000
   0.66666667  0.33333333  0.50000000
   0.35500000  0.00000000  0.42360000
   0.00000000  0.35500000  0.42360000
   0.64500000  0.64500000  0.42360000
   0.64500000  0.00000000  0.57640000
   0.00000000  0.64500000  0.57640000
   0.35500000  0.35500000  0.57640000

 position of ions in cartesian coordinates  (Angst):
   0.00000000  3.49210195  8.83500000
   3.02424900  1.74605097  8.83500000
   2.14721679  0.00000000  7.48501200
  -1.07360839  1.85954429  7.48501200
   1.95064061  3.37860864  7.48501200
   3.90128121  0.00000000 10.18498800
  -1.95064061  3.37860864 10.18498800
   1.07360839  1.85954429 10.18498800



--------------------------------------------------------------------------------------------------------


 k-point     1 :   0.0000 0.0000 0.0000  plane waves:   14117
 k-point     2 :   0.0909 0.0000 0.0000  plane waves:   14153
 k-point     3 :   0.1818 0.0000 0.0000  plane waves:   14185
 k-point     4 :   0.2727 0.0000 0.0000  plane waves:   14205
 k-point     5 :   0.3636 0.0000 0.0000  plane waves:   14223
 k-point     6 :   0.4545 0.0000 0.0000  plane waves:   14206
 k-point     7 :   0.0909 0.0909 0.0000  plane waves:   14179
 k-point     8 :   0.1818 0.0909 0.0000  plane waves:   14202
 k-point     9 :   0.2727 0.0909 0.0000  plane waves:   14211
 k-point    10 :   0.3636 0.0909 0.0000  plane waves:   14223
 k-point    11 :   0.4545 0.0909 0.0000  plane waves:   14219
 k-point    12 :   0.1818 0.1818 0.0000  plane waves:   14207
 k-point    13 :   0.2727 0.1818 0.0000  plane waves:   14240
 k-point    14 :   0.3636 0.1818 0.0000  plane waves:   14239
 k-point    15 :   0.2727 0.2727 0.0000  plane waves:   14247
 k-point    16 :   0.3636 0.2727 0.0000  plane waves:   14231

 maximum and minimum number of plane-waves per node :      3573     3520

 maximum number of plane-waves:     14247
 maximum index in each direction: 
   IXMAX=   11   IYMAX=   11   IZMAX=   32
   IXMIN=  -11   IYMIN=  -11   IZMIN=  -32


 parallel 3D FFT for wavefunctions:
    minimum data exchange during FFTs selected (reduces bandwidth)
 parallel 3D FFT for charge:
    minimum data exchange during FFTs selected (reduces bandwidth)


 total amount of memory used by VASP MPI-rank0    90866. kBytes
=======================================================================

   base                                    :      30000. kBytes
   nonl-proj                               :      16935. kBytes
   fftplans                                :       7817. kBytes
   grid                                    :      19445. kBytes
   one-center                              :         62. kBytes
   wavefun                                 :      16607. kBytes

     INWAV:  cpu time      0.0000: real time      0.0000
 Broyden mixing: mesh for mixing (old mesh)
   NGX = 23   NGY = 23   NGZ = 65
  (NGX  = 96   NGY  = 96   NGZ  =280)
  gives a total of  34385 points

 initial charge density was supplied:
 charge density of overlapping atoms calculated
 number of electron      54.0000000 magnetization       6.0000000
 keeping initial charge density in first step


--------------------------------------------------------------------------------------------------------


 Maximum index for augmentation-charges         1875 (set IRDMAX)


--------------------------------------------------------------------------------------------------------


 First call to EWALD:  gamma=   0.215
 Maximum number of real-space cells   4x   4x   2
 Maximum number of reciprocal cells   2x   2x   5

    FEWALD:  cpu time      0.0010: real time      0.0010


--------------------------------------- Ionic step        1  -------------------------------------------




--------------------------------------- Iteration      1(   1)  ---------------------------------------


    POTLOK:  cpu time      0.2789: real time      0.2821
    SETDIJ:  cpu time      0.1138: real time      0.1144
     EDDAV:  cpu time      7.1567: real time      7.2566
       DOS:  cpu time      0.0005: real time      0.0005
    --------------------------------------------
      LOOP:  cpu time      7.5501: real time      7.6538

 eigenvalue-minimisations  :  2304
 total energy-change (2. order) : 0.5677458E+03  (-0.1729368E+04)
 number of electron      54.0000000 magnetization       6.0000000
 augmentation part       54.0000000 magnetization       6.0000000

 Free energy of the ion-electron system (eV)
  ---------------------------------------------------
  alpha Z        PSCENC =        30.74992261
  Ewald energy   TEWEN  =      4471.64050427
  -Hartree energ DENC   =     -7171.78104879
  -exchange      EXHF   =         0.00000000
  -V(xc)+E(xc)   XCENC  =        82.31282319
  PAW double counting   =      2504.81294498    -2456.45414287
  entropy T*S    EENTRO =        -0.00600155
  eigenvalues    EBANDS =        94.36412161
  atomic energy  EATOM  =      3012.10669636
  Solvation  Ediel_sol  =         0.00000000
  ext. energy  EPLUGINS =         0.00000000
  ---------------------------------------------------
  free energy    TOTEN  =       567.74581979 eV

  energy without entropy =      567.75182135  energy(sigma->0) =      567.74882057


--------------------------------------------------------------------------------------------------------




--------------------------------------- Iteration      1(   2)  ---------------------------------------


     EDDAV:  cpu time      8.9336: real time      9.0494
       DOS:  cpu time      0.0004: real time      0.0004
    --------------------------------------------
      LOOP:  cpu time      8.9340: real time      9.0498

 eigenvalue-minimisations  :  3064
 total energy-change (2. order) :-0.4663156E+03  (-0.4423849E+03)
 number of electron      54.0000000 magnetization       6.0000000
 augmentation part       54.0000000 magnetization       6.0000000

 Free energy of the ion-electron system (eV)
  ---------------------------------------------------
  alpha Z        PSCENC =        30.74992261
  Ewald energy   TEWEN  =      4471.64050427
  -Hartree energ DENC   =     -7171.78104879
  -exchange      EXHF   =         0.00000000
  -V(xc)+E(xc)   XCENC  =        82.31282319
  PAW double counting   =      2504.81294498    -2456.45414287
  entropy T*S    EENTRO =        -0.00145237
  eigenvalues    EBANDS =      -371.95606262
  atomic energy  EATOM  =      3012.10669636
  Solvation  Ediel_sol  =         0.00000000
  ext. energy  EPLUGINS =         0.00000000
  ---------------------------------------------------
  free energy    TOTEN  =       101.43018475 eV

  energy without entropy =      101.43163712  energy(sigma->0) =      101.43091093


--------------------------------------------------------------------------------------------------------




--------------------------------------- Iteration      1(   3)  ---------------------------------------


     EDDAV:  cpu time      9.1598: real time      9.2950
       DOS:  cpu time      0.0003: real time      0.0003
    --------------------------------------------
      LOOP:  cpu time      9.1602: real time      9.2953

 eigenvalue-minimisations  :  3288
 total energy-change (2. order) :-0.1303367E+03  (-0.1277723E+03)
 number of electron      54.0000000 magnetization       6.0000000
 augmentation part       54.0000000 magnetization       6.0000000

 Free energy of the ion-electron system (eV)
  ---------------------------------------------------
  alpha Z        PSCENC =        30.74992261
  Ewald energy   TEWEN  =      4471.64050427
  -Hartree energ DENC   =     -7171.78104879
  -exchange      EXHF   =         0.00000000
  -V(xc)+E(xc)   XCENC  =        82.31282319
  PAW double counting   =      2504.81294498    -2456.45414287
  entropy T*S    EENTRO =        -0.00000000
  eigenvalues    EBANDS =      -502.29423055
  atomic energy  EATOM  =      3012.10669636
  Solvation  Ediel_sol  =         0.00000000
  ext. energy  EPLUGINS =         0.00000000
  ---------------------------------------------------
  free energy    TOTEN  =       -28.90653081 eV

  energy without entropy =      -28.90653081  energy(sigma->0) =      -28.90653081


--------------------------------------------------------------------------------------------------------




--------------------------------------- Iteration      1(   4)  ---------------------------------------


     EDDAV:  cpu time      8.5878: real time      8.7252
       DOS:  cpu time      0.0003: real time      0.0003
    --------------------------------------------
      LOOP:  cpu time      8.5881: real time      8.7256

 eigenvalue-minimisations  :  3044
 total energy-change (2. order) :-0.7693260E+01  (-0.7604152E+01)
 number of electron      54.0000000 magnetization       6.0000000
 augmentation part       54.0000000 magnetization       6.0000000

 Free energy of the ion-electron system (eV)
  ---------------------------------------------------
  alpha Z        PSCENC =        30.74992261
  Ewald energy   TEWEN  =      4471.64050427
  -Hartree energ DENC   =     -7171.78104879
  -exchange      EXHF   =         0.00000000
  -V(xc)+E(xc)   XCENC  =        82.31282319
  PAW double counting   =      2504.81294498    -2456.45414287
  entropy T*S    EENTRO =        -0.00000000
  eigenvalues    EBANDS =      -509.98749011
  atomic energy  EATOM  =      3012.10669636
  Solvation  Ediel_sol  =         0.00000000
  ext. energy  EPLUGINS =         0.00000000
  ---------------------------------------------------
  free energy    TOTEN  =       -36.59979037 eV

  energy without entropy =      -36.59979037  energy(sigma->0) =      -36.59979037


--------------------------------------------------------------------------------------------------------




--------------------------------------- Iteration      1(   5)  ---------------------------------------


     EDDAV:  cpu time      9.0746: real time      9.2079
       DOS:  cpu time      0.0003: real time      0.0003
    CHARGE:  cpu time      0.2370: real time      0.2391
    MIXING:  cpu time      0.0105: real time      0.0107
    --------------------------------------------
      LOOP:  cpu time      9.3223: real time      9.4578

 eigenvalue-minimisations  :  3276
 total energy-change (2. order) :-0.2578996E+00  (-0.2562841E+00)
 number of electron      53.9999985 magnetization       6.0000000
 augmentation part       -2.0488705 magnetization       3.5389294

 Broyden mixing:
  rms(total) = 0.19616E+01    rms(broyden)= 0.19616E+01
  rms(prec ) = 0.21106E+01
  weight for this iteration     100.00

 Free energy of the ion-electron system (eV)
  ---------------------------------------------------
  alpha Z        PSCENC =        30.74992261
  Ewald energy   TEWEN  =      4471.64050427
  -Hartree energ DENC   =     -7171.78104879
  -exchange      EXHF   =         0.00000000
  -V(xc)+E(xc)   XCENC  =        82.31282319
  PAW double counting   =      2504.81294498    -2456.45414287
  entropy T*S    EENTRO =        -0.00000000
  eigenvalues    EBANDS =      -510.24538967
  atomic energy  EATOM  =      3012.10669636
  Solvation  Ediel_sol  =         0.00000000
  ext. energy  EPLUGINS =         0.00000000
  ---------------------------------------------------
  free energy    TOTEN  =       -36.85768992 eV

  energy without entropy =      -36.85768992  energy(sigma->0) =      -36.85768992


--------------------------------------------------------------------------------------------------------




--------------------------------------- Iteration      1(   6)  ---------------------------------------


    POTLOK:  cpu time      0.2784: real time      0.2816
    SETDIJ:  cpu time      0.1112: real time      0.1118
     EDDAV:  cpu time      9.5813: real time      9.7127
       DOS:  cpu time      0.0003: real time      0.0003
    CHARGE:  cpu time      0.2581: real time      0.2601
    MIXING:  cpu time      0.0110: real time      0.0112
    --------------------------------------------
      LOOP:  cpu time     10.2404: real time     10.3778

 eigenvalue-minimisations  :  3424
 total energy-change (2. order) : 0.2119340E+01  (-0.4111237E+01)
 number of electron      53.9999984 magnetization       6.0000000
 augmentation part        0.2519195 magnetization       4.2179245

 Broyden mixing:
  rms(total) = 0.18675E+01    rms(broyden)= 0.18675E+01
  rms(prec ) = 0.19061E+01
  weight for this iteration     100.00

 eigenvalues of (default mixing * dielectric matrix)
  average eigenvalue GAMMA=   0.3556
  0.3556

 Free energy of the ion-electron system (eV)
  ---------------------------------------------------
  alpha Z        PSCENC =        30.74992261
  Ewald energy   TEWEN  =      4471.64050427
  -Hartree energ DENC   =     -7158.77033137
  -exchange      EXHF   =         0.00000000
  -V(xc)+E(xc)   XCENC  =        85.71869250
  PAW double counting   =      2841.16041491    -2784.19907761
  entropy T*S    EENTRO =        -0.00000000
  eigenvalues    EBANDS =      -533.14517183
  atomic energy  EATOM  =      3012.10669636
  Solvation  Ediel_sol  =         0.00000000
  ext. energy  EPLUGINS =         0.00000000
  ---------------------------------------------------
  free energy    TOTEN  =       -34.73835017 eV

  energy without entropy =      -34.73835017  energy(sigma->0) =      -34.73835017


--------------------------------------------------------------------------------------------------------




--------------------------------------- Iteration      1(   7)  ---------------------------------------


    POTLOK:  cpu time      0.2885: real time      0.2921
    SETDIJ:  cpu time      0.1144: real time      0.1149
     EDDAV:  cpu time      9.5591: real time      9.6963
       DOS:  cpu time      0.0005: real time      0.0005
    CHARGE:  cpu time      0.2907: real time      0.2933
    MIXING:  cpu time      0.0111: real time      0.0113
    --------------------------------------------
      LOOP:  cpu time     10.2644: real time     10.4083

 eigenvalue-minimisations  :  3392
 total energy-change (2. order) : 0.3214199E+00  (-0.4250172E+00)
 number of electron      53.9999985 magnetization       6.0000000
 augmentation part       -0.6061195 magnetization       4.2175970

 Broyden mixing:
  rms(total) = 0.94426E+00    rms(broyden)= 0.94426E+00
  rms(prec ) = 0.94765E+00
  weight for this iteration     100.00

 eigenvalues of (default mixing * dielectric matrix)
  average eigenvalue GAMMA=   0.7191
  0.9721  0.4661

 Free energy of the ion-electron system (eV)
  ---------------------------------------------------
  alpha Z        PSCENC =        30.74992261
  Ewald energy   TEWEN  =      4471.64050427
  -Hartree energ DENC   =     -7166.46692620
  -exchange      EXHF   =         0.00000000
  -V(xc)+E(xc)   XCENC  =        85.71038655
  PAW double counting   =      3040.46861705    -2988.27207500
  entropy T*S    EENTRO =        -0.00000000
  eigenvalues    EBANDS =      -520.35405591
  atomic energy  EATOM  =      3012.10669636
  Solvation  Ediel_sol  =         0.00000000
  ext. energy  EPLUGINS =         0.00000000
  ---------------------------------------------------
  free energy    TOTEN  =       -34.41693027 eV

  energy without entropy =      -34.41693027  energy(sigma->0) =      -34.41693027


--------------------------------------------------------------------------------------------------------




--------------------------------------- Iteration      1(   8)  ---------------------------------------


    POTLOK:  cpu time      0.2979: real time      0.3015
    SETDIJ:  cpu time      0.1436: real time      0.1444
     EDDAV:  cpu time      9.0293: real time      9.1404
       DOS:  cpu time      0.0003: real time      0.0003
    CHARGE:  cpu time      0.2440: real time      0.2462
    MIXING:  cpu time      0.0107: real time      0.0109
    --------------------------------------------
      LOOP:  cpu time      9.7259: real time      9.8437

 eigenvalue-minimisations  :  3048
 total energy-change (2. order) :-0.1613028E+00  (-0.8799178E-01)
 number of electron      53.9999984 magnetization       5.9999999
 augmentation part       -0.6416979 magnetization       4.3087731

 Broyden mixing:
  rms(total) = 0.46907E+00    rms(broyden)= 0.46906E+00
  rms(prec ) = 0.47303E+00
  weight for this iteration     100.00

 eigenvalues of (default mixing * dielectric matrix)
  average eigenvalue GAMMA=   1.0821
  2.0190  0.7163  0.5110

 Free energy of the ion-electron system (eV)
  ---------------------------------------------------
  alpha Z        PSCENC =        30.74992261
  Ewald energy   TEWEN  =      4471.64050427
  -Hartree energ DENC   =     -7167.36480519
  -exchange      EXHF   =         0.00000000
  -V(xc)+E(xc)   XCENC  =        86.08614705
  PAW double counting   =      3363.34679128    -3312.79014539
  entropy T*S    EENTRO =        -0.00000000
  eigenvalues    EBANDS =      -518.35334403
  atomic energy  EATOM  =      3012.10669636
  Solvation  Ediel_sol  =         0.00000000
  ext. energy  EPLUGINS =         0.00000000
  ---------------------------------------------------
  free energy    TOTEN  =       -34.57823305 eV

  energy without entropy =      -34.57823305  energy(sigma->0) =      -34.57823305


--------------------------------------------------------------------------------------------------------




--------------------------------------- Iteration      1(   9)  ---------------------------------------


    POTLOK:  cpu time      0.2813: real time      0.2844
    SETDIJ:  cpu time      0.1114: real time      0.1120
     EDDAV:  cpu time      9.7061: real time      9.8354
       DOS:  cpu time      0.0003: real time      0.0003
    CHARGE:  cpu time      0.2292: real time      0.2311
    MIXING:  cpu time      0.0121: real time      0.0123
    --------------------------------------------
      LOOP:  cpu time     10.3405: real time     10.4755

 eigenvalue-minimisations  :  3476
 total energy-change (2. order) :-0.1859514E-01  (-0.1748104E-01)
 number of electron      53.9999984 magnetization       5.9999999
 augmentation part       -0.5067590 magnetization       4.4055370

 Broyden mixing:
  rms(total) = 0.11429E+00    rms(broyden)= 0.11429E+00
  rms(prec ) = 0.11776E+00
  weight for this iteration     100.00

 eigenvalues of (default mixing * dielectric matrix)
  average eigenvalue GAMMA=   1.1211
  2.3340  0.9621  0.5315  0.6570

 Free energy of the ion-electron system (eV)
  ---------------------------------------------------
  alpha Z        PSCENC =        30.74992261
  Ewald energy   TEWEN  =      4471.64050427
  -Hartree energ DENC   =     -7169.11810542
  -exchange      EXHF   =         0.00000000
  -V(xc)+E(xc)   XCENC  =        86.73971491
  PAW double counting   =      3684.47689180    -3634.69480864
  entropy T*S    EENTRO =        -0.00000000
  eigenvalues    EBANDS =      -516.49764407
  atomic energy  EATOM  =      3012.10669636
  Solvation  Ediel_sol  =         0.00000000
  ext. energy  EPLUGINS =         0.00000000
  ---------------------------------------------------
  free energy    TOTEN  =       -34.59682819 eV

  energy without entropy =      -34.59682819  energy(sigma->0) =      -34.59682819


--------------------------------------------------------------------------------------------------------




--------------------------------------- Iteration      1(  10)  ---------------------------------------


    POTLOK:  cpu time      0.2765: real time      0.2795
    SETDIJ:  cpu time      0.1183: real time      0.1190
     EDDAV:  cpu time      9.5294: real time      9.6542
       DOS:  cpu time      0.0003: real time      0.0003
    CHARGE:  cpu time      0.2344: real time      0.2361
    MIXING:  cpu time      0.0118: real time      0.0120
    --------------------------------------------
      LOOP:  cpu time     10.1708: real time     10.3012

 eigenvalue-minimisations  :  3440
 total energy-change (2. order) :-0.9409595E-02  (-0.4825518E-02)
 number of electron      53.9999984 magnetization       5.9999999
 augmentation part       -0.5648987 magnetization       4.3738945

 Broyden mixing:
  rms(total) = 0.42782E-01    rms(broyden)= 0.42782E-01
  rms(prec ) = 0.43433E-01
  weight for this iteration     100.00

 eigenvalues of (default mixing * dielectric matrix)
  average eigenvalue GAMMA=   1.0866
  2.3908  1.1349  0.5307  0.6882  0.6882

 Free energy of the ion-electron system (eV)
  ---------------------------------------------------
  alpha Z        PSCENC =        30.74992261
  Ewald energy   TEWEN  =      4471.64050427
  -Hartree energ DENC   =     -7170.17663212
  -exchange      EXHF   =         0.00000000
  -V(xc)+E(xc)   XCENC  =        86.74920215
  PAW double counting   =      3694.35333134    -3644.90740705
  entropy T*S    EENTRO =        -0.00000000
  eigenvalues    EBANDS =      -515.12185533
  atomic energy  EATOM  =      3012.10669636
  Solvation  Ediel_sol  =         0.00000000
  ext. energy  EPLUGINS =         0.00000000
  ---------------------------------------------------
  free energy    TOTEN  =       -34.60623778 eV

  energy without entropy =      -34.60623778  energy(sigma->0) =      -34.60623778


--------------------------------------------------------------------------------------------------------




--------------------------------------- Iteration      1(  11)  ---------------------------------------


    POTLOK:  cpu time      0.2861: real time      0.2897
    SETDIJ:  cpu time      0.1379: real time      0.1386
     EDDAV:  cpu time      9.1956: real time      9.3191
       DOS:  cpu time      0.0003: real time      0.0003
    CHARGE:  cpu time      0.2355: real time      0.2375
    MIXING:  cpu time      0.0121: real time      0.0123
    --------------------------------------------
      LOOP:  cpu time      9.8676: real time      9.9975

 eigenvalue-minimisations  :  3288
 total energy-change (2. order) :-0.1120605E-01  (-0.2239600E-03)
 number of electron      53.9999984 magnetization       5.9999999
 augmentation part       -0.5712375 magnetization       4.3639777

 Broyden mixing:
  rms(total) = 0.28922E-01    rms(broyden)= 0.28922E-01
  rms(prec ) = 0.29348E-01
  weight for this iteration     100.00

 eigenvalues of (default mixing * dielectric matrix)
  average eigenvalue GAMMA=   1.1025
  2.4532  1.1329  1.1329  0.5325  0.6817  0.6817

 Free energy of the ion-electron system (eV)
  ---------------------------------------------------
  alpha Z        PSCENC =        30.74992261
  Ewald energy   TEWEN  =      4471.64050427
  -Hartree energ DENC   =     -7170.41115222
  -exchange      EXHF   =         0.00000000
  -V(xc)+E(xc)   XCENC  =        86.69613302
  PAW double counting   =      3702.62542128    -3653.21180050
  entropy T*S    EENTRO =        -0.00000000
  eigenvalues    EBANDS =      -514.81316865
  atomic energy  EATOM  =      3012.10669636
  Solvation  Ediel_sol  =         0.00000000
  ext. energy  EPLUGINS =         0.00000000
  ---------------------------------------------------
  free energy    TOTEN  =       -34.61744383 eV

  energy without entropy =      -34.61744383  energy(sigma->0) =      -34.61744383


--------------------------------------------------------------------------------------------------------




--------------------------------------- Iteration      1(  12)  ---------------------------------------


    POTLOK:  cpu time      0.2846: real time      0.2883
    SETDIJ:  cpu time      0.1153: real time      0.1159
     EDDAV:  cpu time      9.9182: real time     10.0620
       DOS:  cpu time      0.0004: real time      0.0004
    CHARGE:  cpu time      0.2611: real time      0.2633
    MIXING:  cpu time      0.0130: real time      0.0132
    --------------------------------------------
      LOOP:  cpu time     10.5926: real time     10.7431

 eigenvalue-minimisations  :  3488
 total energy-change (2. order) :-0.1055682E-01  (-0.1171515E-03)
 number of electron      53.9999984 magnetization       5.9999999
 augmentation part       -0.5664798 magnetization       4.3616105

 Broyden mixing:
  rms(total) = 0.16574E-01    rms(broyden)= 0.16574E-01
  rms(prec ) = 0.16992E-01
  weight for this iteration     100.00

 eigenvalues of (default mixing * dielectric matrix)
  average eigenvalue GAMMA=   1.1778
  2.5032  1.5385  1.5385  0.8575  0.5276  0.6396  0.6396

 Free energy of the ion-electron system (eV)
  ---------------------------------------------------
  alpha Z        PSCENC =        30.74992261
  Ewald energy   TEWEN  =      4471.64050427
  -Hartree energ DENC   =     -7170.73281083
  -exchange      EXHF   =         0.00000000
  -V(xc)+E(xc)   XCENC  =        86.67505523
  PAW double counting   =      3706.60250348    -3657.19128223
  entropy T*S    EENTRO =        -0.00000000
  eigenvalues    EBANDS =      -514.47858954
  atomic energy  EATOM  =      3012.10669636
  Solvation  Ediel_sol  =         0.00000000
  ext. energy  EPLUGINS =         0.00000000
  ---------------------------------------------------
  free energy    TOTEN  =       -34.62800065 eV

  energy without entropy =      -34.62800065  energy(sigma->0) =      -34.62800065


--------------------------------------------------------------------------------------------------------




--------------------------------------- Iteration      1(  13)  ---------------------------------------


    POTLOK:  cpu time      0.2851: real time      0.2886
    SETDIJ:  cpu time      0.1115: real time      0.1121
     EDDAV:  cpu time      8.5731: real time      8.6787
       DOS:  cpu time      0.0004: real time      0.0004
    CHARGE:  cpu time      0.2289: real time      0.2307
    MIXING:  cpu time      0.0128: real time      0.0130
    --------------------------------------------
      LOOP:  cpu time      9.2117: real time      9.3234

 eigenvalue-minimisations  :  2848
 total energy-change (2. order) :-0.7534871E-02  (-0.3585647E-04)
 number of electron      53.9999984 magnetization       5.9999999
 augmentation part       -0.5681287 magnetization       4.3599264

 Broyden mixing:
  rms(total) = 0.55517E-02    rms(broyden)= 0.55517E-02
  rms(prec ) = 0.61525E-02
  weight for this iteration     100.00

 eigenvalues of (default mixing * dielectric matrix)
  average eigenvalue GAMMA=   1.1843
  2.4507  2.1714  1.0893  1.0893  0.8611  0.5290  0.6419  0.6419

 Free energy of the ion-electron system (eV)
  ---------------------------------------------------
  alpha Z        PSCENC =        30.74992261
  Ewald energy   TEWEN  =      4471.64050427
  -Hartree energ DENC   =     -7171.18184467
  -exchange      EXHF   =         0.00000000
  -V(xc)+E(xc)   XCENC  =        86.67155062
  PAW double counting   =      3705.99253709    -3656.56659704
  entropy T*S    EENTRO =        -0.00000000
  eigenvalues    EBANDS =      -514.04830476
  atomic energy  EATOM  =      3012.10669636
  Solvation  Ediel_sol  =         0.00000000
  ext. energy  EPLUGINS =         0.00000000
  ---------------------------------------------------
  free energy    TOTEN  =       -34.63553552 eV

  energy without entropy =      -34.63553552  energy(sigma->0) =      -34.63553552


--------------------------------------------------------------------------------------------------------




--------------------------------------- Iteration      1(  14)  ---------------------------------------


    POTLOK:  cpu time      0.2883: real time      0.2917
    SETDIJ:  cpu time      0.1158: real time      0.1164
     EDDAV:  cpu time      9.0372: real time      9.1630
       DOS:  cpu time      0.0004: real time      0.0003
    CHARGE:  cpu time      0.2280: real time      0.2298
    MIXING:  cpu time      0.0122: real time      0.0125
    --------------------------------------------
      LOOP:  cpu time      9.6819: real time      9.8137

 eigenvalue-minimisations  :  3212
 total energy-change (2. order) :-0.2870024E-02  (-0.1052028E-04)
 number of electron      53.9999984 magnetization       5.9999999
 augmentation part       -0.5717443 magnetization       4.3581563

 Broyden mixing:
  rms(total) = 0.38252E-02    rms(broyden)= 0.38252E-02
  rms(prec ) = 0.42722E-02
  weight for this iteration     100.00

 eigenvalues of (default mixing * dielectric matrix)
  average eigenvalue GAMMA=   1.1127
  2.2647  2.2142  1.1671  1.1671  0.8685  0.6433  0.6433  0.5233  0.5233

 Free energy of the ion-electron system (eV)
  ---------------------------------------------------
  alpha Z        PSCENC =        30.74992261
  Ewald energy   TEWEN  =      4471.64050427
  -Hartree energ DENC   =     -7171.42733750
  -exchange      EXHF   =         0.00000000
  -V(xc)+E(xc)   XCENC  =        86.66507108
  PAW double counting   =      3704.04672636    -3654.63526985
  entropy T*S    EENTRO =        -0.00000000
  eigenvalues    EBANDS =      -513.78471887
  atomic energy  EATOM  =      3012.10669636
  Solvation  Ediel_sol  =         0.00000000
  ext. energy  EPLUGINS =         0.00000000
  ---------------------------------------------------
  free energy    TOTEN  =       -34.63840554 eV

  energy without entropy =      -34.63840554  energy(sigma->0) =      -34.63840554


--------------------------------------------------------------------------------------------------------




--------------------------------------- Iteration      1(  15)  ---------------------------------------


    POTLOK:  cpu time      0.2831: real time      0.2865
    SETDIJ:  cpu time      0.1128: real time      0.1136
     EDDAV:  cpu time      8.4631: real time      8.5868
       DOS:  cpu time      0.0003: real time      0.0004
    CHARGE:  cpu time      0.2270: real time      0.2289
    MIXING:  cpu time      0.0126: real time      0.0128
    --------------------------------------------
      LOOP:  cpu time      9.0991: real time      9.2288

 eigenvalue-minimisations  :  2956
 total energy-change (2. order) :-0.1452113E-02  (-0.2174115E-05)
 number of electron      53.9999984 magnetization       5.9999999
 augmentation part       -0.5713538 magnetization       4.3583899

 Broyden mixing:
  rms(total) = 0.22234E-02    rms(broyden)= 0.22234E-02
  rms(prec ) = 0.27811E-02
  weight for this iteration     100.00

 eigenvalues of (default mixing * dielectric matrix)
  average eigenvalue GAMMA=   1.1783
  2.3083  2.3083  1.4352  1.4352  0.9126  0.7839  0.7839  0.5299  0.6428  0.6428

 Free energy of the ion-electron system (eV)
  ---------------------------------------------------
  alpha Z        PSCENC =        30.74992261
  Ewald energy   TEWEN  =      4471.64050427
  -Hartree energ DENC   =     -7171.55610149
  -exchange      EXHF   =         0.00000000
  -V(xc)+E(xc)   XCENC  =        86.66602514
  PAW double counting   =      3702.69594086    -3653.28027374
  entropy T*S    EENTRO =        -0.00000000
  eigenvalues    EBANDS =      -513.66257166
  atomic energy  EATOM  =      3012.10669636
  Solvation  Ediel_sol  =         0.00000000
  ext. energy  EPLUGINS =         0.00000000
  ---------------------------------------------------
  free energy    TOTEN  =       -34.63985766 eV

  energy without entropy =      -34.63985766  energy(sigma->0) =      -34.63985766


--------------------------------------------------------------------------------------------------------




--------------------------------------- Iteration      1(  16)  ---------------------------------------


    POTLOK:  cpu time      0.2897: real time      0.2948
    SETDIJ:  cpu time      0.1131: real time      0.1137
     EDDAV:  cpu time      8.6364: real time      8.7897
       DOS:  cpu time      0.0005: real time      0.0005
    CHARGE:  cpu time      0.2578: real time      0.2609
    MIXING:  cpu time      0.0131: real time      0.0133
    --------------------------------------------
      LOOP:  cpu time      9.3106: real time      9.4729

 eigenvalue-minimisations  :  3028
 total energy-change (2. order) :-0.5097575E-02  (-0.4196362E-05)
 number of electron      53.9999984 magnetization       5.9999999
 augmentation part       -0.5702255 magnetization       4.3587580

 Broyden mixing:
  rms(total) = 0.13832E-02    rms(broyden)= 0.13832E-02
  rms(prec ) = 0.17460E-02
  weight for this iteration     100.00

 eigenvalues of (default mixing * dielectric matrix)
  average eigenvalue GAMMA=   1.2329
  2.6698  2.6698  1.6269  1.5926  1.0549  0.7698  0.7698  0.5290  0.6818  0.5987
  0.5987

 Free energy of the ion-electron system (eV)
  ---------------------------------------------------
  alpha Z        PSCENC =        30.74992261
  Ewald energy   TEWEN  =      4471.64050427
  -Hartree energ DENC   =     -7172.01409120
  -exchange      EXHF   =         0.00000000
  -V(xc)+E(xc)   XCENC  =        86.66748762
  PAW double counting   =      3700.62969121    -3651.21285670
  entropy T*S    EENTRO =        -0.00000000
  eigenvalues    EBANDS =      -513.21230939
  atomic energy  EATOM  =      3012.10669636
  Solvation  Ediel_sol  =         0.00000000
  ext. energy  EPLUGINS =         0.00000000
  ---------------------------------------------------
  free energy    TOTEN  =       -34.64495523 eV

  energy without entropy =      -34.64495523  energy(sigma->0) =      -34.64495523


--------------------------------------------------------------------------------------------------------




--------------------------------------- Iteration      1(  17)  ---------------------------------------


    POTLOK:  cpu time      0.2747: real time      0.2789
    SETDIJ:  cpu time      0.1117: real time      0.1125
     EDDAV:  cpu time      8.1339: real time      8.2859
       DOS:  cpu time      0.0003: real time      0.0003
    CHARGE:  cpu time      0.2378: real time      0.2408
    MIXING:  cpu time      0.0139: real time      0.0142
    --------------------------------------------
      LOOP:  cpu time      8.7723: real time      8.9326

 eigenvalue-minimisations  :  2792
 total energy-change (2. order) :-0.1341204E-02  (-0.1528632E-05)
 number of electron      53.9999984 magnetization       5.9999999
 augmentation part       -0.5700773 magnetization       4.3591287

 Broyden mixing:
  rms(total) = 0.13401E-02    rms(broyden)= 0.13401E-02
  rms(prec ) = 0.15682E-02
  weight for this iteration     100.00

 eigenvalues of (default mixing * dielectric matrix)
  average eigenvalue GAMMA=   1.2243
  2.7254  2.2423  2.2423  1.2400  1.2400  0.8604  0.8604  0.8693  0.5299  0.6436
  0.6436  0.5939

 Free energy of the ion-electron system (eV)
  ---------------------------------------------------
  alpha Z        PSCENC =        30.74992261
  Ewald energy   TEWEN  =      4471.64050427
  -Hartree energ DENC   =     -7172.23369822
  -exchange      EXHF   =         0.00000000
  -V(xc)+E(xc)   XCENC  =        86.67056762
  PAW double counting   =      3700.31548415    -3650.89688277
  entropy T*S    EENTRO =        -0.00000000
  eigenvalues    EBANDS =      -512.99889045
  atomic energy  EATOM  =      3012.10669636
  Solvation  Ediel_sol  =         0.00000000
  ext. energy  EPLUGINS =         0.00000000
  ---------------------------------------------------
  free energy    TOTEN  =       -34.64629643 eV

  energy without entropy =      -34.64629643  energy(sigma->0) =      -34.64629643


--------------------------------------------------------------------------------------------------------




--------------------------------------- Iteration      1(  18)  ---------------------------------------


    POTLOK:  cpu time      0.2748: real time      0.2794
    SETDIJ:  cpu time      0.1148: real time      0.1157
     EDDAV:  cpu time      7.3578: real time      7.5059
       DOS:  cpu time      0.0005: real time      0.0005
    CHARGE:  cpu time      0.2298: real time      0.2328
    MIXING:  cpu time      0.0129: real time      0.0131
    --------------------------------------------
      LOOP:  cpu time      7.9907: real time      8.1474

 eigenvalue-minimisations  :  2412
 total energy-change (2. order) :-0.3567681E-03  (-0.6057465E-06)
 number of electron      53.9999984 magnetization       5.9999999
 augmentation part       -0.5704112 magnetization       4.3592721

 Broyden mixing:
  rms(total) = 0.80554E-03    rms(broyden)= 0.80554E-03
  rms(prec ) = 0.99434E-03
  weight for this iteration     100.00

 eigenvalues of (default mixing * dielectric matrix)
  average eigenvalue GAMMA=   1.2929
  3.4948  2.4493  1.6118  1.6118  1.5507  0.9716  0.9716  0.9912  0.5299  0.7215
  0.6442  0.6442  0.6146

 Free energy of the ion-electron system (eV)
  ---------------------------------------------------
  alpha Z        PSCENC =        30.74992261
  Ewald energy   TEWEN  =      4471.64050427
  -Hartree energ DENC   =     -7172.38365820
  -exchange      EXHF   =         0.00000000
  -V(xc)+E(xc)   XCENC  =        86.67245038
  PAW double counting   =      3701.01115037    -3651.59264386
  entropy T*S    EENTRO =        -0.00000000
  eigenvalues    EBANDS =      -512.85107512
  atomic energy  EATOM  =      3012.10669636
  Solvation  Ediel_sol  =         0.00000000
  ext. energy  EPLUGINS =         0.00000000
  ---------------------------------------------------
  free energy    TOTEN  =       -34.64665320 eV

  energy without entropy =      -34.64665320  energy(sigma->0) =      -34.64665320


--------------------------------------------------------------------------------------------------------




--------------------------------------- Iteration      1(  19)  ---------------------------------------


    POTLOK:  cpu time      0.2788: real time      0.2830
    SETDIJ:  cpu time      0.1121: real time      0.1129
     EDDAV:  cpu time      6.8980: real time      7.0271
       DOS:  cpu time      0.0003: real time      0.0004
    CHARGE:  cpu time      0.2256: real time      0.2283
    MIXING:  cpu time      0.0136: real time      0.0139
    --------------------------------------------
      LOOP:  cpu time      7.5284: real time      7.6655

 eigenvalue-minimisations  :  2188
 total energy-change (2. order) :-0.1107436E-03  (-0.5178921E-06)
 number of electron      53.9999984 magnetization       5.9999999
 augmentation part       -0.5705682 magnetization       4.3590329

 Broyden mixing:
  rms(total) = 0.37174E-03    rms(broyden)= 0.37174E-03
  rms(prec ) = 0.51740E-03
  weight for this iteration     100.00

 eigenvalues of (default mixing * dielectric matrix)
  average eigenvalue GAMMA=   1.3860
  4.3906  2.6096  2.0612  2.0612  1.2407  1.2407  1.0362  0.8177  0.8177  0.5299
  0.6822  0.6546  0.6546  0.6073

 Free energy of the ion-electron system (eV)
  ---------------------------------------------------
  alpha Z        PSCENC =        30.74992261
  Ewald energy   TEWEN  =      4471.64050427
  -Hartree energ DENC   =     -7172.56049161
  -exchange      EXHF   =         0.00000000
  -V(xc)+E(xc)   XCENC  =        86.67177059
  PAW double counting   =      3701.13210751    -3651.71348995
  entropy T*S    EENTRO =        -0.00000000
  eigenvalues    EBANDS =      -512.67378372
  atomic energy  EATOM  =      3012.10669636
  Solvation  Ediel_sol  =         0.00000000
  ext. energy  EPLUGINS =         0.00000000
  ---------------------------------------------------
  free energy    TOTEN  =       -34.64676395 eV

  energy without entropy =      -34.64676395  energy(sigma->0) =      -34.64676395


--------------------------------------------------------------------------------------------------------




--------------------------------------- Iteration      1(  20)  ---------------------------------------


    POTLOK:  cpu time      0.2794: real time      0.2841
    SETDIJ:  cpu time      0.1111: real time      0.1119
     EDDAV:  cpu time      6.8541: real time      6.9869
       DOS:  cpu time      0.0005: real time      0.0005
    CHARGE:  cpu time      0.2638: real time      0.2670
    MIXING:  cpu time      0.0142: real time      0.0146
    --------------------------------------------
      LOOP:  cpu time      7.5231: real time      7.6650

 eigenvalue-minimisations  :  2164
 total energy-change (2. order) : 0.5659548E-05  (-0.4411967E-06)
 number of electron      53.9999984 magnetization       5.9999999
 augmentation part       -0.5706602 magnetization       4.3589672

 Broyden mixing:
  rms(total) = 0.35899E-03    rms(broyden)= 0.35899E-03
  rms(prec ) = 0.41600E-03
  weight for this iteration     100.00

 eigenvalues of (default mixing * dielectric matrix)
  average eigenvalue GAMMA=   1.3976
  5.1901  2.3927  2.3927  1.6561  1.6561  1.0216  1.0216  0.9014  0.9014  0.7952
  0.5298  0.6413  0.6413  0.6115  0.6115

 Free energy of the ion-electron system (eV)
  ---------------------------------------------------
  alpha Z        PSCENC =        30.74992261
  Ewald energy   TEWEN  =      4471.64050427
  -Hartree energ DENC   =     -7172.69235383
  -exchange      EXHF   =         0.00000000
  -V(xc)+E(xc)   XCENC  =        86.67165812
  PAW double counting   =      3701.43872036    -3652.01898214
  entropy T*S    EENTRO =        -0.00000000
  eigenvalues    EBANDS =      -512.54292404
  atomic energy  EATOM  =      3012.10669636
  Solvation  Ediel_sol  =         0.00000000
  ext. energy  EPLUGINS =         0.00000000
  ---------------------------------------------------
  free energy    TOTEN  =       -34.64675829 eV

  energy without entropy =      -34.64675829  energy(sigma->0) =      -34.64675829


--------------------------------------------------------------------------------------------------------




--------------------------------------- Iteration      1(  21)  ---------------------------------------


    POTLOK:  cpu time      0.2783: real time      0.2827
    SETDIJ:  cpu time      0.1111: real time      0.1119
     EDDAV:  cpu time      6.2178: real time      6.3214
       DOS:  cpu time      0.0005: real time      0.0005
    CHARGE:  cpu time      0.2906: real time      0.2942
    MIXING:  cpu time      0.0144: real time      0.0147
    --------------------------------------------
      LOOP:  cpu time      6.9126: real time      7.0254

 eigenvalue-minimisations  :  1852
 total energy-change (2. order) : 0.1557967E-04  (-0.5716747E-07)
 number of electron      53.9999984 magnetization       5.9999999
 augmentation part       -0.5706188 magnetization       4.3590141

 Broyden mixing:
  rms(total) = 0.27087E-03    rms(broyden)= 0.27087E-03
  rms(prec ) = 0.31833E-03
  weight for this iteration     100.00

 eigenvalues of (default mixing * dielectric matrix)
  average eigenvalue GAMMA=   1.4399
  5.4660  2.5382  2.5382  1.7215  1.7215  1.5470  1.0091  1.0091  0.8532  0.7606
  0.7606  0.5299  0.6809  0.6477  0.6477  0.6075

 Free energy of the ion-electron system (eV)
  ---------------------------------------------------
  alpha Z        PSCENC =        30.74992261
  Ewald energy   TEWEN  =      4471.64050427
  -Hartree energ DENC   =     -7172.73129820
  -exchange      EXHF   =         0.00000000
  -V(xc)+E(xc)   XCENC  =        86.67227748
  PAW double counting   =      3701.44906682    -3652.03031979
  entropy T*S    EENTRO =        -0.00000000
  eigenvalues    EBANDS =      -512.50359225
  atomic energy  EATOM  =      3012.10669636
  Solvation  Ediel_sol  =         0.00000000
  ext. energy  EPLUGINS =         0.00000000
  ---------------------------------------------------
  free energy    TOTEN  =       -34.64674271 eV

  energy without entropy =      -34.64674271  energy(sigma->0) =      -34.64674271


--------------------------------------------------------------------------------------------------------




--------------------------------------- Iteration      1(  22)  ---------------------------------------


    POTLOK:  cpu time      0.3025: real time      0.3073
    SETDIJ:  cpu time      0.1263: real time      0.1275
     EDDAV:  cpu time      5.6274: real time      5.7294
       DOS:  cpu time      0.0004: real time      0.0004
    CHARGE:  cpu time      0.2707: real time      0.2744
    MIXING:  cpu time      0.0141: real time      0.0144
    --------------------------------------------
      LOOP:  cpu time      6.3413: real time      6.4533

 eigenvalue-minimisations  :  1556
 total energy-change (2. order) :-0.4117927E-04  (-0.5176873E-07)
 number of electron      53.9999984 magnetization       5.9999999
 augmentation part       -0.5706528 magnetization       4.3589119

 Broyden mixing:
  rms(total) = 0.28062E-03    rms(broyden)= 0.28062E-03
  rms(prec ) = 0.29649E-03
  weight for this iteration     100.00

 eigenvalues of (default mixing * dielectric matrix)
  average eigenvalue GAMMA=   1.4476
  5.7044  2.7662  2.4788  1.7686  1.7686  1.7492  1.0724  1.0724  0.7974  0.7974
  0.8262  0.5300  0.7402  0.6727  0.6410  0.6410  0.5819

 Free energy of the ion-electron system (eV)
  ---------------------------------------------------
  alpha Z        PSCENC =        30.74992261
  Ewald energy   TEWEN  =      4471.64050427
  -Hartree energ DENC   =     -7172.78966349
  -exchange      EXHF   =         0.00000000
  -V(xc)+E(xc)   XCENC  =        86.67237075
  PAW double counting   =      3701.23428212    -3651.81672639
  entropy T*S    EENTRO =        -0.00000000
  eigenvalues    EBANDS =      -512.44417010
  atomic energy  EATOM  =      3012.10669636
  Solvation  Ediel_sol  =         0.00000000
  ext. energy  EPLUGINS =         0.00000000
  ---------------------------------------------------
  free energy    TOTEN  =       -34.64678389 eV

  energy without entropy =      -34.64678389  energy(sigma->0) =      -34.64678389


--------------------------------------------------------------------------------------------------------




--------------------------------------- Iteration      1(  23)  ---------------------------------------


    POTLOK:  cpu time      0.2792: real time      0.2835
    SETDIJ:  cpu time      0.1118: real time      0.1127
     EDDAV:  cpu time      5.7545: real time      5.8650
       DOS:  cpu time      0.0004: real time      0.0004
    CHARGE:  cpu time      0.2323: real time      0.2352
    MIXING:  cpu time      0.0138: real time      0.0140
    --------------------------------------------
      LOOP:  cpu time      6.3920: real time      6.5107

 eigenvalue-minimisations  :  1680
 total energy-change (2. order) :-0.1092847E-04  (-0.2045327E-07)
 number of electron      53.9999984 magnetization       5.9999999
 augmentation part       -0.5706393 magnetization       4.3589202

 Broyden mixing:
  rms(total) = 0.14700E-03    rms(broyden)= 0.14700E-03
  rms(prec ) = 0.16378E-03
  weight for this iteration     100.00

 eigenvalues of (default mixing * dielectric matrix)
  average eigenvalue GAMMA=   1.4339
  5.8885  2.9101  2.1323  2.1323  1.7559  1.7559  1.2146  1.0151  1.0151  0.8134
  0.7365  0.7365  0.7409  0.6433  0.6433  0.6034  0.5300  0.5428

 Free energy of the ion-electron system (eV)
  ---------------------------------------------------
  alpha Z        PSCENC =        30.74992261
  Ewald energy   TEWEN  =      4471.64050427
  -Hartree energ DENC   =     -7172.80855811
  -exchange      EXHF   =         0.00000000
  -V(xc)+E(xc)   XCENC  =        86.67222040
  PAW double counting   =      3701.14413122    -3651.72607319
  entropy T*S    EENTRO =        -0.00000000
  eigenvalues    EBANDS =      -512.42563838
  atomic energy  EATOM  =      3012.10669636
  Solvation  Ediel_sol  =         0.00000000
  ext. energy  EPLUGINS =         0.00000000
  ---------------------------------------------------
  free energy    TOTEN  =       -34.64679481 eV

  energy without entropy =      -34.64679481  energy(sigma->0) =      -34.64679481


--------------------------------------------------------------------------------------------------------




--------------------------------------- Iteration      1(  24)  ---------------------------------------


    POTLOK:  cpu time      0.2749: real time      0.2793
    SETDIJ:  cpu time      0.1118: real time      0.1127
     EDDAV:  cpu time      5.4845: real time      5.5650
       DOS:  cpu time      0.0004: real time      0.0004
    CHARGE:  cpu time      0.2301: real time      0.2321
    MIXING:  cpu time      0.0150: real time      0.0152
    --------------------------------------------
      LOOP:  cpu time      6.1166: real time      6.2046

 eigenvalue-minimisations  :  1548
 total energy-change (2. order) :-0.1386166E-04  (-0.1378298E-07)
 number of electron      53.9999984 magnetization       5.9999999
 augmentation part       -0.5705648 magnetization       4.3589604

 Broyden mixing:
  rms(total) = 0.14561E-03    rms(broyden)= 0.14561E-03
  rms(prec ) = 0.15423E-03
  weight for this iteration     100.00

 eigenvalues of (default mixing * dielectric matrix)
  average eigenvalue GAMMA=   1.4345
  6.0098  2.9660  2.3268  1.9642  1.8378  1.8378  1.4823  1.0090  1.0090  0.8112
  0.8112  0.7362  0.7362  0.5299  0.6340  0.6469  0.6469  0.6302  0.6302

 Free energy of the ion-electron system (eV)
  ---------------------------------------------------
  alpha Z        PSCENC =        30.74992261
  Ewald energy   TEWEN  =      4471.64050427
  -Hartree energ DENC   =     -7172.81856459
  -exchange      EXHF   =         0.00000000
  -V(xc)+E(xc)   XCENC  =        86.67225851
  PAW double counting   =      3701.13303687    -3651.71475211
  entropy T*S    EENTRO =        -0.00000000
  eigenvalues    EBANDS =      -512.41591060
  atomic energy  EATOM  =      3012.10669636
  Solvation  Ediel_sol  =         0.00000000
  ext. energy  EPLUGINS =         0.00000000
  ---------------------------------------------------
  free energy    TOTEN  =       -34.64680868 eV

  energy without entropy =      -34.64680868  energy(sigma->0) =      -34.64680868


--------------------------------------------------------------------------------------------------------




--------------------------------------- Iteration      1(  25)  ---------------------------------------


    POTLOK:  cpu time      0.2772: real time      0.2807
    SETDIJ:  cpu time      0.1140: real time      0.1146
     EDDAV:  cpu time      5.8138: real time      5.8985
       DOS:  cpu time      0.0005: real time      0.0004
    CHARGE:  cpu time      0.2296: real time      0.2319
    MIXING:  cpu time      0.0152: real time      0.0155
    --------------------------------------------
      LOOP:  cpu time      6.4503: real time      6.5417

 eigenvalue-minimisations  :  1704
 total energy-change (2. order) :-0.1509751E-04  (-0.2969674E-07)
 number of electron      53.9999984 magnetization       5.9999999
 augmentation part       -0.5705834 magnetization       4.3589790

 Broyden mixing:
  rms(total) = 0.56576E-04    rms(broyden)= 0.56576E-04
  rms(prec ) = 0.62363E-04
  weight for this iteration     100.00

 eigenvalues of (default mixing * dielectric matrix)
  average eigenvalue GAMMA=   1.5453
  6.3299  4.3040  2.6814  2.3357  1.9000  1.9000  1.6957  0.9870  0.9870  0.7947
  0.7947  0.8762  0.8762  0.7593  0.5299  0.6558  0.6558  0.6005  0.6209  0.6209

 Free energy of the ion-electron system (eV)
  ---------------------------------------------------
  alpha Z        PSCENC =        30.74992261
  Ewald energy   TEWEN  =      4471.64050427
  -Hartree energ DENC   =     -7172.82511008
  -exchange      EXHF   =         0.00000000
  -V(xc)+E(xc)   XCENC  =        86.67221593
  PAW double counting   =      3701.27448521    -3651.85608866
  entropy T*S    EENTRO =        -0.00000000
  eigenvalues    EBANDS =      -512.40944941
  atomic energy  EATOM  =      3012.10669636
  Solvation  Ediel_sol  =         0.00000000
  ext. energy  EPLUGINS =         0.00000000
  ---------------------------------------------------
  free energy    TOTEN  =       -34.64682377 eV

  energy without entropy =      -34.64682377  energy(sigma->0) =      -34.64682377


--------------------------------------------------------------------------------------------------------




--------------------------------------- Iteration      1(  26)  ---------------------------------------


    POTLOK:  cpu time      0.2781: real time      0.2830
    SETDIJ:  cpu time      0.1136: real time      0.1144
     EDDAV:  cpu time      5.8507: real time      5.9470
       DOS:  cpu time      0.0003: real time      0.0003
    CHARGE:  cpu time      0.2298: real time      0.2317
    MIXING:  cpu time      0.0179: real time      0.0182
    --------------------------------------------
      LOOP:  cpu time      6.4903: real time      6.5947

 eigenvalue-minimisations  :  1696
 total energy-change (2. order) :-0.4811611E-05  (-0.2822150E-07)
 number of electron      53.9999984 magnetization       5.9999999
 augmentation part       -0.5705949 magnetization       4.3589740

 Broyden mixing:
  rms(total) = 0.60206E-04    rms(broyden)= 0.60206E-04
  rms(prec ) = 0.61939E-04
  weight for this iteration     100.00

 eigenvalues of (default mixing * dielectric matrix)
  average eigenvalue GAMMA=   1.5623
  6.8671  5.0548  2.7107  2.3862  1.8693  1.8693  1.5375  1.2332  0.9951  0.9951
  0.7619  0.7619  0.8200  0.6626  0.6626  0.7042  0.6420  0.6420  0.5872  0.5299
  0.5158

 Free energy of the ion-electron system (eV)
  ---------------------------------------------------
  alpha Z        PSCENC =        30.74992261
  Ewald energy   TEWEN  =      4471.64050427
  -Hartree energ DENC   =     -7172.83047296
  -exchange      EXHF   =         0.00000000
  -V(xc)+E(xc)   XCENC  =        86.67220835
  PAW double counting   =      3701.27442961    -3651.85600173
  entropy T*S    EENTRO =        -0.00000000
  eigenvalues    EBANDS =      -512.40411508
  atomic energy  EATOM  =      3012.10669636
  Solvation  Ediel_sol  =         0.00000000
  ext. energy  EPLUGINS =         0.00000000
  ---------------------------------------------------
  free energy    TOTEN  =       -34.64682858 eV

  energy without entropy =      -34.64682858  energy(sigma->0) =      -34.64682858


--------------------------------------------------------------------------------------------------------




--------------------------------------- Iteration      1(  27)  ---------------------------------------


    POTLOK:  cpu time      0.3085: real time      0.3123
    SETDIJ:  cpu time      0.1116: real time      0.1121
     EDDAV:  cpu time      5.4993: real time      5.5829
       DOS:  cpu time      0.0005: real time      0.0005
    --------------------------------------------
      LOOP:  cpu time      5.9201: real time      6.0080

 eigenvalue-minimisations  :  1552
 total energy-change (2. order) :-0.3155333E-06  (-0.6233395E-08)
 number of electron      53.9999984 magnetization       5.9999999
 augmentation part       -0.5705949 magnetization       4.3589740

 Free energy of the ion-electron system (eV)
  ---------------------------------------------------
  alpha Z        PSCENC =        30.74992261
  Ewald energy   TEWEN  =      4471.64050427
  -Hartree energ DENC   =     -7172.83193797
  -exchange      EXHF   =         0.00000000
  -V(xc)+E(xc)   XCENC  =        86.67222377
  PAW double counting   =      3701.24008721    -3651.82172733
  entropy T*S    EENTRO =        -0.00000000
  eigenvalues    EBANDS =      -512.40259782
  atomic energy  EATOM  =      3012.10669636
  Solvation  Ediel_sol  =         0.00000000
  ext. energy  EPLUGINS =         0.00000000
  ---------------------------------------------------
  free energy    TOTEN  =       -34.64682890 eV

  energy without entropy =      -34.64682890  energy(sigma->0) =      -34.64682890


--------------------------------------------------------------------------------------------------------




 average (electrostatic) potential at core
  the test charge radii are     1.1394  0.9406
  (the norm of the test charge is              1.0000)
       1 -53.1449       2 -53.1449       3 -98.9247       4 -98.9247       5 -98.9247
       6 -98.9247       7 -98.9247       8 -98.9247



 E-fermi :  -4.8162     XC(G=0):  -3.3480     alpha+bet : -2.6941

 val. band max:       -5.0854630656   @ k =   0.0909   0.0909   0.0000
 cond. band min:      -2.4409114725   @ k =   0.3636   0.2727   0.0000
 fundamental gap:      2.6445515931
 Fermi energy:        -4.8161987236

 spin component 1

 k-point     1 :       0.0000    0.0000    0.0000
  band No.  band energies     occupation 
      1     -19.2451      1.00000
      2     -18.4460      1.00000
      3     -18.2679      1.00000
      4     -18.2679      1.00000
      5     -18.1704      1.00000
      6     -18.1704      1.00000
      7      -9.1197      1.00000
      8      -9.0568      1.00000
      9      -8.6164      1.00000
     10      -8.6164      1.00000
     11      -8.5988      1.00000
     12      -8.5988      1.00000
     13      -7.6308      1.00000
     14      -7.6308      1.00000
     15      -7.6227      1.00000
     16      -7.3901      1.00000
     17      -7.0699      1.00000
     18      -7.0699      1.00000
     19      -7.0500      1.00000
     20      -6.5750      1.00000
     21      -6.5750      1.00000
     22      -6.1763      1.00000
     23      -6.0952      1.00000
     24      -6.0952      1.00000
     25      -5.8742      1.00000
     26      -5.7760      1.00000
     27      -5.3445      1.00000
     28      -5.3445      1.00000
     29      -5.0928      1.00000
     30      -5.0928      1.00000
     31      -2.4067      0.00000
     32      -2.4067      0.00000
     33      -2.1945      0.00000
     34      -2.1945      0.00000
     35       1.6177      0.00000
     36       2.3386      0.00000

 k-point     2 :       0.0909    0.0000    0.0000
  band No.  band energies     occupation 
      1     -19.2280      1.00000
      2     -18.4388      1.00000
      3     -18.2884      1.00000
      4     -18.2739      1.00000
      5     -18.1732      1.00000
      6     -18.1719      1.00000
      7      -9.1288      1.00000
      8      -9.0428      1.00000
      9      -8.6740      1.00000
     10      -8.6735      1.00000
     11      -8.5256      1.00000
     12      -8.5189      1.00000
     13      -7.6539      1.00000
     14      -7.6447      1.00000
     15      -7.6195      1.00000
     16      -7.3507      1.00000
     17      -7.0815      1.00000
     18      -7.0626      1.00000
     19      -7.0298      1.00000
     20      -6.6507      1.00000
     21      -6.5689      1.00000
     22      -6.1438      1.00000
     23      -6.1168      1.00000
     24      -6.0754      1.00000
     25      -5.8727      1.00000
     26      -5.7401      1.00000
     27      -5.3515      1.00000
     28      -5.3473      1.00000
     29      -5.1356      1.00000
     30      -5.0894      1.00000
     31      -2.4077      0.00000
     32      -2.4031      0.00000
     33      -2.2277      0.00000
     34      -2.1983      0.00000
     35       1.6973      0.00000
     36       2.3859      0.00000

 k-point     3 :       0.1818    0.0000    0.0000
  band No.  band energies     occupation 
      1     -19.1779      1.00000
      2     -18.4182      1.00000
      3     -18.3466      1.00000
      4     -18.2886      1.00000
      5     -18.1815      1.00000
      6     -18.1787      1.00000
      7      -9.1566      1.00000
      8      -9.0027      1.00000
      9      -8.7228      1.00000
     10      -8.6901      1.00000
     11      -8.4308      1.00000
     12      -8.4256      1.00000
     13      -7.7148      1.00000
     14      -7.6926      1.00000
     15      -7.5921      1.00000
     16      -7.2916      1.00000
     17      -7.1382      1.00000
     18      -7.0368      1.00000
     19      -6.9376      1.00000
     20      -6.7941      1.00000
     21      -6.5553      1.00000
     22      -6.1847      1.00000
     23      -6.1402      1.00000
     24      -6.0046      1.00000
     25      -5.8627      1.00000
     26      -5.6336      1.00000
     27      -5.3733      1.00000
     28      -5.3575      1.00000
     29      -5.2301      1.00000
     30      -5.0876      1.00000
     31      -2.4095      0.00000
     32      -2.3921      0.00000
     33      -2.3009      0.00000
     34      -2.2133      0.00000
     35       1.9166      0.00000
     36       2.5168      0.00000

 k-point     4 :       0.2727    0.0000    0.0000
  band No.  band energies     occupation 
      1     -19.0994      1.00000
      2     -18.4350      1.00000
      3     -18.3865      1.00000
      4     -18.3058      1.00000
      5     -18.1943      1.00000
      6     -18.1932      1.00000
      7      -9.2056      1.00000
      8      -8.9353      1.00000
      9      -8.7543      1.00000
     10      -8.6242      1.00000
     11      -8.3600      1.00000
     12      -8.3271      1.00000
     13      -7.7937      1.00000
     14      -7.7412      1.00000
     15      -7.5649      1.00000
     16      -7.3661      1.00000
     17      -7.1211      1.00000
     18      -6.9935      1.00000
     19      -6.9909      1.00000
     20      -6.7648      1.00000
     21      -6.5303      1.00000
     22      -6.2852      1.00000
     23      -6.1772      1.00000
     24      -5.9286      1.00000
     25      -5.8332      1.00000
     26      -5.4882      1.00000
     27      -5.4070      1.00000
     28      -5.3881      1.00000
     29      -5.3174      1.00000
     30      -5.0945      1.00000
     31      -2.4084      0.00000
     32      -2.3709      0.00000
     33      -2.3680      0.00000
     34      -2.2443      0.00000
     35       2.2350      0.00000
     36       2.7141      0.00000

 k-point     5 :       0.3636    0.0000    0.0000
  band No.  band energies     occupation 
      1     -19.0021      1.00000
      2     -18.5412      1.00000
      3     -18.3487      1.00000
      4     -18.3191      1.00000
      5     -18.2200      1.00000
      6     -18.2042      1.00000
      7      -9.2584      1.00000
      8      -8.8492      1.00000
      9      -8.7706      1.00000
     10      -8.4842      1.00000
     11      -8.3412      1.00000
     12      -8.2259      1.00000
     13      -7.8738      1.00000
     14      -7.7725      1.00000
     15      -7.6165      1.00000
     16      -7.4643      1.00000
     17      -7.1317      1.00000
     18      -7.0719      1.00000
     19      -6.9829      1.00000
     20      -6.6160      1.00000
     21      -6.4994      1.00000
     22      -6.3534      1.00000
     23      -6.2412      1.00000
     24      -5.8629      1.00000
     25      -5.7848      1.00000
     26      -5.4729      1.00000
     27      -5.4369      1.00000
     28      -5.3809      1.00000
     29      -5.3284      1.00000
     30      -5.1067      1.00000
     31      -2.4097      0.00000
     32      -2.3995      0.00000
     33      -2.3380      0.00000
     34      -2.2879      0.00000
     35       2.6217      0.00000
     36       2.9642      0.00000

 k-point     6 :       0.4545    0.0000    0.0000
  band No.  band energies     occupation 
      1     -18.9123      1.00000
      2     -18.6363      1.00000
      3     -18.3322      1.00000
      4     -18.3044      1.00000
      5     -18.2519      1.00000
      6     -18.2108      1.00000
      7      -9.2909      1.00000
      8      -8.7806      1.00000
      9      -8.7764      1.00000
     10      -8.3799      1.00000
     11      -8.2984      1.00000
     12      -8.1516      1.00000
     13      -7.9337      1.00000
     14      -7.7840      1.00000
     15      -7.7812      1.00000
     16      -7.4704      1.00000
     17      -7.2191      1.00000
     18      -7.0318      1.00000
     19      -7.0024      1.00000
     20      -6.5114      1.00000
     21      -6.4710      1.00000
     22      -6.3439      1.00000
     23      -6.3293      1.00000
     24      -5.8154      1.00000
     25      -5.7411      1.00000
     26      -5.5451      1.00000
     27      -5.4469      1.00000
     28      -5.4268      1.00000
     29      -5.2176      1.00000
     30      -5.1351      1.00000
     31      -2.4292      0.00000
     32      -2.3801      0.00000
     33      -2.3313      0.00000
     34      -2.3092      0.00000
     35       3.0500      0.00000
     36       3.0648      0.00000

 k-point     7 :       0.0909    0.0909    0.0000
  band No.  band energies     occupation 
      1     -19.1944      1.00000
      2     -18.4249      1.00000
      3     -18.3260      1.00000
      4     -18.2863      1.00000
      5     -18.1782      1.00000
      6     -18.1764      1.00000
      7      -9.1413      1.00000
      8      -9.0191      1.00000
      9      -8.7595      1.00000
     10      -8.6276      1.00000
     11      -8.5057      1.00000
     12      -8.4209      1.00000
     13      -7.6985      1.00000
     14      -7.6815      1.00000
     15      -7.5945      1.00000
     16      -7.2955      1.00000
     17      -7.1293      1.00000
     18      -7.0511      1.00000
     19      -6.9596      1.00000
     20      -6.7617      1.00000
     21      -6.5539      1.00000
     22      -6.1913      1.00000
     23      -6.0722      1.00000
     24      -6.0622      1.00000
     25      -5.8670      1.00000
     26      -5.6679      1.00000
     27      -5.3635      1.00000
     28      -5.3554      1.00000
     29      -5.2051      1.00000
     30      -5.0855      1.00000
     31      -2.4107      0.00000
     32      -2.3948      0.00000
     33      -2.2825      0.00000
     34      -2.2047      0.00000
     35       1.8461      0.00000
     36       2.4745      0.00000

 k-point     8 :       0.1818    0.0909    0.0000
  band No.  band energies     occupation 
      1     -19.1299      1.00000
      2     -18.3988      1.00000
      3     -18.3963      1.00000
      4     -18.3062      1.00000
      5     -18.1878      1.00000
      6     -18.1872      1.00000
      7      -9.1615      1.00000
      8      -8.9813      1.00000
      9      -8.8001      1.00000
     10      -8.5832      1.00000
     11      -8.4393      1.00000
     12      -8.3300      1.00000
     13      -7.7756      1.00000
     14      -7.7270      1.00000
     15      -7.5563      1.00000
     16      -7.2901      1.00000
     17      -7.1745      1.00000
     18      -7.0272      1.00000
     19      -6.9050      1.00000
     20      -6.8358      1.00000
     21      -6.5246      1.00000
     22      -6.2851      1.00000
     23      -6.0940      1.00000
     24      -5.9929      1.00000
     25      -5.8467      1.00000
     26      -5.5405      1.00000
     27      -5.4049      1.00000
     28      -5.3585      1.00000
     29      -5.2940      1.00000
     30      -5.0877      1.00000
     31      -2.4152      0.00000
     32      -2.3777      0.00000
     33      -2.3509      0.00000
     34      -2.2216      0.00000
     35       2.1113      0.00000
     36       2.6367      0.00000

 k-point     9 :       0.2727    0.0909    0.0000
  band No.  band energies     occupation 
      1     -19.0410      1.00000
      2     -18.4922      1.00000
      3     -18.3642      1.00000
      4     -18.3248      1.00000
      5     -18.2067      1.00000
      6     -18.1992      1.00000
      7      -9.2023      1.00000
      8      -8.9181      1.00000
      9      -8.7900      1.00000
     10      -8.5113      1.00000
     11      -8.3705      1.00000
     12      -8.2581      1.00000
     13      -7.8612      1.00000
     14      -7.7607      1.00000
     15      -7.5401      1.00000
     16      -7.4077      1.00000
     17      -7.1625      1.00000
     18      -7.0904      1.00000
     19      -6.9257      1.00000
     20      -6.7166      1.00000
     21      -6.4765      1.00000
     22      -6.3809      1.00000
     23      -6.1473      1.00000
     24      -5.9229      1.00000
     25      -5.8053      1.00000
     26      -5.4788      1.00000
     27      -5.3942      1.00000
     28      -5.3781      1.00000
     29      -5.3530      1.00000
     30      -5.0975      1.00000
     31      -2.4160      0.00000
     32      -2.3954      0.00000
     33      -2.3536      0.00000
     34      -2.2504      0.00000
     35       2.4562      0.00000
     36       2.8578      0.00000

 k-point    10 :       0.3636    0.0909    0.0000
  band No.  band energies     occupation 
      1     -18.9421      1.00000
      2     -18.5968      1.00000
      3     -18.3434      1.00000
      4     -18.3193      1.00000
      5     -18.2353      1.00000
      6     -18.2081      1.00000
      7      -9.2433      1.00000
      8      -8.8390      1.00000
      9      -8.7743      1.00000
     10      -8.3986      1.00000
     11      -8.3510      1.00000
     12      -8.1853      1.00000
     13      -7.9354      1.00000
     14      -7.7741      1.00000
     15      -7.6691      1.00000
     16      -7.4400      1.00000
     17      -7.2302      1.00000
     18      -7.0741      1.00000
     19      -6.9492      1.00000
     20      -6.6122      1.00000
     21      -6.4804      1.00000
     22      -6.3629      1.00000
     23      -6.2138      1.00000
     24      -5.8622      1.00000
     25      -5.7563      1.00000
     26      -5.5524      1.00000
     27      -5.4286      1.00000
     28      -5.3888      1.00000
     29      -5.2578      1.00000
     30      -5.1150      1.00000
     31      -2.4260      0.00000
     32      -2.3945      0.00000
     33      -2.3419      0.00000
     34      -2.2716      0.00000
     35       2.8591      0.00000
     36       3.1079      0.00000

 k-point    11 :       0.4545    0.0909    0.0000
  band No.  band energies     occupation 
      1     -18.8837      1.00000
      2     -18.6574      1.00000
      3     -18.3466      1.00000
      4     -18.2919      1.00000
      5     -18.2603      1.00000
      6     -18.2114      1.00000
      7      -9.2596      1.00000
      8      -8.7987      1.00000
      9      -8.7699      1.00000
     10      -8.3794      1.00000
     11      -8.2990      1.00000
     12      -8.1460      1.00000
     13      -7.9692      1.00000
     14      -7.7761      1.00000
     15      -7.7751      1.00000
     16      -7.4321      1.00000
     17      -7.2693      1.00000
     18      -7.0514      1.00000
     19      -6.9670      1.00000
     20      -6.5852      1.00000
     21      -6.4800      1.00000
     22      -6.2918      1.00000
     23      -6.2850      1.00000
     24      -5.8314      1.00000
     25      -5.7338      1.00000
     26      -5.5954      1.00000
     27      -5.4361      1.00000
     28      -5.4106      1.00000
     29      -5.1862      1.00000
     30      -5.1439      1.00000
     31      -2.4331      0.00000
     32      -2.3714      0.00000
     33      -2.3623      0.00000
     34      -2.2701      0.00000
     35       3.0439      0.00000
     36       3.2601      0.00000

 k-point    12 :       0.1818    0.1818    0.0000
  band No.  band energies     occupation 
      1     -19.0545      1.00000
      2     -18.4694      1.00000
      3     -18.3700      1.00000
      4     -18.3337      1.00000
      5     -18.2006      1.00000
      6     -18.1974      1.00000
      7      -9.1331      1.00000
      8      -8.9964      1.00000
      9      -8.8091      1.00000
     10      -8.4646      1.00000
     11      -8.4315      1.00000
     12      -8.2613      1.00000
     13      -7.8660      1.00000
     14      -7.7551      1.00000
     15      -7.5003      1.00000
     16      -7.3246      1.00000
     17      -7.2513      1.00000
     18      -7.0980      1.00000
     19      -6.8652      1.00000
     20      -6.7853      1.00000
     21      -6.4533      1.00000
     22      -6.4062      1.00000
     23      -6.0324      1.00000
     24      -6.0217      1.00000
     25      -5.8132      1.00000
     26      -5.4866      1.00000
     27      -5.4012      1.00000
     28      -5.3635      1.00000
     29      -5.3454      1.00000
     30      -5.0920      1.00000
     31      -2.4259      0.00000
     32      -2.3919      0.00000
     33      -2.3570      0.00000
     34      -2.2284      0.00000
     35       2.3960      0.00000
     36       2.8200      0.00000

 k-point    13 :       0.2727    0.1818    0.0000
  band No.  band energies     occupation 
      1     -18.9601      1.00000
      2     -18.5622      1.00000
      3     -18.3629      1.00000
      4     -18.3294      1.00000
      5     -18.2208      1.00000
      6     -18.2080      1.00000
      7      -9.1320      1.00000
      8      -8.9627      1.00000
      9      -8.7761      1.00000
     10      -8.4121      1.00000
     11      -8.3834      1.00000
     12      -8.2119      1.00000
     13      -7.9523      1.00000
     14      -7.7622      1.00000
     15      -7.5208      1.00000
     16      -7.4189      1.00000
     17      -7.2698      1.00000
     18      -7.1387      1.00000
     19      -6.8611      1.00000
     20      -6.7183      1.00000
     21      -6.5067      1.00000
     22      -6.3497      1.00000
     23      -6.0839      1.00000
     24      -5.9590      1.00000
     25      -5.7672      1.00000
     26      -5.5690      1.00000
     27      -5.4098      1.00000
     28      -5.3500      1.00000
     29      -5.2822      1.00000
     30      -5.1015      1.00000
     31      -2.4306      0.00000
     32      -2.4048      0.00000
     33      -2.3458      0.00000
     34      -2.2308      0.00000
     35       2.7412      0.00000
     36       3.0480      0.00000

 k-point    14 :       0.3636    0.1818    0.0000
  band No.  band energies     occupation 
      1     -18.8692      1.00000
      2     -18.6529      1.00000
      3     -18.3757      1.00000
      4     -18.2938      1.00000
      5     -18.2483      1.00000
      6     -18.2144      1.00000
      7      -9.1561      1.00000
      8      -8.8730      1.00000
      9      -8.7732      1.00000
     10      -8.3811      1.00000
     11      -8.3702      1.00000
     12      -8.1589      1.00000
     13      -8.0095      1.00000
     14      -7.7546      1.00000
     15      -7.6703      1.00000
     16      -7.3725      1.00000
     17      -7.3084      1.00000
     18      -7.1245      1.00000
     19      -6.8956      1.00000
     20      -6.6761      1.00000
     21      -6.5532      1.00000
     22      -6.2431      1.00000
     23      -6.1523      1.00000
     24      -5.9047      1.00000
     25      -5.7409      1.00000
     26      -5.6383      1.00000
     27      -5.4210      1.00000
     28      -5.3736      1.00000
     29      -5.1901      1.00000
     30      -5.1209      1.00000
     31      -2.4359      0.00000
     32      -2.3882      0.00000
     33      -2.3593      0.00000
     34      -2.2223      0.00000
     35       3.0810      0.00000
     36       3.1196      0.00000

 k-point    15 :       0.2727    0.2727    0.0000
  band No.  band energies     occupation 
      1     -18.8662      1.00000
      2     -18.6446      1.00000
      3     -18.3912      1.00000
      4     -18.2967      1.00000
      5     -18.2365      1.00000
      6     -18.2201      1.00000
      7      -9.0094      1.00000
      8      -9.0090      1.00000
      9      -8.7748      1.00000
     10      -8.4077      1.00000
     11      -8.3788      1.00000
     12      -8.1656      1.00000
     13      -8.0263      1.00000
     14      -7.7445      1.00000
     15      -7.6012      1.00000
     16      -7.3776      1.00000
     17      -7.2781      1.00000
     18      -7.1876      1.00000
     19      -6.8541      1.00000
     20      -6.7168      1.00000
     21      -6.5894      1.00000
     22      -6.2254      1.00000
     23      -6.0433      1.00000
     24      -5.9965      1.00000
     25      -5.7469      1.00000
     26      -5.6503      1.00000
     27      -5.4138      1.00000
     28      -5.3579      1.00000
     29      -5.1945      1.00000
     30      -5.1086      1.00000
     31      -2.4377      0.00000
     32      -2.3963      0.00000
     33      -2.3550      0.00000
     34      -2.2005      0.00000
     35       3.0335      0.00000
     36       3.1580      0.00000

 k-point    16 :       0.3636    0.2727    0.0000
  band No.  band energies     occupation 
      1     -18.7967      1.00000
      2     -18.7095      1.00000
      3     -18.4024      1.00000
      4     -18.2710      1.00000
      5     -18.2547      1.00000
      6     -18.2255      1.00000
      7      -9.0266      1.00000
      8      -8.9023      1.00000
      9      -8.8270      1.00000
     10      -8.4048      1.00000
     11      -8.3954      1.00000
     12      -8.1261      1.00000
     13      -8.0668      1.00000
     14      -7.7327      1.00000
     15      -7.6554      1.00000
     16      -7.3122      1.00000
     17      -7.2995      1.00000
     18      -7.2090      1.00000
     19      -6.8755      1.00000
     20      -6.6937      1.00000
     21      -6.6293      1.00000
     22      -6.1386      1.00000
     23      -6.0875      1.00000
     24      -5.9810      1.00000
     25      -5.7652      1.00000
     26      -5.6658      1.00000
     27      -5.4009      1.00000
     28      -5.3758      1.00000
     29      -5.1474      1.00000
     30      -5.1236      1.00000
     31      -2.4409      0.00000
     32      -2.3806      0.00000
     33      -2.3695      0.00000
     34      -2.1856      0.00000
     35       3.1069      0.00000
     36       3.1507      0.00000
 Fermi energy:        -4.8161987236

 spin component 2

 k-point     1 :       0.0000    0.0000    0.0000
  band No.  band energies     occupation 
      1     -19.2767      1.00000
      2     -18.5230      1.00000
      3     -18.3369      1.00000
      4     -18.3369      1.00000
      5     -18.2288      1.00000
      6     -18.2288      1.00000
      7      -8.7398      1.00000
      8      -8.2798      1.00000
      9      -7.8749      1.00000
     10      -7.8749      1.00000
     11      -7.6894      1.00000
     12      -7.6894      1.00000
     13      -7.6148      1.00000
     14      -6.9715      1.00000
     15      -6.9715      1.00000
     16      -6.7514      1.00000
     17      -6.4700      1.00000
     18      -6.4700      1.00000
     19      -6.1934      1.00000
     20      -5.8081      1.00000
     21      -5.4750      1.00000
     22      -5.4750      1.00000
     23      -5.2830      1.00000
     24      -5.2830      1.00000
     25      -0.6998      0.00000
     26      -0.6998      0.00000
     27      -0.4922      0.00000
     28      -0.4817      0.00000
     29      -0.4817      0.00000
     30      -0.4446      0.00000
     31      -0.1710      0.00000
     32      -0.1710      0.00000
     33      -0.1336      0.00000
     34      -0.1336      0.00000
     35       1.7647      0.00000
     36       2.3672      0.00000

 k-point     2 :       0.0909    0.0000    0.0000
  band No.  band energies     occupation 
      1     -19.2601      1.00000
      2     -18.5154      1.00000
      3     -18.3568      1.00000
      4     -18.3434      1.00000
      5     -18.2311      1.00000
      6     -18.2304      1.00000
      7      -8.7455      1.00000
      8      -8.2755      1.00000
      9      -7.8842      1.00000
     10      -7.8175      1.00000
     11      -7.7980      1.00000
     12      -7.7089      1.00000
     13      -7.4770      1.00000
     14      -7.0067      1.00000
     15      -6.9781      1.00000
     16      -6.6797      1.00000
     17      -6.4772      1.00000
     18      -6.4498      1.00000
     19      -6.1774      1.00000
     20      -5.8005      1.00000
     21      -5.4938      1.00000
     22      -5.4757      1.00000
     23      -5.3747      1.00000
     24      -5.3009      1.00000
     25      -0.7139      0.00000
     26      -0.6936      0.00000
     27      -0.5148      0.00000
     28      -0.4915      0.00000
     29      -0.4871      0.00000
     30      -0.4042      0.00000
     31      -0.1964      0.00000
     32      -0.1809      0.00000
     33      -0.1331      0.00000
     34      -0.1204      0.00000
     35       1.8377      0.00000
     36       2.4168      0.00000

 k-point     3 :       0.1818    0.0000    0.0000
  band No.  band energies     occupation 
      1     -19.2116      1.00000
      2     -18.4934      1.00000
      3     -18.4133      1.00000
      4     -18.3595      1.00000
      5     -18.2382      1.00000
      6     -18.2374      1.00000
      7      -8.7503      1.00000
      8      -8.2659      1.00000
      9      -7.9235      1.00000
     10      -7.8785      1.00000
     11      -7.7318      1.00000
     12      -7.6711      1.00000
     13      -7.2947      1.00000
     14      -7.1004      1.00000
     15      -6.9976      1.00000
     16      -6.5458      1.00000
     17      -6.4544      1.00000
     18      -6.4020      1.00000
     19      -6.1381      1.00000
     20      -5.7898      1.00000
     21      -5.6669      1.00000
     22      -5.4970      1.00000
     23      -5.4777      1.00000
     24      -5.3383      1.00000
     25      -0.7452      0.00000
     26      -0.6717      0.00000
     27      -0.5827      0.00000
     28      -0.5180      0.00000
     29      -0.5027      0.00000
     30      -0.3076      0.00000
     31      -0.2556      0.00000
     32      -0.2092      0.00000
     33      -0.1325      0.00000
     34      -0.0833      0.00000
     35       2.0423      0.00000
     36       2.5549      0.00000

 k-point     4 :       0.2727    0.0000    0.0000
  band No.  band energies     occupation 
      1     -19.1357      1.00000
      2     -18.4987      1.00000
      3     -18.4596      1.00000
      4     -18.3784      1.00000
      5     -18.2539      1.00000
      6     -18.2484      1.00000
      7      -8.7439      1.00000
      8      -8.2494      1.00000
      9      -7.9951      1.00000
     10      -7.8766      1.00000
     11      -7.6983      1.00000
     12      -7.5035      1.00000
     13      -7.2598      1.00000
     14      -7.0819      1.00000
     15      -7.0230      1.00000
     16      -6.5645      1.00000
     17      -6.3578      1.00000
     18      -6.2527      1.00000
     19      -6.0834      1.00000
     20      -6.0146      1.00000
     21      -5.8295      1.00000
     22      -5.5439      1.00000
     23      -5.4608      1.00000
     24      -5.3605      1.00000
     25      -0.7910      0.00000
     26      -0.6716      0.00000
     27      -0.6327      0.00000
     28      -0.5489      0.00000
     29      -0.5207      0.00000
     30      -0.3212      0.00000
     31      -0.2520      0.00000
     32      -0.1955      0.00000
     33      -0.1328      0.00000
     34      -0.0379      0.00000
     35       2.3453      0.00000
     36       2.7634      0.00000

 k-point     5 :       0.3636    0.0000    0.0000
  band No.  band energies     occupation 
      1     -19.0413      1.00000
      2     -18.6015      1.00000
      3     -18.4187      1.00000
      4     -18.3938      1.00000
      5     -18.2809      1.00000
      6     -18.2583      1.00000
      7      -8.7359      1.00000
      8      -8.2152      1.00000
      9      -8.0466      1.00000
     10      -7.8280      1.00000
     11      -7.6085      1.00000
     12      -7.4142      1.00000
     13      -7.3713      1.00000
     14      -7.0280      1.00000
     15      -6.9028      1.00000
     16      -6.6273      1.00000
     17      -6.3705      1.00000
     18      -6.3390      1.00000
     19      -6.0386      1.00000
     20      -6.0379      1.00000
     21      -5.9177      1.00000
     22      -5.5866      1.00000
     23      -5.4476      1.00000
     24      -5.3344      1.00000
     25      -0.8659      0.00000
     26      -0.7285      0.00000
     27      -0.6047      0.00000
     28      -0.5531      0.00000
     29      -0.5330      0.00000
     30      -0.3754      0.00000
     31      -0.2935      0.00000
     32      -0.1333      0.00000
     33      -0.1021      0.00000
     34      -0.0044      0.00000
     35       2.7171      0.00000
     36       3.0276      0.00000

 k-point     6 :       0.4545    0.0000    0.0000
  band No.  band energies     occupation 
      1     -18.9535      1.00000
      2     -18.6941      1.00000
      3     -18.4042      1.00000
      4     -18.3764      1.00000
      5     -18.3137      1.00000
      6     -18.2643      1.00000
      7      -8.7337      1.00000
      8      -8.1787      1.00000
      9      -8.0732      1.00000
     10      -7.7411      1.00000
     11      -7.5623      1.00000
     12      -7.5154      1.00000
     13      -7.3066      1.00000
     14      -6.9681      1.00000
     15      -6.7952      1.00000
     16      -6.7687      1.00000
     17      -6.5417      1.00000
     18      -6.3392      1.00000
     19      -6.0942      1.00000
     20      -5.9159      1.00000
     21      -5.9010      1.00000
     22      -5.6224      1.00000
     23      -5.4608      1.00000
     24      -5.2906      1.00000
     25      -0.9283      0.00000
     26      -0.7497      0.00000
     27      -0.6095      0.00000
     28      -0.5371      0.00000
     29      -0.5267      0.00000
     30      -0.4066      0.00000
     31      -0.3210      0.00000
     32      -0.1326      0.00000
     33      -0.0429      0.00000
     34       0.0065      0.00000
     35       3.1426      0.00000
     36       3.3268      0.00000

 k-point     7 :       0.0909    0.0909    0.0000
  band No.  band energies     occupation 
      1     -19.2275      1.00000
      2     -18.5006      1.00000
      3     -18.3931      1.00000
      4     -18.3567      1.00000
      5     -18.2352      1.00000
      6     -18.2351      1.00000
      7      -8.7489      1.00000
      8      -8.2696      1.00000
      9      -7.8996      1.00000
     10      -7.8780      1.00000
     11      -7.7297      1.00000
     12      -7.7134      1.00000
     13      -7.3413      1.00000
     14      -7.0754      1.00000
     15      -6.9870      1.00000
     16      -6.5717      1.00000
     17      -6.4801      1.00000
     18      -6.4117      1.00000
     19      -6.1515      1.00000
     20      -5.7995      1.00000
     21      -5.5591      1.00000
     22      -5.5204      1.00000
     23      -5.4530      1.00000
     24      -5.3349      1.00000
     25      -0.7301      0.00000
     26      -0.6888      0.00000
     27      -0.5581      0.00000
     28      -0.5125      0.00000
     29      -0.4925      0.00000
     30      -0.3402      0.00000
     31      -0.2356      0.00000
     32      -0.2018      0.00000
     33      -0.1286      0.00000
     34      -0.0973      0.00000
     35       1.9760      0.00000
     36       2.5102      0.00000

 k-point     8 :       0.1818    0.0909    0.0000
  band No.  band energies     occupation 
      1     -19.1652      1.00000
      2     -18.4728      1.00000
      3     -18.4610      1.00000
      4     -18.3781      1.00000
      5     -18.2466      1.00000
      6     -18.2435      1.00000
      7      -8.7389      1.00000
      8      -8.2625      1.00000
      9      -7.9562      1.00000
     10      -7.9058      1.00000
     11      -7.7227      1.00000
     12      -7.5585      1.00000
     13      -7.2086      1.00000
     14      -7.1568      1.00000
     15      -6.9943      1.00000
     16      -6.5609      1.00000
     17      -6.3578      1.00000
     18      -6.3340      1.00000
     19      -6.1161      1.00000
     20      -5.9490      1.00000
     21      -5.6956      1.00000
     22      -5.5505      1.00000
     23      -5.4671      1.00000
     24      -5.3754      1.00000
     25      -0.7596      0.00000
     26      -0.6765      0.00000
     27      -0.6335      0.00000
     28      -0.5407      0.00000
     29      -0.5071      0.00000
     30      -0.2898      0.00000
     31      -0.2542      0.00000
     32      -0.2310      0.00000
     33      -0.1186      0.00000
     34      -0.0572      0.00000
     35       2.2273      0.00000
     36       2.6819      0.00000

 k-point     9 :       0.2727    0.0909    0.0000
  band No.  band energies     occupation 
      1     -19.0791      1.00000
      2     -18.5535      1.00000
      3     -18.4354      1.00000
      4     -18.3986      1.00000
      5     -18.2672      1.00000
      6     -18.2540      1.00000
      7      -8.7173      1.00000
      8      -8.2444      1.00000
      9      -8.0127      1.00000
     10      -7.8817      1.00000
     11      -7.6564      1.00000
     12      -7.4185      1.00000
     13      -7.3569      1.00000
     14      -7.0568      1.00000
     15      -6.9163      1.00000
     16      -6.6150      1.00000
     17      -6.3247      1.00000
     18      -6.2984      1.00000
     19      -6.1252      1.00000
     20      -6.0336      1.00000
     21      -5.8057      1.00000
     22      -5.5694      1.00000
     23      -5.4540      1.00000
     24      -5.3806      1.00000
     25      -0.8159      0.00000
     26      -0.7250      0.00000
     27      -0.6271      0.00000
     28      -0.5655      0.00000
     29      -0.5225      0.00000
     30      -0.3448      0.00000
     31      -0.2845      0.00000
     32      -0.1600      0.00000
     33      -0.0963      0.00000
     34      -0.0167      0.00000
     35       2.5589      0.00000
     36       2.9164      0.00000

 k-point    10 :       0.3636    0.0909    0.0000
  band No.  band energies     occupation 
      1     -18.9831      1.00000
      2     -18.6548      1.00000
      3     -18.4145      1.00000
      4     -18.3919      1.00000
      5     -18.2970      1.00000
      6     -18.2622      1.00000
      7      -8.7016      1.00000
      8      -8.2079      1.00000
      9      -8.0483      1.00000
     10      -7.8128      1.00000
     11      -7.5492      1.00000
     12      -7.5201      1.00000
     13      -7.3367      1.00000
     14      -7.0264      1.00000
     15      -6.7873      1.00000
     16      -6.7080      1.00000
     17      -6.5335      1.00000
     18      -6.3131      1.00000
     19      -6.0197      1.00000
     20      -5.9727      1.00000
     21      -5.8830      1.00000
     22      -5.6064      1.00000
     23      -5.4542      1.00000
     24      -5.3346      1.00000
     25      -0.8917      0.00000
     26      -0.7613      0.00000
     27      -0.6016      0.00000
     28      -0.5680      0.00000
     29      -0.5282      0.00000
     30      -0.3938      0.00000
     31      -0.3139      0.00000
     32      -0.1291      0.00000
     33      -0.0472      0.00000
     34       0.0071      0.00000
     35       2.9483      0.00000
     36       3.1983      0.00000

 k-point    11 :       0.4545    0.0909    0.0000
  band No.  band energies     occupation 
      1     -18.9257      1.00000
      2     -18.7142      1.00000
      3     -18.4192      1.00000
      4     -18.3637      1.00000
      5     -18.3214      1.00000
      6     -18.2653      1.00000
      7      -8.6973      1.00000
      8      -8.1860      1.00000
      9      -8.0606      1.00000
     10      -7.7344      1.00000
     11      -7.6327      1.00000
     12      -7.4865      1.00000
     13      -7.3068      1.00000
     14      -6.9662      1.00000
     15      -6.9253      1.00000
     16      -6.6536      1.00000
     17      -6.5816      1.00000
     18      -6.3160      1.00000
     19      -6.0492      1.00000
     20      -5.9640      1.00000
     21      -5.8303      1.00000
     22      -5.6325      1.00000
     23      -5.4605      1.00000
     24      -5.3082      1.00000
     25      -0.9256      0.00000
     26      -0.7719      0.00000
     27      -0.6015      0.00000
     28      -0.5525      0.00000
     29      -0.5305      0.00000
     30      -0.4163      0.00000
     31      -0.3241      0.00000
     32      -0.1223      0.00000
     33      -0.0197      0.00000
     34       0.0107      0.00000
     35       3.3522      0.00000
     36       3.3797      0.00000

 k-point    12 :       0.1818    0.1818    0.0000
  band No.  band energies     occupation 
      1     -19.0923      1.00000
      2     -18.5308      1.00000
      3     -18.4414      1.00000
      4     -18.4074      1.00000
      5     -18.2614      1.00000
      6     -18.2521      1.00000
      7      -8.6970      1.00000
      8      -8.2647      1.00000
      9      -7.9727      1.00000
     10      -7.9330      1.00000
     11      -7.6793      1.00000
     12      -7.4357      1.00000
     13      -7.3393      1.00000
     14      -7.0727      1.00000
     15      -6.8960      1.00000
     16      -6.6247      1.00000
     17      -6.3053      1.00000
     18      -6.2986      1.00000
     19      -6.1639      1.00000
     20      -6.0430      1.00000
     21      -5.6391      1.00000
     22      -5.6226      1.00000
     23      -5.4670      1.00000
     24      -5.4169      1.00000
     25      -0.7786      0.00000
     26      -0.7308      0.00000
     27      -0.6609      0.00000
     28      -0.5597      0.00000
     29      -0.5218      0.00000
     30      -0.3118      0.00000
     31      -0.2980      0.00000
     32      -0.1758      0.00000
     33      -0.0804      0.00000
     34      -0.0249      0.00000
     35       2.5020      0.00000
     36       2.8774      0.00000

 k-point    13 :       0.2727    0.1818    0.0000
  band No.  band energies     occupation 
      1     -19.0009      1.00000
      2     -18.6197      1.00000
      3     -18.4348      1.00000
      4     -18.4015      1.00000
      5     -18.2830      1.00000
      6     -18.2622      1.00000
      7      -8.6391      1.00000
      8      -8.2575      1.00000
      9      -7.9946      1.00000
     10      -7.9053      1.00000
     11      -7.5866      1.00000
     12      -7.5056      1.00000
     13      -7.3625      1.00000
     14      -7.0408      1.00000
     15      -6.7708      1.00000
     16      -6.6943      1.00000
     17      -6.5454      1.00000
     18      -6.2628      1.00000
     19      -6.0857      1.00000
     20      -5.9284      1.00000
     21      -5.7629      1.00000
     22      -5.6050      1.00000
     23      -5.4534      1.00000
     24      -5.4142      1.00000
     25      -0.8323      0.00000
     26      -0.7884      0.00000
     27      -0.6429      0.00000
     28      -0.5699      0.00000
     29      -0.5348      0.00000
     30      -0.3660      0.00000
     31      -0.3187      0.00000
     32      -0.1285      0.00000
     33      -0.0331      0.00000
     34       0.0060      0.00000
     35       2.8384      0.00000
     36       3.1276      0.00000

 k-point    14 :       0.3636    0.1818    0.0000
  band No.  band energies     occupation 
      1     -18.9124      1.00000
      2     -18.7075      1.00000
      3     -18.4488      1.00000
      4     -18.3639      1.00000
      5     -18.3110      1.00000
      6     -18.2686      1.00000
      7      -8.6017      1.00000
      8      -8.2348      1.00000
      9      -8.0119      1.00000
     10      -7.8227      1.00000
     11      -7.6680      1.00000
     12      -7.4743      1.00000
     13      -7.3372      1.00000
     14      -7.0244      1.00000
     15      -6.9769      1.00000
     16      -6.6194      1.00000
     17      -6.5374      1.00000
     18      -6.2578      1.00000
     19      -6.0424      1.00000
     20      -5.9066      1.00000
     21      -5.7941      1.00000
     22      -5.6323      1.00000
     23      -5.4532      1.00000
     24      -5.3765      1.00000
     25      -0.8878      0.00000
     26      -0.8103      0.00000
     27      -0.6232      0.00000
     28      -0.5771      0.00000
     29      -0.5221      0.00000
     30      -0.4231      0.00000
     31      -0.3225      0.00000
     32      -0.1049      0.00000
     33       0.0027      0.00000
     34       0.0216      0.00000
     35       3.1989      0.00000
     36       3.4636      0.00000

 k-point    15 :       0.2727    0.2727    0.0000
  band No.  band energies     occupation 
      1     -18.9101      1.00000
      2     -18.6978      1.00000
      3     -18.4649      1.00000
      4     -18.3662      1.00000
      5     -18.3015      1.00000
      6     -18.2727      1.00000
      7      -8.5283      1.00000
      8      -8.2856      1.00000
      9      -7.9437      1.00000
     10      -7.9190      1.00000
     11      -7.6746      1.00000
     12      -7.4817      1.00000
     13      -7.3510      1.00000
     14      -7.0187      1.00000
     15      -7.0115      1.00000
     16      -6.6343      1.00000
     17      -6.4968      1.00000
     18      -6.2087      1.00000
     19      -6.0993      1.00000
     20      -5.8148      1.00000
     21      -5.7805      1.00000
     22      -5.6368      1.00000
     23      -5.4393      1.00000
     24      -5.4380      1.00000
     25      -0.8442      0.00000
     26      -0.8420      0.00000
     27      -0.6671      0.00000
     28      -0.5557      0.00000
     29      -0.5318      0.00000
     30      -0.4199      0.00000
     31      -0.3225      0.00000
     32      -0.0980      0.00000
     33       0.0127      0.00000
     34       0.0272      0.00000
     35       3.1363      0.00000
     36       3.3938      0.00000

 k-point    16 :       0.3636    0.2727    0.0000
  band No.  band energies     occupation 
      1     -18.8427      1.00000
      2     -18.7600      1.00000
      3     -18.4766      1.00000
      4     -18.3402      1.00000
      5     -18.3201      1.00000
      6     -18.2777      1.00000
      7      -8.4619      1.00000
      8      -8.3090      1.00000
      9      -7.9393      1.00000
     10      -7.8430      1.00000
     11      -7.8105      1.00000
     12      -7.3916      1.00000
     13      -7.3531      1.00000
     14      -7.1740      1.00000
     15      -6.9974      1.00000
     16      -6.6573      1.00000
     17      -6.4014      1.00000
     18      -6.1908      1.00000
     19      -6.1068      1.00000
     20      -5.8184      1.00000
     21      -5.7640      1.00000
     22      -5.6447      1.00000
     23      -5.4479      1.00000
     24      -5.4290      1.00000
     25      -0.8655      0.00000
     26      -0.8471      0.00000
     27      -0.6793      0.00000
     28      -0.5491      0.00000
     29      -0.5052      0.00000
     30      -0.4640      0.00000
     31      -0.3214      0.00000
     32      -0.0856      0.00000
     33       0.0305      0.00000
     34       0.0348      0.00000
     35       3.3308      0.00000
     36       3.3861      0.00000


--------------------------------------------------------------------------------------------------------


 soft charge-density along one line, spin component           1
         0         1         2         3         4         5         6         7         8         9
 total charge-density along one line

 soft charge-density along one line, spin component           2
         0         1         2         3         4         5         6         7         8         9
 total charge-density along one line

 pseudopotential strength for first ion, spin component:           1
-10.865   1.182  -0.000   0.000   0.000 -11.209   1.203  -0.000
  1.182 -10.030  -0.000   0.000  -0.000   1.203 -10.358  -0.000
 -0.000  -0.000 -11.699  -0.000   0.000  -0.000  -0.000 -12.058
  0.000   0.000  -0.000 -10.030  -1.182   0.000   0.000  -0.000
  0.000  -0.000   0.000  -1.182 -10.865   0.000  -0.000   0.000
-11.209   1.203  -0.000   0.000   0.000 -11.526   1.236  -0.000
  1.203 -10.358  -0.000   0.000  -0.000   1.236 -10.652  -0.000
 -0.000  -0.000 -12.058  -0.000   0.000  -0.000  -0.000 -12.398
  0.000   0.000  -0.000 -10.358  -1.203   0.000   0.000  -0.000
  0.000  -0.000   0.000  -1.203 -11.209   0.000  -0.000   0.000
 -0.000  -0.000   0.000  -0.000   0.000  -0.000  -0.000   0.000
 -0.000  -0.000   0.000  -0.000   0.000  -0.000  -0.000   0.000
 -0.000  -0.000  -0.000   0.000  -0.002  -0.000  -0.000  -0.000
  0.000   0.000   0.000  -0.000   0.000   0.000   0.000   0.000
 -0.002   0.000   0.000   0.000  -0.000  -0.002   0.000   0.000
 -0.000  -0.000  -0.000   0.000  -0.002  -0.000  -0.000  -0.000
  0.000   0.000   0.000  -0.000   0.000   0.000   0.000   0.000
 -0.002   0.000   0.000   0.000  -0.000  -0.002   0.000   0.000
 pseudopotential strength for first ion, spin component:           2
 -6.736  -0.528   0.000   0.000   0.000  -7.072  -0.527   0.000
 -0.528  -7.104  -0.000  -0.000  -0.000  -0.527  -7.439  -0.000
  0.000  -0.000  -6.348  -0.000  -0.000   0.000  -0.000  -6.685
  0.000  -0.000  -0.000  -7.104   0.528   0.000  -0.000  -0.000
  0.000  -0.000  -0.000   0.528  -6.736   0.000  -0.000  -0.000
 -7.072  -0.527   0.000   0.000   0.000  -7.354  -0.529   0.000
 -0.527  -7.439  -0.000  -0.000  -0.000  -0.529  -7.722  -0.000
  0.000  -0.000  -6.685  -0.000  -0.000   0.000  -0.000  -6.965
  0.000  -0.000  -0.000  -7.439   0.527   0.000  -0.000  -0.000
  0.000  -0.000  -0.000   0.527  -7.072   0.000  -0.000  -0.000
  0.000  -0.000  -0.001  -0.000  -0.000   0.000  -0.000  -0.001
  0.000  -0.000  -0.002  -0.000  -0.000   0.000  -0.000  -0.002
  0.000  -0.000   0.000   0.000  -0.000   0.000  -0.000   0.000
  0.000  -0.000   0.000   0.000   0.000   0.000  -0.000   0.000
 -0.000   0.000  -0.000   0.000   0.000  -0.001   0.000  -0.000
  0.000  -0.000   0.000   0.000  -0.000   0.000  -0.000   0.000
  0.000  -0.000   0.000   0.000   0.000   0.000  -0.000   0.000
 -0.000   0.000  -0.000   0.000   0.000  -0.000   0.000  -0.000
 total augmentation occupancy for first ion, spin component:           1
  3.868  -1.678   0.000   0.000   0.000  -2.773   0.535  -0.000  -0.000  -0.000   0.000  -0.000   0.000  -0.000   0.086  -0.000
 -1.678   2.611  -0.000  -0.000   0.000   0.537  -2.307   0.000   0.000  -0.000   0.000  -0.000   0.000  -0.000  -0.028  -0.000
  0.000  -0.000   4.918   0.000   0.000  -0.000   0.000  -3.004  -0.000  -0.000   0.064  -0.008   0.000  -0.000   0.000  -0.000
  0.000  -0.000   0.000   2.611   1.678  -0.000   0.000  -0.000  -2.307  -0.537   0.000   0.000   0.028  -0.000   0.000  -0.000
  0.000   0.000   0.000   1.678   3.868   0.000  -0.000  -0.000  -0.535  -2.773   0.000  -0.000   0.086   0.000  -0.000  -0.003
 -2.773   0.537  -0.000  -0.000  -0.000   2.622   0.323   0.000  -0.000  -0.000  -0.000   0.000  -0.000   0.000  -0.092   0.000
  0.535  -2.307   0.000   0.000  -0.000   0.323   2.746   0.000  -0.000  -0.000  -0.000   0.000   0.000   0.000   0.024  -0.000
 -0.000   0.000  -3.004  -0.000  -0.000   0.000   0.000   2.230  -0.000   0.000  -0.070   0.010  -0.000   0.000  -0.000   0.000
 -0.000   0.000  -0.000  -2.307  -0.535  -0.000  -0.000  -0.000   2.746  -0.323  -0.000  -0.000  -0.024   0.000   0.000   0.000
  0.000  -0.000  -0.000  -0.537  -2.773  -0.000  -0.000   0.000  -0.323   2.622  -0.000   0.000  -0.092  -0.000   0.000   0.003
  0.000   0.000   0.064  -0.000   0.000  -0.000   0.000  -0.070  -0.000  -0.000   1.754  -0.193   0.000   0.000  -0.000   0.000
 -0.000   0.000  -0.008  -0.000  -0.000   0.000   0.000   0.010  -0.000   0.000  -0.193   0.030  -0.000   0.000   0.000  -0.000
  0.000   0.000   0.000   0.028   0.086  -0.000   0.000  -0.000  -0.024  -0.092   0.000   0.000   0.277  -0.000  -0.000  -0.007
 -0.000   0.000  -0.000  -0.000   0.000   0.000   0.000   0.000   0.000  -0.000   0.000   0.000   0.000   0.270   0.000   0.000
  0.086  -0.028   0.000  -0.000  -0.000  -0.092   0.024  -0.000  -0.000   0.000  -0.000   0.000  -0.000  -0.000   0.277   0.000
 -0.000  -0.000  -0.000  -0.000  -0.003   0.000  -0.000   0.000   0.000   0.003   0.000  -0.000  -0.007   0.000   0.000   0.000
 -0.000   0.000  -0.000  -0.000  -0.000   0.000   0.000   0.000  -0.000  -0.000   0.000   0.000  -0.000  -0.007  -0.000   0.000
 -0.003   0.000  -0.000  -0.000   0.000   0.003  -0.000   0.000   0.000  -0.000   0.000  -0.000   0.000  -0.000  -0.007  -0.000
 total augmentation occupancy for first ion, spin component:           2
  2.935  -2.356   0.000   0.000   0.000  -1.499   1.463  -0.000  -0.000   0.000   0.000  -0.000   0.000  -0.000   0.024  -0.000
 -2.356   1.267  -0.000  -0.000   0.000   1.464  -0.461   0.000   0.000  -0.000   0.000   0.000   0.000   0.000  -0.024  -0.000
  0.000  -0.000   4.520   0.000   0.000  -0.000   0.000  -2.459  -0.000  -0.000   0.007   0.001   0.000  -0.000   0.000  -0.000
  0.000  -0.000   0.000   1.267   2.356  -0.000   0.000  -0.000  -0.461  -1.464   0.000   0.000   0.024   0.000  -0.000  -0.000
 -0.000   0.000   0.000   2.356   2.935   0.000  -0.000  -0.000  -1.463  -1.499   0.000  -0.000   0.024   0.000  -0.000   0.000
 -1.499   1.464  -0.000  -0.000   0.000   0.848  -0.989   0.000   0.000   0.000  -0.000   0.000  -0.000   0.000  -0.016  -0.000
  1.463  -0.461   0.000   0.000  -0.000  -0.989   0.145  -0.000  -0.000   0.000  -0.000   0.000  -0.000   0.000   0.015   0.000
 -0.000   0.000  -2.459  -0.000  -0.000   0.000  -0.000   1.482   0.000   0.000  -0.003  -0.001  -0.000   0.000  -0.000  -0.000
 -0.000   0.000  -0.000  -0.461  -1.463   0.000  -0.000   0.000   0.145   0.989  -0.000   0.000  -0.015   0.000  -0.000   0.000
 -0.000  -0.000  -0.000  -1.464  -1.499   0.000   0.000   0.000   0.989   0.848  -0.000   0.000  -0.016   0.000   0.000  -0.000
  0.000   0.000   0.007   0.000   0.000  -0.000  -0.000  -0.003   0.000  -0.000  -0.050   0.054  -0.000   0.000   0.000   0.000
 -0.000   0.000   0.001   0.000  -0.000   0.000   0.000  -0.001  -0.000  -0.000   0.054  -0.009   0.000   0.000   0.000  -0.000
  0.000  -0.000   0.000   0.024   0.024  -0.000   0.000  -0.000  -0.015  -0.016   0.000  -0.000   0.017   0.000  -0.000   0.002
 -0.000   0.000  -0.000   0.000   0.000   0.000   0.000   0.000   0.000  -0.000   0.000   0.000   0.000   0.015  -0.000  -0.000
  0.024  -0.024   0.000  -0.000  -0.000  -0.016   0.015  -0.000  -0.000   0.000   0.000   0.000  -0.000   0.000   0.017  -0.000
 -0.000   0.000  -0.000  -0.000   0.000  -0.000  -0.000   0.000   0.000  -0.000   0.000   0.000   0.002   0.000  -0.000  -0.000
 -0.000  -0.000  -0.000  -0.000   0.000   0.000   0.000   0.000   0.000  -0.000   0.000   0.000   0.000   0.002  -0.000  -0.000
  0.000   0.000  -0.000  -0.000  -0.000  -0.000  -0.000  -0.000   0.000   0.000  -0.000   0.000  -0.000  -0.000   0.002   0.000


------------------------ aborting loop because EDIFF is reached ----------------------------------------





 total charge

# of ion       s       p       d       tot
------------------------------------------
    1        0.351   0.517   4.071   4.938
    2        0.351   0.517   4.071   4.938
    3        1.604   3.524   0.000   5.128
    4        1.604   3.524   0.000   5.128
    5        1.604   3.524   0.000   5.128
    6        1.604   3.524   0.000   5.128
    7        1.604   3.524   0.000   5.128
    8        1.604   3.524   0.000   5.128
--------------------------------------------------
tot         10.325  22.177   8.141  40.643



 magnetization (x)

# of ion       s       p       d       tot
------------------------------------------
    1        0.032   0.040   3.084   3.156
    2        0.032   0.040   3.084   3.156
    3       -0.002  -0.070   0.000  -0.072
    4       -0.002  -0.070   0.000  -0.072
    5       -0.002  -0.070   0.000  -0.072
    6       -0.002  -0.070   0.000  -0.072
    7       -0.002  -0.070   0.000  -0.072
    8       -0.002  -0.070   0.000  -0.072
--------------------------------------------------
tot          0.054  -0.341   6.167   5.880

    CHARGE:  cpu time      0.2421: real time      0.2450
    FORLOC:  cpu time      0.0060: real time      0.0061
    FORNL :  cpu time      0.4194: real time      0.4240
    STRESS:  cpu time      0.7389: real time      0.7479
    FORCOR:  cpu time      0.2617: real time      0.2656
    FORHAR:  cpu time      0.0326: real time      0.0330
    MIXING:  cpu time      0.0134: real time      0.0135
    OFIELD:  cpu time      0.0001: real time      0.0001

 ---------------------------------------------------------------------------------------------

         DFTD3 V3.0 Rev 1        
 DF pbe       
 parameters
 rs18     =    1.0000
 alpha6   =   14.0000
 alpha8   =   16.0000
 k1-k3    =   16.0000    1.3333   -4.0000
 Edisp (eV)   -0.91919

 E6    (eV) :    -0.3567
 E8    (eV) :    -0.5624
 % E8        : 61.19
    FORVDW:  cpu time      0.0177: real time      0.0181

  FORCE on cell =-STRESS in cart. coord.  units (eV):
  Direction    XX          YY          ZZ          XY          YZ          ZX
  --------------------------------------------------------------------------------------
  Alpha Z    30.74992    30.74992    30.74992
  Ewald    6160.71891  6160.71891 -7849.80039    -0.00000    -0.00000    -0.00000
  Hartree  6796.35347  6796.35347 -6419.87477    -0.00000     0.00000    -0.00000
  E(xc)    -209.42452  -209.42452  -209.72682    -0.00000     0.00000     0.00000
  Local  -13988.54434-13988.54427 13234.56841     0.00005     0.00000     0.00000
  n-local   480.20313   480.34732   479.28663    -0.42747     0.04434     0.04770
  augment   -58.54596   -58.54602   -58.70549    -0.00005    -0.00000    -0.00000
  Kinetic   790.26116   789.75532   794.37392     0.59901    -0.32499     0.05370
  Fock        0.00000     0.00000     0.00000     0.00000     0.00000     0.00000
  vdW        -0.75666    -0.75666    -0.01415    -0.00000     0.00000    -0.00000
  -------------------------------------------------------------------------------------
  Total       0.83429     0.83429     0.85727     0.00000     0.00000     0.00000
  in kB       2.38763     2.38763     2.45340     0.00000     0.00000     0.00000
  external pressure =        2.41 kB  Pullay stress =        0.00 kB


 VOLUME and BASIS-vectors are now :
 -----------------------------------------------------------------------------
  energy-cutoff  :      500.00
  volume of cell :      559.84
      direct lattice vectors                 reciprocal lattice vectors
     6.048498000  0.000000000  0.000000000     0.165330302  0.095453494 -0.000000000
    -3.024249000  5.238152923  0.000000000     0.000000000  0.190906989  0.000000000
     0.000000000  0.000000000 17.670000000     0.000000000 -0.000000000  0.056593096

  length of vectors
     6.048498000  6.048498000 17.670000000     0.190906989  0.190906989  0.056593096


 FORCES acting on ions
    electron-ion (+dipol)            ewald-force                    non-local-force                 convergence-correction
 -----------------------------------------------------------------------------------------------
   0.572E-07 -.330E-07 -.449E-11   -.513E-11 0.295E-11 -.248E-13   -.397E-18 -.324E-18 0.490E-20   -.327E-10 0.189E-10 0.572E-13
   -.572E-07 0.330E-07 -.182E-10   0.506E-11 -.292E-11 -.946E-14   -.128E-17 0.610E-18 0.110E-19   0.328E-10 -.189E-10 0.689E-13
   0.686E+02 0.471E-06 0.459E+03   -.706E+02 -.246E-11 -.462E+03   0.197E+01 0.187E-19 0.277E+01   -.204E-04 -.257E-09 0.154E-03
   -.343E+02 0.594E+02 0.459E+03   0.353E+02 -.612E+02 -.462E+03   -.984E+00 0.170E+01 0.277E+01   0.102E-04 -.176E-04 0.154E-03
   -.343E+02 -.594E+02 0.459E+03   0.353E+02 0.612E+02 -.462E+03   -.984E+00 -.170E+01 0.277E+01   0.102E-04 0.176E-04 0.154E-03
   -.686E+02 -.471E-06 -.459E+03   0.706E+02 0.245E-11 0.462E+03   -.197E+01 -.130E-18 -.277E+01   0.204E-04 0.257E-09 -.154E-03
   0.343E+02 -.594E+02 -.459E+03   -.353E+02 0.612E+02 0.462E+03   0.984E+00 -.170E+01 -.277E+01   -.102E-04 0.176E-04 -.154E-03
   0.343E+02 0.594E+02 -.459E+03   -.353E+02 -.612E+02 0.462E+03   0.984E+00 0.170E+01 -.277E+01   -.102E-04 -.176E-04 -.154E-03
 -----------------------------------------------------------------------------------------------
   -.613E-12 -.163E-13 -.275E-10   0.711E-14 0.000E+00 -.568E-13   0.111E-15 0.222E-15 0.000E+00   0.187E-13 0.190E-13 0.585E-12


 POSITION                                       TOTAL-FORCE (eV/Angst)
 -----------------------------------------------------------------------------------
      0.00000      3.49210      8.83500         0.000000     -0.000000     -0.000000
      3.02425      1.74605      8.83500        -0.000000     -0.000000     -0.000000
      2.14722      0.00000      7.48501        -0.071345     -0.000000     -0.119933
     -1.07361      1.85954      7.48501         0.035673     -0.061787     -0.119933
      1.95064      3.37861      7.48501         0.035673      0.061787     -0.119933
      3.90128      0.00000     10.18499         0.071345     -0.000000      0.119933
     -1.95064      3.37861     10.18499        -0.035673      0.061787      0.119933
      1.07361      1.85954     10.18499        -0.035673     -0.061787      0.119933
 -----------------------------------------------------------------------------------
    total drift:                               -0.000000      0.000000     -0.000000


--------------------------------------------------------------------------------------------------------



  FREE ENERGIE OF THE ION-ELECTRON SYSTEM (eV)
  ---------------------------------------------------
  free  energy   TOTEN  =       -35.56602060 eV

  energy  without entropy=      -35.56602060  energy(sigma->0) =      -35.56602060



--------------------------------------------------------------------------------------------------------


    POTLOK:  cpu time      0.4207: real time      0.4252


--------------------------------------------------------------------------------------------------------




--------------------------------------------------------------------------------------------------------


      MLFF:  cpu time      0.0026: real time      0.0026
    WAVPRE:  cpu time      0.0209: real time      0.0212
    FEWALD:  cpu time      0.0017: real time      0.0017
    GENKIN:  cpu time      0.0159: real time      0.0159
    ORTHCH:  cpu time      0.1034: real time      0.1042
     LOOP+:  cpu time    230.9205: real time    234.3680


--------------------------------------- Ionic step        2  -------------------------------------------




--------------------------------------- Iteration      2(   1)  ---------------------------------------


    POTLOK:  cpu time      0.2764: real time      0.2798
    SETDIJ:  cpu time      0.1112: real time      0.1118
     EDDAV:  cpu time      7.8627: real time      7.9732
       DOS:  cpu time      0.0005: real time      0.0005
    CHARGE:  cpu time      0.2276: real time      0.2295
    MIXING:  cpu time      0.0114: real time      0.0115
    --------------------------------------------
      LOOP:  cpu time      8.4898: real time      8.6063

 eigenvalue-minimisations  :  2640
 total energy-change (2. order) :-0.3316234E-01  (-0.1436923E+00)
 number of electron      53.9999982 magnetization       5.9999999
 augmentation part       -0.5991010 magnetization       4.3780504

 Broyden mixing:
  rms(total) = 0.13279E+00    rms(broyden)= 0.13279E+00
  rms(prec ) = 0.13968E+00
  weight for this iteration     100.00

 Free energy of the ion-electron system (eV)
  ---------------------------------------------------
  alpha Z        PSCENC =        30.44283224
  Ewald energy   TEWEN  =      4392.83356031
  -Hartree energ DENC   =     -7088.17543025
  -exchange      EXHF   =         0.00000000
  -V(xc)+E(xc)   XCENC  =        86.10688221
  PAW double counting   =      3701.19810534    -3651.77974255
  entropy T*S    EENTRO =        -0.00000000
  eigenvalues    EBANDS =      -517.41289459
  atomic energy  EATOM  =      3012.10669636
  Solvation  Ediel_sol  =         0.00000000
  ext. energy  EPLUGINS =         0.00000000
  ---------------------------------------------------
  free energy    TOTEN  =       -34.67999093 eV

  energy without entropy =      -34.67999093  energy(sigma->0) =      -34.67999093


--------------------------------------------------------------------------------------------------------




--------------------------------------- Iteration      2(   2)  ---------------------------------------


    POTLOK:  cpu time      0.2794: real time      0.2825
    SETDIJ:  cpu time      0.1130: real time      0.1135
     EDDAV:  cpu time      9.7066: real time      9.8329
       DOS:  cpu time      0.0003: real time      0.0003
    CHARGE:  cpu time      0.2298: real time      0.2317
    MIXING:  cpu time      0.0115: real time      0.0117
    --------------------------------------------
      LOOP:  cpu time     10.3407: real time     10.4726

 eigenvalue-minimisations  :  3472
 total energy-change (2. order) : 0.1525411E-01  (-0.1186446E-01)
 number of electron      53.9999982 magnetization       5.9999999
 augmentation part       -0.5506757 magnetization       4.3946923

 Broyden mixing:
  rms(total) = 0.63823E-01    rms(broyden)= 0.63822E-01
  rms(prec ) = 0.67314E-01
  weight for this iteration     100.00

 eigenvalues of (default mixing * dielectric matrix)
  average eigenvalue GAMMA=   0.7867
  0.7867

 Free energy of the ion-electron system (eV)
  ---------------------------------------------------
  alpha Z        PSCENC =        30.44283224
  Ewald energy   TEWEN  =      4392.83356031
  -Hartree energ DENC   =     -7091.13483796
  -exchange      EXHF   =         0.00000000
  -V(xc)+E(xc)   XCENC  =        86.39939706
  PAW double counting   =      3656.78445568    -3607.33589601
  entropy T*S    EENTRO =        -0.00000000
  eigenvalues    EBANDS =      -514.76094449
  atomic energy  EATOM  =      3012.10669636
  Solvation  Ediel_sol  =         0.00000000
  ext. energy  EPLUGINS =         0.00000000
  ---------------------------------------------------
  free energy    TOTEN  =       -34.66473682 eV

  energy without entropy =      -34.66473682  energy(sigma->0) =      -34.66473682


--------------------------------------------------------------------------------------------------------




--------------------------------------- Iteration      2(   3)  ---------------------------------------


    POTLOK:  cpu time      0.2818: real time      0.2850
    SETDIJ:  cpu time      0.1128: real time      0.1134
     EDDAV:  cpu time      9.3080: real time      9.4325
       DOS:  cpu time      0.0003: real time      0.0003
    CHARGE:  cpu time      0.2286: real time      0.2305
    MIXING:  cpu time      0.0112: real time      0.0114
    --------------------------------------------
      LOOP:  cpu time      9.9428: real time     10.0731

 eigenvalue-minimisations  :  3324
 total energy-change (2. order) : 0.4397776E-02  (-0.1584334E-02)
 number of electron      53.9999982 magnetization       5.9999999
 augmentation part       -0.5775016 magnetization       4.3835165

 Broyden mixing:
  rms(total) = 0.52128E-01    rms(broyden)= 0.52128E-01
  rms(prec ) = 0.53140E-01
  weight for this iteration     100.00

 eigenvalues of (default mixing * dielectric matrix)
  average eigenvalue GAMMA=   0.6610
  0.8588  0.4633

 Free energy of the ion-electron system (eV)
  ---------------------------------------------------
  alpha Z        PSCENC =        30.44283224
  Ewald energy   TEWEN  =      4392.83356031
  -Hartree energ DENC   =     -7092.47511368
  -exchange      EXHF   =         0.00000000
  -V(xc)+E(xc)   XCENC  =        86.46476312
  PAW double counting   =      3655.89943343    -3606.54777276
  entropy T*S    EENTRO =        -0.00000000
  eigenvalues    EBANDS =      -513.38473807
  atomic energy  EATOM  =      3012.10669636
  Solvation  Ediel_sol  =         0.00000000
  ext. energy  EPLUGINS =         0.00000000
  ---------------------------------------------------
  free energy    TOTEN  =       -34.66033904 eV

  energy without entropy =      -34.66033904  energy(sigma->0) =      -34.66033904


--------------------------------------------------------------------------------------------------------




--------------------------------------- Iteration      2(   4)  ---------------------------------------


    POTLOK:  cpu time      0.2783: real time      0.2815
    SETDIJ:  cpu time      0.1126: real time      0.1131
     EDDAV:  cpu time      9.8526: real time      9.9959
       DOS:  cpu time      0.0003: real time      0.0003
    CHARGE:  cpu time      0.2650: real time      0.2676
    MIXING:  cpu time      0.0116: real time      0.0118
    --------------------------------------------
      LOOP:  cpu time     10.5204: real time     10.6702

 eigenvalue-minimisations  :  3572
 total energy-change (2. order) : 0.8505899E-03  (-0.1869908E-03)
 number of electron      53.9999982 magnetization       5.9999999
 augmentation part       -0.5704678 magnetization       4.3829101

 Broyden mixing:
  rms(total) = 0.23185E-01    rms(broyden)= 0.23185E-01
  rms(prec ) = 0.23870E-01
  weight for this iteration     100.00

 eigenvalues of (default mixing * dielectric matrix)
  average eigenvalue GAMMA=   0.8696
  1.0371  1.0371  0.5345

 Free energy of the ion-electron system (eV)
  ---------------------------------------------------
  alpha Z        PSCENC =        30.44283224
  Ewald energy   TEWEN  =      4392.83356031
  -Hartree energ DENC   =     -7092.73948922
  -exchange      EXHF   =         0.00000000
  -V(xc)+E(xc)   XCENC  =        86.48209972
  PAW double counting   =      3657.53913749    -3608.13771004
  entropy T*S    EENTRO =        -0.00000000
  eigenvalues    EBANDS =      -513.18661531
  atomic energy  EATOM  =      3012.10669636
  Solvation  Ediel_sol  =         0.00000000
  ext. energy  EPLUGINS =         0.00000000
  ---------------------------------------------------
  free energy    TOTEN  =       -34.65948845 eV

  energy without entropy =      -34.65948845  energy(sigma->0) =      -34.65948845


--------------------------------------------------------------------------------------------------------




--------------------------------------- Iteration      2(   5)  ---------------------------------------


    POTLOK:  cpu time      0.2750: real time      0.2784
    SETDIJ:  cpu time      0.1126: real time      0.1131
     EDDAV:  cpu time      9.0406: real time      9.1736
       DOS:  cpu time      0.0004: real time      0.0004
    CHARGE:  cpu time      0.2315: real time      0.2335
    MIXING:  cpu time      0.0127: real time      0.0130
    --------------------------------------------
      LOOP:  cpu time      9.6729: real time      9.8120

 eigenvalue-minimisations  :  3204
 total energy-change (2. order) : 0.3985155E-03  (-0.9728445E-04)
 number of electron      53.9999982 magnetization       5.9999998
 augmentation part       -0.5663902 magnetization       4.3824385

 Broyden mixing:
  rms(total) = 0.14940E-01    rms(broyden)= 0.14940E-01
  rms(prec ) = 0.15183E-01
  weight for this iteration     100.00

 eigenvalues of (default mixing * dielectric matrix)
  average eigenvalue GAMMA=   1.1149
  1.5593  1.5593  0.7627  0.5782

 Free energy of the ion-electron system (eV)
  ---------------------------------------------------
  alpha Z        PSCENC =        30.44283224
  Ewald energy   TEWEN  =      4392.83356031
  -Hartree energ DENC   =     -7093.00432452
  -exchange      EXHF   =         0.00000000
  -V(xc)+E(xc)   XCENC  =        86.50008618
  PAW double counting   =      3660.49284321    -3611.05105185
  entropy T*S    EENTRO =        -0.00000000
  eigenvalues    EBANDS =      -512.97973186
  atomic energy  EATOM  =      3012.10669636
  Solvation  Ediel_sol  =         0.00000000
  ext. energy  EPLUGINS =         0.00000000
  ---------------------------------------------------
  free energy    TOTEN  =       -34.65908994 eV

  energy without entropy =      -34.65908994  energy(sigma->0) =      -34.65908994


--------------------------------------------------------------------------------------------------------




--------------------------------------- Iteration      2(   6)  ---------------------------------------


    POTLOK:  cpu time      0.3009: real time      0.3052
    SETDIJ:  cpu time      0.1126: real time      0.1131
     EDDAV:  cpu time      9.5818: real time      9.7130
       DOS:  cpu time      0.0004: real time      0.0004
    CHARGE:  cpu time      0.2501: real time      0.2522
    MIXING:  cpu time      0.0115: real time      0.0117
    --------------------------------------------
      LOOP:  cpu time     10.2573: real time     10.3957

 eigenvalue-minimisations  :  3420
 total energy-change (2. order) : 0.2280921E-04  (-0.1788449E-04)
 number of electron      53.9999982 magnetization       5.9999998
 augmentation part       -0.5712141 magnetization       4.3805315

 Broyden mixing:
  rms(total) = 0.63517E-02    rms(broyden)= 0.63516E-02
  rms(prec ) = 0.65968E-02
  weight for this iteration     100.00

 eigenvalues of (default mixing * dielectric matrix)
  average eigenvalue GAMMA=   1.1432
  1.8165  1.8165  0.8601  0.6116  0.6116

 Free energy of the ion-electron system (eV)
  ---------------------------------------------------
  alpha Z        PSCENC =        30.44283224
  Ewald energy   TEWEN  =      4392.83356031
  -Hartree energ DENC   =     -7093.07321962
  -exchange      EXHF   =         0.00000000
  -V(xc)+E(xc)   XCENC  =        86.50666047
  PAW double counting   =      3665.89455878    -3616.42311745
  entropy T*S    EENTRO =        -0.00000000
  eigenvalues    EBANDS =      -512.94703822
  atomic energy  EATOM  =      3012.10669636
  Solvation  Ediel_sol  =         0.00000000
  ext. energy  EPLUGINS =         0.00000000
  ---------------------------------------------------
  free energy    TOTEN  =       -34.65906713 eV

  energy without entropy =      -34.65906713  energy(sigma->0) =      -34.65906713


--------------------------------------------------------------------------------------------------------




--------------------------------------- Iteration      2(   7)  ---------------------------------------


    POTLOK:  cpu time      0.2778: real time      0.2810
    SETDIJ:  cpu time      0.1118: real time      0.1123
     EDDAV:  cpu time      9.7444: real time      9.8774
       DOS:  cpu time      0.0004: real time      0.0004
    CHARGE:  cpu time      0.2265: real time      0.2285
    MIXING:  cpu time      0.0111: real time      0.0113
    --------------------------------------------
      LOOP:  cpu time     10.3721: real time     10.5110

 eigenvalue-minimisations  :  3540
 total energy-change (2. order) :-0.2915884E-04  (-0.6602351E-05)
 number of electron      53.9999982 magnetization       5.9999998
 augmentation part       -0.5685468 magnetization       4.3807351

 Broyden mixing:
  rms(total) = 0.17786E-02    rms(broyden)= 0.17786E-02
  rms(prec ) = 0.18608E-02
  weight for this iteration     100.00

 eigenvalues of (default mixing * dielectric matrix)
  average eigenvalue GAMMA=   1.1489
  2.3166  1.3292  1.3292  0.6401  0.6401  0.6382

 Free energy of the ion-electron system (eV)
  ---------------------------------------------------
  alpha Z        PSCENC =        30.44283224
  Ewald energy   TEWEN  =      4392.83356031
  -Hartree energ DENC   =     -7093.05758539
  -exchange      EXHF   =         0.00000000
  -V(xc)+E(xc)   XCENC  =        86.50777605
  PAW double counting   =      3667.15573933    -3617.66514956
  entropy T*S    EENTRO =        -0.00000000
  eigenvalues    EBANDS =      -512.98296563
  atomic energy  EATOM  =      3012.10669636
  Solvation  Ediel_sol  =         0.00000000
  ext. energy  EPLUGINS =         0.00000000
  ---------------------------------------------------
  free energy    TOTEN  =       -34.65909628 eV

  energy without entropy =      -34.65909628  energy(sigma->0) =      -34.65909628


--------------------------------------------------------------------------------------------------------




--------------------------------------- Iteration      2(   8)  ---------------------------------------


    POTLOK:  cpu time      0.2995: real time      0.3033
    SETDIJ:  cpu time      0.1115: real time      0.1119
     EDDAV:  cpu time      8.3547: real time      8.4703
       DOS:  cpu time      0.0004: real time      0.0004
    CHARGE:  cpu time      0.2272: real time      0.2290
    MIXING:  cpu time      0.0127: real time      0.0129
    --------------------------------------------
      LOOP:  cpu time      9.0059: real time      9.1279

 eigenvalue-minimisations  :  2916
 total energy-change (2. order) :-0.3579300E-04  (-0.1808956E-05)
 number of electron      53.9999982 magnetization       5.9999998
 augmentation part       -0.5681111 magnetization       4.3808231

 Broyden mixing:
  rms(total) = 0.12631E-02    rms(broyden)= 0.12631E-02
  rms(prec ) = 0.13151E-02
  weight for this iteration     100.00

 eigenvalues of (default mixing * dielectric matrix)
  average eigenvalue GAMMA=   1.2141
  2.3652  1.7674  1.5724  0.8491  0.6447  0.6447  0.6551

 Free energy of the ion-electron system (eV)
  ---------------------------------------------------
  alpha Z        PSCENC =        30.44283224
  Ewald energy   TEWEN  =      4392.83356031
  -Hartree energ DENC   =     -7093.04450939
  -exchange      EXHF   =         0.00000000
  -V(xc)+E(xc)   XCENC  =        86.51055444
  PAW double counting   =      3667.13338635    -3617.64107457
  entropy T*S    EENTRO =        -0.00000000
  eigenvalues    EBANDS =      -513.00057782
  atomic energy  EATOM  =      3012.10669636
  Solvation  Ediel_sol  =         0.00000000
  ext. energy  EPLUGINS =         0.00000000
  ---------------------------------------------------
  free energy    TOTEN  =       -34.65913208 eV

  energy without entropy =      -34.65913208  energy(sigma->0) =      -34.65913208


--------------------------------------------------------------------------------------------------------




--------------------------------------- Iteration      2(   9)  ---------------------------------------


    POTLOK:  cpu time      0.2990: real time      0.3027
    SETDIJ:  cpu time      0.1122: real time      0.1128
     EDDAV:  cpu time      5.9613: real time      6.0575
       DOS:  cpu time      0.0004: real time      0.0004
    CHARGE:  cpu time      0.2864: real time      0.2895
    MIXING:  cpu time      0.0127: real time      0.0129
    --------------------------------------------
      LOOP:  cpu time      6.6721: real time      6.7757

 eigenvalue-minimisations  :  1744
 total energy-change (2. order) :-0.5043284E-04  (-0.1395641E-06)
 number of electron      53.9999982 magnetization       5.9999998
 augmentation part       -0.5684746 magnetization       4.3807132

 Broyden mixing:
  rms(total) = 0.58592E-03    rms(broyden)= 0.58592E-03
  rms(prec ) = 0.63567E-03
  weight for this iteration     100.00

 eigenvalues of (default mixing * dielectric matrix)
  average eigenvalue GAMMA=   1.2057
  2.5132  2.1700  1.5134  0.9035  0.6625  0.6625  0.6102  0.6102

 Free energy of the ion-electron system (eV)
  ---------------------------------------------------
  alpha Z        PSCENC =        30.44283224
  Ewald energy   TEWEN  =      4392.83356031
  -Hartree energ DENC   =     -7092.98303171
  -exchange      EXHF   =         0.00000000
  -V(xc)+E(xc)   XCENC  =        86.51080640
  PAW double counting   =      3666.83365808    -3617.34337819
  entropy T*S    EENTRO =        -0.00000000
  eigenvalues    EBANDS =      -513.06032600
  atomic energy  EATOM  =      3012.10669636
  Solvation  Ediel_sol  =         0.00000000
  ext. energy  EPLUGINS =         0.00000000
  ---------------------------------------------------
  free energy    TOTEN  =       -34.65918251 eV

  energy without entropy =      -34.65918251  energy(sigma->0) =      -34.65918251


--------------------------------------------------------------------------------------------------------




--------------------------------------- Iteration      2(  10)  ---------------------------------------


    POTLOK:  cpu time      0.2884: real time      0.2928
    SETDIJ:  cpu time      0.1145: real time      0.1152
     EDDAV:  cpu time      5.9729: real time      6.0591
       DOS:  cpu time      0.0003: real time      0.0003
    CHARGE:  cpu time      0.2281: real time      0.2309
    MIXING:  cpu time      0.0126: real time      0.0130
    --------------------------------------------
      LOOP:  cpu time      6.6168: real time      6.7113

 eigenvalue-minimisations  :  1652
 total energy-change (2. order) :-0.1226287E-04  (-0.9137283E-07)
 number of electron      53.9999982 magnetization       5.9999998
 augmentation part       -0.5683106 magnetization       4.3807655

 Broyden mixing:
  rms(total) = 0.18849E-03    rms(broyden)= 0.18849E-03
  rms(prec ) = 0.27086E-03
  weight for this iteration     100.00

 eigenvalues of (default mixing * dielectric matrix)
  average eigenvalue GAMMA=   1.2316
  2.7877  2.3691  1.4207  1.0858  0.8937  0.6395  0.6395  0.5866  0.6616

 Free energy of the ion-electron system (eV)
  ---------------------------------------------------
  alpha Z        PSCENC =        30.44283224
  Ewald energy   TEWEN  =      4392.83356031
  -Hartree energ DENC   =     -7092.95691956
  -exchange      EXHF   =         0.00000000
  -V(xc)+E(xc)   XCENC  =        86.51054591
  PAW double counting   =      3666.77223257    -3617.28182346
  entropy T*S    EENTRO =        -0.00000000
  eigenvalues    EBANDS =      -513.08631914
  atomic energy  EATOM  =      3012.10669636
  Solvation  Ediel_sol  =         0.00000000
  ext. energy  EPLUGINS =         0.00000000
  ---------------------------------------------------
  free energy    TOTEN  =       -34.65919477 eV

  energy without entropy =      -34.65919477  energy(sigma->0) =      -34.65919477


--------------------------------------------------------------------------------------------------------




--------------------------------------- Iteration      2(  11)  ---------------------------------------


    POTLOK:  cpu time      0.2793: real time      0.2840
    SETDIJ:  cpu time      0.1112: real time      0.1119
     EDDAV:  cpu time      5.6135: real time      5.7076
       DOS:  cpu time      0.0004: real time      0.0004
    CHARGE:  cpu time      0.2303: real time      0.2323
    MIXING:  cpu time      0.0123: real time      0.0125
    --------------------------------------------
      LOOP:  cpu time      6.2470: real time      6.3488

 eigenvalue-minimisations  :  1608
 total energy-change (2. order) :-0.1192215E-04  (-0.9193503E-07)
 number of electron      53.9999982 magnetization       5.9999998
 augmentation part       -0.5684062 magnetization       4.3807219

 Broyden mixing:
  rms(total) = 0.21741E-03    rms(broyden)= 0.21741E-03
  rms(prec ) = 0.26637E-03
  weight for this iteration     100.00

 eigenvalues of (default mixing * dielectric matrix)
  average eigenvalue GAMMA=   1.1574
  2.6565  2.4279  1.4243  1.0801  1.0196  0.6566  0.6566  0.6025  0.6025  0.4475

 Free energy of the ion-electron system (eV)
  ---------------------------------------------------
  alpha Z        PSCENC =        30.44283224
  Ewald energy   TEWEN  =      4392.83356031
  -Hartree energ DENC   =     -7092.93053702
  -exchange      EXHF   =         0.00000000
  -V(xc)+E(xc)   XCENC  =        86.51024782
  PAW double counting   =      3666.75529293    -3617.26511569
  entropy T*S    EENTRO =        -0.00000000
  eigenvalues    EBANDS =      -513.11218365
  atomic energy  EATOM  =      3012.10669636
  Solvation  Ediel_sol  =         0.00000000
  ext. energy  EPLUGINS =         0.00000000
  ---------------------------------------------------
  free energy    TOTEN  =       -34.65920670 eV

  energy without entropy =      -34.65920670  energy(sigma->0) =      -34.65920670


--------------------------------------------------------------------------------------------------------




--------------------------------------- Iteration      2(  12)  ---------------------------------------


    POTLOK:  cpu time      0.2928: real time      0.2966
    SETDIJ:  cpu time      0.1287: real time      0.1294
     EDDAV:  cpu time      5.6032: real time      5.6934
       DOS:  cpu time      0.0003: real time      0.0004
    CHARGE:  cpu time      0.2565: real time      0.2597
    MIXING:  cpu time      0.0131: real time      0.0134
    --------------------------------------------
      LOOP:  cpu time      6.2947: real time      6.3928

 eigenvalue-minimisations  :  1616
 total energy-change (2. order) :-0.6256479E-05  (-0.4222742E-07)
 number of electron      53.9999982 magnetization       5.9999998
 augmentation part       -0.5683373 magnetization       4.3807571

 Broyden mixing:
  rms(total) = 0.12348E-03    rms(broyden)= 0.12348E-03
  rms(prec ) = 0.18031E-03
  weight for this iteration     100.00

 eigenvalues of (default mixing * dielectric matrix)
  average eigenvalue GAMMA=   1.1784
  2.7339  2.3069  1.7657  1.1863  1.1863  0.7340  0.7340  0.6364  0.6364  0.6055
  0.4367

 Free energy of the ion-electron system (eV)
  ---------------------------------------------------
  alpha Z        PSCENC =        30.44283224
  Ewald energy   TEWEN  =      4392.83356031
  -Hartree energ DENC   =     -7092.91652775
  -exchange      EXHF   =         0.00000000
  -V(xc)+E(xc)   XCENC  =        86.51007897
  PAW double counting   =      3666.74775857    -3617.25757844
  entropy T*S    EENTRO =        -0.00000000
  eigenvalues    EBANDS =      -513.12603320
  atomic energy  EATOM  =      3012.10669636
  Solvation  Ediel_sol  =         0.00000000
  ext. energy  EPLUGINS =         0.00000000
  ---------------------------------------------------
  free energy    TOTEN  =       -34.65921295 eV

  energy without entropy =      -34.65921295  energy(sigma->0) =      -34.65921295


--------------------------------------------------------------------------------------------------------




--------------------------------------- Iteration      2(  13)  ---------------------------------------


    POTLOK:  cpu time      0.2748: real time      0.2790
    SETDIJ:  cpu time      0.1140: real time      0.1151
     EDDAV:  cpu time      6.5959: real time      6.7088
       DOS:  cpu time      0.0004: real time      0.0004
    CHARGE:  cpu time      0.2253: real time      0.2278
    MIXING:  cpu time      0.0154: real time      0.0156
    --------------------------------------------
      LOOP:  cpu time      7.2257: real time      7.3467

 eigenvalue-minimisations  :  2076
 total energy-change (2. order) :-0.1879575E-04  (-0.1959239E-06)
 number of electron      53.9999982 magnetization       5.9999998
 augmentation part       -0.5683668 magnetization       4.3807468

 Broyden mixing:
  rms(total) = 0.48925E-04    rms(broyden)= 0.48924E-04
  rms(prec ) = 0.77223E-04
  weight for this iteration     100.00

 eigenvalues of (default mixing * dielectric matrix)
  average eigenvalue GAMMA=   1.2974
  3.2889  2.4628  2.4628  1.3287  1.0859  1.0859  0.8404  0.6527  0.6527  0.6334
  0.6334  0.4414

 Free energy of the ion-electron system (eV)
  ---------------------------------------------------
  alpha Z        PSCENC =        30.44283224
  Ewald energy   TEWEN  =      4392.83356031
  -Hartree energ DENC   =     -7092.86685908
  -exchange      EXHF   =         0.00000000
  -V(xc)+E(xc)   XCENC  =        86.50978260
  PAW double counting   =      3666.69976555    -3617.20968546
  entropy T*S    EENTRO =        -0.00000000
  eigenvalues    EBANDS =      -513.17532428
  atomic energy  EATOM  =      3012.10669636
  Solvation  Ediel_sol  =         0.00000000
  ext. energy  EPLUGINS =         0.00000000
  ---------------------------------------------------
  free energy    TOTEN  =       -34.65923175 eV

  energy without entropy =      -34.65923175  energy(sigma->0) =      -34.65923175


--------------------------------------------------------------------------------------------------------




--------------------------------------- Iteration      2(  14)  ---------------------------------------


    POTLOK:  cpu time      0.2821: real time      0.2868
    SETDIJ:  cpu time      0.1116: real time      0.1124
     EDDAV:  cpu time      5.8581: real time      5.9651
       DOS:  cpu time      0.0004: real time      0.0004
    CHARGE:  cpu time      0.2555: real time      0.2588
    MIXING:  cpu time      0.0141: real time      0.0145
    --------------------------------------------
      LOOP:  cpu time      6.5219: real time      6.6380

 eigenvalue-minimisations  :  1736
 total energy-change (2. order) :-0.4380239E-05  (-0.2606428E-07)
 number of electron      53.9999982 magnetization       5.9999998
 augmentation part       -0.5683473 magnetization       4.3807678

 Broyden mixing:
  rms(total) = 0.57253E-04    rms(broyden)= 0.57253E-04
  rms(prec ) = 0.68414E-04
  weight for this iteration     100.00

 eigenvalues of (default mixing * dielectric matrix)
  average eigenvalue GAMMA=   1.2986
  3.9402  2.4565  2.4565  1.3499  1.1081  1.1081  0.6660  0.6660  0.7403  0.7403
  0.5913  0.5913  0.4672

 Free energy of the ion-electron system (eV)
  ---------------------------------------------------
  alpha Z        PSCENC =        30.44283224
  Ewald energy   TEWEN  =      4392.83356031
  -Hartree energ DENC   =     -7092.84727220
  -exchange      EXHF   =         0.00000000
  -V(xc)+E(xc)   XCENC  =        86.50968954
  PAW double counting   =      3666.68486625    -3617.19485927
  entropy T*S    EENTRO =        -0.00000000
  eigenvalues    EBANDS =      -513.19474935
  atomic energy  EATOM  =      3012.10669636
  Solvation  Ediel_sol  =         0.00000000
  ext. energy  EPLUGINS =         0.00000000
  ---------------------------------------------------
  free energy    TOTEN  =       -34.65923613 eV

  energy without entropy =      -34.65923613  energy(sigma->0) =      -34.65923613


--------------------------------------------------------------------------------------------------------




--------------------------------------- Iteration      2(  15)  ---------------------------------------


    POTLOK:  cpu time      0.2744: real time      0.2785
    SETDIJ:  cpu time      0.1112: real time      0.1122
     EDDAV:  cpu time      5.2465: real time      5.3432
       DOS:  cpu time      0.0004: real time      0.0004
    --------------------------------------------
      LOOP:  cpu time      5.6326: real time      5.7344

 eigenvalue-minimisations  :  1448
 total energy-change (2. order) :-0.7042254E-06  (-0.1085345E-07)
 number of electron      53.9999982 magnetization       5.9999998
 augmentation part       -0.5683473 magnetization       4.3807678

 Free energy of the ion-electron system (eV)
  ---------------------------------------------------
  alpha Z        PSCENC =        30.44283224
  Ewald energy   TEWEN  =      4392.83356031
  -Hartree energ DENC   =     -7092.84152054
  -exchange      EXHF   =         0.00000000
  -V(xc)+E(xc)   XCENC  =        86.50967645
  PAW double counting   =      3666.68375896    -3617.19383512
  entropy T*S    EENTRO =        -0.00000000
  eigenvalues    EBANDS =      -513.20040548
  atomic energy  EATOM  =      3012.10669636
  Solvation  Ediel_sol  =         0.00000000
  ext. energy  EPLUGINS =         0.00000000
  ---------------------------------------------------
  free energy    TOTEN  =       -34.65923683 eV

  energy without entropy =      -34.65923683  energy(sigma->0) =      -34.65923683


--------------------------------------------------------------------------------------------------------




 average (electrostatic) potential at core
  the test charge radii are     1.1394  0.9406
  (the norm of the test charge is              1.0000)
       1 -53.2243       2 -53.2243       3 -98.9492       4 -98.9492       5 -98.9492
       6 -98.9492       7 -98.9492       8 -98.9492



 E-fermi :  -4.8591     XC(G=0):  -3.3059     alpha+bet : -2.6672

 val. band max:       -5.1366423209   @ k =   0.0909   0.0909   0.0000
 cond. band min:      -2.5548778871   @ k =   0.3636   0.2727   0.0000
 fundamental gap:      2.5817644337
 Fermi energy:        -4.8591250301

 spin component 1

 k-point     1 :       0.0000    0.0000    0.0000
  band No.  band energies     occupation 
      1     -19.2197      1.00000
      2     -18.4466      1.00000
      3     -18.2764      1.00000
      4     -18.2764      1.00000
      5     -18.1827      1.00000
      6     -18.1827      1.00000
      7      -9.0946      1.00000
      8      -9.0473      1.00000
      9      -8.6144      1.00000
     10      -8.6144      1.00000
     11      -8.5990      1.00000
     12      -8.5990      1.00000
     13      -7.6331      1.00000
     14      -7.6331      1.00000
     15      -7.6101      1.00000
     16      -7.4147      1.00000
     17      -7.1246      1.00000
     18      -7.0910      1.00000
     19      -7.0910      1.00000
     20      -6.6280      1.00000
     21      -6.6280      1.00000
     22      -6.2005      1.00000
     23      -6.1472      1.00000
     24      -6.1472      1.00000
     25      -5.9266      1.00000
     26      -5.7923      1.00000
     27      -5.3786      1.00000
     28      -5.3786      1.00000
     29      -5.1411      1.00000
     30      -5.1411      1.00000
     31      -2.5181      0.00000
     32      -2.5181      0.00000
     33      -2.3094      0.00000
     34      -2.3094      0.00000
     35       1.5510      0.00000
     36       2.3188      0.00000

 k-point     2 :       0.0909    0.0000    0.0000
  band No.  band energies     occupation 
      1     -19.2031      1.00000
      2     -18.4397      1.00000
      3     -18.2962      1.00000
      4     -18.2823      1.00000
      5     -18.1853      1.00000
      6     -18.1841      1.00000
      7      -9.1049      1.00000
      8      -9.0338      1.00000
      9      -8.6720      1.00000
     10      -8.6703      1.00000
     11      -8.5257      1.00000
     12      -8.5198      1.00000
     13      -7.6551      1.00000
     14      -7.6337      1.00000
     15      -7.6219      1.00000
     16      -7.3784      1.00000
     17      -7.1511      1.00000
     18      -7.0852      1.00000
     19      -7.0524      1.00000
     20      -6.6985      1.00000
     21      -6.6229      1.00000
     22      -6.1730      1.00000
     23      -6.1671      1.00000
     24      -6.1230      1.00000
     25      -5.9245      1.00000
     26      -5.7588      1.00000
     27      -5.3851      1.00000
     28      -5.3812      1.00000
     29      -5.1848      1.00000
     30      -5.1388      1.00000
     31      -2.5191      0.00000
     32      -2.5144      0.00000
     33      -2.3418      0.00000
     34      -2.3131      0.00000
     35       1.6324      0.00000
     36       2.3672      0.00000

 k-point     3 :       0.1818    0.0000    0.0000
  band No.  band energies     occupation 
      1     -19.1546      1.00000
      2     -18.4198      1.00000
      3     -18.3523      1.00000
      4     -18.2968      1.00000
      5     -18.1931      1.00000
      6     -18.1902      1.00000
      7      -9.1355      1.00000
      8      -8.9949      1.00000
      9      -8.7200      1.00000
     10      -8.6845      1.00000
     11      -8.4313      1.00000
     12      -8.4290      1.00000
     13      -7.7141      1.00000
     14      -7.6855      1.00000
     15      -7.5948      1.00000
     16      -7.3267      1.00000
     17      -7.2020      1.00000
     18      -7.0578      1.00000
     19      -6.9669      1.00000
     20      -6.8310      1.00000
     21      -6.6101      1.00000
     22      -6.2290      1.00000
     23      -6.1734      1.00000
     24      -6.0437      1.00000
     25      -5.9141      1.00000
     26      -5.6586      1.00000
     27      -5.4060      1.00000
     28      -5.3912      1.00000
     29      -5.2816      1.00000
     30      -5.1394      1.00000
     31      -2.5208      0.00000
     32      -2.5031      0.00000
     33      -2.4137      0.00000
     34      -2.3278      0.00000
     35       1.8570      0.00000
     36       2.4995      0.00000

 k-point     4 :       0.2727    0.0000    0.0000
  band No.  band energies     occupation 
      1     -19.0785      1.00000
      2     -18.4375      1.00000
      3     -18.3892      1.00000
      4     -18.3137      1.00000
      5     -18.2049      1.00000
      6     -18.2042      1.00000
      7      -9.1866      1.00000
      8      -8.9297      1.00000
      9      -8.7512      1.00000
     10      -8.6189      1.00000
     11      -8.3658      1.00000
     12      -8.3264      1.00000
     13      -7.7924      1.00000
     14      -7.7392      1.00000
     15      -7.5687      1.00000
     16      -7.4057      1.00000
     17      -7.1769      1.00000
     18      -7.0292      1.00000
     19      -7.0155      1.00000
     20      -6.7920      1.00000
     21      -6.5832      1.00000
     22      -6.3216      1.00000
     23      -6.2075      1.00000
     24      -5.9640      1.00000
     25      -5.8855      1.00000
     26      -5.5187      1.00000
     27      -5.4420      1.00000
     28      -5.4236      1.00000
     29      -5.3682      1.00000
     30      -5.1479      1.00000
     31      -2.5197      0.00000
     32      -2.4823      0.00000
     33      -2.4793      0.00000
     34      -2.3580      0.00000
     35       2.1829      0.00000
     36       2.6961      0.00000

 k-point     5 :       0.3636    0.0000    0.0000
  band No.  band energies     occupation 
      1     -18.9841      1.00000
      2     -18.5399      1.00000
      3     -18.3529      1.00000
      4     -18.3267      1.00000
      5     -18.2293      1.00000
      6     -18.2147      1.00000
      7      -9.2398      1.00000
      8      -8.8468      1.00000
      9      -8.7676      1.00000
     10      -8.4829      1.00000
     11      -8.3477      1.00000
     12      -8.2203      1.00000
     13      -7.8744      1.00000
     14      -7.7784      1.00000
     15      -7.6325      1.00000
     16      -7.4869      1.00000
     17      -7.1592      1.00000
     18      -7.1272      1.00000
     19      -7.0097      1.00000
     20      -6.6471      1.00000
     21      -6.5491      1.00000
     22      -6.3877      1.00000
     23      -6.2691      1.00000
     24      -5.8962      1.00000
     25      -5.8394      1.00000
     26      -5.5027      1.00000
     27      -5.4772      1.00000
     28      -5.4254      1.00000
     29      -5.3702      1.00000
     30      -5.1601      1.00000
     31      -2.5213      0.00000
     32      -2.5111      0.00000
     33      -2.4489      0.00000
     34      -2.4004      0.00000
     35       2.5765      0.00000
     36       2.9432      0.00000

 k-point     6 :       0.4545    0.0000    0.0000
  band No.  band energies     occupation 
      1     -18.8971      1.00000
      2     -18.6318      1.00000
      3     -18.3392      1.00000
      4     -18.3104      1.00000
      5     -18.2600      1.00000
      6     -18.2210      1.00000
      7      -9.2720      1.00000
      8      -8.7812      1.00000
      9      -8.7736      1.00000
     10      -8.3848      1.00000
     11      -8.3039      1.00000
     12      -8.1359      1.00000
     13      -7.9415      1.00000
     14      -7.7974      1.00000
     15      -7.7970      1.00000
     16      -7.4865      1.00000
     17      -7.2401      1.00000
     18      -7.0892      1.00000
     19      -7.0276      1.00000
     20      -6.5545      1.00000
     21      -6.5071      1.00000
     22      -6.3841      1.00000
     23      -6.3535      1.00000
     24      -5.8486      1.00000
     25      -5.7991      1.00000
     26      -5.5743      1.00000
     27      -5.4915      1.00000
     28      -5.4636      1.00000
     29      -5.2612      1.00000
     30      -5.1888      1.00000
     31      -2.5405      0.00000
     32      -2.4928      0.00000
     33      -2.4420      0.00000
     34      -2.4208      0.00000
     35       2.9505      0.00000
     36       3.0263      0.00000

 k-point     7 :       0.0909    0.0909    0.0000
  band No.  band energies     occupation 
      1     -19.1705      1.00000
      2     -18.4263      1.00000
      3     -18.3323      1.00000
      4     -18.2945      1.00000
      5     -18.1899      1.00000
      6     -18.1882      1.00000
      7      -9.1192      1.00000
      8      -9.0113      1.00000
      9      -8.7544      1.00000
     10      -8.6253      1.00000
     11      -8.5058      1.00000
     12      -8.4234      1.00000
     13      -7.6992      1.00000
     14      -7.6719      1.00000
     15      -7.5976      1.00000
     16      -7.3277      1.00000
     17      -7.1963      1.00000
     18      -7.0713      1.00000
     19      -6.9858      1.00000
     20      -6.8036      1.00000
     21      -6.6081      1.00000
     22      -6.2332      1.00000
     23      -6.1102      1.00000
     24      -6.1027      1.00000
     25      -5.9183      1.00000
     26      -5.6911      1.00000
     27      -5.3965      1.00000
     28      -5.3888      1.00000
     29      -5.2561      1.00000
     30      -5.1366      1.00000
     31      -2.5218      0.00000
     32      -2.5060      0.00000
     33      -2.3957      0.00000
     34      -2.3194      0.00000
     35       1.7848      0.00000
     36       2.4569      0.00000

 k-point     8 :       0.1818    0.0909    0.0000
  band No.  band energies     occupation 
      1     -19.1080      1.00000
      2     -18.4012      1.00000
      3     -18.4000      1.00000
      4     -18.3142      1.00000
      5     -18.1989      1.00000
      6     -18.1982      1.00000
      7      -9.1423      1.00000
      8      -8.9745      1.00000
      9      -8.7941      1.00000
     10      -8.5807      1.00000
     11      -8.4405      1.00000
     12      -8.3336      1.00000
     13      -7.7741      1.00000
     14      -7.7217      1.00000
     15      -7.5609      1.00000
     16      -7.3289      1.00000
     17      -7.2312      1.00000
     18      -7.0534      1.00000
     19      -6.9393      1.00000
     20      -6.8660      1.00000
     21      -6.5763      1.00000
     22      -6.3225      1.00000
     23      -6.1287      1.00000
     24      -6.0280      1.00000
     25      -5.8982      1.00000
     26      -5.5698      1.00000
     27      -5.4376      1.00000
     28      -5.3929      1.00000
     29      -5.3466      1.00000
     30      -5.1409      1.00000
     31      -2.5257      0.00000
     32      -2.4889      0.00000
     33      -2.4634      0.00000
     34      -2.3357      0.00000
     35       2.0564      0.00000
     36       2.6190      0.00000

 k-point     9 :       0.2727    0.0909    0.0000
  band No.  band energies     occupation 
      1     -19.0219      1.00000
      2     -18.4925      1.00000
      3     -18.3678      1.00000
      4     -18.3324      1.00000
      5     -18.2167      1.00000
      6     -18.2098      1.00000
      7      -9.1847      1.00000
      8      -8.9127      1.00000
      9      -8.7860      1.00000
     10      -8.5096      1.00000
     11      -8.3747      1.00000
     12      -8.2579      1.00000
     13      -7.8584      1.00000
     14      -7.7626      1.00000
     15      -7.5496      1.00000
     16      -7.4408      1.00000
     17      -7.2081      1.00000
     18      -7.1267      1.00000
     19      -6.9556      1.00000
     20      -6.7513      1.00000
     21      -6.5235      1.00000
     22      -6.4132      1.00000
     23      -6.1784      1.00000
     24      -5.9562      1.00000
     25      -5.8586      1.00000
     26      -5.5070      1.00000
     27      -5.4365      1.00000
     28      -5.4212      1.00000
     29      -5.3947      1.00000
     30      -5.1513      1.00000
     31      -2.5258      0.00000
     32      -2.5083      0.00000
     33      -2.4649      0.00000
     34      -2.3635      0.00000
     35       2.4083      0.00000
     36       2.8375      0.00000

 k-point    10 :       0.3636    0.0909    0.0000
  band No.  band energies     occupation 
      1     -18.9261      1.00000
      2     -18.5934      1.00000
      3     -18.3500      1.00000
      4     -18.3249      1.00000
      5     -18.2440      1.00000
      6     -18.2182      1.00000
      7      -9.2258      1.00000
      8      -8.8360      1.00000
      9      -8.7729      1.00000
     10      -8.4012      1.00000
     11      -8.3567      1.00000
     12      -8.1762      1.00000
     13      -7.9344      1.00000
     14      -7.7851      1.00000
     15      -7.6857      1.00000
     16      -7.4606      1.00000
     17      -7.2564      1.00000
     18      -7.1273      1.00000
     19      -6.9763      1.00000
     20      -6.6496      1.00000
     21      -6.5189      1.00000
     22      -6.3994      1.00000
     23      -6.2444      1.00000
     24      -5.8952      1.00000
     25      -5.8131      1.00000
     26      -5.5789      1.00000
     27      -5.4773      1.00000
     28      -5.4265      1.00000
     29      -5.3006      1.00000
     30      -5.1681      1.00000
     31      -2.5377      0.00000
     32      -2.5059      0.00000
     33      -2.4535      0.00000
     34      -2.3837      0.00000
     35       2.8160      0.00000
     36       3.0176      0.00000

 k-point    11 :       0.4545    0.0909    0.0000
  band No.  band energies     occupation 
      1     -18.8694      1.00000
      2     -18.6521      1.00000
      3     -18.3535      1.00000
      4     -18.2981      1.00000
      5     -18.2681      1.00000
      6     -18.2214      1.00000
      7      -9.2419      1.00000
      8      -8.7954      1.00000
      9      -8.7712      1.00000
     10      -8.3844      1.00000
     11      -8.3058      1.00000
     12      -8.1291      1.00000
     13      -7.9728      1.00000
     14      -7.7911      1.00000
     15      -7.7887      1.00000
     16      -7.4536      1.00000
     17      -7.2903      1.00000
     18      -7.1083      1.00000
     19      -6.9914      1.00000
     20      -6.6200      1.00000
     21      -6.5219      1.00000
     22      -6.3249      1.00000
     23      -6.3182      1.00000
     24      -5.8650      1.00000
     25      -5.7930      1.00000
     26      -5.6209      1.00000
     27      -5.4844      1.00000
     28      -5.4464      1.00000
     29      -5.2276      1.00000
     30      -5.1996      1.00000
     31      -2.5451      0.00000
     32      -2.4843      0.00000
     33      -2.4723      0.00000
     34      -2.3821      0.00000
     35       2.9485      0.00000
     36       3.2205      0.00000

 k-point    12 :       0.1818    0.1818    0.0000
  band No.  band energies     occupation 
      1     -19.0350      1.00000
      2     -18.4703      1.00000
      3     -18.3734      1.00000
      4     -18.3411      1.00000
      5     -18.2110      1.00000
      6     -18.2078      1.00000
      7      -9.1168      1.00000
      8      -8.9884      1.00000
      9      -8.8045      1.00000
     10      -8.4645      1.00000
     11      -8.4332      1.00000
     12      -8.2641      1.00000
     13      -7.8612      1.00000
     14      -7.7553      1.00000
     15      -7.5092      1.00000
     16      -7.3503      1.00000
     17      -7.3087      1.00000
     18      -7.1311      1.00000
     19      -6.8952      1.00000
     20      -6.8241      1.00000
     21      -6.4982      1.00000
     22      -6.4392      1.00000
     23      -6.0727      1.00000
     24      -6.0467      1.00000
     25      -5.8658      1.00000
     26      -5.5139      1.00000
     27      -5.4392      1.00000
     28      -5.4170      1.00000
     29      -5.3813      1.00000
     30      -5.1460      1.00000
     31      -2.5350      0.00000
     32      -2.5054      0.00000
     33      -2.4684      0.00000
     34      -2.3420      0.00000
     35       2.3470      0.00000
     36       2.7996      0.00000

 k-point    13 :       0.2727    0.1818    0.0000
  band No.  band energies     occupation 
      1     -18.9436      1.00000
      2     -18.5597      1.00000
      3     -18.3694      1.00000
      4     -18.3345      1.00000
      5     -18.2302      1.00000
      6     -18.2180      1.00000
      7      -9.1180      1.00000
      8      -8.9549      1.00000
      9      -8.7748      1.00000
     10      -8.4145      1.00000
     11      -8.3874      1.00000
     12      -8.2080      1.00000
     13      -7.9445      1.00000
     14      -7.7710      1.00000
     15      -7.5358      1.00000
     16      -7.4367      1.00000
     17      -7.3165      1.00000
     18      -7.1800      1.00000
     19      -6.8902      1.00000
     20      -6.7578      1.00000
     21      -6.5395      1.00000
     22      -6.3892      1.00000
     23      -6.1170      1.00000
     24      -5.9902      1.00000
     25      -5.8235      1.00000
     26      -5.5934      1.00000
     27      -5.4619      1.00000
     28      -5.3887      1.00000
     29      -5.3233      1.00000
     30      -5.1547      1.00000
     31      -2.5416      0.00000
     32      -2.5168      0.00000
     33      -2.4573      0.00000
     34      -2.3440      0.00000
     35       2.6969      0.00000
     36       3.0164      0.00000

 k-point    14 :       0.3636    0.1818    0.0000
  band No.  band energies     occupation 
      1     -18.8555      1.00000
      2     -18.6473      1.00000
      3     -18.3821      1.00000
      4     -18.3000      1.00000
      5     -18.2565      1.00000
      6     -18.2241      1.00000
      7      -9.1420      1.00000
      8      -8.8680      1.00000
      9      -8.7742      1.00000
     10      -8.3861      1.00000
     11      -8.3753      1.00000
     12      -8.1461      1.00000
     13      -8.0023      1.00000
     14      -7.7707      1.00000
     15      -7.6790      1.00000
     16      -7.3996      1.00000
     17      -7.3408      1.00000
     18      -7.1765      1.00000
     19      -6.9192      1.00000
     20      -6.7100      1.00000
     21      -6.5916      1.00000
     22      -6.2802      1.00000
     23      -6.1855      1.00000
     24      -5.9382      1.00000
     25      -5.7990      1.00000
     26      -5.6620      1.00000
     27      -5.4689      1.00000
     28      -5.4141      1.00000
     29      -5.2342      1.00000
     30      -5.1728      1.00000
     31      -2.5490      0.00000
     32      -2.4987      0.00000
     33      -2.4707      0.00000
     34      -2.3356      0.00000
     35       3.0009      0.00000
     36       3.0681      0.00000

 k-point    15 :       0.2727    0.2727    0.0000
  band No.  band energies     occupation 
      1     -18.8527      1.00000
      2     -18.6389      1.00000
      3     -18.3974      1.00000
      4     -18.3028      1.00000
      5     -18.2452      1.00000
      6     -18.2294      1.00000
      7      -9.0007      1.00000
      8      -8.9993      1.00000
      9      -8.7756      1.00000
     10      -8.4118      1.00000
     11      -8.3837      1.00000
     12      -8.1553      1.00000
     13      -8.0148      1.00000
     14      -7.7600      1.00000
     15      -7.6044      1.00000
     16      -7.4045      1.00000
     17      -7.3292      1.00000
     18      -7.2302      1.00000
     19      -6.8748      1.00000
     20      -6.7560      1.00000
     21      -6.6239      1.00000
     22      -6.2632      1.00000
     23      -6.0798      1.00000
     24      -6.0269      1.00000
     25      -5.8037      1.00000
     26      -5.6747      1.00000
     27      -5.4621      1.00000
     28      -5.3997      1.00000
     29      -5.2388      1.00000
     30      -5.1598      1.00000
     31      -2.5511      0.00000
     32      -2.5067      0.00000
     33      -2.4661      0.00000
     34      -2.3144      0.00000
     35       2.9963      0.00000
     36       3.0669      0.00000

 k-point    16 :       0.3636    0.2727    0.0000
  band No.  band energies     occupation 
      1     -18.7854      1.00000
      2     -18.7015      1.00000
      3     -18.4083      1.00000
      4     -18.2782      1.00000
      5     -18.2626      1.00000
      6     -18.2345      1.00000
      7      -9.0164      1.00000
      8      -8.8972      1.00000
      9      -8.8273      1.00000
     10      -8.4089      1.00000
     11      -8.4000      1.00000
     12      -8.1125      1.00000
     13      -8.0553      1.00000
     14      -7.7505      1.00000
     15      -7.6551      1.00000
     16      -7.3502      1.00000
     17      -7.3411      1.00000
     18      -7.2572      1.00000
     19      -6.8914      1.00000
     20      -6.7294      1.00000
     21      -6.6669      1.00000
     22      -6.1762      1.00000
     23      -6.1220      1.00000
     24      -6.0157      1.00000
     25      -5.8119      1.00000
     26      -5.6994      1.00000
     27      -5.4466      1.00000
     28      -5.4194      1.00000
     29      -5.1936      1.00000
     30      -5.1732      1.00000
     31      -2.5549      0.00000
     32      -2.4909      0.00000
     33      -2.4804      0.00000
     34      -2.2999      0.00000
     35       3.0278      0.00000
     36       3.0948      0.00000
 Fermi energy:        -4.8591250301

 spin component 2

 k-point     1 :       0.0000    0.0000    0.0000
  band No.  band energies     occupation 
      1     -19.2575      1.00000
      2     -18.5290      1.00000
      3     -18.3512      1.00000
      4     -18.3512      1.00000
      5     -18.2472      1.00000
      6     -18.2472      1.00000
      7      -8.7185      1.00000
      8      -8.2718      1.00000
      9      -7.8690      1.00000
     10      -7.8690      1.00000
     11      -7.6748      1.00000
     12      -7.6748      1.00000
     13      -7.6079      1.00000
     14      -6.9734      1.00000
     15      -6.9734      1.00000
     16      -6.7580      1.00000
     17      -6.4867      1.00000
     18      -6.4867      1.00000
     19      -6.2239      1.00000
     20      -5.8273      1.00000
     21      -5.5028      1.00000
     22      -5.5028      1.00000
     23      -5.3279      1.00000
     24      -5.3279      1.00000
     25      -0.7579      0.00000
     26      -0.7579      0.00000
     27      -0.5569      0.00000
     28      -0.5569      0.00000
     29      -0.5448      0.00000
     30      -0.4996      0.00000
     31      -0.2535      0.00000
     32      -0.2535      0.00000
     33      -0.2015      0.00000
     34      -0.2015      0.00000
     35       1.7067      0.00000
     36       2.3342      0.00000

 k-point     2 :       0.0909    0.0000    0.0000
  band No.  band energies     occupation 
      1     -19.2414      1.00000
      2     -18.5217      1.00000
      3     -18.3704      1.00000
      4     -18.3576      1.00000
      5     -18.2493      1.00000
      6     -18.2485      1.00000
      7      -8.7249      1.00000
      8      -8.2681      1.00000
      9      -7.8781      1.00000
     10      -7.8123      1.00000
     11      -7.7845      1.00000
     12      -7.6932      1.00000
     13      -7.4695      1.00000
     14      -7.0081      1.00000
     15      -6.9800      1.00000
     16      -6.6883      1.00000
     17      -6.4936      1.00000
     18      -6.4673      1.00000
     19      -6.2080      1.00000
     20      -5.8196      1.00000
     21      -5.5224      1.00000
     22      -5.5045      1.00000
     23      -5.4157      1.00000
     24      -5.3444      1.00000
     25      -0.7709      0.00000
     26      -0.7530      0.00000
     27      -0.5675      0.00000
     28      -0.5656      0.00000
     29      -0.5611      0.00000
     30      -0.4621      0.00000
     31      -0.2773      0.00000
     32      -0.2628      0.00000
     33      -0.2015      0.00000
     34      -0.1886      0.00000
     35       1.7806      0.00000
     36       2.3840      0.00000

 k-point     3 :       0.1818    0.0000    0.0000
  band No.  band energies     occupation 
      1     -19.1945      1.00000
      2     -18.5005      1.00000
      3     -18.4248      1.00000
      4     -18.3734      1.00000
      5     -18.2559      1.00000
      6     -18.2550      1.00000
      7      -8.7313      1.00000
      8      -8.2600      1.00000
      9      -7.9142      1.00000
     10      -7.8666      1.00000
     11      -7.7162      1.00000
     12      -7.6662      1.00000
     13      -7.2897      1.00000
     14      -7.1008      1.00000
     15      -6.9996      1.00000
     16      -6.5601      1.00000
     17      -6.4692      1.00000
     18      -6.4215      1.00000
     19      -6.1684      1.00000
     20      -5.8093      1.00000
     21      -5.7015      1.00000
     22      -5.5239      1.00000
     23      -5.5088      1.00000
     24      -5.3782      1.00000
     25      -0.8002      0.00000
     26      -0.7348      0.00000
     27      -0.6336      0.00000
     28      -0.5887      0.00000
     29      -0.5762      0.00000
     30      -0.3717      0.00000
     31      -0.3331      0.00000
     32      -0.2884      0.00000
     33      -0.2021      0.00000
     34      -0.1524      0.00000
     35       1.9879      0.00000
     36       2.5218      0.00000

 k-point     4 :       0.2727    0.0000    0.0000
  band No.  band energies     occupation 
      1     -19.1209      1.00000
      2     -18.5071      1.00000
      3     -18.4679      1.00000
      4     -18.3920      1.00000
      5     -18.2705      1.00000
      6     -18.2656      1.00000
      7      -8.7267      1.00000
      8      -8.2455      1.00000
      9      -7.9832      1.00000
     10      -7.8660      1.00000
     11      -7.6828      1.00000
     12      -7.5007      1.00000
     13      -7.2567      1.00000
     14      -7.0825      1.00000
     15      -7.0253      1.00000
     16      -6.5789      1.00000
     17      -6.3790      1.00000
     18      -6.2728      1.00000
     19      -6.1132      1.00000
     20      -6.0401      1.00000
     21      -5.8499      1.00000
     22      -5.5688      1.00000
     23      -5.4924      1.00000
     24      -5.3982      1.00000
     25      -0.8435      0.00000
     26      -0.7205      0.00000
     27      -0.7009      0.00000
     28      -0.6149      0.00000
     29      -0.5938      0.00000
     30      -0.3950      0.00000
     31      -0.3332      0.00000
     32      -0.2606      0.00000
     33      -0.2038      0.00000
     34      -0.1082      0.00000
     35       2.2948      0.00000
     36       2.7289      0.00000

 k-point     5 :       0.3636    0.0000    0.0000
  band No.  band energies     occupation 
      1     -19.0296      1.00000
      2     -18.6062      1.00000
      3     -18.4284      1.00000
      4     -18.4072      1.00000
      5     -18.2962      1.00000
      6     -18.2749      1.00000
      7      -8.7194      1.00000
      8      -8.2143      1.00000
      9      -8.0345      1.00000
     10      -7.8175      1.00000
     11      -7.5969      1.00000
     12      -7.4096      1.00000
     13      -7.3668      1.00000
     14      -7.0324      1.00000
     15      -6.9078      1.00000
     16      -6.6386      1.00000
     17      -6.3917      1.00000
     18      -6.3608      1.00000
     19      -6.0636      1.00000
     20      -6.0597      1.00000
     21      -5.9413      1.00000
     22      -5.6107      1.00000
     23      -5.4778      1.00000
     24      -5.3731      1.00000
     25      -0.9142      0.00000
     26      -0.7769      0.00000
     27      -0.6731      0.00000
     28      -0.6198      0.00000
     29      -0.6064      0.00000
     30      -0.4463      0.00000
     31      -0.3712      0.00000
     32      -0.2057      0.00000
     33      -0.1726      0.00000
     34      -0.0752      0.00000
     35       2.6701      0.00000
     36       2.9908      0.00000

 k-point     6 :       0.4545    0.0000    0.0000
  band No.  band energies     occupation 
      1     -18.9446      1.00000
      2     -18.6956      1.00000
      3     -18.4171      1.00000
      4     -18.3878      1.00000
      5     -18.3276      1.00000
      6     -18.2806      1.00000
      7      -8.7172      1.00000
      8      -8.1806      1.00000
      9      -8.0609      1.00000
     10      -7.7307      1.00000
     11      -7.5564      1.00000
     12      -7.5093      1.00000
     13      -7.2980      1.00000
     14      -6.9758      1.00000
     15      -6.8003      1.00000
     16      -6.7784      1.00000
     17      -6.5598      1.00000
     18      -6.3613      1.00000
     19      -6.1058      1.00000
     20      -5.9500      1.00000
     21      -5.9265      1.00000
     22      -5.6461      1.00000
     23      -5.4901      1.00000
     24      -5.3303      1.00000
     25      -0.9738      0.00000
     26      -0.7978      0.00000
     27      -0.6732      0.00000
     28      -0.6110      0.00000
     29      -0.5987      0.00000
     30      -0.4758      0.00000
     31      -0.3970      0.00000
     32      -0.2060      0.00000
     33      -0.1172      0.00000
     34      -0.0634      0.00000
     35       3.0978      0.00000
     36       3.2870      0.00000

 k-point     7 :       0.0909    0.0909    0.0000
  band No.  band energies     occupation 
      1     -19.2099      1.00000
      2     -18.5074      1.00000
      3     -18.4054      1.00000
      4     -18.3707      1.00000
      5     -18.2530      1.00000
      6     -18.2529      1.00000
      7      -8.7294      1.00000
      8      -8.2633      1.00000
      9      -7.8930      1.00000
     10      -7.8642      1.00000
     11      -7.7127      1.00000
     12      -7.7092      1.00000
     13      -7.3357      1.00000
     14      -7.0759      1.00000
     15      -6.9891      1.00000
     16      -6.5842      1.00000
     17      -6.4954      1.00000
     18      -6.4306      1.00000
     19      -6.1819      1.00000
     20      -5.8193      1.00000
     21      -5.5954      1.00000
     22      -5.5489      1.00000
     23      -5.4825      1.00000
     24      -5.3757      1.00000
     25      -0.7859      0.00000
     26      -0.7498      0.00000
     27      -0.6096      0.00000
     28      -0.5850      0.00000
     29      -0.5661      0.00000
     30      -0.4019      0.00000
     31      -0.3143      0.00000
     32      -0.2819      0.00000
     33      -0.1982      0.00000
     34      -0.1658      0.00000
     35       1.9208      0.00000
     36       2.4773      0.00000

 k-point     8 :       0.1818    0.0909    0.0000
  band No.  band energies     occupation 
      1     -19.1495      1.00000
      2     -18.4805      1.00000
      3     -18.4707      1.00000
      4     -18.3918      1.00000
      5     -18.2636      1.00000
      6     -18.2608      1.00000
      7      -8.7215      1.00000
      8      -8.2575      1.00000
      9      -7.9442      1.00000
     10      -7.8961      1.00000
     11      -7.7054      1.00000
     12      -7.5559      1.00000
     13      -7.2063      1.00000
     14      -7.1552      1.00000
     15      -6.9975      1.00000
     16      -6.5755      1.00000
     17      -6.3785      1.00000
     18      -6.3516      1.00000
     19      -6.1449      1.00000
     20      -5.9739      1.00000
     21      -5.7216      1.00000
     22      -5.5789      1.00000
     23      -5.4970      1.00000
     24      -5.4119      1.00000
     25      -0.8137      0.00000
     26      -0.7380      0.00000
     27      -0.6860      0.00000
     28      -0.6106      0.00000
     29      -0.5790      0.00000
     30      -0.3660      0.00000
     31      -0.3338      0.00000
     32      -0.2955      0.00000
     33      -0.1900      0.00000
     34      -0.1267      0.00000
     35       2.1753      0.00000
     36       2.6480      0.00000

 k-point     9 :       0.2727    0.0909    0.0000
  band No.  band energies     occupation 
      1     -19.0662      1.00000
      2     -18.5598      1.00000
      3     -18.4445      1.00000
      4     -18.4118      1.00000
      5     -18.2831      1.00000
      6     -18.2707      1.00000
      7      -8.7016      1.00000
      8      -8.2415      1.00000
      9      -8.0005      1.00000
     10      -7.8713      1.00000
     11      -7.6415      1.00000
     12      -7.4156      1.00000
     13      -7.3532      1.00000
     14      -7.0573      1.00000
     15      -6.9229      1.00000
     16      -6.6273      1.00000
     17      -6.3470      1.00000
     18      -6.3195      1.00000
     19      -6.1443      1.00000
     20      -6.0643      1.00000
     21      -5.8288      1.00000
     22      -5.5949      1.00000
     23      -5.4847      1.00000
     24      -5.4165      1.00000
     25      -0.8667      0.00000
     26      -0.7732      0.00000
     27      -0.6954      0.00000
     28      -0.6317      0.00000
     29      -0.5937      0.00000
     30      -0.4189      0.00000
     31      -0.3636      0.00000
     32      -0.2273      0.00000
     33      -0.1692      0.00000
     34      -0.0873      0.00000
     35       2.5106      0.00000
     36       2.8804      0.00000

 k-point    10 :       0.3636    0.0909    0.0000
  band No.  band energies     occupation 
      1     -18.9732      1.00000
      2     -18.6575      1.00000
      3     -18.4271      1.00000
      4     -18.4028      1.00000
      5     -18.3116      1.00000
      6     -18.2786      1.00000
      7      -8.6865      1.00000
      8      -8.2084      1.00000
      9      -8.0362      1.00000
     10      -7.8023      1.00000
     11      -7.5395      1.00000
     12      -7.5140      1.00000
     13      -7.3304      1.00000
     14      -7.0299      1.00000
     15      -6.7930      1.00000
     16      -6.7197      1.00000
     17      -6.5517      1.00000
     18      -6.3350      1.00000
     19      -6.0453      1.00000
     20      -5.9942      1.00000
     21      -5.9105      1.00000
     22      -5.6305      1.00000
     23      -5.4840      1.00000
     24      -5.3723      1.00000
     25      -0.9386      0.00000
     26      -0.8090      0.00000
     27      -0.6688      0.00000
     28      -0.6353      0.00000
     29      -0.6003      0.00000
     30      -0.4656      0.00000
     31      -0.3912      0.00000
     32      -0.2011      0.00000
     33      -0.1208      0.00000
     34      -0.0639      0.00000
     35       2.9026      0.00000
     36       3.1593      0.00000

 k-point    11 :       0.4545    0.0909    0.0000
  band No.  band energies     occupation 
      1     -18.9176      1.00000
      2     -18.7149      1.00000
      3     -18.4318      1.00000
      4     -18.3755      1.00000
      5     -18.3350      1.00000
      6     -18.2815      1.00000
      7      -8.6822      1.00000
      8      -8.1884      1.00000
      9      -8.0485      1.00000
     10      -7.7237      1.00000
     11      -7.6264      1.00000
     12      -7.4806      1.00000
     13      -7.2977      1.00000
     14      -6.9743      1.00000
     15      -6.9223      1.00000
     16      -6.6705      1.00000
     17      -6.5988      1.00000
     18      -6.3381      1.00000
     19      -6.0624      1.00000
     20      -5.9943      1.00000
     21      -5.8608      1.00000
     22      -5.6555      1.00000
     23      -5.4899      1.00000
     24      -5.3466      1.00000
     25      -0.9713      0.00000
     26      -0.8192      0.00000
     27      -0.6656      0.00000
     28      -0.6220      0.00000
     29      -0.6045      0.00000
     30      -0.4863      0.00000
     31      -0.4010      0.00000
     32      -0.1957      0.00000
     33      -0.0950      0.00000
     34      -0.0594      0.00000
     35       3.3065      0.00000
     36       3.3368      0.00000

 k-point    12 :       0.1818    0.1818    0.0000
  band No.  band energies     occupation 
      1     -19.0789      1.00000
      2     -18.5377      1.00000
      3     -18.4503      1.00000
      4     -18.4204      1.00000
      5     -18.2777      1.00000
      6     -18.2687      1.00000
      7      -8.6823      1.00000
      8      -8.2605      1.00000
      9      -7.9588      1.00000
     10      -7.9247      1.00000
     11      -7.6624      1.00000
     12      -7.4335      1.00000
     13      -7.3361      1.00000
     14      -7.0716      1.00000
     15      -6.9041      1.00000
     16      -6.6367      1.00000
     17      -6.3267      1.00000
     18      -6.3207      1.00000
     19      -6.1812      1.00000
     20      -6.0735      1.00000
     21      -5.6705      1.00000
     22      -5.6471      1.00000
     23      -5.4972      1.00000
     24      -5.4489      1.00000
     25      -0.8315      0.00000
     26      -0.7785      0.00000
     27      -0.7260      0.00000
     28      -0.6285      0.00000
     29      -0.5913      0.00000
     30      -0.3885      0.00000
     31      -0.3776      0.00000
     32      -0.2407      0.00000
     33      -0.1545      0.00000
     34      -0.0950      0.00000
     35       2.4530      0.00000
     36       2.8416      0.00000

 k-point    13 :       0.2727    0.1818    0.0000
  band No.  band energies     occupation 
      1     -18.9905      1.00000
      2     -18.6233      1.00000
      3     -18.4470      1.00000
      4     -18.4120      1.00000
      5     -18.2983      1.00000
      6     -18.2783      1.00000
      7      -8.6269      1.00000
      8      -8.2553      1.00000
      9      -7.9825      1.00000
     10      -7.8951      1.00000
     11      -7.5725      1.00000
     12      -7.4999      1.00000
     13      -7.3583      1.00000
     14      -7.0421      1.00000
     15      -6.7749      1.00000
     16      -6.7090      1.00000
     17      -6.5631      1.00000
     18      -6.2853      1.00000
     19      -6.1109      1.00000
     20      -5.9573      1.00000
     21      -5.7898      1.00000
     22      -5.6295      1.00000
     23      -5.4837      1.00000
     24      -5.4465      1.00000
     25      -0.8814      0.00000
     26      -0.8355      0.00000
     27      -0.7090      0.00000
     28      -0.6366      0.00000
     29      -0.6044      0.00000
     30      -0.4418      0.00000
     31      -0.3966      0.00000
     32      -0.1982      0.00000
     33      -0.1079      0.00000
     34      -0.0654      0.00000
     35       2.7920      0.00000
     36       3.0884      0.00000

 k-point    14 :       0.3636    0.1818    0.0000
  band No.  band energies     occupation 
      1     -18.9049      1.00000
      2     -18.7080      1.00000
      3     -18.4608      1.00000
      4     -18.3758      1.00000
      5     -18.3250      1.00000
      6     -18.2845      1.00000
      7      -8.5905      1.00000
      8      -8.2359      1.00000
      9      -8.0004      1.00000
     10      -7.8122      1.00000
     11      -7.6603      1.00000
     12      -7.4648      1.00000
     13      -7.3292      1.00000
     14      -7.0242      1.00000
     15      -6.9763      1.00000
     16      -6.6363      1.00000
     17      -6.5597      1.00000
     18      -6.2804      1.00000
     19      -6.0701      1.00000
     20      -5.9277      1.00000
     21      -5.8247      1.00000
     22      -5.6546      1.00000
     23      -5.4833      1.00000
     24      -5.4108      1.00000
     25      -0.9348      0.00000
     26      -0.8570      0.00000
     27      -0.6877      0.00000
     28      -0.6430      0.00000
     29      -0.5947      0.00000
     30      -0.4955      0.00000
     31      -0.4008      0.00000
     32      -0.1777      0.00000
     33      -0.0725      0.00000
     34      -0.0504      0.00000
     35       3.1540      0.00000
     36       3.3851      0.00000

 k-point    15 :       0.2727    0.2727    0.0000
  band No.  band energies     occupation 
      1     -18.9028      1.00000
      2     -18.6982      1.00000
      3     -18.4766      1.00000
      4     -18.3780      1.00000
      5     -18.3160      1.00000
      6     -18.2883      1.00000
      7      -8.5207      1.00000
      8      -8.2844      1.00000
      9      -7.9312      1.00000
     10      -7.9094      1.00000
     11      -7.6666      1.00000
     12      -7.4689      1.00000
     13      -7.3446      1.00000
     14      -7.0140      1.00000
     15      -7.0139      1.00000
     16      -6.6511      1.00000
     17      -6.5205      1.00000
     18      -6.2323      1.00000
     19      -6.1252      1.00000
     20      -5.8450      1.00000
     21      -5.8082      1.00000
     22      -5.6578      1.00000
     23      -5.4701      1.00000
     24      -5.4685      1.00000
     25      -0.8912      0.00000
     26      -0.8896      0.00000
     27      -0.7290      0.00000
     28      -0.6229      0.00000
     29      -0.6025      0.00000
     30      -0.4940      0.00000
     31      -0.4013      0.00000
     32      -0.1705      0.00000
     33      -0.0626      0.00000
     34      -0.0457      0.00000
     35       3.0913      0.00000
     36       3.3475      0.00000

 k-point    16 :       0.3636    0.2727    0.0000
  band No.  band energies     occupation 
      1     -18.8377      1.00000
      2     -18.7582      1.00000
      3     -18.4880      1.00000
      4     -18.3530      1.00000
      5     -18.3338      1.00000
      6     -18.2930      1.00000
      7      -8.4563      1.00000
      8      -8.3089      1.00000
      9      -7.9283      1.00000
     10      -7.8320      1.00000
     11      -7.8008      1.00000
     12      -7.3828      1.00000
     13      -7.3438      1.00000
     14      -7.1649      1.00000
     15      -7.0004      1.00000
     16      -6.6735      1.00000
     17      -6.4301      1.00000
     18      -6.2149      1.00000
     19      -6.1330      1.00000
     20      -5.8437      1.00000
     21      -5.7947      1.00000
     22      -5.6649      1.00000
     23      -5.4783      1.00000
     24      -5.4598      1.00000
     25      -0.9131      0.00000
     26      -0.8937      0.00000
     27      -0.7396      0.00000
     28      -0.6166      0.00000
     29      -0.5776      0.00000
     30      -0.5359      0.00000
     31      -0.4005      0.00000
     32      -0.1594      0.00000
     33      -0.0447      0.00000
     34      -0.0390      0.00000
     35       3.2842      0.00000
     36       3.3357      0.00000


--------------------------------------------------------------------------------------------------------


 soft charge-density along one line, spin component           1
         0         1         2         3         4         5         6         7         8         9
 total charge-density along one line

 soft charge-density along one line, spin component           2
         0         1         2         3         4         5         6         7         8         9
 total charge-density along one line

 pseudopotential strength for first ion, spin component:           1
-10.913   1.184  -0.000   0.000   0.000 -11.255   1.205  -0.000
  1.184 -10.081  -0.000   0.000  -0.000   1.205 -10.408  -0.000
 -0.000  -0.000 -11.749  -0.000   0.000  -0.000  -0.000 -12.106
  0.000   0.000  -0.000 -10.081  -1.184   0.000   0.000  -0.000
  0.000  -0.000   0.000  -1.184 -10.913   0.000  -0.000   0.000
-11.255   1.205  -0.000   0.000   0.000 -11.570   1.238  -0.000
  1.205 -10.408  -0.000   0.000  -0.000   1.238 -10.700  -0.000
 -0.000  -0.000 -12.106  -0.000   0.000  -0.000  -0.000 -12.445
  0.000   0.000  -0.000 -10.408  -1.205   0.000   0.000  -0.000
  0.000  -0.000   0.000  -1.205 -11.255   0.000  -0.000   0.000
 -0.000  -0.000   0.000  -0.000   0.000  -0.000  -0.000   0.000
 -0.000  -0.000   0.000  -0.000   0.000  -0.000  -0.000   0.000
 -0.000  -0.000  -0.000   0.000  -0.001  -0.000  -0.000  -0.000
  0.000   0.000   0.000  -0.000   0.000   0.000   0.000   0.000
 -0.001   0.000   0.000   0.000  -0.000  -0.001   0.000   0.000
 -0.000  -0.000  -0.000   0.000  -0.002  -0.000  -0.000  -0.000
  0.000   0.000   0.000  -0.000   0.000   0.000   0.000   0.000
 -0.002   0.000   0.000   0.000  -0.000  -0.002   0.000   0.000
 pseudopotential strength for first ion, spin component:           2
 -6.773  -0.521   0.000   0.000   0.000  -7.108  -0.519   0.000
 -0.521  -7.132  -0.000   0.000  -0.000  -0.519  -7.466  -0.000
  0.000  -0.000  -6.390  -0.000  -0.000   0.000  -0.000  -6.725
  0.000   0.000  -0.000  -7.132   0.521   0.000   0.000  -0.000
  0.000  -0.000  -0.000   0.521  -6.773   0.000  -0.000  -0.000
 -7.108  -0.519   0.000   0.000   0.000  -7.388  -0.521   0.000
 -0.519  -7.466  -0.000   0.000  -0.000  -0.521  -7.747  -0.000
  0.000  -0.000  -6.725  -0.000  -0.000   0.000  -0.000  -7.005
  0.000   0.000  -0.000  -7.466   0.519   0.000   0.000  -0.000
  0.000  -0.000  -0.000   0.519  -7.108   0.000  -0.000  -0.000
  0.000  -0.000  -0.001  -0.000  -0.000   0.000  -0.000  -0.001
  0.000  -0.000  -0.002  -0.000  -0.000   0.000  -0.000  -0.003
  0.000  -0.000   0.000   0.000  -0.000   0.000  -0.000   0.000
  0.000  -0.000   0.000   0.000   0.000   0.000  -0.000   0.000
 -0.000   0.000  -0.000   0.000   0.000  -0.001   0.000  -0.000
  0.000  -0.000   0.000   0.000  -0.000   0.000  -0.000   0.000
  0.000  -0.000   0.000   0.000   0.000   0.000  -0.000   0.000
 -0.000   0.000  -0.000   0.000   0.000  -0.000   0.000  -0.000
 total augmentation occupancy for first ion, spin component:           1
  3.827  -1.721   0.000  -0.000  -0.000  -2.707   0.585  -0.000   0.000   0.000   0.000   0.000  -0.000   0.000   0.081   0.000
 -1.721   2.550  -0.000  -0.000  -0.000   0.587  -2.210   0.000   0.000   0.000   0.000  -0.000   0.000  -0.000  -0.027  -0.000
  0.000  -0.000   4.916   0.000   0.000  -0.000   0.000  -2.980   0.000  -0.000   0.066  -0.008   0.000   0.000   0.000   0.000
 -0.000  -0.000   0.000   2.550   1.721   0.000   0.000   0.000  -2.210  -0.587   0.000   0.000   0.027   0.000   0.000  -0.000
 -0.000  -0.000   0.000   1.721   3.827   0.000   0.000  -0.000  -0.585  -2.707   0.000  -0.000   0.081  -0.000  -0.000  -0.003
 -2.707   0.587  -0.000   0.000   0.000   2.528   0.264   0.000   0.000  -0.000  -0.000  -0.000   0.000   0.000  -0.087  -0.000
  0.585  -2.210   0.000   0.000  -0.000   0.264   2.613   0.000  -0.000  -0.000  -0.000   0.000   0.000   0.000   0.023   0.000
 -0.000   0.000  -2.980   0.000  -0.000   0.000   0.000   2.185   0.000   0.000  -0.072   0.010   0.000  -0.000  -0.000  -0.000
  0.000   0.000   0.000  -2.210  -0.585   0.000  -0.000   0.000   2.613  -0.264   0.000   0.000  -0.023  -0.000  -0.000   0.000
  0.000  -0.000  -0.000  -0.587  -2.707  -0.000   0.000   0.000  -0.264   2.528  -0.000   0.000  -0.087   0.000   0.000   0.003
  0.000   0.000   0.066  -0.000   0.000  -0.000   0.000  -0.072   0.000  -0.000   1.706  -0.184   0.000   0.000   0.000  -0.000
  0.000  -0.000  -0.008  -0.000  -0.000  -0.000  -0.000   0.010   0.000   0.000  -0.184   0.028  -0.000   0.000   0.000   0.000
 -0.000   0.000  -0.000   0.027   0.081   0.000   0.000  -0.000  -0.023  -0.087   0.000  -0.000   0.269   0.000   0.000  -0.007
  0.000   0.000   0.000   0.000  -0.000   0.000   0.000  -0.000   0.000   0.000   0.000   0.000   0.000   0.261   0.000   0.000
  0.081  -0.027   0.000  -0.000  -0.000  -0.087   0.023  -0.000  -0.000   0.000   0.000   0.000  -0.000  -0.000   0.269   0.000
  0.000  -0.000  -0.000  -0.000  -0.003  -0.000   0.000   0.000   0.000   0.003  -0.000   0.000  -0.007   0.000   0.000   0.000
  0.000  -0.000   0.000   0.000  -0.000   0.000  -0.000  -0.000   0.000   0.000   0.000   0.000   0.000  -0.006   0.000   0.000
 -0.003   0.000  -0.000   0.000   0.000   0.003  -0.000   0.000  -0.000  -0.000   0.000  -0.000   0.000   0.000  -0.007  -0.000
 total augmentation occupancy for first ion, spin component:           2
  2.950  -2.359   0.000  -0.000  -0.000  -1.503   1.462  -0.000   0.000   0.000   0.000   0.000  -0.000  -0.000   0.022   0.000
 -2.359   1.289  -0.000  -0.000  -0.000   1.464  -0.471   0.000   0.000   0.000   0.000  -0.000  -0.000   0.000  -0.023   0.000
  0.000  -0.000   4.543  -0.000   0.000  -0.000   0.000  -2.467   0.000  -0.000   0.009   0.001   0.000   0.000   0.000   0.000
 -0.000  -0.000  -0.000   1.289   2.359   0.000   0.000   0.000  -0.471  -1.464  -0.000   0.000   0.023   0.000  -0.000  -0.000
 -0.000  -0.000   0.000   2.359   2.950   0.000  -0.000  -0.000  -1.462  -1.503   0.000  -0.000   0.022  -0.000   0.000   0.000
 -1.503   1.464  -0.000   0.000   0.000   0.843  -0.984   0.000  -0.000  -0.000  -0.000  -0.000   0.000   0.000  -0.016   0.000
  1.462  -0.471   0.000  -0.000  -0.000  -0.984   0.148  -0.000   0.000   0.000   0.000   0.000   0.000  -0.000   0.014   0.000
 -0.000   0.000  -2.467   0.000  -0.000   0.000  -0.000   1.478   0.000   0.000  -0.004  -0.001  -0.000  -0.000  -0.000  -0.000
  0.000   0.000   0.000  -0.471  -1.462  -0.000  -0.000  -0.000   0.148   0.984   0.000   0.000  -0.014  -0.000   0.000   0.000
  0.000  -0.000  -0.000  -1.464  -1.503  -0.000   0.000   0.000   0.984   0.843  -0.000   0.000  -0.016   0.000   0.000  -0.000
  0.000   0.000   0.009  -0.000   0.000  -0.000   0.000  -0.004   0.000  -0.000  -0.047   0.053  -0.000   0.000   0.000  -0.000
  0.000   0.000   0.001   0.000  -0.000  -0.000   0.000  -0.001  -0.000   0.000   0.053  -0.009  -0.000   0.000   0.000   0.000
 -0.000   0.000   0.000   0.023   0.022   0.000   0.000   0.000  -0.014  -0.016   0.000   0.000   0.017   0.000   0.000   0.002
 -0.000   0.000   0.000   0.000  -0.000  -0.000  -0.000  -0.000  -0.000   0.000   0.000   0.000  -0.000   0.015   0.000  -0.000
  0.022  -0.023   0.000   0.000   0.000  -0.016   0.014  -0.000   0.000   0.000  -0.000   0.000  -0.000   0.000   0.017  -0.000
  0.000   0.000   0.000  -0.000   0.000   0.000  -0.000  -0.000   0.000  -0.000   0.000   0.000   0.002  -0.000  -0.000  -0.000
  0.000   0.000   0.000   0.000  -0.000   0.000   0.000  -0.000   0.000   0.000   0.000   0.000   0.000   0.002   0.000   0.000
  0.000   0.000  -0.000  -0.000  -0.000  -0.000  -0.000   0.000  -0.000   0.000   0.000   0.000  -0.000   0.000   0.002   0.000


------------------------ aborting loop because EDIFF is reached ----------------------------------------





 total charge

# of ion       s       p       d       tot
------------------------------------------
    1        0.344   0.501   4.054   4.899
    2        0.344   0.501   4.054   4.899
    3        1.604   3.519   0.000   5.123
    4        1.604   3.519   0.000   5.123
    5        1.604   3.519   0.000   5.123
    6        1.604   3.519   0.000   5.123
    7        1.604   3.519   0.000   5.123
    8        1.604   3.519   0.000   5.123
--------------------------------------------------
tot         10.312  22.117   8.107  40.536



 magnetization (x)

# of ion       s       p       d       tot
------------------------------------------
    1        0.032   0.040   3.095   3.167
    2        0.032   0.040   3.095   3.167
    3       -0.002  -0.074   0.000  -0.075
    4       -0.002  -0.074   0.000  -0.075
    5       -0.002  -0.074   0.000  -0.075
    6       -0.002  -0.074   0.000  -0.075
    7       -0.002  -0.074   0.000  -0.075
    8       -0.002  -0.074   0.000  -0.075
--------------------------------------------------
tot          0.054  -0.362   6.191   5.882

    CHARGE:  cpu time      0.2546: real time      0.2579
    FORLOC:  cpu time      0.0054: real time      0.0054
    FORNL :  cpu time      0.4180: real time      0.4227
    STRESS:  cpu time      0.7448: real time      0.7510
    FORCOR:  cpu time      0.2646: real time      0.2675
    FORHAR:  cpu time      0.0334: real time      0.0338
    MIXING:  cpu time      0.0123: real time      0.0125
    OFIELD:  cpu time      0.0001: real time      0.0001

 ---------------------------------------------------------------------------------------------

         DFTD3 V3.0 Rev 1        
 Edisp (eV)   -0.91250

 E6    (eV) :    -0.3526
 E8    (eV) :    -0.5599
 % E8        : 61.36
    FORVDW:  cpu time      0.0140: real time      0.0142

  FORCE on cell =-STRESS in cart. coord.  units (eV):
  Direction    XX          YY          ZZ          XY          YZ          ZX
  --------------------------------------------------------------------------------------
  Alpha Z    30.44283    30.44283    30.44283
  Ewald    6075.35595  6075.35595 -7757.88156     0.00000     0.00000     0.00000
  Hartree  6714.06755  6714.06755 -6335.31608    -0.00000     0.00000    -0.00000
  E(xc)    -209.18666  -209.18666  -209.48136    -0.00000     0.00000     0.00000
  Local  -13820.24052-13820.24045 13058.69861     0.00006     0.00000     0.00000
  n-local   479.60369   479.74283   478.67774    -0.41266     0.04242     0.04740
  augment   -58.49216   -58.49222   -58.64473    -0.00005    -0.00000    -0.00000
  Kinetic   789.13359   788.64656   793.46961     0.57115    -0.31861     0.05245
  Fock        0.00000     0.00000     0.00000     0.00000     0.00000     0.00000
  vdW        -0.75484    -0.75484    -0.01909    -0.00000    -0.00000    -0.00000
  -------------------------------------------------------------------------------------
  Total      -0.24452    -0.24452    -0.05402     0.00000     0.00000     0.00000
  in kB      -0.69279    -0.69279    -0.15305     0.00000     0.00000     0.00000
  external pressure =       -0.51 kB  Pullay stress =        0.00 kB


 VOLUME and BASIS-vectors are now :
 -----------------------------------------------------------------------------
  energy-cutoff  :      500.00
  volume of cell :      565.49
      direct lattice vectors                 reciprocal lattice vectors
     6.078928394  0.000000000  0.000000000     0.164502678  0.094975665 -0.000000000
    -3.039464197  5.264506417  0.000000000     0.000000000  0.189951331  0.000000000
     0.000000000  0.000000000 17.670000000     0.000000000 -0.000000000  0.056593096

  length of vectors
     6.078928394  6.078928394 17.670000000     0.189951331  0.189951331  0.056593096


 FORCES acting on ions
    electron-ion (+dipol)            ewald-force                    non-local-force                 convergence-correction
 -----------------------------------------------------------------------------------------------
   0.658E-07 -.380E-07 -.452E-11   -.499E-11 0.291E-11 -.376E-13   -.594E-19 0.380E-18 0.415E-20   -.155E-10 0.888E-11 0.163E-12
   -.658E-07 0.380E-07 -.181E-10   0.499E-11 -.295E-11 -.940E-14   0.400E-18 -.482E-18 -.409E-20   0.155E-10 -.887E-11 0.188E-12
   0.677E+02 0.500E-06 0.454E+03   -.697E+02 -.413E-11 -.457E+03   0.205E+01 0.839E-18 0.287E+01   0.903E-04 0.364E-08 0.281E-03
   -.339E+02 0.586E+02 0.454E+03   0.349E+02 -.604E+02 -.457E+03   -.103E+01 0.178E+01 0.287E+01   -.452E-04 0.782E-04 0.281E-03
   -.339E+02 -.586E+02 0.454E+03   0.349E+02 0.604E+02 -.457E+03   -.103E+01 -.178E+01 0.287E+01   -.452E-04 -.782E-04 0.281E-03
   -.677E+02 -.500E-06 -.454E+03   0.697E+02 0.413E-11 0.457E+03   -.205E+01 -.430E-18 -.287E+01   -.903E-04 -.364E-08 -.281E-03
   0.339E+02 -.586E+02 -.454E+03   -.349E+02 0.604E+02 0.457E+03   0.103E+01 -.178E+01 -.287E+01   0.452E-04 -.782E-04 -.281E-03
   0.339E+02 0.586E+02 -.454E+03   -.349E+02 -.604E+02 0.457E+03   0.103E+01 0.178E+01 -.287E+01   0.452E-04 0.782E-04 -.281E-03
 -----------------------------------------------------------------------------------------------
   0.991E-12 -.205E-11 -.923E-10   0.000E+00 0.711E-14 -.568E-13   -.222E-15 0.222E-15 0.133E-14   0.194E-15 0.140E-13 0.141E-11


 POSITION                                       TOTAL-FORCE (eV/Angst)
 -----------------------------------------------------------------------------------
      0.00000      3.50967      8.83500        -0.000000     -0.000000     -0.000000
      3.03946      1.75484      8.83500        -0.000000      0.000000     -0.000000
     -0.88490      5.26451      7.47923         0.009579     -0.000000     -0.008081
     -1.07728      1.86590      7.47923        -0.004790      0.008296     -0.008081
      1.96218      3.39860      7.47923        -0.004790     -0.008296     -0.008081
      0.88490      5.26451     10.19077        -0.009579     -0.000000      0.008081
      4.11674      3.39860     10.19077         0.004790     -0.008296      0.008081
      1.07728      1.86590     10.19077         0.004790      0.008296      0.008081
 -----------------------------------------------------------------------------------
    total drift:                                0.000000     -0.000000     -0.000000


--------------------------------------------------------------------------------------------------------



  FREE ENERGIE OF THE ION-ELECTRON SYSTEM (eV)
  ---------------------------------------------------
  free  energy   TOTEN  =       -35.57173628 eV

  energy  without entropy=      -35.57173628  energy(sigma->0) =      -35.57173628
 d Force = 0.2863028E-02[ 0.817E-04, 0.564E-02]  d Energy = 0.5715674E-02-0.285E-02
 d Force = 0.1740554E+02[ 0.173E+02, 0.175E+02]  d Ewald  = 0.7880694E+02-0.614E+02



--------------------------------------------------------------------------------------------------------


    POTLOK:  cpu time      0.4089: real time      0.4128


--------------------------------------------------------------------------------------------------------


 Steepest descent step on ions:
 trial-energy change:   -0.005716  1 .order   -0.005827   -0.014032    0.002378
  (g-gl).g = 0.140E-01      g.g   = 0.140E-01  gl.gl    = 0.000E+00
 g(Force)  = 0.564E-02   g(Stress)= 0.839E-02 ortho     = 0.000E+00
 gamma     =   0.00000
 trial     =   1.00000
 opt step  =   0.84991  (harmonic =   0.85510) maximal distance =0.00491750
 next E    =   -35.571915   (d E  =  -0.00589)


--------------------------------------------------------------------------------------------------------


      MLFF:  cpu time      0.0025: real time      0.0025
    WAVPRE:  cpu time      0.0217: real time      0.0220
    FEWALD:  cpu time      0.0015: real time      0.0016
    GENKIN:  cpu time      0.0160: real time      0.0161
    ORTHCH:  cpu time      0.1028: real time      0.1036
     LOOP+:  cpu time    126.2372: real time    128.0649


--------------------------------------- Ionic step        3  -------------------------------------------




--------------------------------------- Iteration      3(   1)  ---------------------------------------


    POTLOK:  cpu time      0.2744: real time      0.2795
    SETDIJ:  cpu time      0.1123: real time      0.1128
     EDDAV:  cpu time      7.9812: real time      8.0873
       DOS:  cpu time      0.0004: real time      0.0004
    CHARGE:  cpu time      0.2251: real time      0.2270
    MIXING:  cpu time      0.0104: real time      0.0106
    --------------------------------------------
      LOOP:  cpu time      8.6039: real time      8.7177

 eigenvalue-minimisations  :  2728
 total energy-change (2. order) : 0.3661016E-03  (-0.3235781E-02)
 number of electron      53.9999982 magnetization       5.9999998
 augmentation part       -0.5640047 magnetization       4.3778664

 Broyden mixing:
  rms(total) = 0.20175E-01    rms(broyden)= 0.20174E-01
  rms(prec ) = 0.21195E-01
  weight for this iteration     100.00

 Free energy of the ion-electron system (eV)
  ---------------------------------------------------
  alpha Z        PSCENC =        30.48862908
  Ewald energy   TEWEN  =      4404.57332180
  -Hartree energ DENC   =     -7105.45270523
  -exchange      EXHF   =         0.00000000
  -V(xc)+E(xc)   XCENC  =        86.59437278
  PAW double counting   =      3666.69307030    -3617.20312895
  entropy T*S    EENTRO =        -0.00000000
  eigenvalues    EBANDS =      -512.45912617
  atomic energy  EATOM  =      3012.10669636
  Solvation  Ediel_sol  =         0.00000000
  ext. energy  EPLUGINS =         0.00000000
  ---------------------------------------------------
  free energy    TOTEN  =       -34.65887003 eV

  energy without entropy =      -34.65887003  energy(sigma->0) =      -34.65887003


--------------------------------------------------------------------------------------------------------




--------------------------------------- Iteration      3(   2)  ---------------------------------------


    POTLOK:  cpu time      0.2770: real time      0.2804
    SETDIJ:  cpu time      0.1116: real time      0.1120
     EDDAV:  cpu time      9.6311: real time      9.7598
       DOS:  cpu time      0.0004: real time      0.0004
    CHARGE:  cpu time      0.2238: real time      0.2256
    MIXING:  cpu time      0.0114: real time      0.0115
    --------------------------------------------
      LOOP:  cpu time     10.2552: real time     10.3898

 eigenvalue-minimisations  :  3484
 total energy-change (2. order) : 0.3476539E-03  (-0.2708261E-03)
 number of electron      53.9999982 magnetization       5.9999998
 augmentation part       -0.5713074 magnetization       4.3753721

 Broyden mixing:
  rms(total) = 0.95460E-02    rms(broyden)= 0.95458E-02
  rms(prec ) = 0.10070E-01
  weight for this iteration     100.00

 eigenvalues of (default mixing * dielectric matrix)
  average eigenvalue GAMMA=   0.7901
  0.7901

 Free energy of the ion-electron system (eV)
  ---------------------------------------------------
  alpha Z        PSCENC =        30.48862908
  Ewald energy   TEWEN  =      4404.57332180
  -Hartree energ DENC   =     -7105.00296057
  -exchange      EXHF   =         0.00000000
  -V(xc)+E(xc)   XCENC  =        86.55026221
  PAW double counting   =      3673.47714785    -3623.99164328
  entropy T*S    EENTRO =        -0.00000000
  eigenvalues    EBANDS =      -512.85997582
  atomic energy  EATOM  =      3012.10669636
  Solvation  Ediel_sol  =         0.00000000
  ext. energy  EPLUGINS =         0.00000000
  ---------------------------------------------------
  free energy    TOTEN  =       -34.65852237 eV

  energy without entropy =      -34.65852237  energy(sigma->0) =      -34.65852237


--------------------------------------------------------------------------------------------------------




--------------------------------------- Iteration      3(   3)  ---------------------------------------


    POTLOK:  cpu time      0.2777: real time      0.2808
    SETDIJ:  cpu time      0.1119: real time      0.1124
     EDDAV:  cpu time      9.3378: real time      9.4606
       DOS:  cpu time      0.0005: real time      0.0005
    CHARGE:  cpu time      0.2252: real time      0.2271
    MIXING:  cpu time      0.0113: real time      0.0115
    --------------------------------------------
      LOOP:  cpu time      9.9643: real time     10.0928

 eigenvalue-minimisations  :  3344
 total energy-change (2. order) : 0.1024290E-03  (-0.3530579E-04)
 number of electron      53.9999982 magnetization       5.9999998
 augmentation part       -0.5673674 magnetization       4.3770457

 Broyden mixing:
  rms(total) = 0.77106E-02    rms(broyden)= 0.77106E-02
  rms(prec ) = 0.78629E-02
  weight for this iteration     100.00

 eigenvalues of (default mixing * dielectric matrix)
  average eigenvalue GAMMA=   0.6605
  0.8519  0.4690

 Free energy of the ion-electron system (eV)
  ---------------------------------------------------
  alpha Z        PSCENC =        30.48862908
  Ewald energy   TEWEN  =      4404.57332180
  -Hartree energ DENC   =     -7104.80298866
  -exchange      EXHF   =         0.00000000
  -V(xc)+E(xc)   XCENC  =        86.54041910
  PAW double counting   =      3673.55966770    -3624.05968548
  entropy T*S    EENTRO =        -0.00000000
  eigenvalues    EBANDS =      -513.06447985
  atomic energy  EATOM  =      3012.10669636
  Solvation  Ediel_sol  =         0.00000000
  ext. energy  EPLUGINS =         0.00000000
  ---------------------------------------------------
  free energy    TOTEN  =       -34.65841994 eV

  energy without entropy =      -34.65841994  energy(sigma->0) =      -34.65841994


--------------------------------------------------------------------------------------------------------




--------------------------------------- Iteration      3(   4)  ---------------------------------------


    POTLOK:  cpu time      0.2782: real time      0.2812
    SETDIJ:  cpu time      0.1122: real time      0.1127
     EDDAV:  cpu time     10.0263: real time     10.1538
       DOS:  cpu time      0.0005: real time      0.0005
    CHARGE:  cpu time      0.3311: real time      0.3336
    MIXING:  cpu time      0.0117: real time      0.0119
    --------------------------------------------
      LOOP:  cpu time     10.7601: real time     10.8938

 eigenvalue-minimisations  :  3584
 total energy-change (2. order) : 0.1912794E-04  (-0.4033053E-05)
 number of electron      53.9999982 magnetization       5.9999998
 augmentation part       -0.5684311 magnetization       4.3771328

 Broyden mixing:
  rms(total) = 0.34730E-02    rms(broyden)= 0.34730E-02
  rms(prec ) = 0.35777E-02
  weight for this iteration     100.00

 eigenvalues of (default mixing * dielectric matrix)
  average eigenvalue GAMMA=   0.8717
  1.0412  1.0412  0.5326

 Free energy of the ion-electron system (eV)
  ---------------------------------------------------
  alpha Z        PSCENC =        30.48862908
  Ewald energy   TEWEN  =      4404.57332180
  -Hartree energ DENC   =     -7104.76445176
  -exchange      EXHF   =         0.00000000
  -V(xc)+E(xc)   XCENC  =        86.53790248
  PAW double counting   =      3673.27049759    -3623.77803110
  entropy T*S    EENTRO =        -0.00000000
  eigenvalues    EBANDS =      -513.09296528
  atomic energy  EATOM  =      3012.10669636
  Solvation  Ediel_sol  =         0.00000000
  ext. energy  EPLUGINS =         0.00000000
  ---------------------------------------------------
  free energy    TOTEN  =       -34.65840082 eV

  energy without entropy =      -34.65840082  energy(sigma->0) =      -34.65840082


--------------------------------------------------------------------------------------------------------




--------------------------------------- Iteration      3(   5)  ---------------------------------------


    POTLOK:  cpu time      0.3042: real time      0.3074
    SETDIJ:  cpu time      0.1130: real time      0.1135
     EDDAV:  cpu time      8.8752: real time      8.9978
       DOS:  cpu time      0.0005: real time      0.0005
    CHARGE:  cpu time      0.2585: real time      0.2608
    MIXING:  cpu time      0.0125: real time      0.0127
    --------------------------------------------
      LOOP:  cpu time      9.5639: real time      9.6927

 eigenvalue-minimisations  :  3036
 total energy-change (2. order) : 0.7129396E-05  (-0.2222502E-05)
 number of electron      53.9999982 magnetization       5.9999998
 augmentation part       -0.5690054 magnetization       4.3772197

 Broyden mixing:
  rms(total) = 0.22392E-02    rms(broyden)= 0.22392E-02
  rms(prec ) = 0.22765E-02
  weight for this iteration     100.00

 eigenvalues of (default mixing * dielectric matrix)
  average eigenvalue GAMMA=   1.1153
  1.5619  1.5619  0.7561  0.5811

 Free energy of the ion-electron system (eV)
  ---------------------------------------------------
  alpha Z        PSCENC =        30.48862908
  Ewald energy   TEWEN  =      4404.57332180
  -Hartree energ DENC   =     -7104.72385849
  -exchange      EXHF   =         0.00000000
  -V(xc)+E(xc)   XCENC  =        86.53520223
  PAW double counting   =      3672.77616192    -3623.28969827
  entropy T*S    EENTRO =        -0.00000000
  eigenvalues    EBANDS =      -513.12484831
  atomic energy  EATOM  =      3012.10669636
  Solvation  Ediel_sol  =         0.00000000
  ext. energy  EPLUGINS =         0.00000000
  ---------------------------------------------------
  free energy    TOTEN  =       -34.65839369 eV

  energy without entropy =      -34.65839369  energy(sigma->0) =      -34.65839369


--------------------------------------------------------------------------------------------------------




--------------------------------------- Iteration      3(   6)  ---------------------------------------


    POTLOK:  cpu time      0.3147: real time      0.3188
    SETDIJ:  cpu time      0.1151: real time      0.1157
     EDDAV:  cpu time      7.3231: real time      7.4301
       DOS:  cpu time      0.0006: real time      0.0006
    CHARGE:  cpu time      0.2948: real time      0.2973
    MIXING:  cpu time      0.0122: real time      0.0124
    --------------------------------------------
      LOOP:  cpu time      8.0605: real time      8.1748

 eigenvalue-minimisations  :  2268
 total energy-change (2. order) :-0.6773071E-05  (-0.3627414E-06)
 number of electron      53.9999982 magnetization       5.9999998
 augmentation part       -0.5682756 magnetization       4.3774982

 Broyden mixing:
  rms(total) = 0.89231E-03    rms(broyden)= 0.89231E-03
  rms(prec ) = 0.92847E-03
  weight for this iteration     100.00

 eigenvalues of (default mixing * dielectric matrix)
  average eigenvalue GAMMA=   1.1496
  1.8263  1.8263  0.8592  0.6180  0.6180

 Free energy of the ion-electron system (eV)
  ---------------------------------------------------
  alpha Z        PSCENC =        30.48862908
  Ewald energy   TEWEN  =      4404.57332180
  -Hartree energ DENC   =     -7104.71184616
  -exchange      EXHF   =         0.00000000
  -V(xc)+E(xc)   XCENC  =        86.53421117
  PAW double counting   =      3671.92405033    -3622.44195761
  entropy T*S    EENTRO =        -0.00000000
  eigenvalues    EBANDS =      -513.13150542
  atomic energy  EATOM  =      3012.10669636
  Solvation  Ediel_sol  =         0.00000000
  ext. energy  EPLUGINS =         0.00000000
  ---------------------------------------------------
  free energy    TOTEN  =       -34.65840046 eV

  energy without entropy =      -34.65840046  energy(sigma->0) =      -34.65840046


--------------------------------------------------------------------------------------------------------




--------------------------------------- Iteration      3(   7)  ---------------------------------------


    POTLOK:  cpu time      0.2764: real time      0.2804
    SETDIJ:  cpu time      0.1116: real time      0.1121
     EDDAV:  cpu time      5.8360: real time      5.9143
       DOS:  cpu time      0.0006: real time      0.0006
    CHARGE:  cpu time      0.2757: real time      0.2778
    MIXING:  cpu time      0.0119: real time      0.0121
    --------------------------------------------
      LOOP:  cpu time      6.5123: real time      6.5972

 eigenvalue-minimisations  :  1684
 total energy-change (2. order) :-0.5084372E-05  (-0.1280107E-06)
 number of electron      53.9999982 magnetization       5.9999998
 augmentation part       -0.5686644 magnetization       4.3774640

 Broyden mixing:
  rms(total) = 0.29524E-03    rms(broyden)= 0.29524E-03
  rms(prec ) = 0.31138E-03
  weight for this iteration     100.00

 eigenvalues of (default mixing * dielectric matrix)
  average eigenvalue GAMMA=   1.1292
  2.3542  1.3738  1.1539  0.6120  0.6120  0.6692

 Free energy of the ion-electron system (eV)
  ---------------------------------------------------
  alpha Z        PSCENC =        30.48862908
  Ewald energy   TEWEN  =      4404.57332180
  -Hartree energ DENC   =     -7104.71323689
  -exchange      EXHF   =         0.00000000
  -V(xc)+E(xc)   XCENC  =        86.53407493
  PAW double counting   =      3671.71331807    -3622.23407795
  entropy T*S    EENTRO =        -0.00000000
  eigenvalues    EBANDS =      -513.12713094
  atomic energy  EATOM  =      3012.10669636
  Solvation  Ediel_sol  =         0.00000000
  ext. energy  EPLUGINS =         0.00000000
  ---------------------------------------------------
  free energy    TOTEN  =       -34.65840554 eV

  energy without entropy =      -34.65840554  energy(sigma->0) =      -34.65840554


--------------------------------------------------------------------------------------------------------




--------------------------------------- Iteration      3(   8)  ---------------------------------------


    POTLOK:  cpu time      0.2980: real time      0.3013
    SETDIJ:  cpu time      0.1290: real time      0.1298
     EDDAV:  cpu time      5.4964: real time      5.5690
       DOS:  cpu time      0.0005: real time      0.0005
    CHARGE:  cpu time      0.2275: real time      0.2294
    MIXING:  cpu time      0.0121: real time      0.0123
    --------------------------------------------
      LOOP:  cpu time      6.1636: real time      6.2423

 eigenvalue-minimisations  :  1420
 total energy-change (2. order) :-0.3227911E-05  (-0.1576014E-06)
 number of electron      53.9999982 magnetization       5.9999998
 augmentation part       -0.5686931 magnetization       4.3774727

 Broyden mixing:
  rms(total) = 0.22876E-03    rms(broyden)= 0.22876E-03
  rms(prec ) = 0.23473E-03
  weight for this iteration     100.00

 eigenvalues of (default mixing * dielectric matrix)
  average eigenvalue GAMMA=   1.0994
  2.3480  1.4411  1.4411  0.7406  0.6074  0.6074  0.5103

 Free energy of the ion-electron system (eV)
  ---------------------------------------------------
  alpha Z        PSCENC =        30.48862908
  Ewald energy   TEWEN  =      4404.57332180
  -Hartree energ DENC   =     -7104.71356807
  -exchange      EXHF   =         0.00000000
  -V(xc)+E(xc)   XCENC  =        86.53359543
  PAW double counting   =      3671.69859046    -3622.21962591
  entropy T*S    EENTRO =        -0.00000000
  eigenvalues    EBANDS =      -513.12604792
  atomic energy  EATOM  =      3012.10669636
  Solvation  Ediel_sol  =         0.00000000
  ext. energy  EPLUGINS =         0.00000000
  ---------------------------------------------------
  free energy    TOTEN  =       -34.65840877 eV

  energy without entropy =      -34.65840877  energy(sigma->0) =      -34.65840877


--------------------------------------------------------------------------------------------------------




--------------------------------------- Iteration      3(   9)  ---------------------------------------


    POTLOK:  cpu time      0.2771: real time      0.2801
    SETDIJ:  cpu time      0.1117: real time      0.1122
     EDDAV:  cpu time      5.3100: real time      5.3814
       DOS:  cpu time      0.0006: real time      0.0006
    CHARGE:  cpu time      0.2907: real time      0.2930
    MIXING:  cpu time      0.0118: real time      0.0120
    --------------------------------------------
      LOOP:  cpu time      6.0019: real time      6.0794

 eigenvalue-minimisations  :  1416
 total energy-change (2. order) :-0.2708875E-05  (-0.3754892E-07)
 number of electron      53.9999982 magnetization       5.9999998
 augmentation part       -0.5687258 magnetization       4.3774617

 Broyden mixing:
  rms(total) = 0.16595E-03    rms(broyden)= 0.16595E-03
  rms(prec ) = 0.17219E-03
  weight for this iteration     100.00

 eigenvalues of (default mixing * dielectric matrix)
  average eigenvalue GAMMA=   1.1342
  2.5392  1.7161  1.7161  0.7882  0.6782  0.6003  0.6003  0.4354

 Free energy of the ion-electron system (eV)
  ---------------------------------------------------
  alpha Z        PSCENC =        30.48862908
  Ewald energy   TEWEN  =      4404.57332180
  -Hartree energ DENC   =     -7104.71737657
  -exchange      EXHF   =         0.00000000
  -V(xc)+E(xc)   XCENC  =        86.53350208
  PAW double counting   =      3671.74676060    -3622.26755231
  entropy T*S    EENTRO =        -0.00000000
  eigenvalues    EBANDS =      -513.12239251
  atomic energy  EATOM  =      3012.10669636
  Solvation  Ediel_sol  =         0.00000000
  ext. energy  EPLUGINS =         0.00000000
  ---------------------------------------------------
  free energy    TOTEN  =       -34.65841148 eV

  energy without entropy =      -34.65841148  energy(sigma->0) =      -34.65841148


--------------------------------------------------------------------------------------------------------




--------------------------------------- Iteration      3(  10)  ---------------------------------------


    POTLOK:  cpu time      0.2989: real time      0.3028
    SETDIJ:  cpu time      0.1114: real time      0.1120
     EDDAV:  cpu time      5.2769: real time      5.3533
       DOS:  cpu time      0.0004: real time      0.0004
    CHARGE:  cpu time      0.2786: real time      0.2816
    MIXING:  cpu time      0.0121: real time      0.0123
    --------------------------------------------
      LOOP:  cpu time      5.9784: real time      6.0625

 eigenvalue-minimisations  :  1384
 total energy-change (2. order) :-0.2597904E-05  (-0.1414602E-07)
 number of electron      53.9999982 magnetization       5.9999998
 augmentation part       -0.5686859 magnetization       4.3774790

 Broyden mixing:
  rms(total) = 0.12755E-03    rms(broyden)= 0.12755E-03
  rms(prec ) = 0.13251E-03
  weight for this iteration     100.00

 eigenvalues of (default mixing * dielectric matrix)
  average eigenvalue GAMMA=   1.1326
  2.5374  2.2029  1.4760  0.7794  0.7794  0.7391  0.6267  0.6267  0.4259

 Free energy of the ion-electron system (eV)
  ---------------------------------------------------
  alpha Z        PSCENC =        30.48862908
  Ewald energy   TEWEN  =      4404.57332180
  -Hartree energ DENC   =     -7104.72204650
  -exchange      EXHF   =         0.00000000
  -V(xc)+E(xc)   XCENC  =        86.53349206
  PAW double counting   =      3671.76574579    -3622.28649796
  entropy T*S    EENTRO =        -0.00000000
  eigenvalues    EBANDS =      -513.11775471
  atomic energy  EATOM  =      3012.10669636
  Solvation  Ediel_sol  =         0.00000000
  ext. energy  EPLUGINS =         0.00000000
  ---------------------------------------------------
  free energy    TOTEN  =       -34.65841408 eV

  energy without entropy =      -34.65841408  energy(sigma->0) =      -34.65841408


--------------------------------------------------------------------------------------------------------




--------------------------------------- Iteration      3(  11)  ---------------------------------------


    POTLOK:  cpu time      0.2795: real time      0.2828
    SETDIJ:  cpu time      0.1123: real time      0.1129
     EDDAV:  cpu time      5.6587: real time      5.7292
       DOS:  cpu time      0.0003: real time      0.0003
    CHARGE:  cpu time      0.2400: real time      0.2421
    MIXING:  cpu time      0.0122: real time      0.0124
    --------------------------------------------
      LOOP:  cpu time      6.3031: real time      6.3798

 eigenvalue-minimisations  :  1436
 total energy-change (2. order) :-0.1506006E-05  (-0.8218216E-08)
 number of electron      53.9999982 magnetization       5.9999998
 augmentation part       -0.5687078 magnetization       4.3774723

 Broyden mixing:
  rms(total) = 0.72955E-04    rms(broyden)= 0.72955E-04
  rms(prec ) = 0.76630E-04
  weight for this iteration     100.00

 eigenvalues of (default mixing * dielectric matrix)
  average eigenvalue GAMMA=   1.2177
  3.4458  2.4671  1.1738  1.0787  1.0787  0.6678  0.6678  0.6011  0.6011  0.3951

 Free energy of the ion-electron system (eV)
  ---------------------------------------------------
  alpha Z        PSCENC =        30.48862908
  Ewald energy   TEWEN  =      4404.57332180
  -Hartree energ DENC   =     -7104.72772180
  -exchange      EXHF   =         0.00000000
  -V(xc)+E(xc)   XCENC  =        86.53360809
  PAW double counting   =      3671.77689830    -3622.29769391
  entropy T*S    EENTRO =        -0.00000000
  eigenvalues    EBANDS =      -513.11215350
  atomic energy  EATOM  =      3012.10669636
  Solvation  Ediel_sol  =         0.00000000
  ext. energy  EPLUGINS =         0.00000000
  ---------------------------------------------------
  free energy    TOTEN  =       -34.65841558 eV

  energy without entropy =      -34.65841558  energy(sigma->0) =      -34.65841558


--------------------------------------------------------------------------------------------------------




--------------------------------------- Iteration      3(  12)  ---------------------------------------


    POTLOK:  cpu time      0.2781: real time      0.2812
    SETDIJ:  cpu time      0.1120: real time      0.1125
     EDDAV:  cpu time      5.3637: real time      5.4349
       DOS:  cpu time      0.0004: real time      0.0004
    --------------------------------------------
      LOOP:  cpu time      5.7544: real time      5.8292

 eigenvalue-minimisations  :  1452
 total energy-change (2. order) :-0.6225441E-06  (-0.4230590E-08)
 number of electron      53.9999982 magnetization       5.9999998
 augmentation part       -0.5687078 magnetization       4.3774723

 Free energy of the ion-electron system (eV)
  ---------------------------------------------------
  alpha Z        PSCENC =        30.48862908
  Ewald energy   TEWEN  =      4404.57332180
  -Hartree energ DENC   =     -7104.73236988
  -exchange      EXHF   =         0.00000000
  -V(xc)+E(xc)   XCENC  =        86.53367374
  PAW double counting   =      3671.78609367    -3622.30683319
  entropy T*S    EENTRO =        -0.00000000
  eigenvalues    EBANDS =      -513.10762779
  atomic energy  EATOM  =      3012.10669636
  Solvation  Ediel_sol  =         0.00000000
  ext. energy  EPLUGINS =         0.00000000
  ---------------------------------------------------
  free energy    TOTEN  =       -34.65841621 eV

  energy without entropy =      -34.65841621  energy(sigma->0) =      -34.65841621


--------------------------------------------------------------------------------------------------------




 average (electrostatic) potential at core
  the test charge radii are     1.1394  0.9406
  (the norm of the test charge is              1.0000)
       1 -53.2130       2 -53.2130       3 -98.9460       4 -98.9460       5 -98.9460
       6 -98.9460       7 -98.9460       8 -98.9460



 E-fermi :  -4.8718     XC(G=0):  -3.3307     alpha+bet : -2.6712

 val. band max:       -5.1295717873   @ k =   0.0909   0.0909   0.0000
 cond. band min:      -2.5383833793   @ k =   0.3636   0.2727   0.0000
 fundamental gap:      2.5911884079
 Fermi energy:        -4.8718185055

 spin component 1

 k-point     1 :       0.0000    0.0000    0.0000
  band No.  band energies     occupation 
      1     -19.2240      1.00000
      2     -18.4470      1.00000
      3     -18.2756      1.00000
      4     -18.2756      1.00000
      5     -18.1814      1.00000
      6     -18.1814      1.00000
      7      -9.0988      1.00000
      8      -9.0491      1.00000
      9      -8.6151      1.00000
     10      -8.6151      1.00000
     11      -8.5993      1.00000
     12      -8.5993      1.00000
     13      -7.6332      1.00000
     14      -7.6332      1.00000
     15      -7.6124      1.00000
     16      -7.4115      1.00000
     17      -7.1140      1.00000
     18      -7.0883      1.00000
     19      -7.0883      1.00000
     20      -6.6207      1.00000
     21      -6.6207      1.00000
     22      -6.1974      1.00000
     23      -6.1400      1.00000
     24      -6.1400      1.00000
     25      -5.9194      1.00000
     26      -5.7904      1.00000
     27      -5.3741      1.00000
     28      -5.3741      1.00000
     29      -5.1345      1.00000
     30      -5.1345      1.00000
     31      -2.5020      0.00000
     32      -2.5020      0.00000
     33      -2.2928      0.00000
     34      -2.2928      0.00000
     35       1.5565      0.00000
     36       2.3075      0.00000

 k-point     2 :       0.0909    0.0000    0.0000
  band No.  band energies     occupation 
      1     -19.2073      1.00000
      2     -18.4401      1.00000
      3     -18.2955      1.00000
      4     -18.2815      1.00000
      5     -18.1840      1.00000
      6     -18.1827      1.00000
      7      -9.1089      1.00000
      8      -9.0356      1.00000
      9      -8.6727      1.00000
     10      -8.6711      1.00000
     11      -8.5261      1.00000
     12      -8.5201      1.00000
     13      -7.6554      1.00000
     14      -7.6359      1.00000
     15      -7.6220      1.00000
     16      -7.3747      1.00000
     17      -7.1410      1.00000
     18      -7.0826      1.00000
     19      -7.0495      1.00000
     20      -6.6919      1.00000
     21      -6.6155      1.00000
     22      -6.1690      1.00000
     23      -6.1602      1.00000
     24      -6.1166      1.00000
     25      -5.9174      1.00000
     26      -5.7565      1.00000
     27      -5.3806      1.00000
     28      -5.3767      1.00000
     29      -5.1780      1.00000
     30      -5.1320      1.00000
     31      -2.5030      0.00000
     32      -2.4983      0.00000
     33      -2.3253      0.00000
     34      -2.2965      0.00000
     35       1.6374      0.00000
     36       2.3554      0.00000

 k-point     3 :       0.1818    0.0000    0.0000
  band No.  band energies     occupation 
      1     -19.1585      1.00000
      2     -18.4200      1.00000
      3     -18.3519      1.00000
      4     -18.2961      1.00000
      5     -18.1919      1.00000
      6     -18.1890      1.00000
      7      -9.1391      1.00000
      8      -8.9965      1.00000
      9      -8.7208      1.00000
     10      -8.6857      1.00000
     11      -8.4316      1.00000
     12      -8.4289      1.00000
     13      -7.7146      1.00000
     14      -7.6871      1.00000
     15      -7.5949      1.00000
     16      -7.3218      1.00000
     17      -7.1930      1.00000
     18      -7.0552      1.00000
     19      -6.9630      1.00000
     20      -6.8261      1.00000
     21      -6.6025      1.00000
     22      -6.2230      1.00000
     23      -6.1688      1.00000
     24      -6.0385      1.00000
     25      -5.9070      1.00000
     26      -5.6554      1.00000
     27      -5.4016      1.00000
     28      -5.3867      1.00000
     29      -5.2745      1.00000
     30      -5.1323      1.00000
     31      -2.5047      0.00000
     32      -2.4871      0.00000
     33      -2.3973      0.00000
     34      -2.3112      0.00000
     35       1.8604      0.00000
     36       2.4872      0.00000

 k-point     4 :       0.2727    0.0000    0.0000
  band No.  band energies     occupation 
      1     -19.0821      1.00000
      2     -18.4376      1.00000
      3     -18.3893      1.00000
      4     -18.3130      1.00000
      5     -18.2038      1.00000
      6     -18.2031      1.00000
      7      -9.1899      1.00000
      8      -8.9310      1.00000
      9      -8.7520      1.00000
     10      -8.6201      1.00000
     11      -8.3653      1.00000
     12      -8.3268      1.00000
     13      -7.7930      1.00000
     14      -7.7401      1.00000
     15      -7.5686      1.00000
     16      -7.4001      1.00000
     17      -7.1691      1.00000
     18      -7.0244      1.00000
     19      -7.0123      1.00000
     20      -6.7884      1.00000
     21      -6.5759      1.00000
     22      -6.3167      1.00000
     23      -6.2035      1.00000
     24      -5.9593      1.00000
     25      -5.8783      1.00000
     26      -5.5146      1.00000
     27      -5.4372      1.00000
     28      -5.4189      1.00000
     29      -5.3613      1.00000
     30      -5.1405      1.00000
     31      -2.5036      0.00000
     32      -2.4661      0.00000
     33      -2.4633      0.00000
     34      -2.3415      0.00000
     35       2.1841      0.00000
     36       2.6842      0.00000

 k-point     5 :       0.3636    0.0000    0.0000
  band No.  band energies     occupation 
      1     -18.9873      1.00000
      2     -18.5406      1.00000
      3     -18.3527      1.00000
      4     -18.3261      1.00000
      5     -18.2284      1.00000
      6     -18.2136      1.00000
      7      -9.2430      1.00000
      8      -8.8476      1.00000
      9      -8.7684      1.00000
     10      -8.4835      1.00000
     11      -8.3471      1.00000
     12      -8.2215      1.00000
     13      -7.8746      1.00000
     14      -7.7781      1.00000
     15      -7.6304      1.00000
     16      -7.4841      1.00000
     17      -7.1556      1.00000
     18      -7.1195      1.00000
     19      -7.0062      1.00000
     20      -6.6430      1.00000
     21      -6.5423      1.00000
     22      -6.3831      1.00000
     23      -6.2655      1.00000
     24      -5.8918      1.00000
     25      -5.8319      1.00000
     26      -5.4987      1.00000
     27      -5.4715      1.00000
     28      -5.4196      1.00000
     29      -5.3645      1.00000
     30      -5.1528      1.00000
     31      -2.5052      0.00000
     32      -2.4950      0.00000
     33      -2.4329      0.00000
     34      -2.3841      0.00000
     35       2.5755      0.00000
     36       2.9330      0.00000

 k-point     6 :       0.4545    0.0000    0.0000
  band No.  band energies     occupation 
      1     -18.8998      1.00000
      2     -18.6329      1.00000
      3     -18.3386      1.00000
      4     -18.3100      1.00000
      5     -18.2593      1.00000
      6     -18.2199      1.00000
      7      -9.2753      1.00000
      8      -8.7815      1.00000
      9      -8.7744      1.00000
     10      -8.3844      1.00000
     11      -8.3035      1.00000
     12      -8.1387      1.00000
     13      -7.9405      1.00000
     14      -7.7962      1.00000
     15      -7.7950      1.00000
     16      -7.4845      1.00000
     17      -7.2374      1.00000
     18      -7.0812      1.00000
     19      -7.0243      1.00000
     20      -6.5487      1.00000
     21      -6.5022      1.00000
     22      -6.3787      1.00000
     23      -6.3504      1.00000
     24      -5.8442      1.00000
     25      -5.7911      1.00000
     26      -5.5704      1.00000
     27      -5.4851      1.00000
     28      -5.4589      1.00000
     29      -5.2552      1.00000
     30      -5.1814      1.00000
     31      -2.5244      0.00000
     32      -2.4765      0.00000
     33      -2.4260      0.00000
     34      -2.4047      0.00000
     35       2.9651      0.00000
     36       3.0234      0.00000

 k-point     7 :       0.0909    0.0909    0.0000
  band No.  band energies     occupation 
      1     -19.1745      1.00000
      2     -18.4266      1.00000
      3     -18.3318      1.00000
      4     -18.2938      1.00000
      5     -18.1886      1.00000
      6     -18.1869      1.00000
      7      -9.1230      1.00000
      8      -9.0129      1.00000
      9      -8.7556      1.00000
     10      -8.6260      1.00000
     11      -8.5062      1.00000
     12      -8.4234      1.00000
     13      -7.6996      1.00000
     14      -7.6738      1.00000
     15      -7.5976      1.00000
     16      -7.3233      1.00000
     17      -7.1868      1.00000
     18      -7.0687      1.00000
     19      -6.9824      1.00000
     20      -6.7979      1.00000
     21      -6.6007      1.00000
     22      -6.2274      1.00000
     23      -6.1036      1.00000
     24      -6.0987      1.00000
     25      -5.9113      1.00000
     26      -5.6882      1.00000
     27      -5.3921      1.00000
     28      -5.3844      1.00000
     29      -5.2491      1.00000
     30      -5.1296      1.00000
     31      -2.5057      0.00000
     32      -2.4899      0.00000
     33      -2.3793      0.00000
     34      -2.3028      0.00000
     35       1.7887      0.00000
     36       2.4447      0.00000

 k-point     8 :       0.1818    0.0909    0.0000
  band No.  band energies     occupation 
      1     -19.1117      1.00000
      2     -18.4013      1.00000
      3     -18.3999      1.00000
      4     -18.3135      1.00000
      5     -18.1978      1.00000
      6     -18.1970      1.00000
      7      -9.1456      1.00000
      8      -8.9759      1.00000
      9      -8.7954      1.00000
     10      -8.5814      1.00000
     11      -8.4407      1.00000
     12      -8.3334      1.00000
     13      -7.7748      1.00000
     14      -7.7230      1.00000
     15      -7.5607      1.00000
     16      -7.3234      1.00000
     17      -7.2233      1.00000
     18      -7.0499      1.00000
     19      -6.9347      1.00000
     20      -6.8620      1.00000
     21      -6.5692      1.00000
     22      -6.3174      1.00000
     23      -6.1240      1.00000
     24      -6.0234      1.00000
     25      -5.8911      1.00000
     26      -5.5660      1.00000
     27      -5.4333      1.00000
     28      -5.3883      1.00000
     29      -5.3393      1.00000
     30      -5.1335      1.00000
     31      -2.5097      0.00000
     32      -2.4728      0.00000
     33      -2.4472      0.00000
     34      -2.3192      0.00000
     35       2.0584      0.00000
     36       2.6069      0.00000

 k-point     9 :       0.2727    0.0909    0.0000
  band No.  band energies     occupation 
      1     -19.0252      1.00000
      2     -18.4929      1.00000
      3     -18.3677      1.00000
      4     -18.3317      1.00000
      5     -18.2157      1.00000
      6     -18.2087      1.00000
      7      -9.1878      1.00000
      8      -8.9139      1.00000
      9      -8.7870      1.00000
     10      -8.5103      1.00000
     11      -8.3744      1.00000
     12      -8.2583      1.00000
     13      -7.8592      1.00000
     14      -7.7629      1.00000
     15      -7.5486      1.00000
     16      -7.4363      1.00000
     17      -7.2017      1.00000
     18      -7.1219      1.00000
     19      -6.9517      1.00000
     20      -6.7466      1.00000
     21      -6.5171      1.00000
     22      -6.4089      1.00000
     23      -6.1742      1.00000
     24      -5.9518      1.00000
     25      -5.8513      1.00000
     26      -5.5033      1.00000
     27      -5.4302      1.00000
     28      -5.4157      1.00000
     29      -5.3892      1.00000
     30      -5.1439      1.00000
     31      -2.5099      0.00000
     32      -2.4920      0.00000
     33      -2.4488      0.00000
     34      -2.3471      0.00000
     35       2.4082      0.00000
     36       2.8267      0.00000

 k-point    10 :       0.3636    0.0909    0.0000
  band No.  band energies     occupation 
      1     -18.9289      1.00000
      2     -18.5944      1.00000
      3     -18.3495      1.00000
      4     -18.3246      1.00000
      5     -18.2432      1.00000
      6     -18.2172      1.00000
      7      -9.2289      1.00000
      8      -8.8369      1.00000
      9      -8.7735      1.00000
     10      -8.4012      1.00000
     11      -8.3562      1.00000
     12      -8.1779      1.00000
     13      -7.9349      1.00000
     14      -7.7840      1.00000
     15      -7.6836      1.00000
     16      -7.4580      1.00000
     17      -7.2530      1.00000
     18      -7.1199      1.00000
     19      -6.9728      1.00000
     20      -6.6446      1.00000
     21      -6.5137      1.00000
     22      -6.3945      1.00000
     23      -6.2404      1.00000
     24      -5.8908      1.00000
     25      -5.8052      1.00000
     26      -5.5755      1.00000
     27      -5.4705      1.00000
     28      -5.4215      1.00000
     29      -5.2948      1.00000
     30      -5.1608      1.00000
     31      -2.5216      0.00000
     32      -2.4898      0.00000
     33      -2.4374      0.00000
     34      -2.3675      0.00000
     35       2.8146      0.00000
     36       3.0276      0.00000

 k-point    11 :       0.4545    0.0909    0.0000
  band No.  band energies     occupation 
      1     -18.8720      1.00000
      2     -18.6533      1.00000
      3     -18.3529      1.00000
      4     -18.2977      1.00000
      5     -18.2674      1.00000
      6     -18.2204      1.00000
      7      -9.2449      1.00000
      8      -8.7963      1.00000
      9      -8.7715      1.00000
     10      -8.3840      1.00000
     11      -8.3051      1.00000
     12      -8.1321      1.00000
     13      -7.9724      1.00000
     14      -7.7893      1.00000
     15      -7.7872      1.00000
     16      -7.4509      1.00000
     17      -7.2877      1.00000
     18      -7.1004      1.00000
     19      -6.9882      1.00000
     20      -6.6153      1.00000
     21      -6.5162      1.00000
     22      -6.3195      1.00000
     23      -6.3148      1.00000
     24      -5.8605      1.00000
     25      -5.7848      1.00000
     26      -5.6176      1.00000
     27      -5.4777      1.00000
     28      -5.4416      1.00000
     29      -5.2220      1.00000
     30      -5.1919      1.00000
     31      -2.5289      0.00000
     32      -2.4679      0.00000
     33      -2.4564      0.00000
     34      -2.3659      0.00000
     35       2.9625      0.00000
     36       3.2191      0.00000

 k-point    12 :       0.1818    0.1818    0.0000
  band No.  band energies     occupation 
      1     -19.0384      1.00000
      2     -18.4706      1.00000
      3     -18.3733      1.00000
      4     -18.3405      1.00000
      5     -18.2099      1.00000
      6     -18.2068      1.00000
      7      -9.1197      1.00000
      8      -8.9900      1.00000
      9      -8.8056      1.00000
     10      -8.4649      1.00000
     11      -8.4334      1.00000
     12      -8.2640      1.00000
     13      -7.8624      1.00000
     14      -7.7558      1.00000
     15      -7.5083      1.00000
     16      -7.3469      1.00000
     17      -7.3006      1.00000
     18      -7.1267      1.00000
     19      -6.8913      1.00000
     20      -6.8188      1.00000
     21      -6.4921      1.00000
     22      -6.4348      1.00000
     23      -6.0673      1.00000
     24      -6.0434      1.00000
     25      -5.8586      1.00000
     26      -5.5103      1.00000
     27      -5.4340      1.00000
     28      -5.4098      1.00000
     29      -5.3765      1.00000
     30      -5.1386      1.00000
     31      -2.5192      0.00000
     32      -2.4889      0.00000
     33      -2.4523      0.00000
     34      -2.3256      0.00000
     35       2.3473      0.00000
     36       2.7887      0.00000

 k-point    13 :       0.2727    0.1818    0.0000
  band No.  band energies     occupation 
      1     -18.9465      1.00000
      2     -18.5605      1.00000
      3     -18.3689      1.00000
      4     -18.3342      1.00000
      5     -18.2293      1.00000
      6     -18.2170      1.00000
      7      -9.1205      1.00000
      8      -8.9565      1.00000
      9      -8.7754      1.00000
     10      -8.4145      1.00000
     11      -8.3871      1.00000
     12      -8.2089      1.00000
     13      -7.9462      1.00000
     14      -7.7701      1.00000
     15      -7.5340      1.00000
     16      -7.4345      1.00000
     17      -7.3101      1.00000
     18      -7.1743      1.00000
     19      -6.8864      1.00000
     20      -6.7525      1.00000
     21      -6.5351      1.00000
     22      -6.3839      1.00000
     23      -6.1126      1.00000
     24      -5.9861      1.00000
     25      -5.8157      1.00000
     26      -5.5903      1.00000
     27      -5.4548      1.00000
     28      -5.3835      1.00000
     29      -5.3178      1.00000
     30      -5.1473      1.00000
     31      -2.5255      0.00000
     32      -2.5006      0.00000
     33      -2.4412      0.00000
     34      -2.3277      0.00000
     35       2.6961      0.00000
     36       3.0101      0.00000

 k-point    14 :       0.3636    0.1818    0.0000
  band No.  band energies     occupation 
      1     -18.8580      1.00000
      2     -18.6486      1.00000
      3     -18.3816      1.00000
      4     -18.2996      1.00000
      5     -18.2557      1.00000
      6     -18.2231      1.00000
      7      -9.1445      1.00000
      8      -8.8692      1.00000
      9      -8.7745      1.00000
     10      -8.3857      1.00000
     11      -8.3750      1.00000
     12      -8.1485      1.00000
     13      -8.0038      1.00000
     14      -7.7686      1.00000
     15      -7.6782      1.00000
     16      -7.3961      1.00000
     17      -7.3365      1.00000
     18      -7.1693      1.00000
     19      -6.9161      1.00000
     20      -6.7055      1.00000
     21      -6.5864      1.00000
     22      -6.2753      1.00000
     23      -6.1811      1.00000
     24      -5.9337      1.00000
     25      -5.7909      1.00000
     26      -5.6591      1.00000
     27      -5.4623      1.00000
     28      -5.4086      1.00000
     29      -5.2281      1.00000
     30      -5.1657      1.00000
     31      -2.5326      0.00000
     32      -2.4827      0.00000
     33      -2.4546      0.00000
     34      -2.3192      0.00000
     35       3.0133      0.00000
     36       3.0677      0.00000

 k-point    15 :       0.2727    0.2727    0.0000
  band No.  band energies     occupation 
      1     -18.8552      1.00000
      2     -18.6402      1.00000
      3     -18.3970      1.00000
      4     -18.3024      1.00000
      5     -18.2444      1.00000
      6     -18.2285      1.00000
      7      -9.0024      1.00000
      8      -9.0012      1.00000
      9      -8.7759      1.00000
     10      -8.4115      1.00000
     11      -8.3834      1.00000
     12      -8.1573      1.00000
     13      -8.0169      1.00000
     14      -7.7580      1.00000
     15      -7.6044      1.00000
     16      -7.4010      1.00000
     17      -7.3222      1.00000
     18      -7.2244      1.00000
     19      -6.8722      1.00000
     20      -6.7507      1.00000
     21      -6.6192      1.00000
     22      -6.2582      1.00000
     23      -6.0749      1.00000
     24      -6.0229      1.00000
     25      -5.7956      1.00000
     26      -5.6717      1.00000
     27      -5.4554      1.00000
     28      -5.3940      1.00000
     29      -5.2327      1.00000
     30      -5.1527      1.00000
     31      -2.5347      0.00000
     32      -2.4907      0.00000
     33      -2.4500      0.00000
     34      -2.2979      0.00000
     35       2.9950      0.00000
     36       3.0793      0.00000

 k-point    16 :       0.3636    0.2727    0.0000
  band No.  band energies     occupation 
      1     -18.7876      1.00000
      2     -18.7031      1.00000
      3     -18.4079      1.00000
      4     -18.2776      1.00000
      5     -18.2619      1.00000
      6     -18.2337      1.00000
      7      -9.0184      1.00000
      8      -8.8984      1.00000
      9      -8.8277      1.00000
     10      -8.4087      1.00000
     11      -8.3997      1.00000
     12      -8.1150      1.00000
     13      -8.0574      1.00000
     14      -7.7481      1.00000
     15      -7.6556      1.00000
     16      -7.3450      1.00000
     17      -7.3356      1.00000
     18      -7.2506      1.00000
     19      -6.8895      1.00000
     20      -6.7246      1.00000
     21      -6.6618      1.00000
     22      -6.1712      1.00000
     23      -6.1174      1.00000
     24      -6.0111      1.00000
     25      -5.8050      1.00000
     26      -5.6955      1.00000
     27      -5.4403      1.00000
     28      -5.4135      1.00000
     29      -5.1873      1.00000
     30      -5.1664      1.00000
     31      -2.5384      0.00000
     32      -2.4749      0.00000
     33      -2.4643      0.00000
     34      -2.2834      0.00000
     35       3.0387      0.00000
     36       3.1006      0.00000
 Fermi energy:        -4.8718185055

 spin component 2

 k-point     1 :       0.0000    0.0000    0.0000
  band No.  band energies     occupation 
      1     -19.2608      1.00000
      2     -18.5286      1.00000
      3     -18.3495      1.00000
      4     -18.3495      1.00000
      5     -18.2449      1.00000
      6     -18.2449      1.00000
      7      -8.7221      1.00000
      8      -8.2735      1.00000
      9      -7.8703      1.00000
     10      -7.8703      1.00000
     11      -7.6774      1.00000
     12      -7.6774      1.00000
     13      -7.6094      1.00000
     14      -6.9735      1.00000
     15      -6.9735      1.00000
     16      -6.7575      1.00000
     17      -6.4847      1.00000
     18      -6.4847      1.00000
     19      -6.2199      1.00000
     20      -5.8249      1.00000
     21      -5.4991      1.00000
     22      -5.4991      1.00000
     23      -5.3217      1.00000
     24      -5.3217      1.00000
     25      -0.7497      0.00000
     26      -0.7497      0.00000
     27      -0.5462      0.00000
     28      -0.5462      0.00000
     29      -0.5375      0.00000
     30      -0.4919      0.00000
     31      -0.2418      0.00000
     32      -0.2418      0.00000
     33      -0.1919      0.00000
     34      -0.1919      0.00000
     35       1.7055      0.00000
     36       2.3173      0.00000

 k-point     2 :       0.0909    0.0000    0.0000
  band No.  band energies     occupation 
      1     -19.2446      1.00000
      2     -18.5212      1.00000
      3     -18.3688      1.00000
      4     -18.3559      1.00000
      5     -18.2471      1.00000
      6     -18.2463      1.00000
      7      -8.7284      1.00000
      8      -8.2697      1.00000
      9      -7.8795      1.00000
     10      -7.8136      1.00000
     11      -7.7870      1.00000
     12      -7.6960      1.00000
     13      -7.4711      1.00000
     14      -7.0084      1.00000
     15      -6.9801      1.00000
     16      -6.6875      1.00000
     17      -6.4916      1.00000
     18      -6.4651      1.00000
     19      -6.2039      1.00000
     20      -5.8172      1.00000
     21      -5.5186      1.00000
     22      -5.5007      1.00000
     23      -5.4101      1.00000
     24      -5.3384      1.00000
     25      -0.7629      0.00000
     26      -0.7446      0.00000
     27      -0.5600      0.00000
     28      -0.5551      0.00000
     29      -0.5508      0.00000
     30      -0.4540      0.00000
     31      -0.2658      0.00000
     32      -0.2512      0.00000
     33      -0.1918      0.00000
     34      -0.1790      0.00000
     35       1.7787      0.00000
     36       2.3668      0.00000

 k-point     3 :       0.1818    0.0000    0.0000
  band No.  band energies     occupation 
      1     -19.1975      1.00000
      2     -18.4999      1.00000
      3     -18.4236      1.00000
      4     -18.3718      1.00000
      5     -18.2537      1.00000
      6     -18.2528      1.00000
      7      -8.7347      1.00000
      8      -8.2614      1.00000
      9      -7.9161      1.00000
     10      -7.8689      1.00000
     11      -7.7190      1.00000
     12      -7.6675      1.00000
     13      -7.2909      1.00000
     14      -7.1012      1.00000
     15      -6.9997      1.00000
     16      -6.5584      1.00000
     17      -6.4675      1.00000
     18      -6.4191      1.00000
     19      -6.1644      1.00000
     20      -5.8068      1.00000
     21      -5.6968      1.00000
     22      -5.5204      1.00000
     23      -5.5046      1.00000
     24      -5.3728      1.00000
     25      -0.7925      0.00000
     26      -0.7259      0.00000
     27      -0.6265      0.00000
     28      -0.5786      0.00000
     29      -0.5658      0.00000
     30      -0.3626      0.00000
     31      -0.3221      0.00000
     32      -0.2773      0.00000
     33      -0.1923      0.00000
     34      -0.1426      0.00000
     35       1.9839      0.00000
     36       2.5043      0.00000

 k-point     4 :       0.2727    0.0000    0.0000
  band No.  band energies     occupation 
      1     -19.1236      1.00000
      2     -18.5064      1.00000
      3     -18.4671      1.00000
      4     -18.3904      1.00000
      5     -18.2685      1.00000
      6     -18.2635      1.00000
      7      -8.7297      1.00000
      8      -8.2466      1.00000
      9      -7.9855      1.00000
     10      -7.8681      1.00000
     11      -7.6856      1.00000
     12      -7.5016      1.00000
     13      -7.2576      1.00000
     14      -7.0829      1.00000
     15      -7.0254      1.00000
     16      -6.5772      1.00000
     17      -6.3763      1.00000
     18      -6.2703      1.00000
     19      -6.1093      1.00000
     20      -6.0368      1.00000
     21      -5.8473      1.00000
     22      -5.5655      1.00000
     23      -5.4882      1.00000
     24      -5.3931      1.00000
     25      -0.8361      0.00000
     26      -0.7137      0.00000
     27      -0.6912      0.00000
     28      -0.6055      0.00000
     29      -0.5835      0.00000
     30      -0.3846      0.00000
     31      -0.3216      0.00000
     32      -0.2515      0.00000
     33      -0.1938      0.00000
     34      -0.0983      0.00000
     35       2.2879      0.00000
     36       2.7121      0.00000

 k-point     5 :       0.3636    0.0000    0.0000
  band No.  band energies     occupation 
      1     -19.0318      1.00000
      2     -18.6059      1.00000
      3     -18.4274      1.00000
      4     -18.4057      1.00000
      5     -18.2944      1.00000
      6     -18.2729      1.00000
      7      -8.7224      1.00000
      8      -8.2149      1.00000
      9      -8.0368      1.00000
     10      -7.8195      1.00000
     11      -7.5991      1.00000
     12      -7.4107      1.00000
     13      -7.3679      1.00000
     14      -7.0322      1.00000
     15      -6.9076      1.00000
     16      -6.6374      1.00000
     17      -6.3891      1.00000
     18      -6.3580      1.00000
     19      -6.0603      1.00000
     20      -6.0570      1.00000
     21      -5.9383      1.00000
     22      -5.6076      1.00000
     23      -5.4738      1.00000
     24      -5.3679      1.00000
     25      -0.9075      0.00000
     26      -0.7702      0.00000
     27      -0.6634      0.00000
     28      -0.6103      0.00000
     29      -0.5960      0.00000
     30      -0.4364      0.00000
     31      -0.3601      0.00000
     32      -0.1955      0.00000
     33      -0.1627      0.00000
     34      -0.0652      0.00000
     35       2.6605      0.00000
     36       2.9760      0.00000

 k-point     6 :       0.4545    0.0000    0.0000
  band No.  band energies     occupation 
      1     -18.9463      1.00000
      2     -18.6959      1.00000
      3     -18.4157      1.00000
      4     -18.3866      1.00000
      5     -18.3260      1.00000
      6     -18.2786      1.00000
      7      -8.7202      1.00000
      8      -8.1808      1.00000
      9      -8.0632      1.00000
     10      -7.7327      1.00000
     11      -7.5578      1.00000
     12      -7.5107      1.00000
     13      -7.2997      1.00000
     14      -6.9751      1.00000
     15      -6.8001      1.00000
     16      -6.7774      1.00000
     17      -6.5576      1.00000
     18      -6.3585      1.00000
     19      -6.1045      1.00000
     20      -5.9454      1.00000
     21      -5.9232      1.00000
     22      -5.6431      1.00000
     23      -5.4862      1.00000
     24      -5.3249      1.00000
     25      -0.9675      0.00000
     26      -0.7911      0.00000
     27      -0.6641      0.00000
     28      -0.6005      0.00000
     29      -0.5884      0.00000
     30      -0.4661      0.00000
     31      -0.3862      0.00000
     32      -0.1957      0.00000
     33      -0.1067      0.00000
     34      -0.0535      0.00000
     35       3.0868      0.00000
     36       3.2758      0.00000

 k-point     7 :       0.0909    0.0909    0.0000
  band No.  band energies     occupation 
      1     -19.2130      1.00000
      2     -18.5069      1.00000
      3     -18.4040      1.00000
      4     -18.3691      1.00000
      5     -18.2508      1.00000
      6     -18.2507      1.00000
      7      -8.7328      1.00000
      8      -8.2647      1.00000
      9      -7.8944      1.00000
     10      -7.8668      1.00000
     11      -7.7157      1.00000
     12      -7.7103      1.00000
     13      -7.3370      1.00000
     14      -7.0763      1.00000
     15      -6.9892      1.00000
     16      -6.5829      1.00000
     17      -6.4936      1.00000
     18      -6.4282      1.00000
     19      -6.1779      1.00000
     20      -5.8169      1.00000
     21      -5.5905      1.00000
     22      -5.5451      1.00000
     23      -5.4786      1.00000
     24      -5.3701      1.00000
     25      -0.7781      0.00000
     26      -0.7412      0.00000
     27      -0.6024      0.00000
     28      -0.5748      0.00000
     29      -0.5557      0.00000
     30      -0.3932      0.00000
     31      -0.3031      0.00000
     32      -0.2706      0.00000
     33      -0.1884      0.00000
     34      -0.1561      0.00000
     35       1.9175      0.00000
     36       2.4598      0.00000

 k-point     8 :       0.1818    0.0909    0.0000
  band No.  band energies     occupation 
      1     -19.1523      1.00000
      2     -18.4798      1.00000
      3     -18.4697      1.00000
      4     -18.3902      1.00000
      5     -18.2616      1.00000
      6     -18.2587      1.00000
      7      -8.7246      1.00000
      8      -8.2587      1.00000
      9      -7.9464      1.00000
     10      -7.8980      1.00000
     11      -7.7085      1.00000
     12      -7.5567      1.00000
     13      -7.2071      1.00000
     14      -7.1559      1.00000
     15      -6.9975      1.00000
     16      -6.5738      1.00000
     17      -6.3759      1.00000
     18      -6.3495      1.00000
     19      -6.1411      1.00000
     20      -5.9707      1.00000
     21      -5.7182      1.00000
     22      -5.5751      1.00000
     23      -5.4930      1.00000
     24      -5.4070      1.00000
     25      -0.8061      0.00000
     26      -0.7292      0.00000
     27      -0.6788      0.00000
     28      -0.6007      0.00000
     29      -0.5688      0.00000
     30      -0.3552      0.00000
     31      -0.3223      0.00000
     32      -0.2866      0.00000
     33      -0.1800      0.00000
     34      -0.1169      0.00000
     35       2.1696      0.00000
     36       2.6308      0.00000

 k-point     9 :       0.2727    0.0909    0.0000
  band No.  band energies     occupation 
      1     -19.0686      1.00000
      2     -18.5593      1.00000
      3     -18.4436      1.00000
      4     -18.4103      1.00000
      5     -18.2812      1.00000
      6     -18.2687      1.00000
      7      -8.7044      1.00000
      8      -8.2425      1.00000
      9      -8.0028      1.00000
     10      -7.8734      1.00000
     11      -7.6442      1.00000
     12      -7.4165      1.00000
     13      -7.3543      1.00000
     14      -7.0577      1.00000
     15      -6.9224      1.00000
     16      -6.6259      1.00000
     17      -6.3442      1.00000
     18      -6.3168      1.00000
     19      -6.1419      1.00000
     20      -6.0602      1.00000
     21      -5.8258      1.00000
     22      -5.5916      1.00000
     23      -5.4806      1.00000
     24      -5.4117      1.00000
     25      -0.8596      0.00000
     26      -0.7665      0.00000
     27      -0.6858      0.00000
     28      -0.6223      0.00000
     29      -0.5837      0.00000
     30      -0.4084      0.00000
     31      -0.3523      0.00000
     32      -0.2178      0.00000
     33      -0.1589      0.00000
     34      -0.0774      0.00000
     35       2.5021      0.00000
     36       2.8647      0.00000

 k-point    10 :       0.3636    0.0909    0.0000
  band No.  band energies     occupation 
      1     -18.9751      1.00000
      2     -18.6575      1.00000
      3     -18.4257      1.00000
      4     -18.4017      1.00000
      5     -18.3099      1.00000
      6     -18.2766      1.00000
      7      -8.6892      1.00000
      8      -8.2088      1.00000
      9      -8.0385      1.00000
     10      -7.8044      1.00000
     11      -7.5414      1.00000
     12      -7.5154      1.00000
     13      -7.3318      1.00000
     14      -7.0299      1.00000
     15      -6.7926      1.00000
     16      -6.7185      1.00000
     17      -6.5495      1.00000
     18      -6.3322      1.00000
     19      -6.0419      1.00000
     20      -5.9915      1.00000
     21      -5.9069      1.00000
     22      -5.6274      1.00000
     23      -5.4800      1.00000
     24      -5.3672      1.00000
     25      -0.9321      0.00000
     26      -0.8023      0.00000
     27      -0.6593      0.00000
     28      -0.6258      0.00000
     29      -0.5901      0.00000
     30      -0.4555      0.00000
     31      -0.3802      0.00000
     32      -0.1910      0.00000
     33      -0.1104      0.00000
     34      -0.0539      0.00000
     35       2.8925      0.00000
     36       3.1464      0.00000

 k-point    11 :       0.4545    0.0909    0.0000
  band No.  band energies     occupation 
      1     -18.9192      1.00000
      2     -18.7153      1.00000
      3     -18.4304      1.00000
      4     -18.3742      1.00000
      5     -18.3335      1.00000
      6     -18.2796      1.00000
      7      -8.6849      1.00000
      8      -8.1885      1.00000
      9      -8.0508      1.00000
     10      -7.7258      1.00000
     11      -7.6278      1.00000
     12      -7.4820      1.00000
     13      -7.2995      1.00000
     14      -6.9736      1.00000
     15      -6.9232      1.00000
     16      -6.6685      1.00000
     17      -6.5967      1.00000
     18      -6.3352      1.00000
     19      -6.0609      1.00000
     20      -5.9902      1.00000
     21      -5.8568      1.00000
     22      -5.6525      1.00000
     23      -5.4860      1.00000
     24      -5.3414      1.00000
     25      -0.9649      0.00000
     26      -0.8126      0.00000
     27      -0.6565      0.00000
     28      -0.6121      0.00000
     29      -0.5940      0.00000
     30      -0.4765      0.00000
     31      -0.3901      0.00000
     32      -0.1853      0.00000
     33      -0.0843      0.00000
     34      -0.0495      0.00000
     35       3.2986      0.00000
     36       3.3278      0.00000

 k-point    12 :       0.1818    0.1818    0.0000
  band No.  band energies     occupation 
      1     -19.0814      1.00000
      2     -18.5371      1.00000
      3     -18.4494      1.00000
      4     -18.4190      1.00000
      5     -18.2758      1.00000
      6     -18.2667      1.00000
      7      -8.6850      1.00000
      8      -8.2616      1.00000
      9      -7.9613      1.00000
     10      -7.9264      1.00000
     11      -7.6654      1.00000
     12      -7.4343      1.00000
     13      -7.3371      1.00000
     14      -7.0723      1.00000
     15      -6.9034      1.00000
     16      -6.6354      1.00000
     17      -6.3240      1.00000
     18      -6.3179      1.00000
     19      -6.1791      1.00000
     20      -6.0694      1.00000
     21      -5.6663      1.00000
     22      -5.6440      1.00000
     23      -5.4932      1.00000
     24      -5.4446      1.00000
     25      -0.8241      0.00000
     26      -0.7719      0.00000
     27      -0.7168      0.00000
     28      -0.6187      0.00000
     29      -0.5815      0.00000
     30      -0.3776      0.00000
     31      -0.3662      0.00000
     32      -0.2316      0.00000
     33      -0.1441      0.00000
     34      -0.0851      0.00000
     35       2.4452      0.00000
     36       2.8257      0.00000

 k-point    13 :       0.2727    0.1818    0.0000
  band No.  band energies     occupation 
      1     -18.9925      1.00000
      2     -18.6232      1.00000
      3     -18.4457      1.00000
      4     -18.4109      1.00000
      5     -18.2965      1.00000
      6     -18.2764      1.00000
      7      -8.6292      1.00000
      8      -8.2562      1.00000
      9      -7.9848      1.00000
     10      -7.8971      1.00000
     11      -7.5750      1.00000
     12      -7.5012      1.00000
     13      -7.3594      1.00000
     14      -7.0424      1.00000
     15      -6.7748      1.00000
     16      -6.7073      1.00000
     17      -6.5609      1.00000
     18      -6.2824      1.00000
     19      -6.1076      1.00000
     20      -5.9535      1.00000
     21      -5.7863      1.00000
     22      -5.6263      1.00000
     23      -5.4797      1.00000
     24      -5.4422      1.00000
     25      -0.8745      0.00000
     26      -0.8290      0.00000
     27      -0.6996      0.00000
     28      -0.6271      0.00000
     29      -0.5946      0.00000
     30      -0.4311      0.00000
     31      -0.3855      0.00000
     32      -0.1884      0.00000
     33      -0.0973      0.00000
     34      -0.0553      0.00000
     35       2.7829      0.00000
     36       3.0749      0.00000

 k-point    14 :       0.3636    0.1818    0.0000
  band No.  band energies     occupation 
      1     -18.9064      1.00000
      2     -18.7084      1.00000
      3     -18.4595      1.00000
      4     -18.3745      1.00000
      5     -18.3234      1.00000
      6     -18.2826      1.00000
      7      -8.5926      1.00000
      8      -8.2363      1.00000
      9      -8.0026      1.00000
     10      -7.8142      1.00000
     11      -7.6619      1.00000
     12      -7.4667      1.00000
     13      -7.3309      1.00000
     14      -7.0246      1.00000
     15      -6.9769      1.00000
     16      -6.6342      1.00000
     17      -6.5569      1.00000
     18      -6.2775      1.00000
     19      -6.0665      1.00000
     20      -5.9250      1.00000
     21      -5.8207      1.00000
     22      -5.6518      1.00000
     23      -5.4793      1.00000
     24      -5.4061      1.00000
     25      -0.9283      0.00000
     26      -0.8505      0.00000
     27      -0.6786      0.00000
     28      -0.6336      0.00000
     29      -0.5844      0.00000
     30      -0.4853      0.00000
     31      -0.3897      0.00000
     32      -0.1675      0.00000
     33      -0.0618      0.00000
     34      -0.0402      0.00000
     35       3.1466      0.00000
     36       3.3671      0.00000

 k-point    15 :       0.2727    0.2727    0.0000
  band No.  band energies     occupation 
      1     -18.9043      1.00000
      2     -18.6986      1.00000
      3     -18.4754      1.00000
      4     -18.3767      1.00000
      5     -18.3143      1.00000
      6     -18.2864      1.00000
      7      -8.5223      1.00000
      8      -8.2850      1.00000
      9      -7.9335      1.00000
     10      -7.9113      1.00000
     11      -7.6682      1.00000
     12      -7.4713      1.00000
     13      -7.3460      1.00000
     14      -7.0151      1.00000
     15      -7.0141      1.00000
     16      -6.6491      1.00000
     17      -6.5175      1.00000
     18      -6.2293      1.00000
     19      -6.1218      1.00000
     20      -5.8410      1.00000
     21      -5.8046      1.00000
     22      -5.6551      1.00000
     23      -5.4659      1.00000
     24      -5.4644      1.00000
     25      -0.8844      0.00000
     26      -0.8833      0.00000
     27      -0.7202      0.00000
     28      -0.6134      0.00000
     29      -0.5925      0.00000
     30      -0.4835      0.00000
     31      -0.3901      0.00000
     32      -0.1602      0.00000
     33      -0.0520      0.00000
     34      -0.0354      0.00000
     35       3.0845      0.00000
     36       3.3370      0.00000

 k-point    16 :       0.3636    0.2727    0.0000
  band No.  band energies     occupation 
      1     -18.8389      1.00000
      2     -18.7589      1.00000
      3     -18.4868      1.00000
      4     -18.3516      1.00000
      5     -18.3322      1.00000
      6     -18.2912      1.00000
      7      -8.4577      1.00000
      8      -8.3094      1.00000
      9      -7.9304      1.00000
     10      -7.8341      1.00000
     11      -7.8027      1.00000
     12      -7.3846      1.00000
     13      -7.3456      1.00000
     14      -7.1667      1.00000
     15      -7.0004      1.00000
     16      -6.6716      1.00000
     17      -6.4263      1.00000
     18      -6.2118      1.00000
     19      -6.1296      1.00000
     20      -5.8404      1.00000
     21      -5.7906      1.00000
     22      -5.6624      1.00000
     23      -5.4743      1.00000
     24      -5.4557      1.00000
     25      -0.9065      0.00000
     26      -0.8872      0.00000
     27      -0.7311      0.00000
     28      -0.6070      0.00000
     29      -0.5673      0.00000
     30      -0.5257      0.00000
     31      -0.3893      0.00000
     32      -0.1490      0.00000
     33      -0.0341      0.00000
     34      -0.0286      0.00000
     35       3.2837      0.00000
     36       3.3373      0.00000


--------------------------------------------------------------------------------------------------------


 soft charge-density along one line, spin component           1
         0         1         2         3         4         5         6         7         8         9
 total charge-density along one line

 soft charge-density along one line, spin component           2
         0         1         2         3         4         5         6         7         8         9
 total charge-density along one line

 pseudopotential strength for first ion, spin component:           1
-10.906   1.184  -0.000   0.000   0.000 -11.248   1.205  -0.000
  1.184 -10.073  -0.000   0.000  -0.000   1.205 -10.400  -0.000
 -0.000  -0.000 -11.742  -0.000   0.000  -0.000  -0.000 -12.099
  0.000   0.000  -0.000 -10.073  -1.184   0.000   0.000  -0.000
  0.000  -0.000   0.000  -1.184 -10.906   0.000  -0.000   0.000
-11.248   1.205  -0.000   0.000   0.000 -11.564   1.238  -0.000
  1.205 -10.400  -0.000   0.000  -0.000   1.238 -10.693  -0.000
 -0.000  -0.000 -12.099  -0.000   0.000  -0.000  -0.000 -12.438
  0.000   0.000  -0.000 -10.400  -1.205   0.000   0.000  -0.000
  0.000  -0.000   0.000  -1.205 -11.248   0.000  -0.000   0.000
 -0.000  -0.000   0.000  -0.000   0.000  -0.000  -0.000   0.000
 -0.000  -0.000   0.000  -0.000   0.000  -0.000  -0.000   0.000
 -0.000  -0.000  -0.000   0.000  -0.001  -0.000  -0.000  -0.000
  0.000   0.000   0.000  -0.000   0.000   0.000   0.000   0.000
 -0.001   0.000   0.000   0.000  -0.000  -0.001   0.000   0.000
 -0.000  -0.000  -0.000   0.000  -0.002  -0.000  -0.000  -0.000
  0.000   0.000   0.000  -0.000   0.000   0.000   0.000   0.000
 -0.002   0.000   0.000   0.000  -0.000  -0.002   0.000   0.000
 pseudopotential strength for first ion, spin component:           2
 -6.768  -0.522   0.000   0.000   0.000  -7.103  -0.520   0.000
 -0.522  -7.128  -0.000  -0.000  -0.000  -0.520  -7.462  -0.000
  0.000  -0.000  -6.384  -0.000  -0.000   0.000  -0.000  -6.720
  0.000  -0.000  -0.000  -7.128   0.522   0.000  -0.000  -0.000
  0.000  -0.000  -0.000   0.522  -6.768   0.000  -0.000  -0.000
 -7.103  -0.520   0.000   0.000   0.000  -7.384  -0.522   0.000
 -0.520  -7.462  -0.000  -0.000  -0.000  -0.522  -7.744  -0.000
  0.000  -0.000  -6.720  -0.000  -0.000   0.000  -0.000  -6.999
  0.000  -0.000  -0.000  -7.462   0.520   0.000  -0.000  -0.000
  0.000  -0.000  -0.000   0.520  -7.103   0.000  -0.000  -0.000
  0.000  -0.000  -0.001  -0.000  -0.000   0.000  -0.000  -0.001
  0.000  -0.000  -0.002  -0.000  -0.000   0.000  -0.000  -0.003
  0.000  -0.000   0.000   0.000  -0.000   0.000  -0.000   0.000
  0.000  -0.000   0.000   0.000   0.000   0.000  -0.000   0.000
 -0.000   0.000  -0.000   0.000   0.000  -0.001   0.000  -0.000
  0.000  -0.000   0.000   0.000  -0.000   0.000  -0.000   0.000
  0.000  -0.000   0.000   0.000   0.000   0.000  -0.000   0.000
 -0.000   0.000  -0.000   0.000   0.000  -0.000   0.000  -0.000
 total augmentation occupancy for first ion, spin component:           1
  3.833  -1.715   0.000   0.000   0.000  -2.716   0.578  -0.000  -0.000  -0.000  -0.000   0.000   0.000   0.000   0.081  -0.000
 -1.715   2.559  -0.000  -0.000   0.000   0.580  -2.225   0.000   0.000  -0.000  -0.000  -0.000   0.000   0.000  -0.027   0.000
  0.000  -0.000   4.916   0.000   0.000  -0.000   0.000  -2.983  -0.000  -0.000   0.066  -0.008   0.000   0.000   0.000  -0.000
  0.000  -0.000   0.000   2.559   1.715  -0.000   0.000  -0.000  -2.225  -0.580  -0.000   0.000   0.027  -0.000  -0.000  -0.000
  0.000   0.000   0.000   1.715   3.833  -0.000  -0.000  -0.000  -0.578  -2.716   0.000  -0.000   0.081   0.000  -0.000  -0.003
 -2.716   0.580  -0.000  -0.000  -0.000   2.542   0.272   0.000  -0.000  -0.000   0.000   0.000  -0.000  -0.000  -0.088   0.000
  0.578  -2.225   0.000   0.000  -0.000   0.272   2.632   0.000  -0.000  -0.000   0.000   0.000   0.000   0.000   0.023   0.000
 -0.000   0.000  -2.983  -0.000  -0.000   0.000   0.000   2.192  -0.000   0.000  -0.072   0.010  -0.000  -0.000  -0.000   0.000
 -0.000   0.000  -0.000  -2.225  -0.578  -0.000  -0.000  -0.000   2.632  -0.272   0.000   0.000  -0.023   0.000  -0.000   0.000
  0.000  -0.000  -0.000  -0.580  -2.716  -0.000  -0.000   0.000  -0.272   2.542  -0.000   0.000  -0.088   0.000   0.000   0.003
 -0.000   0.000   0.066  -0.000   0.000   0.000   0.000  -0.072   0.000  -0.000   1.713  -0.186  -0.000   0.000  -0.000   0.000
 -0.000   0.000  -0.008   0.000  -0.000   0.000  -0.000   0.010   0.000   0.000  -0.186   0.028   0.000   0.000   0.000  -0.000
  0.000  -0.000   0.000   0.027   0.081  -0.000  -0.000  -0.000  -0.023  -0.088   0.000   0.000   0.270   0.000  -0.000  -0.007
  0.000   0.000   0.000  -0.000  -0.000  -0.000   0.000  -0.000   0.000   0.000   0.000   0.000  -0.000   0.262   0.000  -0.000
  0.081  -0.027   0.000  -0.000  -0.000  -0.088   0.023  -0.000   0.000   0.000  -0.000   0.000  -0.000   0.000   0.270   0.000
 -0.000   0.000  -0.000  -0.000  -0.003   0.000   0.000   0.000   0.000   0.003   0.000  -0.000  -0.007   0.000   0.000   0.000
  0.000  -0.000   0.000   0.000   0.000  -0.000   0.000  -0.000   0.000   0.000   0.000   0.000   0.000  -0.006   0.000   0.000
 -0.003   0.000  -0.000   0.000   0.000   0.003  -0.000   0.000   0.000  -0.000   0.000  -0.000   0.000   0.000  -0.007  -0.000
 total augmentation occupancy for first ion, spin component:           2
  2.947  -2.359   0.000   0.000  -0.000  -1.502   1.462  -0.000  -0.000   0.000   0.000   0.000   0.000   0.000   0.023  -0.000
 -2.359   1.286  -0.000  -0.000   0.000   1.464  -0.469   0.000   0.000  -0.000  -0.000   0.000   0.000  -0.000  -0.023   0.000
  0.000  -0.000   4.539   0.000   0.000  -0.000   0.000  -2.466  -0.000  -0.000   0.008   0.001   0.000   0.000   0.000   0.000
  0.000  -0.000   0.000   1.286   2.359  -0.000   0.000  -0.000  -0.469  -1.464  -0.000   0.000   0.023  -0.000   0.000  -0.000
  0.000   0.000   0.000   2.359   2.947   0.000  -0.000  -0.000  -1.462  -1.502   0.000   0.000   0.023   0.000  -0.000   0.000
 -1.502   1.464  -0.000  -0.000   0.000   0.844  -0.985   0.000   0.000   0.000  -0.000   0.000  -0.000   0.000  -0.016  -0.000
  1.462  -0.469   0.000   0.000  -0.000  -0.985   0.147  -0.000  -0.000   0.000   0.000   0.000   0.000   0.000   0.014   0.000
 -0.000   0.000  -2.466  -0.000  -0.000   0.000  -0.000   1.479   0.000   0.000  -0.004  -0.001  -0.000  -0.000  -0.000  -0.000
 -0.000   0.000  -0.000  -0.469  -1.462   0.000  -0.000   0.000   0.147   0.985   0.000   0.000  -0.014   0.000   0.000   0.000
  0.000  -0.000  -0.000  -1.464  -1.502   0.000   0.000   0.000   0.985   0.844  -0.000   0.000  -0.016   0.000   0.000  -0.000
 -0.000  -0.000   0.008  -0.000   0.000  -0.000  -0.000  -0.004   0.000  -0.000  -0.048   0.053   0.000   0.000   0.000  -0.000
 -0.000   0.000   0.001   0.000  -0.000  -0.000  -0.000  -0.001   0.000   0.000   0.053  -0.009   0.000   0.000  -0.000   0.000
  0.000   0.000   0.000   0.023   0.023  -0.000   0.000  -0.000  -0.014  -0.016  -0.000   0.000   0.017  -0.000  -0.000   0.002
 -0.000   0.000   0.000  -0.000  -0.000  -0.000   0.000  -0.000   0.000   0.000   0.000   0.000   0.000   0.015   0.000   0.000
  0.023  -0.023   0.000   0.000  -0.000  -0.016   0.014  -0.000   0.000   0.000   0.000  -0.000  -0.000   0.000   0.017  -0.000
  0.000   0.000   0.000  -0.000   0.000  -0.000  -0.000  -0.000   0.000  -0.000   0.000   0.000   0.002   0.000  -0.000  -0.000
  0.000   0.000   0.000   0.000   0.000   0.000   0.000  -0.000   0.000   0.000   0.000   0.000   0.000   0.002   0.000   0.000
  0.000   0.000  -0.000   0.000  -0.000  -0.000  -0.000  -0.000  -0.000   0.000  -0.000   0.000  -0.000   0.000   0.002   0.000


------------------------ aborting loop because EDIFF is reached ----------------------------------------





 total charge

# of ion       s       p       d       tot
------------------------------------------
    1        0.345   0.504   4.056   4.905
    2        0.345   0.504   4.056   4.905
    3        1.604   3.520   0.000   5.124
    4        1.604   3.520   0.000   5.124
    5        1.604   3.520   0.000   5.124
    6        1.604   3.520   0.000   5.124
    7        1.604   3.520   0.000   5.124
    8        1.604   3.520   0.000   5.124
--------------------------------------------------
tot         10.314  22.126   8.112  40.552



 magnetization (x)

# of ion       s       p       d       tot
------------------------------------------
    1        0.032   0.040   3.094   3.165
    2        0.032   0.040   3.094   3.165
    3       -0.002  -0.073   0.000  -0.075
    4       -0.002  -0.073   0.000  -0.075
    5       -0.002  -0.073   0.000  -0.075
    6       -0.002  -0.073   0.000  -0.075
    7       -0.002  -0.073   0.000  -0.075
    8       -0.002  -0.073   0.000  -0.075
--------------------------------------------------
tot          0.054  -0.359   6.187   5.882

    CHARGE:  cpu time      0.2304: real time      0.2325
    FORLOC:  cpu time      0.0077: real time      0.0078
    FORNL :  cpu time      0.4240: real time      0.4279
    STRESS:  cpu time      0.7382: real time      0.7446
    FORCOR:  cpu time      0.2630: real time      0.2659
    FORHAR:  cpu time      0.0321: real time      0.0325
    MIXING:  cpu time      0.0117: real time      0.0119
    OFIELD:  cpu time      0.0001: real time      0.0001

 ---------------------------------------------------------------------------------------------

         DFTD3 V3.0 Rev 1        
 Edisp (eV)   -0.91350

 E6    (eV) :    -0.3532
 E8    (eV) :    -0.5603
 % E8        : 61.33
    FORVDW:  cpu time      0.0154: real time      0.0156

  FORCE on cell =-STRESS in cart. coord.  units (eV):
  Direction    XX          YY          ZZ          XY          YZ          ZX
  --------------------------------------------------------------------------------------
  Alpha Z    30.48863    30.48863    30.48863
  Ewald    6088.07717  6088.07717 -7771.58421    -0.00000    -0.00000     0.00000
  Hartree  6726.33525  6726.33525 -6347.92599    -0.00000     0.00000     0.00000
  E(xc)    -209.22175  -209.22175  -209.51759    -0.00000     0.00000     0.00000
  Local  -13845.32785-13845.32778 13084.92084     0.00006     0.00000     0.00000
  n-local   479.69395   479.83392   478.76883    -0.41484     0.04272     0.04744
  augment   -58.49973   -58.49979   -58.65324    -0.00005    -0.00000    -0.00000
  Kinetic   789.30021   788.81037   793.60350     0.57530    -0.31954     0.05264
  Fock        0.00000     0.00000     0.00000     0.00000     0.00000     0.00000
  vdW        -0.75498    -0.75498    -0.01831    -0.00000     0.00000    -0.00000
  -------------------------------------------------------------------------------------
  Total      -0.08403    -0.08403     0.08247     0.00000     0.00000    -0.00000
  in kB      -0.23845    -0.23845     0.23401     0.00000     0.00000    -0.00000
  external pressure =       -0.08 kB  Pullay stress =        0.00 kB


 VOLUME and BASIS-vectors are now :
 -----------------------------------------------------------------------------
  energy-cutoff  :      500.00
  volume of cell :      564.64
      direct lattice vectors                 reciprocal lattice vectors
     6.074361112  0.000000000  0.000000000     0.164626367  0.095047077 -0.000000000
    -3.037180556  5.260551035  0.000000000     0.000000000  0.190094154  0.000000000
     0.000000000  0.000000000 17.670000000     0.000000000 -0.000000000  0.056593096

  length of vectors
     6.074361112  6.074361112 17.670000000     0.190094154  0.190094154  0.056593096


 FORCES acting on ions
    electron-ion (+dipol)            ewald-force                    non-local-force                 convergence-correction
 -----------------------------------------------------------------------------------------------
   0.554E-07 -.320E-07 -.452E-11   -.496E-11 0.290E-11 -.744E-13   -.393E-18 -.189E-18 0.640E-20   0.113E-10 -.652E-11 -.308E-12
   -.554E-07 0.320E-07 -.181E-10   0.500E-11 -.292E-11 -.556E-13   -.231E-18 0.169E-18 -.664E-20   -.113E-10 0.652E-11 -.310E-12
   0.679E+02 0.479E-06 0.455E+03   -.699E+02 -.331E-11 -.457E+03   0.204E+01 -.103E-17 0.285E+01   -.143E-03 -.327E-09 -.183E-03
   -.339E+02 0.588E+02 0.455E+03   0.349E+02 -.605E+02 -.457E+03   -.102E+01 0.176E+01 0.285E+01   0.715E-04 -.124E-03 -.183E-03
   -.339E+02 -.588E+02 0.455E+03   0.349E+02 0.605E+02 -.457E+03   -.102E+01 -.176E+01 0.285E+01   0.715E-04 0.124E-03 -.183E-03
   -.679E+02 -.479E-06 -.455E+03   0.699E+02 0.333E-11 0.457E+03   -.204E+01 0.147E-18 -.285E+01   0.143E-03 0.327E-09 0.183E-03
   0.339E+02 -.588E+02 -.455E+03   -.349E+02 0.605E+02 0.457E+03   0.102E+01 -.176E+01 -.285E+01   -.715E-04 0.124E-03 0.183E-03
   0.339E+02 0.588E+02 -.455E+03   -.349E+02 -.605E+02 0.457E+03   0.102E+01 0.176E+01 -.285E+01   -.715E-04 -.124E-03 0.183E-03
 -----------------------------------------------------------------------------------------------
   -.199E-12 0.177E-11 -.235E-10   0.142E-13 0.213E-13 -.171E-12   -.666E-15 0.000E+00 -.444E-15   0.389E-13 0.699E-14 -.233E-11


 POSITION                                       TOTAL-FORCE (eV/Angst)
 -----------------------------------------------------------------------------------
      0.00000      3.50703      8.83500        -0.000000     -0.000000      0.000000
      3.03718      1.75352      8.83500        -0.000000     -0.000000      0.000000
      2.15346      0.00000      7.48009        -0.002431     -0.000000     -0.024074
     -1.07673      1.86495      7.48009         0.001215     -0.002105     -0.024074
      1.96045      3.39560      7.48009         0.001215      0.002105     -0.024074
      3.92090      0.00000     10.18991         0.002431     -0.000000      0.024074
     -1.96045      3.39560     10.18991        -0.001215      0.002105      0.024074
      1.07673      1.86495     10.18991        -0.001215     -0.002105      0.024074
 -----------------------------------------------------------------------------------
    total drift:                               -0.000000      0.000000     -0.000000


--------------------------------------------------------------------------------------------------------



  FREE ENERGIE OF THE ION-ELECTRON SYSTEM (eV)
  ---------------------------------------------------
  free  energy   TOTEN  =       -35.57191953 eV

  energy  without entropy=      -35.57191953  energy(sigma->0) =      -35.57191953
 d Force =-0.7270234E-04[-0.133E-03,-0.124E-04]  d Energy = 0.1832567E-03-0.256E-03
 d Force =-0.2597493E+01[-0.260E+01,-0.260E+01]  d Ewald  =-0.1173976E+02 0.914E+01



--------------------------------------------------------------------------------------------------------


    POTLOK:  cpu time      0.3965: real time      0.4001


--------------------------------------------------------------------------------------------------------




--------------------------------------------------------------------------------------------------------


      MLFF:  cpu time      0.0022: real time      0.0022
    WAVPRE:  cpu time      0.0206: real time      0.0208
    FEWALD:  cpu time      0.0015: real time      0.0016
    GENKIN:  cpu time      0.0159: real time      0.0159
    ORTHCH:  cpu time      0.1051: real time      0.1058
     LOOP+:  cpu time     96.3358: real time     97.5878


--------------------------------------- Ionic step        4  -------------------------------------------




--------------------------------------- Iteration      4(   1)  ---------------------------------------


    POTLOK:  cpu time      0.2824: real time      0.2856
    SETDIJ:  cpu time      0.1252: real time      0.1260
     EDDAV:  cpu time      7.7966: real time      7.8983
       DOS:  cpu time      0.0006: real time      0.0006
    CHARGE:  cpu time      0.2527: real time      0.2548
    MIXING:  cpu time      0.0114: real time      0.0115
    --------------------------------------------
      LOOP:  cpu time      8.4689: real time      8.5768

 eigenvalue-minimisations  :  2612
 total energy-change (2. order) : 0.3889081E-03  (-0.2186079E-02)
 number of electron      53.9999982 magnetization       5.9999998
 augmentation part       -0.5675990 magnetization       4.3769151

 Broyden mixing:
  rms(total) = 0.10448E-01    rms(broyden)= 0.10447E-01
  rms(prec ) = 0.11128E-01
  weight for this iteration     100.00

 Free energy of the ion-electron system (eV)
  ---------------------------------------------------
  alpha Z        PSCENC =        30.51407407
  Ewald energy   TEWEN  =      4406.25537993
  -Hartree energ DENC   =     -7107.03738583
  -exchange      EXHF   =         0.00000000
  -V(xc)+E(xc)   XCENC  =        86.56282603
  PAW double counting   =      3671.78584374    -3622.30658148
  entropy T*S    EENTRO =        -0.00000000
  eigenvalues    EBANDS =      -512.53887949
  atomic energy  EATOM  =      3012.10669636
  Solvation  Ediel_sol  =         0.00000000
  ext. energy  EPLUGINS =         0.00000000
  ---------------------------------------------------
  free energy    TOTEN  =       -34.65802668 eV

  energy without entropy =      -34.65802668  energy(sigma->0) =      -34.65802668


--------------------------------------------------------------------------------------------------------




--------------------------------------- Iteration      4(   2)  ---------------------------------------


    POTLOK:  cpu time      0.2769: real time      0.2800
    SETDIJ:  cpu time      0.1141: real time      0.1147
     EDDAV:  cpu time      9.6741: real time      9.7910
       DOS:  cpu time      0.0005: real time      0.0006
    CHARGE:  cpu time      0.3377: real time      0.3397
    MIXING:  cpu time      0.0116: real time      0.0118
    --------------------------------------------
      LOOP:  cpu time     10.4149: real time     10.5377

 eigenvalue-minimisations  :  3328
 total energy-change (2. order) : 0.1984790E-04  (-0.2039113E-03)
 number of electron      53.9999982 magnetization       5.9999998
 augmentation part       -0.5700686 magnetization       4.3761878

 Broyden mixing:
  rms(total) = 0.50783E-02    rms(broyden)= 0.50778E-02
  rms(prec ) = 0.54348E-02
  weight for this iteration     100.00

 eigenvalues of (default mixing * dielectric matrix)
  average eigenvalue GAMMA=   0.6874
  0.6874

 Free energy of the ion-electron system (eV)
  ---------------------------------------------------
  alpha Z        PSCENC =        30.51407407
  Ewald energy   TEWEN  =      4406.25537993
  -Hartree energ DENC   =     -7106.79810572
  -exchange      EXHF   =         0.00000000
  -V(xc)+E(xc)   XCENC  =        86.54165429
  PAW double counting   =      3673.23696124    -3623.75371740
  entropy T*S    EENTRO =        -0.00000000
  eigenvalues    EBANDS =      -512.76094959
  atomic energy  EATOM  =      3012.10669636
  Solvation  Ediel_sol  =         0.00000000
  ext. energy  EPLUGINS =         0.00000000
  ---------------------------------------------------
  free energy    TOTEN  =       -34.65800683 eV

  energy without entropy =      -34.65800683  energy(sigma->0) =      -34.65800683


--------------------------------------------------------------------------------------------------------




--------------------------------------- Iteration      4(   3)  ---------------------------------------


    POTLOK:  cpu time      0.3081: real time      0.3111
    SETDIJ:  cpu time      0.1407: real time      0.1412
     EDDAV:  cpu time      8.9582: real time      9.0797
       DOS:  cpu time      0.0004: real time      0.0004
    CHARGE:  cpu time      0.2279: real time      0.2297
    MIXING:  cpu time      0.0113: real time      0.0115
    --------------------------------------------
      LOOP:  cpu time      9.6466: real time      9.7736

 eigenvalue-minimisations  :  3092
 total energy-change (2. order) : 0.3219899E-04  (-0.7568363E-05)
 number of electron      53.9999982 magnetization       5.9999998
 augmentation part       -0.5677066 magnetization       4.3772797

 Broyden mixing:
  rms(total) = 0.44823E-02    rms(broyden)= 0.44822E-02
  rms(prec ) = 0.45939E-02
  weight for this iteration     100.00

 eigenvalues of (default mixing * dielectric matrix)
  average eigenvalue GAMMA=   0.6253
  0.7661  0.4846

 Free energy of the ion-electron system (eV)
  ---------------------------------------------------
  alpha Z        PSCENC =        30.51407407
  Ewald energy   TEWEN  =      4406.25537993
  -Hartree energ DENC   =     -7106.66794690
  -exchange      EXHF   =         0.00000000
  -V(xc)+E(xc)   XCENC  =        86.53834014
  PAW double counting   =      3672.90628834    -3623.41794478
  entropy T*S    EENTRO =        -0.00000000
  eigenvalues    EBANDS =      -512.89286179
  atomic energy  EATOM  =      3012.10669636
  Solvation  Ediel_sol  =         0.00000000
  ext. energy  EPLUGINS =         0.00000000
  ---------------------------------------------------
  free energy    TOTEN  =       -34.65797463 eV

  energy without entropy =      -34.65797463  energy(sigma->0) =      -34.65797463


--------------------------------------------------------------------------------------------------------




--------------------------------------- Iteration      4(   4)  ---------------------------------------


    POTLOK:  cpu time      0.2777: real time      0.2808
    SETDIJ:  cpu time      0.1127: real time      0.1132
     EDDAV:  cpu time      9.2159: real time      9.3368
       DOS:  cpu time      0.0003: real time      0.0003
    CHARGE:  cpu time      0.2271: real time      0.2290
    MIXING:  cpu time      0.0114: real time      0.0116
    --------------------------------------------
      LOOP:  cpu time      9.8452: real time      9.9717

 eigenvalue-minimisations  :  3224
 total energy-change (2. order) : 0.6306637E-05  (-0.1586542E-05)
 number of electron      53.9999982 magnetization       5.9999998
 augmentation part       -0.5684695 magnetization       4.3772721

 Broyden mixing:
  rms(total) = 0.22845E-02    rms(broyden)= 0.22845E-02
  rms(prec ) = 0.23739E-02
  weight for this iteration     100.00

 eigenvalues of (default mixing * dielectric matrix)
  average eigenvalue GAMMA=   0.8850
  1.0798  1.0798  0.4954

 Free energy of the ion-electron system (eV)
  ---------------------------------------------------
  alpha Z        PSCENC =        30.51407407
  Ewald energy   TEWEN  =      4406.25537993
  -Hartree energ DENC   =     -7106.63610689
  -exchange      EXHF   =         0.00000000
  -V(xc)+E(xc)   XCENC  =        86.53728540
  PAW double counting   =      3672.84979182    -3623.36468820
  entropy T*S    EENTRO =        -0.00000000
  eigenvalues    EBANDS =      -512.92040081
  atomic energy  EATOM  =      3012.10669636
  Solvation  Ediel_sol  =         0.00000000
  ext. energy  EPLUGINS =         0.00000000
  ---------------------------------------------------
  free energy    TOTEN  =       -34.65796832 eV

  energy without entropy =      -34.65796832  energy(sigma->0) =      -34.65796832


--------------------------------------------------------------------------------------------------------




--------------------------------------- Iteration      4(   5)  ---------------------------------------


    POTLOK:  cpu time      0.2769: real time      0.2799
    SETDIJ:  cpu time      0.1135: real time      0.1140
     EDDAV:  cpu time      9.4925: real time      9.6236
       DOS:  cpu time      0.0004: real time      0.0004
    CHARGE:  cpu time      0.2261: real time      0.2279
    MIXING:  cpu time      0.0120: real time      0.0121
    --------------------------------------------
      LOOP:  cpu time     10.1214: real time     10.2579

 eigenvalue-minimisations  :  3352
 total energy-change (2. order) : 0.2641534E-05  (-0.1452169E-05)
 number of electron      53.9999982 magnetization       5.9999998
 augmentation part       -0.5691935 magnetization       4.3772439

 Broyden mixing:
  rms(total) = 0.14532E-02    rms(broyden)= 0.14532E-02
  rms(prec ) = 0.14954E-02
  weight for this iteration     100.00

 eigenvalues of (default mixing * dielectric matrix)
  average eigenvalue GAMMA=   1.0216
  1.4430  1.4430  0.6002  0.6002

 Free energy of the ion-electron system (eV)
  ---------------------------------------------------
  alpha Z        PSCENC =        30.51407407
  Ewald energy   TEWEN  =      4406.25537993
  -Hartree energ DENC   =     -7106.58920951
  -exchange      EXHF   =         0.00000000
  -V(xc)+E(xc)   XCENC  =        86.53509360
  PAW double counting   =      3672.70474777    -3623.22268186
  entropy T*S    EENTRO =        -0.00000000
  eigenvalues    EBANDS =      -512.96206604
  atomic energy  EATOM  =      3012.10669636
  Solvation  Ediel_sol  =         0.00000000
  ext. energy  EPLUGINS =         0.00000000
  ---------------------------------------------------
  free energy    TOTEN  =       -34.65796568 eV

  energy without entropy =      -34.65796568  energy(sigma->0) =      -34.65796568


--------------------------------------------------------------------------------------------------------




--------------------------------------- Iteration      4(   6)  ---------------------------------------


    POTLOK:  cpu time      0.2827: real time      0.2858
    SETDIJ:  cpu time      0.1141: real time      0.1146
     EDDAV:  cpu time      6.3266: real time      6.4096
       DOS:  cpu time      0.0003: real time      0.0003
    --------------------------------------------
      LOOP:  cpu time      6.7238: real time      6.8104

 eigenvalue-minimisations  :  1888
 total energy-change (2. order) :-0.6091368E-06  (-0.1756642E-06)
 number of electron      53.9999982 magnetization       5.9999998
 augmentation part       -0.5691935 magnetization       4.3772439

 Free energy of the ion-electron system (eV)
  ---------------------------------------------------
  alpha Z        PSCENC =        30.51407407
  Ewald energy   TEWEN  =      4406.25537993
  -Hartree energ DENC   =     -7106.57463525
  -exchange      EXHF   =         0.00000000
  -V(xc)+E(xc)   XCENC  =        86.53439218
  PAW double counting   =      3672.39050656    -3622.90905833
  entropy T*S    EENTRO =        -0.00000000
  eigenvalues    EBANDS =      -512.97532180
  atomic energy  EATOM  =      3012.10669636
  Solvation  Ediel_sol  =         0.00000000
  ext. energy  EPLUGINS =         0.00000000
  ---------------------------------------------------
  free energy    TOTEN  =       -34.65796629 eV

  energy without entropy =      -34.65796629  energy(sigma->0) =      -34.65796629


--------------------------------------------------------------------------------------------------------




 average (electrostatic) potential at core
  the test charge radii are     1.1394  0.9406
  (the norm of the test charge is              1.0000)
       1 -53.2107       2 -53.2107       3 -98.9435       4 -98.9435       5 -98.9435
       6 -98.9435       7 -98.9435       8 -98.9435



 E-fermi :  -4.8640     XC(G=0):  -3.3355     alpha+bet : -2.6735

 val. band max:       -5.1252768963   @ k =   0.0909   0.0909   0.0000
 cond. band min:      -2.5345536516   @ k =   0.3636   0.2727   0.0000
 fundamental gap:      2.5907232447
 Fermi energy:        -4.8640274268

 spin component 1

 k-point     1 :       0.0000    0.0000    0.0000
  band No.  band energies     occupation 
      1     -19.2216      1.00000
      2     -18.4467      1.00000
      3     -18.2720      1.00000
      4     -18.2720      1.00000
      5     -18.1786      1.00000
      6     -18.1786      1.00000
      7      -9.0973      1.00000
      8      -9.0475      1.00000
      9      -8.6128      1.00000
     10      -8.6128      1.00000
     11      -8.5966      1.00000
     12      -8.5966      1.00000
     13      -7.6287      1.00000
     14      -7.6287      1.00000
     15      -7.6121      1.00000
     16      -7.4107      1.00000
     17      -7.1086      1.00000
     18      -7.0871      1.00000
     19      -7.0871      1.00000
     20      -6.6182      1.00000
     21      -6.6182      1.00000
     22      -6.1979      1.00000
     23      -6.1371      1.00000
     24      -6.1371      1.00000
     25      -5.9176      1.00000
     26      -5.7901      1.00000
     27      -5.3714      1.00000
     28      -5.3714      1.00000
     29      -5.1301      1.00000
     30      -5.1301      1.00000
     31      -2.4989      0.00000
     32      -2.4989      0.00000
     33      -2.2910      0.00000
     34      -2.2910      0.00000
     35       1.5567      0.00000
     36       2.3040      0.00000

 k-point     2 :       0.0909    0.0000    0.0000
  band No.  band energies     occupation 
      1     -19.2049      1.00000
      2     -18.4397      1.00000
      3     -18.2919      1.00000
      4     -18.2779      1.00000
      5     -18.1812      1.00000
      6     -18.1800      1.00000
      7      -9.1074      1.00000
      8      -9.0338      1.00000
      9      -8.6701      1.00000
     10      -8.6688      1.00000
     11      -8.5237      1.00000
     12      -8.5175      1.00000
     13      -7.6510      1.00000
     14      -7.6353      1.00000
     15      -7.6175      1.00000
     16      -7.3738      1.00000
     17      -7.1357      1.00000
     18      -7.0812      1.00000
     19      -7.0482      1.00000
     20      -6.6896      1.00000
     21      -6.6128      1.00000
     22      -6.1689      1.00000
     23      -6.1571      1.00000
     24      -6.1142      1.00000
     25      -5.9155      1.00000
     26      -5.7559      1.00000
     27      -5.3780      1.00000
     28      -5.3742      1.00000
     29      -5.1739      1.00000
     30      -5.1276      1.00000
     31      -2.4999      0.00000
     32      -2.4953      0.00000
     33      -2.3235      0.00000
     34      -2.2947      0.00000
     35       1.6373      0.00000
     36       2.3519      0.00000

 k-point     3 :       0.1818    0.0000    0.0000
  band No.  band energies     occupation 
      1     -19.1560      1.00000
      2     -18.4195      1.00000
      3     -18.3484      1.00000
      4     -18.2925      1.00000
      5     -18.1892      1.00000
      6     -18.1864      1.00000
      7      -9.1376      1.00000
      8      -8.9946      1.00000
      9      -8.7181      1.00000
     10      -8.6838      1.00000
     11      -8.4293      1.00000
     12      -8.4264      1.00000
     13      -7.7105      1.00000
     14      -7.6861      1.00000
     15      -7.5903      1.00000
     16      -7.3204      1.00000
     17      -7.1885      1.00000
     18      -7.0538      1.00000
     19      -6.9617      1.00000
     20      -6.8240      1.00000
     21      -6.5995      1.00000
     22      -6.2197      1.00000
     23      -6.1677      1.00000
     24      -6.0371      1.00000
     25      -5.9049      1.00000
     26      -5.6543      1.00000
     27      -5.3993      1.00000
     28      -5.3846      1.00000
     29      -5.2710      1.00000
     30      -5.1281      1.00000
     31      -2.5017      0.00000
     32      -2.4843      0.00000
     33      -2.3954      0.00000
     34      -2.3094      0.00000
     35       1.8596      0.00000
     36       2.4836      0.00000

 k-point     4 :       0.2727    0.0000    0.0000
  band No.  band energies     occupation 
      1     -19.0795      1.00000
      2     -18.4341      1.00000
      3     -18.3885      1.00000
      4     -18.3095      1.00000
      5     -18.2014      1.00000
      6     -18.2004      1.00000
      7      -9.1883      1.00000
      8      -8.9288      1.00000
      9      -8.7492      1.00000
     10      -8.6185      1.00000
     11      -8.3630      1.00000
     12      -8.3248      1.00000
     13      -7.7890      1.00000
     14      -7.7386      1.00000
     15      -7.5639      1.00000
     16      -7.3970      1.00000
     17      -7.1660      1.00000
     18      -7.0226      1.00000
     19      -7.0111      1.00000
     20      -6.7867      1.00000
     21      -6.5726      1.00000
     22      -6.3130      1.00000
     23      -6.2022      1.00000
     24      -5.9581      1.00000
     25      -5.8760      1.00000
     26      -5.5131      1.00000
     27      -5.4353      1.00000
     28      -5.4171      1.00000
     29      -5.3581      1.00000
     30      -5.1366      1.00000
     31      -2.5007      0.00000
     32      -2.4632      0.00000
     33      -2.4613      0.00000
     34      -2.3396      0.00000
     35       2.1821      0.00000
     36       2.6811      0.00000

 k-point     5 :       0.3636    0.0000    0.0000
  band No.  band energies     occupation 
      1     -18.9845      1.00000
      2     -18.5373      1.00000
      3     -18.3515      1.00000
      4     -18.3228      1.00000
      5     -18.2263      1.00000
      6     -18.2110      1.00000
      7      -9.2413      1.00000
      8      -8.8451      1.00000
      9      -8.7654      1.00000
     10      -8.4820      1.00000
     11      -8.3451      1.00000
     12      -8.2197      1.00000
     13      -7.8711      1.00000
     14      -7.7759      1.00000
     15      -7.6268      1.00000
     16      -7.4796      1.00000
     17      -7.1538      1.00000
     18      -7.1165      1.00000
     19      -7.0051      1.00000
     20      -6.6410      1.00000
     21      -6.5391      1.00000
     22      -6.3788      1.00000
     23      -6.2642      1.00000
     24      -5.8909      1.00000
     25      -5.8295      1.00000
     26      -5.4979      1.00000
     27      -5.4697      1.00000
     28      -5.4167      1.00000
     29      -5.3620      1.00000
     30      -5.1493      1.00000
     31      -2.5023      0.00000
     32      -2.4921      0.00000
     33      -2.4307      0.00000
     34      -2.3822      0.00000
     35       2.5724      0.00000
     36       2.9307      0.00000

 k-point     6 :       0.4545    0.0000    0.0000
  band No.  band energies     occupation 
      1     -18.8969      1.00000
      2     -18.6298      1.00000
      3     -18.3352      1.00000
      4     -18.3086      1.00000
      5     -18.2574      1.00000
      6     -18.2174      1.00000
      7      -9.2736      1.00000
      8      -8.7788      1.00000
      9      -8.7713      1.00000
     10      -8.3828      1.00000
     11      -8.3021      1.00000
     12      -8.1374      1.00000
     13      -7.9371      1.00000
     14      -7.7932      1.00000
     15      -7.7917      1.00000
     16      -7.4796      1.00000
     17      -7.2356      1.00000
     18      -7.0781      1.00000
     19      -7.0233      1.00000
     20      -6.5456      1.00000
     21      -6.4994      1.00000
     22      -6.3741      1.00000
     23      -6.3497      1.00000
     24      -5.8435      1.00000
     25      -5.7888      1.00000
     26      -5.5699      1.00000
     27      -5.4824      1.00000
     28      -5.4569      1.00000
     29      -5.2523      1.00000
     30      -5.1783      1.00000
     31      -2.5212      0.00000
     32      -2.4732      0.00000
     33      -2.4244      0.00000
     34      -2.4026      0.00000
     35       2.9670      0.00000
     36       3.0196      0.00000

 k-point     7 :       0.0909    0.0909    0.0000
  band No.  band energies     occupation 
      1     -19.1721      1.00000
      2     -18.4261      1.00000
      3     -18.3283      1.00000
      4     -18.2902      1.00000
      5     -18.1859      1.00000
      6     -18.1842      1.00000
      7      -9.1215      1.00000
      8      -9.0109      1.00000
      9      -8.7532      1.00000
     10      -8.6236      1.00000
     11      -8.5039      1.00000
     12      -8.4209      1.00000
     13      -7.6953      1.00000
     14      -7.6729      1.00000
     15      -7.5931      1.00000
     16      -7.3224      1.00000
     17      -7.1817      1.00000
     18      -7.0674      1.00000
     19      -6.9811      1.00000
     20      -6.7958      1.00000
     21      -6.5977      1.00000
     22      -6.2249      1.00000
     23      -6.1007      1.00000
     24      -6.0984      1.00000
     25      -5.9092      1.00000
     26      -5.6872      1.00000
     27      -5.3899      1.00000
     28      -5.3819      1.00000
     29      -5.2454      1.00000
     30      -5.1253      1.00000
     31      -2.5028      0.00000
     32      -2.4870      0.00000
     33      -2.3773      0.00000
     34      -2.3010      0.00000
     35       1.7881      0.00000
     36       2.4411      0.00000

 k-point     8 :       0.1818    0.0909    0.0000
  band No.  band energies     occupation 
      1     -19.1092      1.00000
      2     -18.4006      1.00000
      3     -18.3964      1.00000
      4     -18.3100      1.00000
      5     -18.1951      1.00000
      6     -18.1945      1.00000
      7      -9.1440      1.00000
      8      -8.9737      1.00000
      9      -8.7931      1.00000
     10      -8.5792      1.00000
     11      -8.4385      1.00000
     12      -8.3311      1.00000
     13      -7.7707      1.00000
     14      -7.7216      1.00000
     15      -7.5560      1.00000
     16      -7.3211      1.00000
     17      -7.2196      1.00000
     18      -7.0486      1.00000
     19      -6.9330      1.00000
     20      -6.8604      1.00000
     21      -6.5659      1.00000
     22      -6.3144      1.00000
     23      -6.1222      1.00000
     24      -6.0222      1.00000
     25      -5.8889      1.00000
     26      -5.5645      1.00000
     27      -5.4315      1.00000
     28      -5.3860      1.00000
     29      -5.3363      1.00000
     30      -5.1294      1.00000
     31      -2.5071      0.00000
     32      -2.4700      0.00000
     33      -2.4447      0.00000
     34      -2.3173      0.00000
     35       2.0569      0.00000
     36       2.6036      0.00000

 k-point     9 :       0.2727    0.0909    0.0000
  band No.  band energies     occupation 
      1     -19.0226      1.00000
      2     -18.4895      1.00000
      3     -18.3666      1.00000
      4     -18.3284      1.00000
      5     -18.2134      1.00000
      6     -18.2061      1.00000
      7      -9.1861      1.00000
      8      -8.9115      1.00000
      9      -8.7844      1.00000
     10      -8.5085      1.00000
     11      -8.3724      1.00000
     12      -8.2562      1.00000
     13      -7.8555      1.00000
     14      -7.7608      1.00000
     15      -7.5444      1.00000
     16      -7.4327      1.00000
     17      -7.1986      1.00000
     18      -7.1202      1.00000
     19      -6.9504      1.00000
     20      -6.7449      1.00000
     21      -6.5138      1.00000
     22      -6.4054      1.00000
     23      -6.1725      1.00000
     24      -5.9507      1.00000
     25      -5.8489      1.00000
     26      -5.5024      1.00000
     27      -5.4282      1.00000
     28      -5.4132      1.00000
     29      -5.3865      1.00000
     30      -5.1402      1.00000
     31      -2.5078      0.00000
     32      -2.4886      0.00000
     33      -2.4461      0.00000
     34      -2.3454      0.00000
     35       2.4056      0.00000
     36       2.8241      0.00000

 k-point    10 :       0.3636    0.0909    0.0000
  band No.  band energies     occupation 
      1     -18.9261      1.00000
      2     -18.5912      1.00000
      3     -18.3462      1.00000
      4     -18.3232      1.00000
      5     -18.2412      1.00000
      6     -18.2147      1.00000
      7      -9.2271      1.00000
      8      -8.8341      1.00000
      9      -8.7707      1.00000
     10      -8.3997      1.00000
     11      -8.3545      1.00000
     12      -8.1762      1.00000
     13      -7.9316      1.00000
     14      -7.7813      1.00000
     15      -7.6805      1.00000
     16      -7.4532      1.00000
     17      -7.2509      1.00000
     18      -7.1170      1.00000
     19      -6.9717      1.00000
     20      -6.6424      1.00000
     21      -6.5104      1.00000
     22      -6.3911      1.00000
     23      -6.2385      1.00000
     24      -5.8900      1.00000
     25      -5.8030      1.00000
     26      -5.5750      1.00000
     27      -5.4679      1.00000
     28      -5.4191      1.00000
     29      -5.2921      1.00000
     30      -5.1575      1.00000
     31      -2.5185      0.00000
     32      -2.4870      0.00000
     33      -2.4348      0.00000
     34      -2.3659      0.00000
     35       2.8113      0.00000
     36       3.0294      0.00000

 k-point    11 :       0.4545    0.0909    0.0000
  band No.  band energies     occupation 
      1     -18.8690      1.00000
      2     -18.6502      1.00000
      3     -18.3495      1.00000
      4     -18.2963      1.00000
      5     -18.2656      1.00000
      6     -18.2179      1.00000
      7      -9.2432      1.00000
      8      -8.7932      1.00000
      9      -8.7686      1.00000
     10      -8.3824      1.00000
     11      -8.3039      1.00000
     12      -8.1306      1.00000
     13      -7.9690      1.00000
     14      -7.7862      1.00000
     15      -7.7841      1.00000
     16      -7.4460      1.00000
     17      -7.2858      1.00000
     18      -7.0973      1.00000
     19      -6.9873      1.00000
     20      -6.6129      1.00000
     21      -6.5126      1.00000
     22      -6.3149      1.00000
     23      -6.3144      1.00000
     24      -5.8599      1.00000
     25      -5.7827      1.00000
     26      -5.6172      1.00000
     27      -5.4745      1.00000
     28      -5.4397      1.00000
     29      -5.2188      1.00000
     30      -5.1890      1.00000
     31      -2.5255      0.00000
     32      -2.4645      0.00000
     33      -2.4547      0.00000
     34      -2.3643      0.00000
     35       2.9647      0.00000
     36       3.2176      0.00000

 k-point    12 :       0.1818    0.1818    0.0000
  band No.  band energies     occupation 
      1     -19.0357      1.00000
      2     -18.4672      1.00000
      3     -18.3723      1.00000
      4     -18.3372      1.00000
      5     -18.2075      1.00000
      6     -18.2042      1.00000
      7      -9.1179      1.00000
      8      -8.9875      1.00000
      9      -8.8034      1.00000
     10      -8.4628      1.00000
     11      -8.4315      1.00000
     12      -8.2617      1.00000
     13      -7.8587      1.00000
     14      -7.7538      1.00000
     15      -7.5038      1.00000
     16      -7.3452      1.00000
     17      -7.2960      1.00000
     18      -7.1252      1.00000
     19      -6.8899      1.00000
     20      -6.8172      1.00000
     21      -6.4887      1.00000
     22      -6.4317      1.00000
     23      -6.0644      1.00000
     24      -6.0433      1.00000
     25      -5.8563      1.00000
     26      -5.5095      1.00000
     27      -5.4316      1.00000
     28      -5.4072      1.00000
     29      -5.3741      1.00000
     30      -5.1347      1.00000
     31      -2.5175      0.00000
     32      -2.4855      0.00000
     33      -2.4494      0.00000
     34      -2.3239      0.00000
     35       2.3449      0.00000
     36       2.7860      0.00000

 k-point    13 :       0.2727    0.1818    0.0000
  band No.  band energies     occupation 
      1     -18.9437      1.00000
      2     -18.5572      1.00000
      3     -18.3656      1.00000
      4     -18.3330      1.00000
      5     -18.2271      1.00000
      6     -18.2145      1.00000
      7      -9.1185      1.00000
      8      -8.9539      1.00000
      9      -8.7728      1.00000
     10      -8.4130      1.00000
     11      -8.3854      1.00000
     12      -8.2068      1.00000
     13      -7.9428      1.00000
     14      -7.7674      1.00000
     15      -7.5312      1.00000
     16      -7.4304      1.00000
     17      -7.3063      1.00000
     18      -7.1723      1.00000
     19      -6.8854      1.00000
     20      -6.7505      1.00000
     21      -6.5318      1.00000
     22      -6.3805      1.00000
     23      -6.1106      1.00000
     24      -5.9852      1.00000
     25      -5.8135      1.00000
     26      -5.5900      1.00000
     27      -5.4520      1.00000
     28      -5.3808      1.00000
     29      -5.3153      1.00000
     30      -5.1439      1.00000
     31      -2.5229      0.00000
     32      -2.4975      0.00000
     33      -2.4382      0.00000
     34      -2.3262      0.00000
     35       2.6933      0.00000
     36       3.0088      0.00000

 k-point    14 :       0.3636    0.1818    0.0000
  band No.  band energies     occupation 
      1     -18.8550      1.00000
      2     -18.6454      1.00000
      3     -18.3782      1.00000
      4     -18.2981      1.00000
      5     -18.2538      1.00000
      6     -18.2207      1.00000
      7      -9.1425      1.00000
      8      -8.8663      1.00000
      9      -8.7715      1.00000
     10      -8.3841      1.00000
     11      -8.3738      1.00000
     12      -8.1464      1.00000
     13      -8.0007      1.00000
     14      -7.7654      1.00000
     15      -7.6757      1.00000
     16      -7.3916      1.00000
     17      -7.3338      1.00000
     18      -7.1662      1.00000
     19      -6.9154      1.00000
     20      -6.7033      1.00000
     21      -6.5830      1.00000
     22      -6.2718      1.00000
     23      -6.1791      1.00000
     24      -5.9330      1.00000
     25      -5.7890      1.00000
     26      -5.6590      1.00000
     27      -5.4591      1.00000
     28      -5.4060      1.00000
     29      -5.2253      1.00000
     30      -5.1627      1.00000
     31      -2.5290      0.00000
     32      -2.4803      0.00000
     33      -2.4518      0.00000
     34      -2.3177      0.00000
     35       3.0158      0.00000
     36       3.0665      0.00000

 k-point    15 :       0.2727    0.2727    0.0000
  band No.  band energies     occupation 
      1     -18.8522      1.00000
      2     -18.6369      1.00000
      3     -18.3937      1.00000
      4     -18.3010      1.00000
      5     -18.2424      1.00000
      6     -18.2261      1.00000
      7      -9.0002      1.00000
      8      -8.9986      1.00000
      9      -8.7729      1.00000
     10      -8.4104      1.00000
     11      -8.3818      1.00000
     12      -8.1550      1.00000
     13      -8.0140      1.00000
     14      -7.7546      1.00000
     15      -7.6026      1.00000
     16      -7.3970      1.00000
     17      -7.3178      1.00000
     18      -7.2218      1.00000
     19      -6.8719      1.00000
     20      -6.7481      1.00000
     21      -6.6159      1.00000
     22      -6.2546      1.00000
     23      -6.0722      1.00000
     24      -6.0228      1.00000
     25      -5.7939      1.00000
     26      -5.6717      1.00000
     27      -5.4524      1.00000
     28      -5.3911      1.00000
     29      -5.2300      1.00000
     30      -5.1496      1.00000
     31      -2.5311      0.00000
     32      -2.4883      0.00000
     33      -2.4472      0.00000
     34      -2.2965      0.00000
     35       2.9942      0.00000
     36       3.0822      0.00000

 k-point    16 :       0.3636    0.2727    0.0000
  band No.  band energies     occupation 
      1     -18.7845      1.00000
      2     -18.7000      1.00000
      3     -18.4047      1.00000
      4     -18.2760      1.00000
      5     -18.2601      1.00000
      6     -18.2313      1.00000
      7      -9.0159      1.00000
      8      -8.8957      1.00000
      9      -8.8248      1.00000
     10      -8.4076      1.00000
     11      -8.3983      1.00000
     12      -8.1127      1.00000
     13      -8.0547      1.00000
     14      -7.7445      1.00000
     15      -7.6538      1.00000
     16      -7.3418      1.00000
     17      -7.3310      1.00000
     18      -7.2473      1.00000
     19      -6.8895      1.00000
     20      -6.7218      1.00000
     21      -6.6586      1.00000
     22      -6.1658      1.00000
     23      -6.1171      1.00000
     24      -6.0106      1.00000
     25      -5.8037      1.00000
     26      -5.6953      1.00000
     27      -5.4370      1.00000
     28      -5.4104      1.00000
     29      -5.1844      1.00000
     30      -5.1635      1.00000
     31      -2.5346      0.00000
     32      -2.4726      0.00000
     33      -2.4616      0.00000
     34      -2.2820      0.00000
     35       3.0419      0.00000
     36       3.1037      0.00000
 Fermi energy:        -4.8640274268

 spin component 2

 k-point     1 :       0.0000    0.0000    0.0000
  band No.  band energies     occupation 
      1     -19.2584      1.00000
      2     -18.5282      1.00000
      3     -18.3458      1.00000
      4     -18.3458      1.00000
      5     -18.2421      1.00000
      6     -18.2421      1.00000
      7      -8.7190      1.00000
      8      -8.2724      1.00000
      9      -7.8673      1.00000
     10      -7.8673      1.00000
     11      -7.6750      1.00000
     12      -7.6750      1.00000
     13      -7.6091      1.00000
     14      -6.9692      1.00000
     15      -6.9692      1.00000
     16      -6.7553      1.00000
     17      -6.4843      1.00000
     18      -6.4843      1.00000
     19      -6.2206      1.00000
     20      -5.8244      1.00000
     21      -5.4960      1.00000
     22      -5.4960      1.00000
     23      -5.3166      1.00000
     24      -5.3166      1.00000
     25      -0.7478      0.00000
     26      -0.7478      0.00000
     27      -0.5427      0.00000
     28      -0.5427      0.00000
     29      -0.5366      0.00000
     30      -0.4871      0.00000
     31      -0.2404      0.00000
     32      -0.2404      0.00000
     33      -0.1901      0.00000
     34      -0.1901      0.00000
     35       1.7133      0.00000
     36       2.3301      0.00000

 k-point     2 :       0.0909    0.0000    0.0000
  band No.  band energies     occupation 
      1     -19.2422      1.00000
      2     -18.5208      1.00000
      3     -18.3652      1.00000
      4     -18.3523      1.00000
      5     -18.2443      1.00000
      6     -18.2435      1.00000
      7      -8.7255      1.00000
      8      -8.2685      1.00000
      9      -7.8766      1.00000
     10      -7.8104      1.00000
     11      -7.7856      1.00000
     12      -7.6938      1.00000
     13      -7.4695      1.00000
     14      -7.0041      1.00000
     15      -6.9759      1.00000
     16      -6.6851      1.00000
     17      -6.4912      1.00000
     18      -6.4647      1.00000
     19      -6.2046      1.00000
     20      -5.8163      1.00000
     21      -5.5153      1.00000
     22      -5.4979      1.00000
     23      -5.4054      1.00000
     24      -5.3335      1.00000
     25      -0.7608      0.00000
     26      -0.7427      0.00000
     27      -0.5590      0.00000
     28      -0.5516      0.00000
     29      -0.5474      0.00000
     30      -0.4495      0.00000
     31      -0.2643      0.00000
     32      -0.2497      0.00000
     33      -0.1899      0.00000
     34      -0.1771      0.00000
     35       1.7869      0.00000
     36       2.3797      0.00000

 k-point     3 :       0.1818    0.0000    0.0000
  band No.  band energies     occupation 
      1     -19.1950      1.00000
      2     -18.4993      1.00000
      3     -18.4200      1.00000
      4     -18.3682      1.00000
      5     -18.2510      1.00000
      6     -18.2502      1.00000
      7      -8.7320      1.00000
      8      -8.2600      1.00000
      9      -7.9142      1.00000
     10      -7.8669      1.00000
     11      -7.7170      1.00000
     12      -7.6639      1.00000
     13      -7.2886      1.00000
     14      -7.0970      1.00000
     15      -6.9956      1.00000
     16      -6.5570      1.00000
     17      -6.4654      1.00000
     18      -6.4187      1.00000
     19      -6.1649      1.00000
     20      -5.8050      1.00000
     21      -5.6926      1.00000
     22      -5.5173      1.00000
     23      -5.5025      1.00000
     24      -5.3684      1.00000
     25      -0.7903      0.00000
     26      -0.7240      0.00000
     27      -0.6255      0.00000
     28      -0.5752      0.00000
     29      -0.5626      0.00000
     30      -0.3588      0.00000
     31      -0.3206      0.00000
     32      -0.2754      0.00000
     33      -0.1902      0.00000
     34      -0.1406      0.00000
     35       1.9932      0.00000
     36       2.5175      0.00000

 k-point     4 :       0.2727    0.0000    0.0000
  band No.  band energies     occupation 
      1     -19.1210      1.00000
      2     -18.5029      1.00000
      3     -18.4663      1.00000
      4     -18.3869      1.00000
      5     -18.2660      1.00000
      6     -18.2608      1.00000
      7      -8.7273      1.00000
      8      -8.2448      1.00000
      9      -7.9842      1.00000
     10      -7.8656      1.00000
     11      -7.6839      1.00000
     12      -7.4978      1.00000
     13      -7.2536      1.00000
     14      -7.0800      1.00000
     15      -7.0212      1.00000
     16      -6.5763      1.00000
     17      -6.3761      1.00000
     18      -6.2666      1.00000
     19      -6.1095      1.00000
     20      -6.0334      1.00000
     21      -5.8448      1.00000
     22      -5.5627      1.00000
     23      -5.4869      1.00000
     24      -5.3892      1.00000
     25      -0.8341      0.00000
     26      -0.7126      0.00000
     27      -0.6894      0.00000
     28      -0.6021      0.00000
     29      -0.5808      0.00000
     30      -0.3831      0.00000
     31      -0.3198      0.00000
     32      -0.2475      0.00000
     33      -0.1916      0.00000
     34      -0.0960      0.00000
     35       2.2986      0.00000
     36       2.7253      0.00000

 k-point     5 :       0.3636    0.0000    0.0000
  band No.  band energies     occupation 
      1     -19.0290      1.00000
      2     -18.6026      1.00000
      3     -18.4262      1.00000
      4     -18.4022      1.00000
      5     -18.2922      1.00000
      6     -18.2703      1.00000
      7      -8.7202      1.00000
      8      -8.2127      1.00000
      9      -8.0356      1.00000
     10      -7.8168      1.00000
     11      -7.5972      1.00000
     12      -7.4069      1.00000
     13      -7.3646      1.00000
     14      -7.0276      1.00000
     15      -6.9042      1.00000
     16      -6.6355      1.00000
     17      -6.3870      1.00000
     18      -6.3579      1.00000
     19      -6.0593      1.00000
     20      -6.0528      1.00000
     21      -5.9367      1.00000
     22      -5.6048      1.00000
     23      -5.4730      1.00000
     24      -5.3641      1.00000
     25      -0.9060      0.00000
     26      -0.7686      0.00000
     27      -0.6611      0.00000
     28      -0.6072      0.00000
     29      -0.5940      0.00000
     30      -0.4349      0.00000
     31      -0.3578      0.00000
     32      -0.1932      0.00000
     33      -0.1591      0.00000
     34      -0.0627      0.00000
     35       2.6726      0.00000
     36       2.9887      0.00000

 k-point     6 :       0.4545    0.0000    0.0000
  band No.  band energies     occupation 
      1     -18.9434      1.00000
      2     -18.6927      1.00000
      3     -18.4122      1.00000
      4     -18.3853      1.00000
      5     -18.3241      1.00000
      6     -18.2761      1.00000
      7      -8.7181      1.00000
      8      -8.1783      1.00000
      9      -8.0621      1.00000
     10      -7.7296      1.00000
     11      -7.5543      1.00000
     12      -7.5084      1.00000
     13      -7.2974      1.00000
     14      -6.9700      1.00000
     15      -6.7960      1.00000
     16      -6.7735      1.00000
     17      -6.5581      1.00000
     18      -6.3586      1.00000
     19      -6.1018      1.00000
     20      -5.9456      1.00000
     21      -5.9186      1.00000
     22      -5.6404      1.00000
     23      -5.4854      1.00000
     24      -5.3212      1.00000
     25      -0.9664      0.00000
     26      -0.7894      0.00000
     27      -0.6613      0.00000
     28      -0.5990      0.00000
     29      -0.5856      0.00000
     30      -0.4647      0.00000
     31      -0.3834      0.00000
     32      -0.1934      0.00000
     33      -0.1033      0.00000
     34      -0.0508      0.00000
     35       3.0996      0.00000
     36       3.2873      0.00000

 k-point     7 :       0.0909    0.0909    0.0000
  band No.  band energies     occupation 
      1     -19.2105      1.00000
      2     -18.5063      1.00000
      3     -18.4004      1.00000
      4     -18.3655      1.00000
      5     -18.2481      1.00000
      6     -18.2480      1.00000
      7      -8.7301      1.00000
      8      -8.2633      1.00000
      9      -7.8917      1.00000
     10      -7.8656      1.00000
     11      -7.7137      1.00000
     12      -7.7068      1.00000
     13      -7.3350      1.00000
     14      -7.0720      1.00000
     15      -6.9850      1.00000
     16      -6.5807      1.00000
     17      -6.4924      1.00000
     18      -6.4278      1.00000
     19      -6.1785      1.00000
     20      -5.8152      1.00000
     21      -5.5866      1.00000
     22      -5.5418      1.00000
     23      -5.4763      1.00000
     24      -5.3654      1.00000
     25      -0.7758      0.00000
     26      -0.7394      0.00000
     27      -0.6016      0.00000
     28      -0.5714      0.00000
     29      -0.5522      0.00000
     30      -0.3892      0.00000
     31      -0.3016      0.00000
     32      -0.2689      0.00000
     33      -0.1863      0.00000
     34      -0.1542      0.00000
     35       1.9264      0.00000
     36       2.4730      0.00000

 k-point     8 :       0.1818    0.0909    0.0000
  band No.  band energies     occupation 
      1     -19.1498      1.00000
      2     -18.4791      1.00000
      3     -18.4662      1.00000
      4     -18.3867      1.00000
      5     -18.2590      1.00000
      6     -18.2560      1.00000
      7      -8.7220      1.00000
      8      -8.2570      1.00000
      9      -7.9450      1.00000
     10      -7.8957      1.00000
     11      -7.7068      1.00000
     12      -7.5529      1.00000
     13      -7.2032      1.00000
     14      -7.1529      1.00000
     15      -6.9934      1.00000
     16      -6.5731      1.00000
     17      -6.3755      1.00000
     18      -6.3462      1.00000
     19      -6.1413      1.00000
     20      -5.9678      1.00000
     21      -5.7154      1.00000
     22      -5.5719      1.00000
     23      -5.4916      1.00000
     24      -5.4029      1.00000
     25      -0.8039      0.00000
     26      -0.7274      0.00000
     27      -0.6777      0.00000
     28      -0.5976      0.00000
     29      -0.5656      0.00000
     30      -0.3536      0.00000
     31      -0.3206      0.00000
     32      -0.2827      0.00000
     33      -0.1776      0.00000
     34      -0.1148      0.00000
     35       2.1797      0.00000
     36       2.6441      0.00000

 k-point     9 :       0.2727    0.0909    0.0000
  band No.  band energies     occupation 
      1     -19.0659      1.00000
      2     -18.5559      1.00000
      3     -18.4426      1.00000
      4     -18.4068      1.00000
      5     -18.2789      1.00000
      6     -18.2661      1.00000
      7      -8.7020      1.00000
      8      -8.2404      1.00000
      9      -8.0015      1.00000
     10      -7.8709      1.00000
     11      -7.6425      1.00000
     12      -7.4129      1.00000
     13      -7.3503      1.00000
     14      -7.0537      1.00000
     15      -6.9187      1.00000
     16      -6.6246      1.00000
     17      -6.3436      1.00000
     18      -6.3146      1.00000
     19      -6.1386      1.00000
     20      -6.0598      1.00000
     21      -5.8228      1.00000
     22      -5.5888      1.00000
     23      -5.4795      1.00000
     24      -5.4079      1.00000
     25      -0.8579      0.00000
     26      -0.7652      0.00000
     27      -0.6838      0.00000
     28      -0.6193      0.00000
     29      -0.5811      0.00000
     30      -0.4069      0.00000
     31      -0.3503      0.00000
     32      -0.2148      0.00000
     33      -0.1559      0.00000
     34      -0.0750      0.00000
     35       2.5136      0.00000
     36       2.8776      0.00000

 k-point    10 :       0.3636    0.0909    0.0000
  band No.  band energies     occupation 
      1     -18.9723      1.00000
      2     -18.6543      1.00000
      3     -18.4223      1.00000
      4     -18.4004      1.00000
      5     -18.3079      1.00000
      6     -18.2741      1.00000
      7      -8.6870      1.00000
      8      -8.2064      1.00000
      9      -8.0373      1.00000
     10      -7.8016      1.00000
     11      -7.5394      1.00000
     12      -7.5118      1.00000
     13      -7.3290      1.00000
     14      -7.0252      1.00000
     15      -6.7890      1.00000
     16      -6.7146      1.00000
     17      -6.5496      1.00000
     18      -6.3321      1.00000
     19      -6.0407      1.00000
     20      -5.9878      1.00000
     21      -5.9045      1.00000
     22      -5.6250      1.00000
     23      -5.4789      1.00000
     24      -5.3635      1.00000
     25      -0.9309      0.00000
     26      -0.8008      0.00000
     27      -0.6568      0.00000
     28      -0.6230      0.00000
     29      -0.5881      0.00000
     30      -0.4539      0.00000
     31      -0.3777      0.00000
     32      -0.1886      0.00000
     33      -0.1070      0.00000
     34      -0.0514      0.00000
     35       2.9048      0.00000
     36       3.1586      0.00000

 k-point    11 :       0.4545    0.0909    0.0000
  band No.  band energies     occupation 
      1     -18.9163      1.00000
      2     -18.7121      1.00000
      3     -18.4270      1.00000
      4     -18.3728      1.00000
      5     -18.3316      1.00000
      6     -18.2771      1.00000
      7      -8.6828      1.00000
      8      -8.1859      1.00000
      9      -8.0496      1.00000
     10      -7.7226      1.00000
     11      -7.6246      1.00000
     12      -7.4796      1.00000
     13      -7.2974      1.00000
     14      -6.9684      1.00000
     15      -6.9198      1.00000
     16      -6.6639      1.00000
     17      -6.5974      1.00000
     18      -6.3354      1.00000
     19      -6.0578      1.00000
     20      -5.9893      1.00000
     21      -5.8533      1.00000
     22      -5.6504      1.00000
     23      -5.4848      1.00000
     24      -5.3377      1.00000
     25      -0.9638      0.00000
     26      -0.8111      0.00000
     27      -0.6537      0.00000
     28      -0.6095      0.00000
     29      -0.5924      0.00000
     30      -0.4749      0.00000
     31      -0.3874      0.00000
     32      -0.1830      0.00000
     33      -0.0811      0.00000
     34      -0.0468      0.00000
     35       3.3098      0.00000
     36       3.3395      0.00000

 k-point    12 :       0.1818    0.1818    0.0000
  band No.  band energies     occupation 
      1     -19.0787      1.00000
      2     -18.5336      1.00000
      3     -18.4485      1.00000
      4     -18.4156      1.00000
      5     -18.2734      1.00000
      6     -18.2641      1.00000
      7      -8.6825      1.00000
      8      -8.2597      1.00000
      9      -7.9601      1.00000
     10      -7.9239      1.00000
     11      -7.6639      1.00000
     12      -7.4306      1.00000
     13      -7.3331      1.00000
     14      -7.0684      1.00000
     15      -6.8995      1.00000
     16      -6.6343      1.00000
     17      -6.3217      1.00000
     18      -6.3175      1.00000
     19      -6.1762      1.00000
     20      -6.0690      1.00000
     21      -5.6623      1.00000
     22      -5.6416      1.00000
     23      -5.4922      1.00000
     24      -5.4409      1.00000
     25      -0.8220      0.00000
     26      -0.7707      0.00000
     27      -0.7150      0.00000
     28      -0.6159      0.00000
     29      -0.5787      0.00000
     30      -0.3757      0.00000
     31      -0.3647      0.00000
     32      -0.2283      0.00000
     33      -0.1411      0.00000
     34      -0.0829      0.00000
     35       2.4563      0.00000
     36       2.8387      0.00000

 k-point    13 :       0.2727    0.1818    0.0000
  band No.  band energies     occupation 
      1     -18.9897      1.00000
      2     -18.6198      1.00000
      3     -18.4423      1.00000
      4     -18.4097      1.00000
      5     -18.2943      1.00000
      6     -18.2739      1.00000
      7      -8.6268      1.00000
      8      -8.2538      1.00000
      9      -7.9833      1.00000
     10      -7.8947      1.00000
     11      -7.5734      1.00000
     12      -7.4976      1.00000
     13      -7.3562      1.00000
     14      -7.0379      1.00000
     15      -6.7718      1.00000
     16      -6.7031      1.00000
     17      -6.5610      1.00000
     18      -6.2821      1.00000
     19      -6.1067      1.00000
     20      -5.9504      1.00000
     21      -5.7826      1.00000
     22      -5.6246      1.00000
     23      -5.4778      1.00000
     24      -5.4388      1.00000
     25      -0.8731      0.00000
     26      -0.8277      0.00000
     27      -0.6975      0.00000
     28      -0.6243      0.00000
     29      -0.5923      0.00000
     30      -0.4292      0.00000
     31      -0.3833      0.00000
     32      -0.1857      0.00000
     33      -0.0940      0.00000
     34      -0.0529      0.00000
     35       2.7947      0.00000
     36       3.0874      0.00000

 k-point    14 :       0.3636    0.1818    0.0000
  band No.  band energies     occupation 
      1     -18.9035      1.00000
      2     -18.7052      1.00000
      3     -18.4561      1.00000
      4     -18.3730      1.00000
      5     -18.3215      1.00000
      6     -18.2801      1.00000
      7      -8.5903      1.00000
      8      -8.2336      1.00000
      9      -8.0010      1.00000
     10      -7.8114      1.00000
     11      -7.6587      1.00000
     12      -7.4646      1.00000
     13      -7.3286      1.00000
     14      -7.0204      1.00000
     15      -6.9732      1.00000
     16      -6.6349      1.00000
     17      -6.5520      1.00000
     18      -6.2775      1.00000
     19      -6.0657      1.00000
     20      -5.9212      1.00000
     21      -5.8171      1.00000
     22      -5.6506      1.00000
     23      -5.4771      1.00000
     24      -5.4026      1.00000
     25      -0.9271      0.00000
     26      -0.8492      0.00000
     27      -0.6763      0.00000
     28      -0.6308      0.00000
     29      -0.5825      0.00000
     30      -0.4832      0.00000
     31      -0.3873      0.00000
     32      -0.1650      0.00000
     33      -0.0586      0.00000
     34      -0.0377      0.00000
     35       3.1576      0.00000
     36       3.3780      0.00000

 k-point    15 :       0.2727    0.2727    0.0000
  band No.  band energies     occupation 
      1     -18.9013      1.00000
      2     -18.6954      1.00000
      3     -18.4721      1.00000
      4     -18.3753      1.00000
      5     -18.3123      1.00000
      6     -18.2840      1.00000
      7      -8.5198      1.00000
      8      -8.2825      1.00000
      9      -7.9318      1.00000
     10      -7.9087      1.00000
     11      -7.6650      1.00000
     12      -7.4695      1.00000
     13      -7.3434      1.00000
     14      -7.0124      1.00000
     15      -7.0092      1.00000
     16      -6.6497      1.00000
     17      -6.5126      1.00000
     18      -6.2289      1.00000
     19      -6.1215      1.00000
     20      -5.8372      1.00000
     21      -5.8004      1.00000
     22      -5.6547      1.00000
     23      -5.4631      1.00000
     24      -5.4612      1.00000
     25      -0.8830      0.00000
     26      -0.8823      0.00000
     27      -0.7181      0.00000
     28      -0.6107      0.00000
     29      -0.5903      0.00000
     30      -0.4813      0.00000
     31      -0.3879      0.00000
     32      -0.1577      0.00000
     33      -0.0488      0.00000
     34      -0.0329      0.00000
     35       3.0952      0.00000
     36       3.3489      0.00000

 k-point    16 :       0.3636    0.2727    0.0000
  band No.  band energies     occupation 
      1     -18.8358      1.00000
      2     -18.7558      1.00000
      3     -18.4835      1.00000
      4     -18.3500      1.00000
      5     -18.3304      1.00000
      6     -18.2888      1.00000
      7      -8.4551      1.00000
      8      -8.3067      1.00000
      9      -7.9283      1.00000
     10      -7.8312      1.00000
     11      -7.8001      1.00000
     12      -7.3823      1.00000
     13      -7.3436      1.00000
     14      -7.1643      1.00000
     15      -6.9953      1.00000
     16      -6.6722      1.00000
     17      -6.4209      1.00000
     18      -6.2117      1.00000
     19      -6.1292      1.00000
     20      -5.8362      1.00000
     21      -5.7865      1.00000
     22      -5.6623      1.00000
     23      -5.4712      1.00000
     24      -5.4524      1.00000
     25      -0.9053      0.00000
     26      -0.8861      0.00000
     27      -0.7291      0.00000
     28      -0.6043      0.00000
     29      -0.5651      0.00000
     30      -0.5234      0.00000
     31      -0.3871      0.00000
     32      -0.1466      0.00000
     33      -0.0311      0.00000
     34      -0.0259      0.00000
     35       3.2914      0.00000
     36       3.3441      0.00000


--------------------------------------------------------------------------------------------------------


 soft charge-density along one line, spin component           1
         0         1         2         3         4         5         6         7         8         9
 total charge-density along one line

 soft charge-density along one line, spin component           2
         0         1         2         3         4         5         6         7         8         9
 total charge-density along one line

 pseudopotential strength for first ion, spin component:           1
-10.905   1.183  -0.000   0.000  -0.000 -11.248   1.205  -0.000
  1.183 -10.071  -0.000   0.000  -0.000   1.205 -10.398  -0.000
 -0.000  -0.000 -11.741  -0.000   0.000  -0.000  -0.000 -12.098
  0.000   0.000  -0.000 -10.071  -1.183   0.000   0.000  -0.000
 -0.000  -0.000   0.000  -1.183 -10.905  -0.000  -0.000   0.000
-11.248   1.205  -0.000   0.000  -0.000 -11.563   1.238  -0.000
  1.205 -10.398  -0.000   0.000  -0.000   1.238 -10.691  -0.000
 -0.000  -0.000 -12.098  -0.000   0.000  -0.000  -0.000 -12.437
  0.000   0.000  -0.000 -10.398  -1.205   0.000   0.000  -0.000
 -0.000  -0.000   0.000  -1.205 -11.248  -0.000  -0.000   0.000
 -0.000  -0.000   0.000  -0.000   0.000  -0.000  -0.000   0.000
 -0.000  -0.000   0.000  -0.000   0.000  -0.000  -0.000   0.000
 -0.000  -0.000  -0.000   0.000  -0.001  -0.000  -0.000  -0.000
  0.000   0.000   0.000  -0.000   0.000   0.000   0.000   0.000
 -0.001   0.000   0.000   0.000  -0.000  -0.001   0.000   0.000
 -0.000  -0.000  -0.000   0.000  -0.002  -0.000  -0.000  -0.000
  0.000   0.000   0.000  -0.000   0.000   0.000   0.000   0.000
 -0.002   0.000   0.000   0.000  -0.000  -0.002   0.000   0.000
 pseudopotential strength for first ion, spin component:           2
 -6.766  -0.522   0.000   0.000  -0.000  -7.101  -0.520   0.000
 -0.522  -7.128  -0.000  -0.000  -0.000  -0.520  -7.461  -0.000
  0.000  -0.000  -6.383  -0.000  -0.000   0.000  -0.000  -6.718
  0.000  -0.000  -0.000  -7.128   0.522   0.000  -0.000  -0.000
 -0.000  -0.000  -0.000   0.522  -6.766  -0.000  -0.000  -0.000
 -7.101  -0.520   0.000   0.000  -0.000  -7.382  -0.522   0.000
 -0.520  -7.461  -0.000  -0.000  -0.000  -0.522  -7.743  -0.000
  0.000  -0.000  -6.718  -0.000  -0.000   0.000  -0.000  -6.998
  0.000  -0.000  -0.000  -7.461   0.520   0.000  -0.000  -0.000
 -0.000  -0.000  -0.000   0.520  -7.101  -0.000  -0.000  -0.000
  0.000  -0.000  -0.001  -0.000  -0.000   0.000  -0.000  -0.001
  0.000  -0.000  -0.002  -0.000  -0.000   0.000  -0.000  -0.002
  0.000  -0.000   0.000   0.000  -0.000   0.000  -0.000   0.000
  0.000  -0.000   0.000   0.000   0.000   0.000  -0.000   0.000
 -0.000   0.000  -0.000   0.000   0.000  -0.001   0.000  -0.000
  0.000  -0.000   0.000   0.000  -0.000   0.000  -0.000   0.000
  0.000  -0.000   0.000   0.000   0.000   0.000  -0.000   0.000
 -0.000   0.000  -0.000   0.000   0.000  -0.000   0.000  -0.000
 total augmentation occupancy for first ion, spin component:           1
  3.833  -1.714  -0.000  -0.000  -0.000  -2.715   0.577   0.000   0.000   0.000  -0.000   0.000  -0.000   0.000   0.081   0.000
 -1.714   2.557  -0.000  -0.000   0.000   0.579  -2.224  -0.000   0.000  -0.000  -0.000   0.000   0.000  -0.000  -0.027   0.000
 -0.000  -0.000   4.917  -0.000   0.000   0.000   0.000  -2.984   0.000  -0.000   0.063  -0.008  -0.000   0.000   0.000   0.000
 -0.000  -0.000  -0.000   2.557   1.714   0.000   0.000   0.000  -2.224  -0.579  -0.000   0.000   0.027  -0.000   0.000  -0.000
 -0.000   0.000   0.000   1.714   3.833   0.000  -0.000  -0.000  -0.577  -2.715   0.000  -0.000   0.081   0.000  -0.000  -0.003
 -2.715   0.579   0.000   0.000   0.000   2.540   0.273  -0.000   0.000  -0.000  -0.000  -0.000   0.000  -0.000  -0.088  -0.000
  0.577  -2.224   0.000   0.000  -0.000   0.273   2.633   0.000  -0.000  -0.000   0.000   0.000   0.000   0.000   0.023   0.000
  0.000   0.000  -2.984   0.000  -0.000  -0.000   0.000   2.192   0.000   0.000  -0.069   0.010   0.000  -0.000   0.000  -0.000
  0.000   0.000   0.000  -2.224  -0.577   0.000  -0.000   0.000   2.633  -0.273   0.000   0.000  -0.023   0.000  -0.000   0.000
  0.000  -0.000  -0.000  -0.579  -2.715  -0.000  -0.000   0.000  -0.273   2.540  -0.000   0.000  -0.088  -0.000  -0.000   0.003
 -0.000  -0.000   0.063   0.000   0.000  -0.000  -0.000  -0.069   0.000  -0.000   1.713  -0.186   0.000   0.000   0.000  -0.000
  0.000   0.000  -0.008  -0.000   0.000  -0.000  -0.000   0.010   0.000   0.000  -0.186   0.028  -0.000   0.000   0.000  -0.000
 -0.000   0.000  -0.000   0.027   0.081   0.000   0.000   0.000  -0.023  -0.088  -0.000  -0.000   0.270  -0.000   0.000  -0.007
  0.000   0.000   0.000   0.000   0.000  -0.000  -0.000  -0.000  -0.000  -0.000   0.000   0.000   0.000   0.262   0.000   0.000
  0.081  -0.027   0.000   0.000  -0.000  -0.088   0.023  -0.000  -0.000   0.000  -0.000   0.000   0.000  -0.000   0.270  -0.000
  0.000   0.000   0.000  -0.000  -0.003  -0.000  -0.000  -0.000   0.000   0.003  -0.000   0.000  -0.007   0.000  -0.000   0.000
  0.000  -0.000   0.000   0.000   0.000  -0.000  -0.000  -0.000   0.000   0.000   0.000   0.000  -0.000  -0.006   0.000   0.000
 -0.003   0.000   0.000  -0.000  -0.000   0.003  -0.000   0.000   0.000   0.000   0.000   0.000  -0.000   0.000  -0.007   0.000
 total augmentation occupancy for first ion, spin component:           2
  2.948  -2.357  -0.000  -0.000  -0.000  -1.503   1.461   0.000   0.000   0.000   0.000  -0.000  -0.000   0.000   0.023   0.000
 -2.357   1.283  -0.000  -0.000   0.000   1.463  -0.468   0.000   0.000  -0.000  -0.000  -0.000   0.000  -0.000  -0.023  -0.000
 -0.000  -0.000   4.539  -0.000   0.000   0.000   0.000  -2.466   0.000  -0.000   0.008   0.001  -0.000   0.000   0.000  -0.000
 -0.000  -0.000  -0.000   1.283   2.357   0.000   0.000   0.000  -0.468  -1.463  -0.000   0.000   0.023   0.000   0.000  -0.000
 -0.000   0.000   0.000   2.357   2.948   0.000  -0.000  -0.000  -1.461  -1.503   0.000   0.000   0.023  -0.000  -0.000   0.000
 -1.503   1.463   0.000   0.000   0.000   0.844  -0.984  -0.000  -0.000  -0.000  -0.000  -0.000   0.000  -0.000  -0.016   0.000
  1.461  -0.468   0.000   0.000  -0.000  -0.984   0.147  -0.000  -0.000   0.000   0.000   0.000   0.000  -0.000   0.014   0.000
  0.000   0.000  -2.466   0.000  -0.000  -0.000  -0.000   1.479  -0.000   0.000  -0.003  -0.001   0.000  -0.000  -0.000   0.000
 -0.000   0.000   0.000  -0.468  -1.461  -0.000  -0.000  -0.000   0.147   0.984   0.000   0.000  -0.014   0.000  -0.000   0.000
  0.000  -0.000  -0.000  -1.463  -1.503  -0.000   0.000   0.000   0.984   0.844  -0.000  -0.000  -0.016  -0.000  -0.000  -0.000
  0.000   0.000   0.008  -0.000   0.000  -0.000  -0.000  -0.003   0.000  -0.000  -0.048   0.053   0.000   0.000  -0.000   0.000
  0.000  -0.000   0.001   0.000   0.000  -0.000   0.000  -0.001   0.000  -0.000   0.053  -0.009   0.000   0.000   0.000   0.000
 -0.000  -0.000  -0.000   0.023   0.023   0.000   0.000   0.000  -0.014  -0.016   0.000   0.000   0.017  -0.000   0.000   0.002
  0.000  -0.000   0.000  -0.000   0.000  -0.000   0.000  -0.000  -0.000   0.000   0.000   0.000  -0.000   0.015  -0.000   0.000
  0.023  -0.023   0.000   0.000   0.000  -0.016   0.014  -0.000  -0.000  -0.000   0.000   0.000   0.000   0.000   0.017   0.000
  0.000  -0.000   0.000  -0.000   0.000   0.000  -0.000   0.000   0.000  -0.000   0.000   0.000   0.002   0.000   0.000  -0.000
  0.000   0.000   0.000   0.000  -0.000  -0.000  -0.000  -0.000   0.000   0.000   0.000   0.000   0.000   0.002   0.000  -0.000
  0.000   0.000  -0.000  -0.000   0.000  -0.000  -0.000   0.000   0.000  -0.000   0.000   0.000   0.000   0.000   0.002  -0.000


------------------------ aborting loop because EDIFF is reached ----------------------------------------





 total charge

# of ion       s       p       d       tot
------------------------------------------
    1        0.345   0.504   4.056   4.905
    2        0.345   0.504   4.056   4.905
    3        1.604   3.520   0.000   5.124
    4        1.604   3.520   0.000   5.124
    5        1.604   3.520   0.000   5.124
    6        1.604   3.520   0.000   5.124
    7        1.604   3.520   0.000   5.124
    8        1.604   3.520   0.000   5.124
--------------------------------------------------
tot         10.314  22.126   8.112  40.551



 magnetization (x)

# of ion       s       p       d       tot
------------------------------------------
    1        0.032   0.040   3.094   3.165
    2        0.032   0.040   3.094   3.165
    3       -0.002  -0.073   0.000  -0.075
    4       -0.002  -0.073   0.000  -0.075
    5       -0.002  -0.073   0.000  -0.075
    6       -0.002  -0.073   0.000  -0.075
    7       -0.002  -0.073   0.000  -0.075
    8       -0.002  -0.073   0.000  -0.075
--------------------------------------------------
tot          0.054  -0.359   6.187   5.882

    CHARGE:  cpu time      0.2294: real time      0.2311
    FORLOC:  cpu time      0.0060: real time      0.0061
    FORNL :  cpu time      0.4379: real time      0.4419
    STRESS:  cpu time      0.7441: real time      0.7508
    FORCOR:  cpu time      0.2613: real time      0.2641
    FORHAR:  cpu time      0.0339: real time      0.0343
    MIXING:  cpu time      0.0111: real time      0.0113
    OFIELD:  cpu time      0.0001: real time      0.0001

 ---------------------------------------------------------------------------------------------

         DFTD3 V3.0 Rev 1        
 Edisp (eV)   -0.91417

 E6    (eV) :    -0.3535
 E8    (eV) :    -0.5607
 % E8        : 61.33
    FORVDW:  cpu time      0.0149: real time      0.0151

  FORCE on cell =-STRESS in cart. coord.  units (eV):
  Direction    XX          YY          ZZ          XY          YZ          ZX
  --------------------------------------------------------------------------------------
  Alpha Z    30.51407    30.51407    30.51407
  Ewald    6089.99181  6089.99181 -7773.73142    -0.00000    -0.00000     0.00000
  Hartree  6728.40620  6728.40620 -6350.23836    -0.00000     0.00000     0.00000
  E(xc)    -209.22218  -209.22218  -209.51721    -0.00000     0.00000     0.00000
  Local  -13849.37329-13849.37323 13089.42960     0.00006     0.00000     0.00000
  n-local   479.68878   479.82869   478.77554    -0.41560     0.04137     0.04783
  augment   -58.49907   -58.49912   -58.65331    -0.00005    -0.00000     0.00000
  Kinetic   789.35176   788.85892   793.47700     0.57938    -0.32116     0.05297
  Fock        0.00000     0.00000     0.00000     0.00000     0.00000     0.00000
  vdW        -0.75510    -0.75510    -0.01982    -0.00000    -0.00000     0.00000
  -------------------------------------------------------------------------------------
  Total      -0.07349    -0.07349     0.03610     0.00000     0.00000    -0.00000
  in kB      -0.20870    -0.20870     0.10252     0.00000     0.00000    -0.00000
  external pressure =       -0.10 kB  Pullay stress =        0.00 kB


 VOLUME and BASIS-vectors are now :
 -----------------------------------------------------------------------------
  energy-cutoff  :      500.00
  volume of cell :      564.16
      direct lattice vectors                 reciprocal lattice vectors
     6.071827948  0.000000000  0.000000000     0.164695049  0.095086731 -0.000000000
    -3.035913974  5.258357251  0.000000000     0.000000000  0.190173461  0.000000000
     0.000000000  0.000000000 17.670000000     0.000000000 -0.000000000  0.056593096

  length of vectors
     6.071827948  6.071827948 17.670000000     0.190173461  0.190173461  0.056593096


 FORCES acting on ions
    electron-ion (+dipol)            ewald-force                    non-local-force                 convergence-correction
 -----------------------------------------------------------------------------------------------
   0.613E-07 -.354E-07 -.450E-11   -.494E-11 0.291E-11 0.268E-13   -.210E-18 -.386E-18 0.164E-20   0.326E-08 -.188E-08 0.118E-11
   -.613E-07 0.354E-07 -.181E-10   0.490E-11 -.289E-11 -.991E-13   0.721E-20 0.478E-18 -.134E-20   -.326E-08 0.188E-08 0.122E-11
   0.678E+02 0.487E-06 0.455E+03   -.698E+02 -.330E-11 -.458E+03   0.204E+01 0.617E-18 0.286E+01   0.135E-02 -.839E-07 0.638E-03
   -.339E+02 0.587E+02 0.455E+03   0.349E+02 -.604E+02 -.458E+03   -.102E+01 0.176E+01 0.286E+01   -.676E-03 0.117E-02 0.638E-03
   -.339E+02 -.587E+02 0.455E+03   0.349E+02 0.604E+02 -.458E+03   -.102E+01 -.176E+01 0.286E+01   -.676E-03 -.117E-02 0.638E-03
   -.678E+02 -.487E-06 -.455E+03   0.698E+02 0.329E-11 0.458E+03   -.204E+01 -.693E-18 -.286E+01   -.135E-02 0.839E-07 -.638E-03
   0.339E+02 -.587E+02 -.455E+03   -.349E+02 0.604E+02 0.458E+03   0.102E+01 -.176E+01 -.286E+01   0.676E-03 -.117E-02 -.638E-03
   0.339E+02 0.587E+02 -.455E+03   -.349E+02 -.604E+02 0.458E+03   0.102E+01 0.176E+01 -.286E+01   0.676E-03 0.117E-02 -.638E-03
 -----------------------------------------------------------------------------------------------
   -.209E-11 0.158E-11 -.539E-10   -.355E-13 0.000E+00 0.000E+00   -.444E-15 0.000E+00 0.888E-15   -.196E-12 0.293E-12 0.857E-11


 POSITION                                       TOTAL-FORCE (eV/Angst)
 -----------------------------------------------------------------------------------
      0.00000      3.50557      8.83500         0.000000      0.000000      0.000000
      3.03591      1.75279      8.83500         0.000000      0.000000     -0.000000
     -0.88352      5.25836      7.47888        -0.002181      0.000000     -0.019159
     -1.07620      1.86403      7.47888         0.001090     -0.001888     -0.019159
      1.95972      3.39433      7.47888         0.001090      0.001888     -0.019159
      0.88352      5.25836     10.19112         0.002181      0.000000      0.019159
      4.11211      3.39433     10.19112        -0.001090      0.001888      0.019159
      1.07620      1.86403     10.19112        -0.001090     -0.001888      0.019159
 -----------------------------------------------------------------------------------
    total drift:                               -0.000000      0.000000     -0.000000


--------------------------------------------------------------------------------------------------------



  FREE ENERGIE OF THE ION-ELECTRON SYSTEM (eV)
  ---------------------------------------------------
  free  energy   TOTEN  =       -35.57213647 eV

  energy  without entropy=      -35.57213647  energy(sigma->0) =      -35.57213647
 d Force = 0.1595042E-03[ 0.142E-03, 0.178E-03]  d Energy = 0.2169394E-03-0.574E-04
 d Force = 0.3397553E+01[ 0.340E+01, 0.340E+01]  d Ewald  =-0.1682058E+01 0.508E+01



--------------------------------------------------------------------------------------------------------


    POTLOK:  cpu time      0.3959: real time      0.3996


--------------------------------------------------------------------------------------------------------


 Conjugate gradient step on ions:
 trial-energy change:   -0.000217  1 .order   -0.000225   -0.000248   -0.000203
  (g-gl).g = 0.214E-03      g.g   = 0.255E-03  gl.gl    = 0.140E-01
 g(Force)  = 0.169E-03   g(Stress)= 0.852E-04 ortho     = 0.404E-04
 gamma     =   0.01527
 trial     =   0.96998
 opt step  =   3.87993  (harmonic =   5.36105) maximal distance =0.00484898
 next E    =   -35.572604   (d E  =  -0.00068)


--------------------------------------------------------------------------------------------------------


      MLFF:  cpu time      0.0022: real time      0.0023
    WAVPRE:  cpu time      0.0203: real time      0.0205
    FEWALD:  cpu time      0.0020: real time      0.0020
    GENKIN:  cpu time      0.0156: real time      0.0157
    ORTHCH:  cpu time      0.1118: real time      0.1126
     LOOP+:  cpu time     57.6333: real time     58.3622


--------------------------------------- Ionic step        5  -------------------------------------------




--------------------------------------- Iteration      5(   1)  ---------------------------------------


    POTLOK:  cpu time      0.2970: real time      0.3007
    SETDIJ:  cpu time      0.1114: real time      0.1119
     EDDAV:  cpu time      7.7939: real time      7.8986
       DOS:  cpu time      0.0004: real time      0.0004
    CHARGE:  cpu time      0.2312: real time      0.2330
    MIXING:  cpu time      0.0114: real time      0.0115
    --------------------------------------------
      LOOP:  cpu time      8.4453: real time      8.5562

 eigenvalue-minimisations  :  2600
 total energy-change (2. order) : 0.1171341E-02  (-0.1963327E-01)
 number of electron      53.9999982 magnetization       5.9999998
 augmentation part       -0.5652988 magnetization       4.3758507

 Broyden mixing:
  rms(total) = 0.31241E-01    rms(broyden)= 0.31239E-01
  rms(prec ) = 0.33302E-01
  weight for this iteration     100.00

 Free energy of the ion-electron system (eV)
  ---------------------------------------------------
  alpha Z        PSCENC =        30.59060044
  Ewald energy   TEWEN  =      4411.30869194
  -Hartree energ DENC   =     -7113.48993730
  -exchange      EXHF   =         0.00000000
  -V(xc)+E(xc)   XCENC  =        86.62185734
  PAW double counting   =      3672.15041679    -3622.67038371
  entropy T*S    EENTRO =        -0.00000000
  eigenvalues    EBANDS =      -511.27473620
  atomic energy  EATOM  =      3012.10669636
  Solvation  Ediel_sol  =         0.00000000
  ext. energy  EPLUGINS =         0.00000000
  ---------------------------------------------------
  free energy    TOTEN  =       -34.65679434 eV

  energy without entropy =      -34.65679434  energy(sigma->0) =      -34.65679434


--------------------------------------------------------------------------------------------------------




--------------------------------------- Iteration      5(   2)  ---------------------------------------


    POTLOK:  cpu time      0.2756: real time      0.2785
    SETDIJ:  cpu time      0.1143: real time      0.1148
     EDDAV:  cpu time      9.4221: real time      9.5522
       DOS:  cpu time      0.0004: real time      0.0004
    CHARGE:  cpu time      0.2350: real time      0.2370
    MIXING:  cpu time      0.0108: real time      0.0110
    --------------------------------------------
      LOOP:  cpu time     10.0581: real time     10.1939

 eigenvalue-minimisations  :  3312
 total energy-change (2. order) : 0.1422935E-03  (-0.1850884E-02)
 number of electron      53.9999982 magnetization       5.9999998
 augmentation part       -0.5729070 magnetization       4.3736206

 Broyden mixing:
  rms(total) = 0.15302E-01    rms(broyden)= 0.15300E-01
  rms(prec ) = 0.16381E-01
  weight for this iteration     100.00

 eigenvalues of (default mixing * dielectric matrix)
  average eigenvalue GAMMA=   0.6840
  0.6840

 Free energy of the ion-electron system (eV)
  ---------------------------------------------------
  alpha Z        PSCENC =        30.59060044
  Ewald energy   TEWEN  =      4411.30869194
  -Hartree energ DENC   =     -7112.76988154
  -exchange      EXHF   =         0.00000000
  -V(xc)+E(xc)   XCENC  =        86.55818896
  PAW double counting   =      3676.49853627    -3627.00713554
  entropy T*S    EENTRO =        -0.00000000
  eigenvalues    EBANDS =      -511.94234894
  atomic energy  EATOM  =      3012.10669636
  Solvation  Ediel_sol  =         0.00000000
  ext. energy  EPLUGINS =         0.00000000
  ---------------------------------------------------
  free energy    TOTEN  =       -34.65665205 eV

  energy without entropy =      -34.65665205  energy(sigma->0) =      -34.65665205


--------------------------------------------------------------------------------------------------------




--------------------------------------- Iteration      5(   3)  ---------------------------------------


    POTLOK:  cpu time      0.2812: real time      0.2846
    SETDIJ:  cpu time      0.1129: real time      0.1134
     EDDAV:  cpu time      9.0795: real time      9.1944
       DOS:  cpu time      0.0003: real time      0.0003
    CHARGE:  cpu time      0.2303: real time      0.2322
    MIXING:  cpu time      0.0118: real time      0.0120
    --------------------------------------------
      LOOP:  cpu time      9.7161: real time      9.8370

 eigenvalue-minimisations  :  3136
 total energy-change (2. order) : 0.2937427E-03  (-0.6794941E-04)
 number of electron      53.9999982 magnetization       5.9999998
 augmentation part       -0.5657498 magnetization       4.3768932

 Broyden mixing:
  rms(total) = 0.13453E-01    rms(broyden)= 0.13453E-01
  rms(prec ) = 0.13791E-01
  weight for this iteration     100.00

 eigenvalues of (default mixing * dielectric matrix)
  average eigenvalue GAMMA=   0.6246
  0.7640  0.4853

 Free energy of the ion-electron system (eV)
  ---------------------------------------------------
  alpha Z        PSCENC =        30.59060044
  Ewald energy   TEWEN  =      4411.30869194
  -Hartree energ DENC   =     -7112.37889714
  -exchange      EXHF   =         0.00000000
  -V(xc)+E(xc)   XCENC  =        86.54825652
  PAW double counting   =      3675.43040274    -3625.92361235
  entropy T*S    EENTRO =        -0.00000000
  eigenvalues    EBANDS =      -512.33849682
  atomic energy  EATOM  =      3012.10669636
  Solvation  Ediel_sol  =         0.00000000
  ext. energy  EPLUGINS =         0.00000000
  ---------------------------------------------------
  free energy    TOTEN  =       -34.65635830 eV

  energy without entropy =      -34.65635830  energy(sigma->0) =      -34.65635830


--------------------------------------------------------------------------------------------------------




--------------------------------------- Iteration      5(   4)  ---------------------------------------


    POTLOK:  cpu time      0.2753: real time      0.2782
    SETDIJ:  cpu time      0.1139: real time      0.1144
     EDDAV:  cpu time      9.2786: real time      9.4022
       DOS:  cpu time      0.0003: real time      0.0003
    CHARGE:  cpu time      0.2242: real time      0.2260
    MIXING:  cpu time      0.0119: real time      0.0121
    --------------------------------------------
      LOOP:  cpu time      9.9042: real time     10.0332

 eigenvalue-minimisations  :  3284
 total energy-change (2. order) : 0.5950539E-04  (-0.1455091E-04)
 number of electron      53.9999982 magnetization       5.9999998
 augmentation part       -0.5680402 magnetization       4.3768795

 Broyden mixing:
  rms(total) = 0.68786E-02    rms(broyden)= 0.68786E-02
  rms(prec ) = 0.71480E-02
  weight for this iteration     100.00

 eigenvalues of (default mixing * dielectric matrix)
  average eigenvalue GAMMA=   0.8844
  1.0792  1.0792  0.4948

 Free energy of the ion-electron system (eV)
  ---------------------------------------------------
  alpha Z        PSCENC =        30.59060044
  Ewald energy   TEWEN  =      4411.30869194
  -Hartree energ DENC   =     -7112.28225208
  -exchange      EXHF   =         0.00000000
  -V(xc)+E(xc)   XCENC  =        86.54507129
  PAW double counting   =      3675.22606945    -3625.72900607
  entropy T*S    EENTRO =        -0.00000000
  eigenvalues    EBANDS =      -512.42217012
  atomic energy  EATOM  =      3012.10669636
  Solvation  Ediel_sol  =         0.00000000
  ext. energy  EPLUGINS =         0.00000000
  ---------------------------------------------------
  free energy    TOTEN  =       -34.65629880 eV

  energy without entropy =      -34.65629880  energy(sigma->0) =      -34.65629880


--------------------------------------------------------------------------------------------------------




--------------------------------------- Iteration      5(   5)  ---------------------------------------


    POTLOK:  cpu time      0.2738: real time      0.2768
    SETDIJ:  cpu time      0.1159: real time      0.1164
     EDDAV:  cpu time      9.5344: real time      9.6604
       DOS:  cpu time      0.0004: real time      0.0004
    CHARGE:  cpu time      0.2229: real time      0.2247
    MIXING:  cpu time      0.0112: real time      0.0113
    --------------------------------------------
      LOOP:  cpu time     10.1586: real time     10.2900

 eigenvalue-minimisations  :  3376
 total energy-change (2. order) : 0.3767670E-04  (-0.1318130E-04)
 number of electron      53.9999982 magnetization       5.9999998
 augmentation part       -0.5702395 magnetization       4.3767961

 Broyden mixing:
  rms(total) = 0.43958E-02    rms(broyden)= 0.43958E-02
  rms(prec ) = 0.45241E-02
  weight for this iteration     100.00

 eigenvalues of (default mixing * dielectric matrix)
  average eigenvalue GAMMA=   1.0191
  1.4396  1.4396  0.5985  0.5985

 Free energy of the ion-electron system (eV)
  ---------------------------------------------------
  alpha Z        PSCENC =        30.59060044
  Ewald energy   TEWEN  =      4411.30869194
  -Hartree energ DENC   =     -7112.14076539
  -exchange      EXHF   =         0.00000000
  -V(xc)+E(xc)   XCENC  =        86.53847500
  PAW double counting   =      3674.73489300    -3625.24694612
  entropy T*S    EENTRO =        -0.00000000
  eigenvalues    EBANDS =      -512.54790636
  atomic energy  EATOM  =      3012.10669636
  Solvation  Ediel_sol  =         0.00000000
  ext. energy  EPLUGINS =         0.00000000
  ---------------------------------------------------
  free energy    TOTEN  =       -34.65626112 eV

  energy without entropy =      -34.65626112  energy(sigma->0) =      -34.65626112


--------------------------------------------------------------------------------------------------------




--------------------------------------- Iteration      5(   6)  ---------------------------------------


    POTLOK:  cpu time      0.2798: real time      0.2828
    SETDIJ:  cpu time      0.1129: real time      0.1134
     EDDAV:  cpu time      9.8719: real time     10.0031
       DOS:  cpu time      0.0005: real time      0.0005
    CHARGE:  cpu time      0.2317: real time      0.2337
    MIXING:  cpu time      0.0119: real time      0.0121
    --------------------------------------------
      LOOP:  cpu time     10.5087: real time     10.6455

 eigenvalue-minimisations  :  3460
 total energy-change (2. order) : 0.3761100E-05  (-0.2203415E-05)
 number of electron      53.9999982 magnetization       5.9999998
 augmentation part       -0.5686229 magnetization       4.3773884

 Broyden mixing:
  rms(total) = 0.21270E-02    rms(broyden)= 0.21270E-02
  rms(prec ) = 0.21514E-02
  weight for this iteration     100.00

 eigenvalues of (default mixing * dielectric matrix)
  average eigenvalue GAMMA=   1.0920
  1.7595  1.7595  0.6994  0.6207  0.6207

 Free energy of the ion-electron system (eV)
  ---------------------------------------------------
  alpha Z        PSCENC =        30.59060044
  Ewald energy   TEWEN  =      4411.30869194
  -Hartree energ DENC   =     -7112.09563676
  -exchange      EXHF   =         0.00000000
  -V(xc)+E(xc)   XCENC  =        86.53631924
  PAW double counting   =      3673.75910331    -3624.27295170
  entropy T*S    EENTRO =        -0.00000000
  eigenvalues    EBANDS =      -512.58908019
  atomic energy  EATOM  =      3012.10669636
  Solvation  Ediel_sol  =         0.00000000
  ext. energy  EPLUGINS =         0.00000000
  ---------------------------------------------------
  free energy    TOTEN  =       -34.65625736 eV

  energy without entropy =      -34.65625736  energy(sigma->0) =      -34.65625736


--------------------------------------------------------------------------------------------------------




--------------------------------------- Iteration      5(   7)  ---------------------------------------


    POTLOK:  cpu time      0.2810: real time      0.2842
    SETDIJ:  cpu time      0.1113: real time      0.1117
     EDDAV:  cpu time      6.6657: real time      6.7548
       DOS:  cpu time      0.0003: real time      0.0004
    CHARGE:  cpu time      0.2224: real time      0.2242
    MIXING:  cpu time      0.0120: real time      0.0122
    --------------------------------------------
      LOOP:  cpu time      7.2927: real time      7.3874

 eigenvalue-minimisations  :  2088
 total energy-change (2. order) :-0.2467439E-05  (-0.2813731E-06)
 number of electron      53.9999982 magnetization       5.9999998
 augmentation part       -0.5687644 magnetization       4.3775202

 Broyden mixing:
  rms(total) = 0.82012E-03    rms(broyden)= 0.82012E-03
  rms(prec ) = 0.83662E-03
  weight for this iteration     100.00

 eigenvalues of (default mixing * dielectric matrix)
  average eigenvalue GAMMA=   1.1394
  1.9372  1.9372  1.0398  0.7665  0.5779  0.5779

 Free energy of the ion-electron system (eV)
  ---------------------------------------------------
  alpha Z        PSCENC =        30.59060044
  Ewald energy   TEWEN  =      4411.30869194
  -Hartree energ DENC   =     -7112.09436370
  -exchange      EXHF   =         0.00000000
  -V(xc)+E(xc)   XCENC  =        86.53649712
  PAW double counting   =      3672.96341127    -3623.48121907
  entropy T*S    EENTRO =        -0.00000000
  eigenvalues    EBANDS =      -512.58657420
  atomic energy  EATOM  =      3012.10669636
  Solvation  Ediel_sol  =         0.00000000
  ext. energy  EPLUGINS =         0.00000000
  ---------------------------------------------------
  free energy    TOTEN  =       -34.65625983 eV

  energy without entropy =      -34.65625983  energy(sigma->0) =      -34.65625983


--------------------------------------------------------------------------------------------------------




--------------------------------------- Iteration      5(   8)  ---------------------------------------


    POTLOK:  cpu time      0.2960: real time      0.2994
    SETDIJ:  cpu time      0.1154: real time      0.1160
     EDDAV:  cpu time      5.8575: real time      5.9354
       DOS:  cpu time      0.0005: real time      0.0004
    CHARGE:  cpu time      0.2228: real time      0.2247
    MIXING:  cpu time      0.0117: real time      0.0119
    --------------------------------------------
      LOOP:  cpu time      6.5039: real time      6.5878

 eigenvalue-minimisations  :  1732
 total energy-change (2. order) :-0.1804254E-05  (-0.1728907E-06)
 number of electron      53.9999982 magnetization       5.9999998
 augmentation part       -0.5689875 magnetization       4.3774766

 Broyden mixing:
  rms(total) = 0.46522E-03    rms(broyden)= 0.46522E-03
  rms(prec ) = 0.47442E-03
  weight for this iteration     100.00

 eigenvalues of (default mixing * dielectric matrix)
  average eigenvalue GAMMA=   1.1286
  2.2786  1.5377  1.5377  0.7553  0.6103  0.6103  0.5701

 Free energy of the ion-electron system (eV)
  ---------------------------------------------------
  alpha Z        PSCENC =        30.59060044
  Ewald energy   TEWEN  =      4411.30869194
  -Hartree energ DENC   =     -7112.08903371
  -exchange      EXHF   =         0.00000000
  -V(xc)+E(xc)   XCENC  =        86.53580370
  PAW double counting   =      3672.59198699    -3623.11098169
  entropy T*S    EENTRO =        -0.00000000
  eigenvalues    EBANDS =      -512.59002566
  atomic energy  EATOM  =      3012.10669636
  Solvation  Ediel_sol  =         0.00000000
  ext. energy  EPLUGINS =         0.00000000
  ---------------------------------------------------
  free energy    TOTEN  =       -34.65626163 eV

  energy without entropy =      -34.65626163  energy(sigma->0) =      -34.65626163


--------------------------------------------------------------------------------------------------------




--------------------------------------- Iteration      5(   9)  ---------------------------------------


    POTLOK:  cpu time      0.2795: real time      0.2826
    SETDIJ:  cpu time      0.1113: real time      0.1117
     EDDAV:  cpu time      5.4069: real time      5.4795
       DOS:  cpu time      0.0004: real time      0.0004
    CHARGE:  cpu time      0.2335: real time      0.2355
    MIXING:  cpu time      0.0121: real time      0.0123
    --------------------------------------------
      LOOP:  cpu time      6.0436: real time      6.1219

 eigenvalue-minimisations  :  1488
 total energy-change (2. order) :-0.1273036E-05  (-0.4882564E-07)
 number of electron      53.9999982 magnetization       5.9999998
 augmentation part       -0.5688675 magnetization       4.3775454

 Broyden mixing:
  rms(total) = 0.19754E-03    rms(broyden)= 0.19754E-03
  rms(prec ) = 0.20326E-03
  weight for this iteration     100.00

 eigenvalues of (default mixing * dielectric matrix)
  average eigenvalue GAMMA=   1.1585
  2.3854  1.7462  1.7462  0.8866  0.6298  0.6298  0.5972  0.6471

 Free energy of the ion-electron system (eV)
  ---------------------------------------------------
  alpha Z        PSCENC =        30.59060044
  Ewald energy   TEWEN  =      4411.30869194
  -Hartree energ DENC   =     -7112.08766551
  -exchange      EXHF   =         0.00000000
  -V(xc)+E(xc)   XCENC  =        86.53541140
  PAW double counting   =      3672.49285978    -3623.01144444
  entropy T*S    EENTRO =        -0.00000000
  eigenvalues    EBANDS =      -512.59141287
  atomic energy  EATOM  =      3012.10669636
  Solvation  Ediel_sol  =         0.00000000
  ext. energy  EPLUGINS =         0.00000000
  ---------------------------------------------------
  free energy    TOTEN  =       -34.65626291 eV

  energy without entropy =      -34.65626291  energy(sigma->0) =      -34.65626291


--------------------------------------------------------------------------------------------------------




--------------------------------------- Iteration      5(  10)  ---------------------------------------


    POTLOK:  cpu time      0.2757: real time      0.2788
    SETDIJ:  cpu time      0.1117: real time      0.1122
     EDDAV:  cpu time      5.3199: real time      5.3906
       DOS:  cpu time      0.0004: real time      0.0004
    CHARGE:  cpu time      0.2250: real time      0.2268
    MIXING:  cpu time      0.0122: real time      0.0124
    --------------------------------------------
      LOOP:  cpu time      5.9449: real time      6.0213

 eigenvalue-minimisations  :  1472
 total energy-change (2. order) :-0.1232549E-05  (-0.2407064E-07)
 number of electron      53.9999982 magnetization       5.9999998
 augmentation part       -0.5688602 magnetization       4.3775456

 Broyden mixing:
  rms(total) = 0.13130E-03    rms(broyden)= 0.13130E-03
  rms(prec ) = 0.13726E-03
  weight for this iteration     100.00

 eigenvalues of (default mixing * dielectric matrix)
  average eigenvalue GAMMA=   1.1277
  2.2295  2.2295  1.6390  0.7980  0.7760  0.7760  0.5908  0.5908  0.5201

 Free energy of the ion-electron system (eV)
  ---------------------------------------------------
  alpha Z        PSCENC =        30.59060044
  Ewald energy   TEWEN  =      4411.30869194
  -Hartree energ DENC   =     -7112.09174310
  -exchange      EXHF   =         0.00000000
  -V(xc)+E(xc)   XCENC  =        86.53544536
  PAW double counting   =      3672.43834023    -3622.95689667
  entropy T*S    EENTRO =        -0.00000000
  eigenvalues    EBANDS =      -512.58739870
  atomic energy  EATOM  =      3012.10669636
  Solvation  Ediel_sol  =         0.00000000
  ext. energy  EPLUGINS =         0.00000000
  ---------------------------------------------------
  free energy    TOTEN  =       -34.65626414 eV

  energy without entropy =      -34.65626414  energy(sigma->0) =      -34.65626414


--------------------------------------------------------------------------------------------------------




--------------------------------------- Iteration      5(  11)  ---------------------------------------


    POTLOK:  cpu time      0.2773: real time      0.2805
    SETDIJ:  cpu time      0.1132: real time      0.1138
     EDDAV:  cpu time      5.4124: real time      5.4845
       DOS:  cpu time      0.0004: real time      0.0004
    CHARGE:  cpu time      0.2256: real time      0.2274
    MIXING:  cpu time      0.0129: real time      0.0131
    --------------------------------------------
      LOOP:  cpu time      6.0420: real time      6.1196

 eigenvalue-minimisations  :  1484
 total energy-change (2. order) :-0.1001064E-05  (-0.5749800E-08)
 number of electron      53.9999982 magnetization       5.9999998
 augmentation part       -0.5688467 magnetization       4.3775536

 Broyden mixing:
  rms(total) = 0.50306E-04    rms(broyden)= 0.50305E-04
  rms(prec ) = 0.57593E-04
  weight for this iteration     100.00

 eigenvalues of (default mixing * dielectric matrix)
  average eigenvalue GAMMA=   1.1758
  2.8388  2.4008  1.3061  1.0712  1.0712  0.7389  0.6141  0.6141  0.5608  0.5417

 Free energy of the ion-electron system (eV)
  ---------------------------------------------------
  alpha Z        PSCENC =        30.59060044
  Ewald energy   TEWEN  =      4411.30869194
  -Hartree energ DENC   =     -7112.09796361
  -exchange      EXHF   =         0.00000000
  -V(xc)+E(xc)   XCENC  =        86.53551960
  PAW double counting   =      3672.38078525    -3622.89926899
  entropy T*S    EENTRO =        -0.00000000
  eigenvalues    EBANDS =      -512.58132613
  atomic energy  EATOM  =      3012.10669636
  Solvation  Ediel_sol  =         0.00000000
  ext. energy  EPLUGINS =         0.00000000
  ---------------------------------------------------
  free energy    TOTEN  =       -34.65626514 eV

  energy without entropy =      -34.65626514  energy(sigma->0) =      -34.65626514


--------------------------------------------------------------------------------------------------------




--------------------------------------- Iteration      5(  12)  ---------------------------------------


    POTLOK:  cpu time      0.2792: real time      0.2823
    SETDIJ:  cpu time      0.1202: real time      0.1208
     EDDAV:  cpu time      5.2552: real time      5.3257
       DOS:  cpu time      0.0004: real time      0.0004
    --------------------------------------------
      LOOP:  cpu time      5.6551: real time      5.7294

 eigenvalue-minimisations  :  1448
 total energy-change (2. order) :-0.6090809E-06  (-0.3151723E-08)
 number of electron      53.9999982 magnetization       5.9999998
 augmentation part       -0.5688467 magnetization       4.3775536

 Free energy of the ion-electron system (eV)
  ---------------------------------------------------
  alpha Z        PSCENC =        30.59060044
  Ewald energy   TEWEN  =      4411.30869194
  -Hartree energ DENC   =     -7112.10214044
  -exchange      EXHF   =         0.00000000
  -V(xc)+E(xc)   XCENC  =        86.53556315
  PAW double counting   =      3672.35619593    -3622.87465623
  entropy T*S    EENTRO =        -0.00000000
  eigenvalues    EBANDS =      -512.57721689
  atomic energy  EATOM  =      3012.10669636
  Solvation  Ediel_sol  =         0.00000000
  ext. energy  EPLUGINS =         0.00000000
  ---------------------------------------------------
  free energy    TOTEN  =       -34.65626575 eV

  energy without entropy =      -34.65626575  energy(sigma->0) =      -34.65626575


--------------------------------------------------------------------------------------------------------




 average (electrostatic) potential at core
  the test charge radii are     1.1394  0.9406
  (the norm of the test charge is              1.0000)
       1 -53.2030       2 -53.2030       3 -98.9363       4 -98.9363       5 -98.9363
       6 -98.9363       7 -98.9363       8 -98.9363



 E-fermi :  -4.8565     XC(G=0):  -3.3440     alpha+bet : -2.6802

 val. band max:       -5.1120874492   @ k =   0.0909   0.0909   0.0000
 cond. band min:      -2.5234316830   @ k =   0.3636   0.2727   0.0000
 fundamental gap:      2.5886557662
 Fermi energy:        -4.8565339282

 spin component 1

 k-point     1 :       0.0000    0.0000    0.0000
  band No.  band energies     occupation 
      1     -19.2148      1.00000
      2     -18.4459      1.00000
      3     -18.2613      1.00000
      4     -18.2613      1.00000
      5     -18.1704      1.00000
      6     -18.1704      1.00000
      7      -9.0926      1.00000
      8      -9.0424      1.00000
      9      -8.6056      1.00000
     10      -8.6056      1.00000
     11      -8.5878      1.00000
     12      -8.5878      1.00000
     13      -7.6153      1.00000
     14      -7.6153      1.00000
     15      -7.6108      1.00000
     16      -7.4082      1.00000
     17      -7.0922      1.00000
     18      -7.0836      1.00000
     19      -7.0836      1.00000
     20      -6.6104      1.00000
     21      -6.6104      1.00000
     22      -6.1993      1.00000
     23      -6.1279      1.00000
     24      -6.1279      1.00000
     25      -5.9120      1.00000
     26      -5.7895      1.00000
     27      -5.3632      1.00000
     28      -5.3632      1.00000
     29      -5.1165      1.00000
     30      -5.1165      1.00000
     31      -2.4901      0.00000
     32      -2.4901      0.00000
     33      -2.2859      0.00000
     34      -2.2859      0.00000
     35       1.5638      0.00000
     36       2.3096      0.00000

 k-point     2 :       0.0909    0.0000    0.0000
  band No.  band energies     occupation 
      1     -19.1980      1.00000
      2     -18.4388      1.00000
      3     -18.2813      1.00000
      4     -18.2673      1.00000
      5     -18.1732      1.00000
      6     -18.1720      1.00000
      7      -9.1027      1.00000
      8      -9.0286      1.00000
      9      -8.6619      1.00000
     10      -8.6614      1.00000
     11      -8.5159      1.00000
     12      -8.5094      1.00000
     13      -7.6384      1.00000
     14      -7.6329      1.00000
     15      -7.6040      1.00000
     16      -7.3711      1.00000
     17      -7.1199      1.00000
     18      -7.0774      1.00000
     19      -7.0448      1.00000
     20      -6.6826      1.00000
     21      -6.6045      1.00000
     22      -6.1685      1.00000
     23      -6.1478      1.00000
     24      -6.1065      1.00000
     25      -5.9097      1.00000
     26      -5.7545      1.00000
     27      -5.3701      1.00000
     28      -5.3665      1.00000
     29      -5.1611      1.00000
     30      -5.1142      1.00000
     31      -2.4912      0.00000
     32      -2.4867      0.00000
     33      -2.3183      0.00000
     34      -2.2895      0.00000
     35       1.6444      0.00000
     36       2.3575      0.00000

 k-point     3 :       0.1818    0.0000    0.0000
  band No.  band energies     occupation 
      1     -19.1489      1.00000
      2     -18.4182      1.00000
      3     -18.3380      1.00000
      4     -18.2821      1.00000
      5     -18.1813      1.00000
      6     -18.1788      1.00000
      7      -9.1326      1.00000
      8      -8.9887      1.00000
      9      -8.7096      1.00000
     10      -8.6775      1.00000
     11      -8.4221      1.00000
     12      -8.4186      1.00000
     13      -7.6981      1.00000
     14      -7.6827      1.00000
     15      -7.5765      1.00000
     16      -7.3160      1.00000
     17      -7.1743      1.00000
     18      -7.0498      1.00000
     19      -6.9580      1.00000
     20      -6.8175      1.00000
     21      -6.5901      1.00000
     22      -6.2097      1.00000
     23      -6.1644      1.00000
     24      -6.0325      1.00000
     25      -5.8982      1.00000
     26      -5.6510      1.00000
     27      -5.3921      1.00000
     28      -5.3781      1.00000
     29      -5.2599      1.00000
     30      -5.1152      1.00000
     31      -2.4932      0.00000
     32      -2.4763      0.00000
     33      -2.3896      0.00000
     34      -2.3039      0.00000
     35       1.8664      0.00000
     36       2.4895      0.00000

 k-point     4 :       0.2727    0.0000    0.0000
  band No.  band energies     occupation 
      1     -19.0720      1.00000
      2     -18.4241      1.00000
      3     -18.3865      1.00000
      4     -18.2993      1.00000
      5     -18.1945      1.00000
      6     -18.1928      1.00000
      7      -9.1829      1.00000
      8      -8.9222      1.00000
      9      -8.7403      1.00000
     10      -8.6133      1.00000
     11      -8.3557      1.00000
     12      -8.3182      1.00000
     13      -7.7772      1.00000
     14      -7.7338      1.00000
     15      -7.5500      1.00000
     16      -7.3877      1.00000
     17      -7.1563      1.00000
     18      -7.0169      1.00000
     19      -7.0074      1.00000
     20      -6.7819      1.00000
     21      -6.5623      1.00000
     22      -6.3019      1.00000
     23      -6.1985      1.00000
     24      -5.9545      1.00000
     25      -5.8686      1.00000
     26      -5.5087      1.00000
     27      -5.4295      1.00000
     28      -5.4113      1.00000
     29      -5.3483      1.00000
     30      -5.1247      1.00000
     31      -2.4924      0.00000
     32      -2.4573      0.00000
     33      -2.4531      0.00000
     34      -2.3339      0.00000
     35       2.1885      0.00000
     36       2.6876      0.00000

 k-point     5 :       0.3636    0.0000    0.0000
  band No.  band energies     occupation 
      1     -18.9766      1.00000
      2     -18.5276      1.00000
      3     -18.3481      1.00000
      4     -18.3131      1.00000
      5     -18.2202      1.00000
      6     -18.2036      1.00000
      7      -9.2359      1.00000
      8      -8.8377      1.00000
      9      -8.7561      1.00000
     10      -8.4774      1.00000
     11      -8.3386      1.00000
     12      -8.2142      1.00000
     13      -7.8603      1.00000
     14      -7.7687      1.00000
     15      -7.6160      1.00000
     16      -7.4659      1.00000
     17      -7.1481      1.00000
     18      -7.1072      1.00000
     19      -7.0019      1.00000
     20      -6.6352      1.00000
     21      -6.5295      1.00000
     22      -6.3657      1.00000
     23      -6.2604      1.00000
     24      -5.8880      1.00000
     25      -5.8219      1.00000
     26      -5.4954      1.00000
     27      -5.4642      1.00000
     28      -5.4077      1.00000
     29      -5.3542      1.00000
     30      -5.1385      1.00000
     31      -2.4938      0.00000
     32      -2.4838      0.00000
     33      -2.4244      0.00000
     34      -2.3765      0.00000
     35       2.5785      0.00000
     36       2.9382      0.00000

 k-point     6 :       0.4545    0.0000    0.0000
  band No.  band energies     occupation 
      1     -18.8884      1.00000
      2     -18.6206      1.00000
      3     -18.3253      1.00000
      4     -18.3047      1.00000
      5     -18.2522      1.00000
      6     -18.2101      1.00000
      7      -9.2682      1.00000
      8      -8.7704      1.00000
      9      -8.7618      1.00000
     10      -8.3777      1.00000
     11      -8.2975      1.00000
     12      -8.1332      1.00000
     13      -7.9268      1.00000
     14      -7.7841      1.00000
     15      -7.7814      1.00000
     16      -7.4646      1.00000
     17      -7.2301      1.00000
     18      -7.0685      1.00000
     19      -7.0206      1.00000
     20      -6.5362      1.00000
     21      -6.4912      1.00000
     22      -6.3602      1.00000
     23      -6.3472      1.00000
     24      -5.8414      1.00000
     25      -5.7816      1.00000
     26      -5.5680      1.00000
     27      -5.4745      1.00000
     28      -5.4503      1.00000
     29      -5.2434      1.00000
     30      -5.1688      1.00000
     31      -2.5119      0.00000
     32      -2.4640      0.00000
     33      -2.4197      0.00000
     34      -2.3966      0.00000
     35       2.9735      0.00000
     36       3.0262      0.00000

 k-point     7 :       0.0909    0.0909    0.0000
  band No.  band energies     occupation 
      1     -19.1651      1.00000
      2     -18.4249      1.00000
      3     -18.3178      1.00000
      4     -18.2798      1.00000
      5     -18.1779      1.00000
      6     -18.1765      1.00000
      7      -9.1166      1.00000
      8      -9.0051      1.00000
      9      -8.7459      1.00000
     10      -8.6159      1.00000
     11      -8.4965      1.00000
     12      -8.4131      1.00000
     13      -7.6825      1.00000
     14      -7.6700      1.00000
     15      -7.5795      1.00000
     16      -7.3192      1.00000
     17      -7.1662      1.00000
     18      -7.0635      1.00000
     19      -6.9775      1.00000
     20      -6.7891      1.00000
     21      -6.5887      1.00000
     22      -6.2173      1.00000
     23      -6.0973      1.00000
     24      -6.0916      1.00000
     25      -5.9028      1.00000
     26      -5.6845      1.00000
     27      -5.3832      1.00000
     28      -5.3742      1.00000
     29      -5.2341      1.00000
     30      -5.1121      1.00000
     31      -2.4945      0.00000
     32      -2.4786      0.00000
     33      -2.3717      0.00000
     34      -2.2956      0.00000
     35       1.7951      0.00000
     36       2.4469      0.00000

 k-point     8 :       0.1818    0.0909    0.0000
  band No.  band energies     occupation 
      1     -19.1019      1.00000
      2     -18.3988      1.00000
      3     -18.3862      1.00000
      4     -18.2997      1.00000
      5     -18.1874      1.00000
      6     -18.1872      1.00000
      7      -9.1388      1.00000
      8      -8.9670      1.00000
      9      -8.7861      1.00000
     10      -8.5723      1.00000
     11      -8.4316      1.00000
     12      -8.3237      1.00000
     13      -7.7587      1.00000
     14      -7.7172      1.00000
     15      -7.5422      1.00000
     16      -7.3141      1.00000
     17      -7.2077      1.00000
     18      -7.0446      1.00000
     19      -6.9277      1.00000
     20      -6.8556      1.00000
     21      -6.5560      1.00000
     22      -6.3054      1.00000
     23      -6.1170      1.00000
     24      -6.0180      1.00000
     25      -5.8818      1.00000
     26      -5.5604      1.00000
     27      -5.4258      1.00000
     28      -5.3791      1.00000
     29      -5.3267      1.00000
     30      -5.1168      1.00000
     31      -2.4999      0.00000
     32      -2.4620      0.00000
     33      -2.4375      0.00000
     34      -2.3119      0.00000
     35       2.0635      0.00000
     36       2.6098      0.00000

 k-point     9 :       0.2727    0.0909    0.0000
  band No.  band energies     occupation 
      1     -19.0148      1.00000
      2     -18.4796      1.00000
      3     -18.3639      1.00000
      4     -18.3186      1.00000
      5     -18.2069      1.00000
      6     -18.1986      1.00000
      7      -9.1805      1.00000
      8      -8.9040      1.00000
      9      -8.7766      1.00000
     10      -8.5030      1.00000
     11      -8.3660      1.00000
     12      -8.2497      1.00000
     13      -7.8444      1.00000
     14      -7.7544      1.00000
     15      -7.5318      1.00000
     16      -7.4217      1.00000
     17      -7.1890      1.00000
     18      -7.1149      1.00000
     19      -6.9464      1.00000
     20      -6.7396      1.00000
     21      -6.5039      1.00000
     22      -6.3948      1.00000
     23      -6.1672      1.00000
     24      -5.9471      1.00000
     25      -5.8416      1.00000
     26      -5.5000      1.00000
     27      -5.4220      1.00000
     28      -5.4054      1.00000
     29      -5.3781      1.00000
     30      -5.1287      1.00000
     31      -2.5020      0.00000
     32      -2.4789      0.00000
     33      -2.4383      0.00000
     34      -2.3403      0.00000
     35       2.4118      0.00000
     36       2.8312      0.00000

 k-point    10 :       0.3636    0.0909    0.0000
  band No.  band energies     occupation 
      1     -18.9178      1.00000
      2     -18.5817      1.00000
      3     -18.3370      1.00000
      4     -18.3191      1.00000
      5     -18.2355      1.00000
      6     -18.2074      1.00000
      7      -9.2214      1.00000
      8      -8.8255      1.00000
      9      -8.7620      1.00000
     10      -8.3950      1.00000
     11      -8.3490      1.00000
     12      -8.1707      1.00000
     13      -7.9213      1.00000
     14      -7.7727      1.00000
     15      -7.6708      1.00000
     16      -7.4389      1.00000
     17      -7.2445      1.00000
     18      -7.1081      1.00000
     19      -6.9686      1.00000
     20      -6.6360      1.00000
     21      -6.5001      1.00000
     22      -6.3809      1.00000
     23      -6.2323      1.00000
     24      -5.8873      1.00000
     25      -5.7959      1.00000
     26      -5.5736      1.00000
     27      -5.4599      1.00000
     28      -5.4118      1.00000
     29      -5.2839      1.00000
     30      -5.1474      1.00000
     31      -2.5096      0.00000
     32      -2.4790      0.00000
     33      -2.4271      0.00000
     34      -2.3614      0.00000
     35       2.8177      0.00000
     36       3.0365      0.00000

 k-point    11 :       0.4545    0.0909    0.0000
  band No.  band energies     occupation 
      1     -18.8604      1.00000
      2     -18.6411      1.00000
      3     -18.3395      1.00000
      4     -18.2924      1.00000
      5     -18.2605      1.00000
      6     -18.2107      1.00000
      7      -9.2375      1.00000
      8      -8.7838      1.00000
      9      -8.7599      1.00000
     10      -8.3774      1.00000
     11      -8.3000      1.00000
     12      -8.1259      1.00000
     13      -7.9587      1.00000
     14      -7.7765      1.00000
     15      -7.7745      1.00000
     16      -7.4311      1.00000
     17      -7.2801      1.00000
     18      -7.0875      1.00000
     19      -6.9847      1.00000
     20      -6.6055      1.00000
     21      -6.5017      1.00000
     22      -6.3130      1.00000
     23      -6.3007      1.00000
     24      -5.8579      1.00000
     25      -5.7759      1.00000
     26      -5.6163      1.00000
     27      -5.4644      1.00000
     28      -5.4340      1.00000
     29      -5.2094      1.00000
     30      -5.1803      1.00000
     31      -2.5157      0.00000
     32      -2.4545      0.00000
     33      -2.4498      0.00000
     34      -2.3596      0.00000
     35       2.9720      0.00000
     36       3.2260      0.00000

 k-point    12 :       0.1818    0.1818    0.0000
  band No.  band energies     occupation 
      1     -19.0280      1.00000
      2     -18.4572      1.00000
      3     -18.3696      1.00000
      4     -18.3275      1.00000
      5     -18.2008      1.00000
      6     -18.1968      1.00000
      7      -9.1124      1.00000
      8      -8.9798      1.00000
      9      -8.7966      1.00000
     10      -8.4562      1.00000
     11      -8.4256      1.00000
     12      -8.2546      1.00000
     13      -7.8475      1.00000
     14      -7.7475      1.00000
     15      -7.4899      1.00000
     16      -7.3398      1.00000
     17      -7.2818      1.00000
     18      -7.1206      1.00000
     19      -6.8855      1.00000
     20      -6.8123      1.00000
     21      -6.4783      1.00000
     22      -6.4221      1.00000
     23      -6.0554      1.00000
     24      -6.0428      1.00000
     25      -5.8491      1.00000
     26      -5.5074      1.00000
     27      -5.4244      1.00000
     28      -5.3993      1.00000
     29      -5.3666      1.00000
     30      -5.1228      1.00000
     31      -2.5124      0.00000
     32      -2.4754      0.00000
     33      -2.4410      0.00000
     34      -2.3191      0.00000
     35       2.3512      0.00000
     36       2.7931      0.00000

 k-point    13 :       0.2727    0.1818    0.0000
  band No.  band energies     occupation 
      1     -18.9356      1.00000
      2     -18.5475      1.00000
      3     -18.3561      1.00000
      4     -18.3295      1.00000
      5     -18.2210      1.00000
      6     -18.2074      1.00000
      7      -9.1123      1.00000
      8      -8.9459      1.00000
      9      -8.7647      1.00000
     10      -8.4082      1.00000
     11      -8.3798      1.00000
     12      -8.1999      1.00000
     13      -7.9327      1.00000
     14      -7.7590      1.00000
     15      -7.5227      1.00000
     16      -7.4182      1.00000
     17      -7.2946      1.00000
     18      -7.1660      1.00000
     19      -6.8823      1.00000
     20      -6.7445      1.00000
     21      -6.5216      1.00000
     22      -6.3702      1.00000
     23      -6.1044      1.00000
     24      -5.9822      1.00000
     25      -5.8066      1.00000
     26      -5.5890      1.00000
     27      -5.4437      1.00000
     28      -5.3728      1.00000
     29      -5.3077      1.00000
     30      -5.1333      1.00000
     31      -2.5158      0.00000
     32      -2.4884      0.00000
     33      -2.4296      0.00000
     34      -2.3220      0.00000
     35       2.6998      0.00000
     36       3.0170      0.00000

 k-point    14 :       0.3636    0.1818    0.0000
  band No.  band energies     occupation 
      1     -18.8464      1.00000
      2     -18.6361      1.00000
      3     -18.3685      1.00000
      4     -18.2942      1.00000
      5     -18.2485      1.00000
      6     -18.2137      1.00000
      7      -9.1360      1.00000
      8      -8.8575      1.00000
      9      -8.7625      1.00000
     10      -8.3793      1.00000
     11      -8.3701      1.00000
     12      -8.1402      1.00000
     13      -7.9912      1.00000
     14      -7.7552      1.00000
     15      -7.6680      1.00000
     16      -7.3782      1.00000
     17      -7.3251      1.00000
     18      -7.1567      1.00000
     19      -6.9133      1.00000
     20      -6.6964      1.00000
     21      -6.5726      1.00000
     22      -6.2617      1.00000
     23      -6.1727      1.00000
     24      -5.9307      1.00000
     25      -5.7829      1.00000
     26      -5.6587      1.00000
     27      -5.4495      1.00000
     28      -5.3981      1.00000
     29      -5.2167      1.00000
     30      -5.1533      1.00000
     31      -2.5188      0.00000
     32      -2.4735      0.00000
     33      -2.4434      0.00000
     34      -2.3135      0.00000
     35       3.0247      0.00000
     36       3.0744      0.00000

 k-point    15 :       0.2727    0.2727    0.0000
  band No.  band energies     occupation 
      1     -18.8436      1.00000
      2     -18.6275      1.00000
      3     -18.3841      1.00000
      4     -18.2971      1.00000
      5     -18.2369      1.00000
      6     -18.2193      1.00000
      7      -8.9931      1.00000
      8      -8.9904      1.00000
      9      -8.7638      1.00000
     10      -8.4066      1.00000
     11      -8.3771      1.00000
     12      -8.1479      1.00000
     13      -8.0051      1.00000
     14      -7.7443      1.00000
     15      -7.5970      1.00000
     16      -7.3847      1.00000
     17      -7.3044      1.00000
     18      -7.2140      1.00000
     19      -6.8711      1.00000
     20      -6.7403      1.00000
     21      -6.6057      1.00000
     22      -6.2440      1.00000
     23      -6.0638      1.00000
     24      -6.0227      1.00000
     25      -5.7883      1.00000
     26      -5.6715      1.00000
     27      -5.4430      1.00000
     28      -5.3821      1.00000
     29      -5.2218      1.00000
     30      -5.1401      1.00000
     31      -2.5208      0.00000
     32      -2.4812      0.00000
     33      -2.4389      0.00000
     34      -2.2924      0.00000
     35       3.0028      0.00000
     36       3.0918      0.00000

 k-point    16 :       0.3636    0.2727    0.0000
  band No.  band energies     occupation 
      1     -18.7756      1.00000
      2     -18.6908      1.00000
      3     -18.3952      1.00000
      4     -18.2715      1.00000
      5     -18.2550      1.00000
      6     -18.2247      1.00000
      7      -9.0081      1.00000
      8      -8.8872      1.00000
      9      -8.8158      1.00000
     10      -8.4041      1.00000
     11      -8.3940      1.00000
     12      -8.1056      1.00000
     13      -8.0463      1.00000
     14      -7.7333      1.00000
     15      -7.6484      1.00000
     16      -7.3320      1.00000
     17      -7.3169      1.00000
     18      -7.2371      1.00000
     19      -6.8895      1.00000
     20      -6.7133      1.00000
     21      -6.6489      1.00000
     22      -6.1497      1.00000
     23      -6.1161      1.00000
     24      -6.0088      1.00000
     25      -5.7995      1.00000
     26      -5.6946      1.00000
     27      -5.4269      1.00000
     28      -5.4011      1.00000
     29      -5.1756      1.00000
     30      -5.1546      1.00000
     31      -2.5234      0.00000
     32      -2.4658      0.00000
     33      -2.4537      0.00000
     34      -2.2778      0.00000
     35       3.0527      0.00000
     36       3.1159      0.00000
 Fermi energy:        -4.8565339282

 spin component 2

 k-point     1 :       0.0000    0.0000    0.0000
  band No.  band energies     occupation 
      1     -19.2517      1.00000
      2     -18.5274      1.00000
      3     -18.3353      1.00000
      4     -18.3353      1.00000
      5     -18.2340      1.00000
      6     -18.2340      1.00000
      7      -8.7096      1.00000
      8      -8.2694      1.00000
      9      -7.8583      1.00000
     10      -7.8583      1.00000
     11      -7.6674      1.00000
     12      -7.6674      1.00000
     13      -7.6079      1.00000
     14      -6.9563      1.00000
     15      -6.9563      1.00000
     16      -6.7485      1.00000
     17      -6.4833      1.00000
     18      -6.4833      1.00000
     19      -6.2227      1.00000
     20      -5.8229      1.00000
     21      -5.4865      1.00000
     22      -5.4865      1.00000
     23      -5.3012      1.00000
     24      -5.3012      1.00000
     25      -0.7408      0.00000
     26      -0.7408      0.00000
     27      -0.5332      0.00000
     28      -0.5312      0.00000
     29      -0.5312      0.00000
     30      -0.4718      0.00000
     31      -0.2351      0.00000
     32      -0.2351      0.00000
     33      -0.1836      0.00000
     34      -0.1836      0.00000
     35       1.7203      0.00000
     36       2.3338      0.00000

 k-point     2 :       0.0909    0.0000    0.0000
  band No.  band energies     occupation 
      1     -19.2354      1.00000
      2     -18.5198      1.00000
      3     -18.3547      1.00000
      4     -18.3418      1.00000
      5     -18.2362      1.00000
      6     -18.2356      1.00000
      7      -8.7165      1.00000
      8      -8.2652      1.00000
      9      -7.8679      1.00000
     10      -7.8008      1.00000
     11      -7.7814      1.00000
     12      -7.6868      1.00000
     13      -7.4645      1.00000
     14      -6.9912      1.00000
     15      -6.9630      1.00000
     16      -6.6776      1.00000
     17      -6.4900      1.00000
     18      -6.4638      1.00000
     19      -6.2066      1.00000
     20      -5.8137      1.00000
     21      -5.5053      1.00000
     22      -5.4894      1.00000
     23      -5.3912      1.00000
     24      -5.3185      1.00000
     25      -0.7534      0.00000
     26      -0.7359      0.00000
     27      -0.5555      0.00000
     28      -0.5402      0.00000
     29      -0.5362      0.00000
     30      -0.4352      0.00000
     31      -0.2591      0.00000
     32      -0.2443      0.00000
     33      -0.1832      0.00000
     34      -0.1703      0.00000
     35       1.7940      0.00000
     36       2.3835      0.00000

 k-point     3 :       0.1818    0.0000    0.0000
  band No.  band energies     occupation 
      1     -19.1880      1.00000
      2     -18.4980      1.00000
      3     -18.4097      1.00000
      4     -18.3578      1.00000
      5     -18.2431      1.00000
      6     -18.2426      1.00000
      7      -8.7238      1.00000
      8      -8.2558      1.00000
      9      -7.9085      1.00000
     10      -7.8607      1.00000
     11      -7.7109      1.00000
     12      -7.6533      1.00000
     13      -7.2816      1.00000
     14      -7.0844      1.00000
     15      -6.9830      1.00000
     16      -6.5530      1.00000
     17      -6.4586      1.00000
     18      -6.4179      1.00000
     19      -6.1665      1.00000
     20      -5.7997      1.00000
     21      -5.6795      1.00000
     22      -5.5080      1.00000
     23      -5.4963      1.00000
     24      -5.3549      1.00000
     25      -0.7826      0.00000
     26      -0.7174      0.00000
     27      -0.6219      0.00000
     28      -0.5640      0.00000
     29      -0.5521      0.00000
     30      -0.3465      0.00000
     31      -0.3153      0.00000
     32      -0.2689      0.00000
     33      -0.1829      0.00000
     34      -0.1334      0.00000
     35       2.0005      0.00000
     36       2.5216      0.00000

 k-point     4 :       0.2727    0.0000    0.0000
  band No.  band energies     occupation 
      1     -19.1136      1.00000
      2     -18.4929      1.00000
      3     -18.4643      1.00000
      4     -18.3767      1.00000
      5     -18.2591      1.00000
      6     -18.2532      1.00000
      7      -8.7199      1.00000
      8      -8.2394      1.00000
      9      -7.9802      1.00000
     10      -7.8581      1.00000
     11      -7.6786      1.00000
     12      -7.4864      1.00000
     13      -7.2414      1.00000
     14      -7.0712      1.00000
     15      -7.0086      1.00000
     16      -6.5740      1.00000
     17      -6.3755      1.00000
     18      -6.2553      1.00000
     19      -6.1103      1.00000
     20      -6.0228      1.00000
     21      -5.8371      1.00000
     22      -5.5538      1.00000
     23      -5.4829      1.00000
     24      -5.3774      1.00000
     25      -0.8272      0.00000
     26      -0.7084      0.00000
     27      -0.6828      0.00000
     28      -0.5910      0.00000
     29      -0.5720      0.00000
     30      -0.3779      0.00000
     31      -0.3138      0.00000
     32      -0.2347      0.00000
     33      -0.1838      0.00000
     34      -0.0882      0.00000
     35       2.3062      0.00000
     36       2.7301      0.00000

 k-point     5 :       0.3636    0.0000    0.0000
  band No.  band energies     occupation 
      1     -19.0211      1.00000
      2     -18.5930      1.00000
      3     -18.4233      1.00000
      4     -18.3923      1.00000
      5     -18.2861      1.00000
      6     -18.2629      1.00000
      7      -8.7135      1.00000
      8      -8.2060      1.00000
      9      -8.0320      1.00000
     10      -7.8085      1.00000
     11      -7.5915      1.00000
     12      -7.3953      1.00000
     13      -7.3548      1.00000
     14      -7.0136      1.00000
     15      -6.8939      1.00000
     16      -6.6301      1.00000
     17      -6.3806      1.00000
     18      -6.3577      1.00000
     19      -6.0566      1.00000
     20      -6.0401      1.00000
     21      -5.9315      1.00000
     22      -5.5962      1.00000
     23      -5.4705      1.00000
     24      -5.3527      1.00000
     25      -0.9009      0.00000
     26      -0.7632      0.00000
     27      -0.6532      0.00000
     28      -0.5970      0.00000
     29      -0.5871      0.00000
     30      -0.4299      0.00000
     31      -0.3500      0.00000
     32      -0.1852      0.00000
     33      -0.1473      0.00000
     34      -0.0543      0.00000
     35       2.6805      0.00000
     36       2.9946      0.00000

 k-point     6 :       0.4545    0.0000    0.0000
  band No.  band energies     occupation 
      1     -18.9350      1.00000
      2     -18.6836      1.00000
      3     -18.4021      1.00000
      4     -18.3816      1.00000
      5     -18.3189      1.00000
      6     -18.2688      1.00000
      7      -8.7118      1.00000
      8      -8.1706      1.00000
      9      -8.0587      1.00000
     10      -7.7202      1.00000
     11      -7.5438      1.00000
     12      -7.5014      1.00000
     13      -7.2903      1.00000
     14      -6.9545      1.00000
     15      -6.7837      1.00000
     16      -6.7616      1.00000
     17      -6.5594      1.00000
     18      -6.3591      1.00000
     19      -6.0932      1.00000
     20      -5.9464      1.00000
     21      -5.9044      1.00000
     22      -5.6322      1.00000
     23      -5.4833      1.00000
     24      -5.3100      1.00000
     25      -0.9621      0.00000
     26      -0.7835      0.00000
     27      -0.6520      0.00000
     28      -0.5935      0.00000
     29      -0.5762      0.00000
     30      -0.4599      0.00000
     31      -0.3743      0.00000
     32      -0.1855      0.00000
     33      -0.0923      0.00000
     34      -0.0418      0.00000
     35       3.1081      0.00000
     36       3.2947      0.00000

 k-point     7 :       0.0909    0.0909    0.0000
  band No.  band energies     occupation 
      1     -19.2036      1.00000
      2     -18.5051      1.00000
      3     -18.3900      1.00000
      4     -18.3551      1.00000
      5     -18.2403      1.00000
      6     -18.2402      1.00000
      7      -8.7216      1.00000
      8      -8.2594      1.00000
      9      -7.8832      1.00000
     10      -7.8619      1.00000
     11      -7.7077      1.00000
     12      -7.6963      1.00000
     13      -7.3285      1.00000
     14      -7.0593      1.00000
     15      -6.9724      1.00000
     16      -6.5743      1.00000
     17      -6.4888      1.00000
     18      -6.4269      1.00000
     19      -6.1802      1.00000
     20      -5.8101      1.00000
     21      -5.5748      1.00000
     22      -5.5316      1.00000
     23      -5.4691      1.00000
     24      -5.3512      1.00000
     25      -0.7681      0.00000
     26      -0.7327      0.00000
     27      -0.5982      0.00000
     28      -0.5606      0.00000
     29      -0.5410      0.00000
     30      -0.3764      0.00000
     31      -0.2963      0.00000
     32      -0.2629      0.00000
     33      -0.1790      0.00000
     34      -0.1472      0.00000
     35       1.9337      0.00000
     36       2.4770      0.00000

 k-point     8 :       0.1818    0.0909    0.0000
  band No.  band energies     occupation 
      1     -19.1425      1.00000
      2     -18.4774      1.00000
      3     -18.4560      1.00000
      4     -18.3764      1.00000
      5     -18.2518      1.00000
      6     -18.2483      1.00000
      7      -8.7142      1.00000
      8      -8.2521      1.00000
      9      -7.9407      1.00000
     10      -7.8885      1.00000
     11      -7.7016      1.00000
     12      -7.5415      1.00000
     13      -7.1915      1.00000
     14      -7.1437      1.00000
     15      -6.9809      1.00000
     16      -6.5711      1.00000
     17      -6.3745      1.00000
     18      -6.3362      1.00000
     19      -6.1418      1.00000
     20      -5.9588      1.00000
     21      -5.7066      1.00000
     22      -5.5619      1.00000
     23      -5.4875      1.00000
     24      -5.3905      1.00000
     25      -0.7964      0.00000
     26      -0.7210      0.00000
     27      -0.6738      0.00000
     28      -0.5874      0.00000
     29      -0.5552      0.00000
     30      -0.3482      0.00000
     31      -0.3150      0.00000
     32      -0.2703      0.00000
     33      -0.1694      0.00000
     34      -0.1074      0.00000
     35       2.1872      0.00000
     36       2.6486      0.00000

 k-point     9 :       0.2727    0.0909    0.0000
  band No.  band energies     occupation 
      1     -19.0582      1.00000
      2     -18.5461      1.00000
      3     -18.4400      1.00000
      4     -18.3968      1.00000
      5     -18.2724      1.00000
      6     -18.2586      1.00000
      7      -8.6949      1.00000
      8      -8.2342      1.00000
      9      -7.9975      1.00000
     10      -7.8633      1.00000
     11      -7.6374      1.00000
     12      -7.4020      1.00000
     13      -7.3384      1.00000
     14      -7.0416      1.00000
     15      -6.9075      1.00000
     16      -6.6211      1.00000
     17      -6.3423      1.00000
     18      -6.3076      1.00000
     19      -6.1288      1.00000
     20      -6.0584      1.00000
     21      -5.8134      1.00000
     22      -5.5804      1.00000
     23      -5.4763      1.00000
     24      -5.3964      1.00000
     25      -0.8518      0.00000
     26      -0.7605      0.00000
     27      -0.6770      0.00000
     28      -0.6093      0.00000
     29      -0.5725      0.00000
     30      -0.4015      0.00000
     31      -0.3434      0.00000
     32      -0.2045      0.00000
     33      -0.1458      0.00000
     34      -0.0671      0.00000
     35       2.5214      0.00000
     36       2.8831      0.00000

 k-point    10 :       0.3636    0.0909    0.0000
  band No.  band energies     occupation 
      1     -18.9641      1.00000
      2     -18.6449      1.00000
      3     -18.4125      1.00000
      4     -18.3969      1.00000
      5     -18.3022      1.00000
      6     -18.2668      1.00000
      7      -8.6804      1.00000
      8      -8.1990      1.00000
      9      -8.0334      1.00000
     10      -7.7930      1.00000
     11      -7.5333      1.00000
     12      -7.5009      1.00000
     13      -7.3208      1.00000
     14      -7.0109      1.00000
     15      -6.7781      1.00000
     16      -6.7028      1.00000
     17      -6.5498      1.00000
     18      -6.3321      1.00000
     19      -6.0375      1.00000
     20      -5.9764      1.00000
     21      -5.8968      1.00000
     22      -5.6179      1.00000
     23      -5.4753      1.00000
     24      -5.3524      1.00000
     25      -0.9263      0.00000
     26      -0.7953      0.00000
     27      -0.6485      0.00000
     28      -0.6138      0.00000
     29      -0.5814      0.00000
     30      -0.4485      0.00000
     31      -0.3693      0.00000
     32      -0.1802      0.00000
     33      -0.0960      0.00000
     34      -0.0427      0.00000
     35       2.9131      0.00000
     36       3.1654      0.00000

 k-point    11 :       0.4545    0.0909    0.0000
  band No.  band energies     occupation 
      1     -18.9077      1.00000
      2     -18.7031      1.00000
      3     -18.4170      1.00000
      4     -18.3689      1.00000
      5     -18.3265      1.00000
      6     -18.2698      1.00000
      7      -8.6764      1.00000
      8      -8.1780      1.00000
      9      -8.0458      1.00000
     10      -7.7130      1.00000
     11      -7.6148      1.00000
     12      -7.4724      1.00000
     13      -7.2910      1.00000
     14      -6.9527      1.00000
     15      -6.9094      1.00000
     16      -6.6501      1.00000
     17      -6.5992      1.00000
     18      -6.3359      1.00000
     19      -6.0483      1.00000
     20      -5.9869      1.00000
     21      -5.8422      1.00000
     22      -5.6439      1.00000
     23      -5.4812      1.00000
     24      -5.3265      1.00000
     25      -0.9596      0.00000
     26      -0.8055      0.00000
     27      -0.6443      0.00000
     28      -0.6007      0.00000
     29      -0.5868      0.00000
     30      -0.4693      0.00000
     31      -0.3784      0.00000
     32      -0.1749      0.00000
     33      -0.0703      0.00000
     34      -0.0378      0.00000
     35       3.3199      0.00000
     36       3.3478      0.00000

 k-point    12 :       0.1818    0.1818    0.0000
  band No.  band energies     occupation 
      1     -19.0711      1.00000
      2     -18.5237      1.00000
      3     -18.4460      1.00000
      4     -18.4057      1.00000
      5     -18.2667      1.00000
      6     -18.2567      1.00000
      7      -8.6750      1.00000
      8      -8.2538      1.00000
      9      -7.9563      1.00000
     10      -7.9163      1.00000
     11      -7.6592      1.00000
     12      -7.4195      1.00000
     13      -7.3211      1.00000
     14      -7.0569      1.00000
     15      -6.8876      1.00000
     16      -6.6313      1.00000
     17      -6.3164      1.00000
     18      -6.3143      1.00000
     19      -6.1672      1.00000
     20      -6.0676      1.00000
     21      -5.6500      1.00000
     22      -5.6342      1.00000
     23      -5.4892      1.00000
     24      -5.4298      1.00000
     25      -0.8150      0.00000
     26      -0.7665      0.00000
     27      -0.7086      0.00000
     28      -0.6065      0.00000
     29      -0.5693      0.00000
     30      -0.3692      0.00000
     31      -0.3593      0.00000
     32      -0.2173      0.00000
     33      -0.1311      0.00000
     34      -0.0754      0.00000
     35       2.4641      0.00000
     36       2.8440      0.00000

 k-point    13 :       0.2727    0.1818    0.0000
  band No.  band energies     occupation 
      1     -18.9816      1.00000
      2     -18.6102      1.00000
      3     -18.4326      1.00000
      4     -18.4065      1.00000
      5     -18.2883      1.00000
      6     -18.2668      1.00000
      7      -8.6194      1.00000
      8      -8.2469      1.00000
      9      -7.9786      1.00000
     10      -7.8873      1.00000
     11      -7.5684      1.00000
     12      -7.4865      1.00000
     13      -7.3469      1.00000
     14      -7.0242      1.00000
     15      -6.7629      1.00000
     16      -6.6904      1.00000
     17      -6.5609      1.00000
     18      -6.2812      1.00000
     19      -6.1043      1.00000
     20      -5.9407      1.00000
     21      -5.7713      1.00000
     22      -5.6193      1.00000
     23      -5.4722      1.00000
     24      -5.4283      1.00000
     25      -0.8679      0.00000
     26      -0.8229      0.00000
     27      -0.6902      0.00000
     28      -0.6150      0.00000
     29      -0.5847      0.00000
     30      -0.4230      0.00000
     31      -0.3759      0.00000
     32      -0.1766      0.00000
     33      -0.0832      0.00000
     34      -0.0448      0.00000
     35       2.8030      0.00000
     36       3.0939      0.00000

 k-point    14 :       0.3636    0.1818    0.0000
  band No.  band energies     occupation 
      1     -18.8949      1.00000
      2     -18.6959      1.00000
      3     -18.4464      1.00000
      4     -18.3691      1.00000
      5     -18.3162      1.00000
      6     -18.2732      1.00000
      7      -8.5832      1.00000
      8      -8.2257      1.00000
      9      -7.9962      1.00000
     10      -7.8029      1.00000
     11      -7.6490      1.00000
     12      -7.4583      1.00000
     13      -7.3217      1.00000
     14      -7.0078      1.00000
     15      -6.9618      1.00000
     16      -6.6368      1.00000
     17      -6.5373      1.00000
     18      -6.2775      1.00000
     19      -6.0639      1.00000
     20      -5.9096      1.00000
     21      -5.8061      1.00000
     22      -5.6471      1.00000
     23      -5.4704      1.00000
     24      -5.3918      1.00000
     25      -0.9228      0.00000
     26      -0.8443      0.00000
     27      -0.6686      0.00000
     28      -0.6216      0.00000
     29      -0.5758      0.00000
     30      -0.4764      0.00000
     31      -0.3793      0.00000
     32      -0.1564      0.00000
     33      -0.0481      0.00000
     34      -0.0289      0.00000
     35       3.1672      0.00000
     36       3.3859      0.00000

 k-point    15 :       0.2727    0.2727    0.0000
  band No.  band energies     occupation 
      1     -18.8928      1.00000
      2     -18.6860      1.00000
      3     -18.4625      1.00000
      4     -18.3714      1.00000
      5     -18.3068      1.00000
      6     -18.2773      1.00000
      7      -8.5120      1.00000
      8      -8.2748      1.00000
      9      -7.9264      1.00000
     10      -7.9010      1.00000
     11      -7.6552      1.00000
     12      -7.4642      1.00000
     13      -7.3356      1.00000
     14      -7.0043      1.00000
     15      -6.9942      1.00000
     16      -6.6516      1.00000
     17      -6.4977      1.00000
     18      -6.2280      1.00000
     19      -6.1208      1.00000
     20      -5.8252      1.00000
     21      -5.7874      1.00000
     22      -5.6534      1.00000
     23      -5.4545      1.00000
     24      -5.4513      1.00000
     25      -0.8783      0.00000
     26      -0.8781      0.00000
     27      -0.7108      0.00000
     28      -0.6018      0.00000
     29      -0.5827      0.00000
     30      -0.4740      0.00000
     31      -0.3805      0.00000
     32      -0.1490      0.00000
     33      -0.0384      0.00000
     34      -0.0243      0.00000
     35       3.1048      0.00000
     36       3.3566      0.00000

 k-point    16 :       0.3636    0.2727    0.0000
  band No.  band energies     occupation 
      1     -18.8269      1.00000
      2     -18.7466      1.00000
      3     -18.4741      1.00000
      4     -18.3455      1.00000
      5     -18.3254      1.00000
      6     -18.2822      1.00000
      7      -8.4473      1.00000
      8      -8.2985      1.00000
      9      -7.9219      1.00000
     10      -7.8226      1.00000
     11      -7.7923      1.00000
     12      -7.3757      1.00000
     13      -7.3375      1.00000
     14      -7.1571      1.00000
     15      -6.9799      1.00000
     16      -6.6742      1.00000
     17      -6.4047      1.00000
     18      -6.2118      1.00000
     19      -6.1285      1.00000
     20      -5.8235      1.00000
     21      -5.7739      1.00000
     22      -5.6621      1.00000
     23      -5.4620      1.00000
     24      -5.4422      1.00000
     25      -0.9011      0.00000
     26      -0.8818      0.00000
     27      -0.7220      0.00000
     28      -0.5954      0.00000
     29      -0.5575      0.00000
     30      -0.5156      0.00000
     31      -0.3797      0.00000
     32      -0.1380      0.00000
     33      -0.0212      0.00000
     34      -0.0168      0.00000
     35       3.3031      0.00000
     36       3.3553      0.00000


--------------------------------------------------------------------------------------------------------


 soft charge-density along one line, spin component           1
         0         1         2         3         4         5         6         7         8         9
 total charge-density along one line

 soft charge-density along one line, spin component           2
         0         1         2         3         4         5         6         7         8         9
 total charge-density along one line

 pseudopotential strength for first ion, spin component:           1
-10.904   1.182  -0.000   0.000   0.000 -11.246   1.204  -0.000
  1.182 -10.064  -0.000   0.000  -0.000   1.204 -10.391  -0.000
 -0.000  -0.000 -11.738  -0.000   0.000  -0.000  -0.000 -12.095
  0.000   0.000  -0.000 -10.064  -1.182   0.000   0.000  -0.000
  0.000  -0.000   0.000  -1.182 -10.904   0.000  -0.000   0.000
-11.246   1.204  -0.000   0.000   0.000 -11.562   1.236  -0.000
  1.204 -10.391  -0.000   0.000  -0.000   1.236 -10.683  -0.000
 -0.000  -0.000 -12.095  -0.000   0.000  -0.000  -0.000 -12.434
  0.000   0.000  -0.000 -10.391  -1.204   0.000   0.000  -0.000
  0.000  -0.000   0.000  -1.204 -11.246   0.000  -0.000   0.000
 -0.000  -0.000   0.000  -0.000   0.000  -0.000  -0.000   0.000
 -0.000  -0.000   0.000  -0.000   0.000  -0.000  -0.000   0.000
 -0.000  -0.000  -0.000   0.000  -0.002  -0.000  -0.000  -0.000
  0.000   0.000   0.000  -0.000   0.000   0.000   0.000   0.000
 -0.002   0.000   0.000   0.000  -0.000  -0.001   0.000   0.000
 -0.000  -0.000  -0.000   0.000  -0.002  -0.000  -0.000  -0.000
  0.000   0.000   0.000  -0.000   0.000   0.000   0.000   0.000
 -0.002   0.000   0.000   0.000  -0.000  -0.002   0.000   0.000
 pseudopotential strength for first ion, spin component:           2
 -6.759  -0.521   0.000   0.000   0.000  -7.095  -0.520   0.000
 -0.521  -7.125  -0.000  -0.000  -0.000  -0.520  -7.459  -0.000
  0.000  -0.000  -6.379  -0.000  -0.000   0.000  -0.000  -6.714
  0.000  -0.000  -0.000  -7.125   0.521   0.000  -0.000  -0.000
  0.000  -0.000  -0.000   0.521  -6.759   0.000  -0.000  -0.000
 -7.095  -0.520   0.000   0.000   0.000  -7.376  -0.521   0.000
 -0.520  -7.459  -0.000  -0.000  -0.000  -0.521  -7.741  -0.000
  0.000  -0.000  -6.714  -0.000  -0.000   0.000  -0.000  -6.994
  0.000  -0.000  -0.000  -7.459   0.520   0.000  -0.000  -0.000
  0.000  -0.000  -0.000   0.520  -7.095   0.000  -0.000  -0.000
  0.000  -0.000  -0.001  -0.000  -0.000   0.000  -0.000  -0.001
  0.000  -0.000  -0.001  -0.000  -0.000   0.000  -0.000  -0.001
  0.000  -0.000   0.000   0.000  -0.000   0.000  -0.000   0.000
  0.000  -0.000   0.000   0.000   0.000   0.000  -0.000   0.000
 -0.000   0.000  -0.000   0.000   0.000  -0.001   0.000  -0.000
  0.000  -0.000   0.000   0.000  -0.000   0.000  -0.000   0.000
  0.000  -0.000   0.000   0.000   0.000   0.000  -0.000   0.000
 -0.000   0.000  -0.000   0.000   0.000  -0.000   0.000  -0.000
 total augmentation occupancy for first ion, spin component:           1
  3.835  -1.713   0.000  -0.000  -0.000  -2.714   0.578  -0.000   0.000   0.000   0.000   0.000  -0.000   0.000   0.081   0.000
 -1.713   2.552  -0.000   0.000   0.000   0.579  -2.223   0.000  -0.000  -0.000   0.000   0.000   0.000   0.000  -0.027   0.000
  0.000  -0.000   4.922  -0.000   0.000  -0.000   0.000  -2.989   0.000  -0.000   0.054  -0.008  -0.000   0.000   0.000   0.000
 -0.000  -0.000  -0.000   2.552   1.713   0.000  -0.000   0.000  -2.223  -0.579  -0.000  -0.000   0.027   0.000  -0.000  -0.000
 -0.000   0.000   0.000   1.713   3.835   0.000  -0.000  -0.000  -0.578  -2.714   0.000  -0.000   0.081  -0.000  -0.000  -0.003
 -2.714   0.579  -0.000   0.000   0.000   2.536   0.271   0.000   0.000  -0.000  -0.000  -0.000   0.000  -0.000  -0.087  -0.000
  0.578  -2.223   0.000  -0.000  -0.000   0.271   2.633   0.000   0.000  -0.000   0.000   0.000   0.000   0.000   0.023   0.000
 -0.000   0.000  -2.989  -0.000  -0.000   0.000   0.000   2.197   0.000   0.000  -0.060   0.009   0.000  -0.000  -0.000   0.000
  0.000  -0.000   0.000  -2.223  -0.578   0.000   0.000   0.000   2.633  -0.271   0.000  -0.000  -0.023  -0.000   0.000   0.000
  0.000  -0.000  -0.000  -0.579  -2.714  -0.000  -0.000   0.000  -0.271   2.536  -0.000  -0.000  -0.087  -0.000   0.000   0.003
 -0.000  -0.000   0.054   0.000   0.000  -0.000  -0.000  -0.060  -0.000  -0.000   1.712  -0.186   0.000  -0.000   0.000  -0.000
  0.000  -0.000  -0.008  -0.000  -0.000   0.000   0.000   0.009   0.000   0.000  -0.186   0.028   0.000  -0.000   0.000  -0.000
 -0.000   0.000  -0.000   0.027   0.081   0.000   0.000   0.000  -0.023  -0.087  -0.000   0.000   0.270  -0.000   0.000  -0.007
  0.000   0.000   0.000   0.000  -0.000  -0.000  -0.000  -0.000   0.000   0.000  -0.000  -0.000   0.000   0.263  -0.000   0.000
  0.081  -0.027   0.000  -0.000  -0.000  -0.087   0.023  -0.000   0.000   0.000   0.000   0.000   0.000   0.000   0.270   0.000
  0.000  -0.000   0.000  -0.000  -0.003  -0.000   0.000  -0.000   0.000   0.003   0.000  -0.000  -0.007   0.000  -0.000   0.000
  0.000   0.000   0.000  -0.000   0.000  -0.000   0.000  -0.000   0.000   0.000   0.000  -0.000  -0.000  -0.007   0.000  -0.000
 -0.003   0.000  -0.000   0.000   0.000   0.003  -0.000   0.000  -0.000  -0.000   0.000   0.000   0.000   0.000  -0.007   0.000
 total augmentation occupancy for first ion, spin component:           2
  2.955  -2.355   0.000  -0.000  -0.000  -1.506   1.460  -0.000   0.000   0.000   0.000   0.000  -0.000   0.000   0.022   0.000
 -2.355   1.277  -0.000   0.000   0.000   1.461  -0.464   0.000  -0.000  -0.000   0.000   0.000  -0.000   0.000  -0.022   0.000
  0.000  -0.000   4.544  -0.000   0.000  -0.000   0.000  -2.470   0.000  -0.000   0.005   0.001  -0.000   0.000   0.000  -0.000
 -0.000  -0.000  -0.000   1.277   2.355   0.000  -0.000   0.000  -0.464  -1.461  -0.000  -0.000   0.022  -0.000   0.000  -0.000
 -0.000   0.000   0.000   2.355   2.955   0.000  -0.000  -0.000  -1.460  -1.506   0.000   0.000   0.022   0.000  -0.000   0.000
 -1.506   1.461  -0.000   0.000   0.000   0.846  -0.983   0.000  -0.000  -0.000  -0.000  -0.000   0.000  -0.000  -0.015   0.000
  1.460  -0.464   0.000   0.000  -0.000  -0.983   0.144  -0.000   0.000   0.000   0.000   0.000  -0.000  -0.000   0.014  -0.000
 -0.000   0.000  -2.470   0.000  -0.000   0.000  -0.000   1.482  -0.000   0.000  -0.001  -0.001   0.000  -0.000   0.000   0.000
 -0.000   0.000   0.000  -0.464  -1.460  -0.000   0.000  -0.000   0.144   0.983  -0.000   0.000  -0.014   0.000  -0.000   0.000
  0.000  -0.000  -0.000  -1.461  -1.506  -0.000   0.000   0.000   0.983   0.846  -0.000  -0.000  -0.015  -0.000   0.000  -0.000
  0.000   0.000   0.005  -0.000   0.000  -0.000  -0.000  -0.001  -0.000  -0.000  -0.048   0.053  -0.000   0.000  -0.000  -0.000
  0.000   0.000   0.001  -0.000   0.000  -0.000  -0.000  -0.001   0.000  -0.000   0.053  -0.009  -0.000  -0.000   0.000   0.000
 -0.000   0.000  -0.000   0.022   0.022   0.000  -0.000  -0.000  -0.014  -0.015   0.000   0.000   0.017   0.000   0.000   0.002
  0.000   0.000   0.000   0.000  -0.000  -0.000  -0.000  -0.000   0.000   0.000   0.000  -0.000  -0.000   0.015   0.000  -0.000
  0.022  -0.022   0.000  -0.000   0.000  -0.015   0.014   0.000   0.000   0.000   0.000   0.000   0.000  -0.000   0.017  -0.000
  0.000  -0.000   0.000  -0.000   0.000   0.000   0.000   0.000   0.000  -0.000   0.000   0.000   0.002   0.000   0.000  -0.000
  0.000  -0.000   0.000   0.000  -0.000  -0.000   0.000  -0.000  -0.000   0.000   0.000  -0.000   0.000   0.002   0.000   0.000
  0.000   0.000  -0.000   0.000   0.000  -0.000  -0.000   0.000  -0.000  -0.000   0.000   0.000   0.000   0.000   0.002  -0.000


------------------------ aborting loop because EDIFF is reached ----------------------------------------





 total charge

# of ion       s       p       d       tot
------------------------------------------
    1        0.345   0.503   4.056   4.905
    2        0.345   0.503   4.056   4.905
    3        1.604   3.520   0.000   5.123
    4        1.604   3.520   0.000   5.123
    5        1.604   3.520   0.000   5.123
    6        1.604   3.520   0.000   5.123
    7        1.604   3.520   0.000   5.123
    8        1.604   3.520   0.000   5.123
--------------------------------------------------
tot         10.314  22.124   8.112  40.550



 magnetization (x)

# of ion       s       p       d       tot
------------------------------------------
    1        0.032   0.040   3.094   3.165
    2        0.032   0.040   3.094   3.165
    3       -0.002  -0.073   0.000  -0.075
    4       -0.002  -0.073   0.000  -0.075
    5       -0.002  -0.073   0.000  -0.075
    6       -0.002  -0.073   0.000  -0.075
    7       -0.002  -0.073   0.000  -0.075
    8       -0.002  -0.073   0.000  -0.075
--------------------------------------------------
tot          0.054  -0.359   6.187   5.882

    CHARGE:  cpu time      0.2282: real time      0.2300
    FORLOC:  cpu time      0.0053: real time      0.0054
    FORNL :  cpu time      0.4425: real time      0.4467
    STRESS:  cpu time      0.7658: real time      0.7726
    FORCOR:  cpu time      0.2606: real time      0.2634
    FORHAR:  cpu time      0.0324: real time      0.0327
    MIXING:  cpu time      0.0119: real time      0.0121
    OFIELD:  cpu time      0.0001: real time      0.0001

 ---------------------------------------------------------------------------------------------

         DFTD3 V3.0 Rev 1        
 Edisp (eV)   -0.91617

 E6    (eV) :    -0.3544
 E8    (eV) :    -0.5618
 % E8        : 61.32
    FORVDW:  cpu time      0.0157: real time      0.0160

  FORCE on cell =-STRESS in cart. coord.  units (eV):
  Direction    XX          YY          ZZ          XY          YZ          ZX
  --------------------------------------------------------------------------------------
  Alpha Z    30.59060    30.59060    30.59060
  Ewald    6095.74926  6095.74926 -7780.19297    -0.00000     0.00000     0.00000
  Hartree  6734.65580  6734.65580 -6357.18932    -0.00000     0.00000     0.00000
  E(xc)    -209.21987  -209.21987  -209.51656    -0.00000     0.00000     0.00000
  Local  -13861.53785-13861.53778 13102.95400     0.00006     0.00000     0.00000
  n-local   479.66020   479.79995   478.81662    -0.41803     0.03723     0.04901
  augment   -58.50348   -58.50354   -58.66077    -0.00005    -0.00000    -0.00000
  Kinetic   789.54442   789.04274   793.11895     0.59132    -0.32591     0.05397
  Fock        0.00000     0.00000     0.00000     0.00000     0.00000     0.00000
  vdW        -0.75551    -0.75551    -0.02438    -0.00000    -0.00000     0.00000
  -------------------------------------------------------------------------------------
  Total       0.00261     0.00261    -0.10382     0.00000     0.00000    -0.00000
  in kB       0.00743     0.00743    -0.29559     0.00000     0.00000    -0.00000
  external pressure =       -0.09 kB  Pullay stress =        0.00 kB


 VOLUME and BASIS-vectors are now :
 -----------------------------------------------------------------------------
  energy-cutoff  :      500.00
  volume of cell :      562.75
      direct lattice vectors                 reciprocal lattice vectors
     6.064228458  0.000000000  0.000000000     0.164901439  0.095205890 -0.000000000
    -3.032114229  5.251775899  0.000000000     0.000000000  0.190411781  0.000000000
     0.000000000  0.000000000 17.670000000     0.000000000 -0.000000000  0.056593096

  length of vectors
     6.064228458  6.064228458 17.670000000     0.190411781  0.190411781  0.056593096


 FORCES acting on ions
    electron-ion (+dipol)            ewald-force                    non-local-force                 convergence-correction
 -----------------------------------------------------------------------------------------------
   0.595E-07 -.343E-07 -.452E-11   -.505E-11 0.291E-11 0.189E-13   -.318E-18 0.232E-18 -.780E-20   0.766E-11 -.441E-11 -.439E-12
   -.595E-07 0.343E-07 -.181E-10   0.507E-11 -.287E-11 -.472E-13   -.197E-18 -.289E-18 0.116E-19   -.765E-11 0.442E-11 -.421E-12
   0.676E+02 0.499E-06 0.456E+03   -.696E+02 -.335E-11 -.459E+03   0.203E+01 -.362E-18 0.287E+01   -.942E-04 0.496E-08 -.659E-03
   -.338E+02 0.586E+02 0.456E+03   0.348E+02 -.603E+02 -.459E+03   -.101E+01 0.176E+01 0.287E+01   0.471E-04 -.816E-04 -.659E-03
   -.338E+02 -.586E+02 0.456E+03   0.348E+02 0.603E+02 -.459E+03   -.101E+01 -.176E+01 0.287E+01   0.471E-04 0.816E-04 -.659E-03
   -.676E+02 -.499E-06 -.456E+03   0.696E+02 0.332E-11 0.459E+03   -.203E+01 -.390E-18 -.287E+01   0.942E-04 -.496E-08 0.659E-03
   0.338E+02 -.586E+02 -.456E+03   -.348E+02 0.603E+02 0.459E+03   0.101E+01 -.176E+01 -.287E+01   -.471E-04 0.816E-04 0.659E-03
   0.338E+02 0.586E+02 -.456E+03   -.348E+02 -.603E+02 0.459E+03   0.101E+01 0.176E+01 -.287E+01   -.471E-04 -.816E-04 0.659E-03
 -----------------------------------------------------------------------------------------------
   -.596E-12 -.833E-12 -.125E-10   0.000E+00 0.142E-13 0.227E-12   0.222E-15 0.000E+00 0.444E-15   0.189E-13 0.133E-13 -.314E-11


 POSITION                                       TOTAL-FORCE (eV/Angst)
 -----------------------------------------------------------------------------------
      0.00000      3.50118      8.83500         0.000000     -0.000000     -0.000000
      3.03211      1.75059      8.83500         0.000000     -0.000000     -0.000000
      2.14921      0.00000      7.47525        -0.000076     -0.000000     -0.001377
     -1.07460      1.86127      7.47525         0.000038     -0.000066     -0.001377
      1.95751      3.39051      7.47525         0.000038      0.000066     -0.001377
      3.91502      0.00000     10.19475         0.000076     -0.000000      0.001377
     -1.95751      3.39051     10.19475        -0.000038      0.000066      0.001377
      1.07460      1.86127     10.19475        -0.000038     -0.000066      0.001377
 -----------------------------------------------------------------------------------
    total drift:                               -0.000000     -0.000000     -0.000000


--------------------------------------------------------------------------------------------------------



  FREE ENERGIE OF THE ION-ELECTRON SYSTEM (eV)
  ---------------------------------------------------
  free  energy   TOTEN  =       -35.57243110 eV

  energy  without entropy=      -35.57243110  energy(sigma->0) =      -35.57243110
 d Force = 0.2273848E-03[ 0.303E-04, 0.425E-03]  d Energy = 0.2946300E-03-0.672E-04
 d Force = 0.1020777E+02[ 0.102E+02, 0.102E+02]  d Ewald  =-0.5053312E+01 0.153E+02



--------------------------------------------------------------------------------------------------------


    POTLOK:  cpu time      0.3951: real time      0.3989


--------------------------------------------------------------------------------------------------------




--------------------------------------------------------------------------------------------------------


  
 reached required accuracy - stopping structural energy minimisation
     LOOP+:  cpu time     98.5505: real time     99.8214
    4ORBIT:  cpu time      0.0000: real time      0.0000



 total charge

# of ion       s       p       d       tot
------------------------------------------
    1        0.345   0.503   4.056   4.905
    2        0.345   0.503   4.056   4.905
    3        1.604   3.520   0.000   5.123
    4        1.604   3.520   0.000   5.123
    5        1.604   3.520   0.000   5.123
    6        1.604   3.520   0.000   5.123
    7        1.604   3.520   0.000   5.123
    8        1.604   3.520   0.000   5.123
--------------------------------------------------
tot         10.314  22.124   8.112  40.550



 magnetization (x)

# of ion       s       p       d       tot
------------------------------------------
    1        0.032   0.040   3.094   3.165
    2        0.032   0.040   3.094   3.165
    3       -0.002  -0.073   0.000  -0.075
    4       -0.002  -0.073   0.000  -0.075
    5       -0.002  -0.073   0.000  -0.075
    6       -0.002  -0.073   0.000  -0.075
    7       -0.002  -0.073   0.000  -0.075
    8       -0.002  -0.073   0.000  -0.075
--------------------------------------------------
tot          0.054  -0.359   6.187   5.882


 total amount of memory used by VASP MPI-rank0    90866. kBytes
=======================================================================

   base                                    :      30000. kBytes
   nonl-proj                               :      16935. kBytes
   fftplans                                :       7817. kBytes
   grid                                    :      19445. kBytes
   one-center                              :         62. kBytes
   wavefun                                 :      16607. kBytes

  
  
 General timing and accounting informations for this job:
 ========================================================
  
                  Total CPU time used (sec):      612.811
                            User time (sec):      580.583
                          System time (sec):       32.228
                         Elapsed time (sec):      622.007
  
                   Maximum memory used (kb):      168400.
                   Average memory used (kb):          N/A
  
                          Minor page faults:       313025
                          Major page faults:            3
                 Voluntary context switches:          762
