 running on   64 total cores
 distrk:  each k-point on   64 cores,    1 groups
 distr:  one band on    8 cores,    8 groups
 vasp.6.2.0 18Jan21 (build Jul 28 2023 11:58:00) complex                         
 POSCAR found type information on POSCAR CrClH 
 POSCAR found :  3 types and      73 ions
 scaLAPACK will be used
 LDA part: xc-table for Pade appr. of Perdew
 POSCAR, INCAR and KPOINTS ok, starting setup
 FFT: planning ...
 WAVECAR not read
 entering main loop
       N       E                     dE             d eps       ncg     rms          rms(c)
DAV:   1     0.465837643819E+04    0.46584E+04   -0.13889E+05  6608   0.930E+02
DAV:   2     0.935299281303E+03   -0.37231E+04   -0.34491E+04  7680   0.251E+02
DAV:   3    -0.282800293616E+03   -0.12181E+04   -0.11786E+04  9296   0.142E+02
DAV:   4    -0.388673066573E+03   -0.10587E+03   -0.10428E+03  9888   0.585E+01
DAV:   5    -0.390798677637E+03   -0.21256E+01   -0.20690E+01 10040   0.117E+01    0.622E+01
DAV:   6    -0.368661074602E+03    0.22138E+02   -0.33413E+02  9440   0.644E+01    0.635E+01
DAV:   7    -0.352615576923E+03    0.16045E+02   -0.61022E+01  9280   0.623E+01    0.304E+01
DAV:   8    -0.353698157165E+03   -0.10826E+01   -0.15703E+01  9528   0.916E+00    0.145E+01
DAV:   9    -0.353392321047E+03    0.30584E+00   -0.47285E+00  9936   0.144E+01    0.102E+01
DAV:  10    -0.352959540642E+03    0.43278E+00   -0.22087E+00  9352   0.730E+00    0.399E+00
DAV:  11    -0.352960584821E+03   -0.10442E-02   -0.31518E-01  9384   0.339E+00    0.156E+00
DAV:  12    -0.353047118028E+03   -0.86533E-01   -0.62280E-02  9000   0.788E-01    0.763E-01
DAV:  13    -0.353107846057E+03   -0.60728E-01   -0.14666E-02  9112   0.430E-01    0.477E-01
DAV:  14    -0.353142583124E+03   -0.34737E-01   -0.32633E-03  9448   0.245E-01    0.203E-01
DAV:  15    -0.353156725167E+03   -0.14142E-01   -0.90155E-04  9240   0.123E-01    0.133E-01
DAV:  16    -0.353164930624E+03   -0.82055E-02   -0.32011E-04  9376   0.700E-02    0.718E-02
DAV:  17    -0.353172355647E+03   -0.74250E-02   -0.19369E-04  8776   0.309E-02    0.422E-02
DAV:  18    -0.353177285434E+03   -0.49298E-02   -0.14847E-04  8952   0.282E-02    0.321E-02
DAV:  19    -0.353180419681E+03   -0.31342E-02   -0.12799E-04  8584   0.235E-02    0.256E-02
DAV:  20    -0.353182214495E+03   -0.17948E-02   -0.73595E-05  7904   0.133E-02    0.162E-02
DAV:  21    -0.353183059537E+03   -0.84504E-03   -0.40243E-05  7432   0.868E-03    0.101E-02
DAV:  22    -0.353183464043E+03   -0.40451E-03   -0.23512E-05  7256   0.748E-03    0.612E-03
DAV:  23    -0.353183702007E+03   -0.23796E-03   -0.72233E-06  6648   0.414E-03    0.400E-03
DAV:  24    -0.353183916056E+03   -0.21405E-03   -0.26664E-06  5560   0.299E-03    0.289E-03
DAV:  25    -0.353184052667E+03   -0.13661E-03   -0.17030E-06  5144   0.262E-03    0.216E-03
DAV:  26    -0.353184143725E+03   -0.91058E-04   -0.28423E-06  5472   0.253E-03    0.163E-03
DAV:  27    -0.353184183239E+03   -0.39514E-04   -0.87915E-07  4512   0.152E-03    0.123E-03
DAV:  28    -0.353184216970E+03   -0.33731E-04   -0.14460E-06  4832   0.144E-03    0.928E-04
DAV:  29    -0.353184237524E+03   -0.20554E-04   -0.70655E-07  4448   0.131E-03    0.895E-04
DAV:  30    -0.353184246554E+03   -0.90305E-05   -0.30637E-07  3704   0.120E-03    0.775E-04
DAV:  31    -0.353184254834E+03   -0.82796E-05   -0.19989E-07  3600   0.845E-04    0.659E-04
DAV:  32    -0.353184267333E+03   -0.12499E-04   -0.21009E-07  3744   0.757E-04    0.588E-04
DAV:  33    -0.353184278618E+03   -0.11285E-04   -0.18304E-07  3672   0.720E-04    0.586E-04
DAV:  34    -0.353184285354E+03   -0.67355E-05   -0.13672E-07  3664   0.665E-04    0.449E-04
DAV:  35    -0.353184291116E+03   -0.57627E-05   -0.13762E-07  3736   0.553E-04    0.448E-04
DAV:  36    -0.353184293180E+03   -0.20639E-05   -0.73255E-08  3584   0.528E-04    0.285E-04
DAV:  37    -0.353184294583E+03   -0.14026E-05   -0.54856E-08  3616   0.365E-04    0.228E-04
DAV:  38    -0.353184295147E+03   -0.56408E-06   -0.28824E-08  3592   0.347E-04
   1 F= -.36622071E+03 E0= -.36622071E+03  d E =-.366221E+03  mag=    53.0001
 curvature:   0.00 expect dE= 0.000E+00 dE for cont linesearch  0.000E+00
 trial: gam= 0.00000 g(F)=  0.119E+00 g(S)=  0.000E+00 ort = 0.000E+00 (trialstep = 0.100E+01)
 search vector abs. value=  0.119E+00
 bond charge predicted
       N       E                     dE             d eps       ncg     rms          rms(c)
DAV:   1    -0.353192664729E+03   -0.83701E-02   -0.10360E+01  6400   0.407E+00    0.187E+00
DAV:   2    -0.353282203376E+03   -0.89539E-01   -0.91772E-01  9200   0.305E+00    0.185E+00
DAV:   3    -0.353269557073E+03    0.12646E-01   -0.74834E-02  9408   0.173E+00    0.759E-01
DAV:   4    -0.353267106225E+03    0.24508E-02   -0.73649E-03  9408   0.538E-01    0.605E-01
DAV:   5    -0.353265900661E+03    0.12056E-02   -0.65494E-03  9104   0.180E-01    0.341E-01
DAV:   6    -0.353266214339E+03   -0.31368E-03   -0.14256E-03  9352   0.141E-01    0.120E-01
DAV:   7    -0.353266312553E+03   -0.98215E-04   -0.16055E-04  9360   0.463E-02    0.579E-02
DAV:   8    -0.353266370546E+03   -0.57992E-04   -0.39569E-05  9144   0.232E-02    0.539E-02
DAV:   9    -0.353266402721E+03   -0.32175E-04   -0.26707E-05  8792   0.148E-02    0.348E-02
DAV:  10    -0.353266425994E+03   -0.23273E-04   -0.19227E-05  9120   0.132E-02    0.110E-02
DAV:  11    -0.353266447189E+03   -0.21195E-04   -0.28458E-06  5680   0.540E-03    0.289E-03
DAV:  12    -0.353266457705E+03   -0.10516E-04   -0.11695E-06  3952   0.363E-03    0.333E-03
DAV:  13    -0.353266462784E+03   -0.50791E-05   -0.79538E-07  3744   0.247E-03    0.190E-03
DAV:  14    -0.353266469800E+03   -0.70155E-05   -0.35233E-07  3552   0.165E-03    0.120E-03
DAV:  15    -0.353266476126E+03   -0.63263E-05   -0.19649E-07  3648   0.124E-03    0.779E-04
DAV:  16    -0.353266481988E+03   -0.58617E-05   -0.11599E-07  3584   0.824E-04    0.515E-04
DAV:  17    -0.353266485092E+03   -0.31041E-05   -0.89369E-08  3608   0.665E-04    0.553E-04
DAV:  18    -0.353266486822E+03   -0.17300E-05   -0.52282E-08  3608   0.536E-04    0.363E-04
DAV:  19    -0.353266488479E+03   -0.16567E-05   -0.43404E-08  3576   0.376E-04    0.304E-04
DAV:  20    -0.353266489817E+03   -0.13383E-05   -0.32337E-08  3576   0.390E-04    0.213E-04
DAV:  21    -0.353266490676E+03   -0.85926E-06   -0.29064E-08  3592   0.297E-04
   2 F= -.36631299E+03 E0= -.36631299E+03  d E =-.922797E-01  mag=    53.0000
 trial-energy change:   -0.092280  1 .order   -0.092015   -0.118633   -0.065396
 step:   2.1541(harm=  2.2284)  dis= 0.07281  next Energy=  -366.351129 (dE=-0.130E+00)
 bond charge predicted
       N       E                     dE             d eps       ncg     rms          rms(c)
DAV:   1    -0.353193868749E+03    0.72621E-01   -0.13797E+01  6400   0.475E+00    0.215E+00
DAV:   2    -0.353313468375E+03   -0.11960E+00   -0.12271E+00  9192   0.358E+00    0.211E+00
DAV:   3    -0.353298047638E+03    0.15421E-01   -0.96059E-02  9408   0.196E+00    0.872E-01
DAV:   4    -0.353294733439E+03    0.33142E-02   -0.91695E-03  9472   0.630E-01    0.695E-01
DAV:   5    -0.353293100442E+03    0.16330E-02   -0.81642E-03  9024   0.203E-01    0.398E-01
DAV:   6    -0.353293487041E+03   -0.38660E-03   -0.18397E-03  9368   0.152E-01    0.131E-01
DAV:   7    -0.353293620748E+03   -0.13371E-03   -0.21085E-04  9352   0.497E-02    0.671E-02
DAV:   8    -0.353293693160E+03   -0.72413E-04   -0.59162E-05  9200   0.309E-02    0.624E-02
DAV:   9    -0.353293734172E+03   -0.41012E-04   -0.34314E-05  8848   0.148E-02    0.387E-02
DAV:  10    -0.353293763851E+03   -0.29679E-04   -0.23035E-05  9200   0.167E-02    0.128E-02
DAV:  11    -0.353293789934E+03   -0.26083E-04   -0.46147E-06  7240   0.656E-03    0.378E-03
DAV:  12    -0.353293801521E+03   -0.11586E-04   -0.11519E-06  4160   0.375E-03    0.354E-03
DAV:  13    -0.353293810559E+03   -0.90385E-05   -0.70251E-07  3656   0.272E-03    0.183E-03
DAV:  14    -0.353293819360E+03   -0.88005E-05   -0.37782E-07  3624   0.158E-03    0.119E-03
DAV:  15    -0.353293826081E+03   -0.67210E-05   -0.20325E-07  3656   0.130E-03    0.941E-04
DAV:  16    -0.353293832524E+03   -0.64432E-05   -0.11997E-07  3584   0.807E-04    0.657E-04
DAV:  17    -0.353293837235E+03   -0.47115E-05   -0.95135E-08  3608   0.702E-04    0.599E-04
DAV:  18    -0.353293839818E+03   -0.25829E-05   -0.72498E-08  3600   0.565E-04    0.427E-04
DAV:  19    -0.353293841463E+03   -0.16443E-05   -0.46803E-08  3576   0.462E-04    0.384E-04
DAV:  20    -0.353293842651E+03   -0.11886E-05   -0.31575E-08  3592   0.406E-04    0.222E-04
DAV:  21    -0.353293843764E+03   -0.11131E-05   -0.34145E-08  3568   0.295E-04    0.218E-04
DAV:  22    -0.353293844398E+03   -0.63334E-06   -0.18924E-08  3600   0.294E-04
   3 F= -.36635184E+03 E0= -.36635184E+03  d E =-.131130E+00  mag=    53.0000
 curvature:  -1.11 expect dE=-0.801E-01 dE for cont linesearch -0.165E-04
 trial: gam= 0.59667 g(F)=  0.721E-01 g(S)=  0.000E+00 ort = 0.133E-02 (trialstep = 0.123E+01)
 search vector abs. value=  0.116E+00
 bond charge predicted
       N       E                     dE             d eps       ncg     rms          rms(c)
DAV:   1    -0.353234660633E+03    0.59183E-01   -0.12924E+01  6424   0.470E+00    0.207E+00
DAV:   2    -0.353329796073E+03   -0.95135E-01   -0.96324E-01  9088   0.252E+00    0.128E+00
DAV:   3    -0.353329386169E+03    0.40990E-03   -0.68183E-02  9368   0.162E+00    0.946E-01
DAV:   4    -0.353324475854E+03    0.49103E-02   -0.10643E-02  9472   0.739E-01    0.563E-01
DAV:   5    -0.353323206102E+03    0.12698E-02   -0.46002E-03  8808   0.127E-01    0.383E-01
DAV:   6    -0.353323115521E+03    0.90581E-04   -0.20569E-03  9416   0.202E-01    0.115E-01
DAV:   7    -0.353323421312E+03   -0.30579E-03   -0.30959E-04  9312   0.496E-02    0.579E-02
DAV:   8    -0.353323773036E+03   -0.35172E-03   -0.59484E-05  9448   0.280E-02    0.473E-02
DAV:   9    -0.353324144066E+03   -0.37103E-03   -0.22058E-05  9104   0.172E-02    0.283E-02
DAV:  10    -0.353324388448E+03   -0.24438E-03   -0.13053E-05  9104   0.740E-03    0.140E-02
DAV:  11    -0.353324683563E+03   -0.29512E-03   -0.61149E-06  7272   0.487E-03    0.492E-03
DAV:  12    -0.353324840289E+03   -0.15673E-03   -0.15045E-06  5264   0.319E-03    0.316E-03
DAV:  13    -0.353324953146E+03   -0.11286E-03   -0.11784E-06  4520   0.275E-03    0.255E-03
DAV:  14    -0.353325048894E+03   -0.95748E-04   -0.11486E-06  4584   0.191E-03    0.226E-03
DAV:  15    -0.353325184306E+03   -0.13541E-03   -0.21245E-06  5520   0.210E-03    0.131E-03
DAV:  16    -0.353325283441E+03   -0.99135E-04   -0.12883E-06  4920   0.162E-03    0.115E-03
DAV:  17    -0.353325331339E+03   -0.47898E-04   -0.67222E-07  4376   0.158E-03    0.118E-03
DAV:  18    -0.353325362231E+03   -0.30892E-04   -0.74109E-07  4288   0.145E-03    0.992E-04
DAV:  19    -0.353325378402E+03   -0.16171E-04   -0.57145E-07  4048   0.141E-03    0.848E-04
DAV:  20    -0.353325386735E+03   -0.83329E-05   -0.61498E-07  4328   0.124E-03    0.841E-04
DAV:  21    -0.353325388094E+03   -0.13591E-05   -0.27062E-07  3656   0.114E-03    0.369E-04
DAV:  22    -0.353325389018E+03   -0.92402E-06   -0.14806E-07  3584   0.666E-04
   4 F= -.36639514E+03 E0= -.36639514E+03  d E =-.433051E-01  mag=    53.0000
 trial-energy change:   -0.043305  1 .order   -0.044717   -0.089734    0.000299
 step:   1.2263(harm=  1.2267)  dis= 0.04535  next Energy=  -366.395142 (dE=-0.433E-01)
 bond charge predicted
       N       E                     dE             d eps       ncg     rms          rms(c)
DAV:   1    -0.353325432128E+03   -0.44034E-04   -0.17364E-04  6488   0.173E-02    0.766E-03
DAV:   2    -0.353325433510E+03   -0.13826E-05   -0.12973E-05  8840   0.930E-03    0.468E-03
DAV:   3    -0.353325434083E+03   -0.57257E-06   -0.66741E-07  4352   0.566E-03
   5 F= -.36639514E+03 E0= -.36639514E+03  d E =-.433071E-01  mag=    53.0000
 curvature:  -0.96 expect dE=-0.299E-01 dE for cont linesearch -0.325E-07
 trial: gam= 0.47253 g(F)=  0.310E-01 g(S)=  0.000E+00 ort =-0.625E-04 (trialstep = 0.123E+01)
 search vector abs. value=  0.568E-01
 bond charge predicted
       N       E                     dE             d eps       ncg     rms          rms(c)
DAV:   1    -0.353294000497E+03    0.31433E-01   -0.70389E+00  6400   0.362E+00    0.156E+00
DAV:   2    -0.353347981685E+03   -0.53981E-01   -0.50778E-01  9128   0.170E+00    0.101E+00
DAV:   3    -0.353350183524E+03   -0.22018E-02   -0.22781E-02  9416   0.879E-01    0.586E-01
DAV:   4    -0.353348648454E+03    0.15351E-02   -0.37373E-03  9480   0.372E-01    0.364E-01
DAV:   5    -0.353348108449E+03    0.54001E-03   -0.12604E-03  9560   0.130E-01    0.281E-01
DAV:   6    -0.353347740495E+03    0.36795E-03   -0.18738E-03  9256   0.114E-01    0.989E-02
DAV:   7    -0.353347935238E+03   -0.19474E-03   -0.28352E-04  9128   0.494E-02    0.353E-02
DAV:   8    -0.353348127234E+03   -0.19200E-03   -0.21803E-05  9616   0.218E-02    0.228E-02
DAV:   9    -0.353348303160E+03   -0.17593E-03   -0.60094E-06  7080   0.883E-03    0.155E-02
DAV:  10    -0.353348542103E+03   -0.23894E-03   -0.84199E-06  8288   0.634E-03    0.710E-03
DAV:  11    -0.353348742935E+03   -0.20083E-03   -0.33872E-06  6296   0.473E-03    0.319E-03
DAV:  12    -0.353348817722E+03   -0.74787E-04   -0.88811E-07  4032   0.254E-03    0.254E-03
DAV:  13    -0.353348880480E+03   -0.62759E-04   -0.57869E-07  3992   0.187E-03    0.188E-03
DAV:  14    -0.353348999946E+03   -0.11947E-03   -0.16348E-06  5344   0.178E-03    0.136E-03
DAV:  15    -0.353349092536E+03   -0.92590E-04   -0.94269E-07  4648   0.168E-03    0.116E-03
DAV:  16    -0.353349138994E+03   -0.46457E-04   -0.59514E-07  3992   0.149E-03    0.108E-03
DAV:  17    -0.353349172873E+03   -0.33880E-04   -0.57111E-07  4096   0.128E-03    0.893E-04
DAV:  18    -0.353349192985E+03   -0.20112E-04   -0.41800E-07  3888   0.124E-03    0.695E-04
DAV:  19    -0.353349207002E+03   -0.14017E-04   -0.34501E-07  3768   0.101E-03    0.603E-04
DAV:  20    -0.353349218738E+03   -0.11735E-04   -0.32784E-07  3912   0.102E-03    0.580E-04
DAV:  21    -0.353349224715E+03   -0.59767E-05   -0.27604E-07  3720   0.879E-04    0.376E-04
DAV:  22    -0.353349225831E+03   -0.11159E-05   -0.13180E-07  3640   0.764E-04    0.298E-04
DAV:  23    -0.353349227130E+03   -0.12993E-05   -0.83290E-08  3592   0.458E-04    0.165E-04
DAV:  24    -0.353349228501E+03   -0.13707E-05   -0.57225E-08  3552   0.445E-04    0.233E-04
DAV:  25    -0.353349229512E+03   -0.10111E-05   -0.47460E-08  3560   0.339E-04    0.111E-04
DAV:  26    -0.353349229839E+03   -0.32780E-06   -0.24584E-08  3632   0.326E-04
   6 F= -.36642597E+03 E0= -.36642597E+03  d E =-.308280E-01  mag=    53.0000
 trial-energy change:   -0.030828  1 .order   -0.030794   -0.038107   -0.023480
 step:   3.2042(harm=  3.2042)  dis= 0.06944  next Energy=  -366.444782 (dE=-0.496E-01)
 bond charge predicted
       N       E                     dE             d eps       ncg     rms          rms(c)
DAV:   1    -0.353211528685E+03    0.13770E+00   -0.18125E+01  6400   0.583E+00    0.253E+00
DAV:   2    -0.353355642938E+03   -0.14411E+00   -0.13543E+00  9152   0.288E+00    0.179E+00
DAV:   3    -0.353359619935E+03   -0.39770E-02   -0.64789E-02  9336   0.151E+00    0.944E-01
DAV:   4    -0.353355552143E+03    0.40678E-02   -0.10286E-02  9416   0.615E-01    0.600E-01
DAV:   5    -0.353354162046E+03    0.13901E-02   -0.33950E-03  9528   0.223E-01    0.459E-01
DAV:   6    -0.353353276965E+03    0.88508E-03   -0.51370E-03  9208   0.183E-01    0.164E-01
DAV:   7    -0.353353730254E+03   -0.45329E-03   -0.79225E-04  9128   0.805E-02    0.594E-02
DAV:   8    -0.353354117967E+03   -0.38771E-03   -0.53494E-05  9608   0.370E-02    0.368E-02
DAV:   9    -0.353354484649E+03   -0.36668E-03   -0.15916E-05  8880   0.134E-02    0.263E-02
DAV:  10    -0.353354989351E+03   -0.50470E-03   -0.19277E-05  8744   0.107E-02    0.113E-02
DAV:  11    -0.353355360896E+03   -0.37155E-03   -0.81069E-06  8272   0.679E-03    0.485E-03
DAV:  12    -0.353355504888E+03   -0.14399E-03   -0.92720E-07  4528   0.287E-03    0.374E-03
DAV:  13    -0.353355646353E+03   -0.14147E-03   -0.11170E-06  4632   0.248E-03    0.295E-03
DAV:  14    -0.353355879242E+03   -0.23289E-03   -0.32803E-06  5808   0.237E-03    0.179E-03
DAV:  15    -0.353356065667E+03   -0.18642E-03   -0.19653E-06  5568   0.213E-03    0.147E-03
DAV:  16    -0.353356146009E+03   -0.80342E-04   -0.75781E-07  4312   0.156E-03    0.132E-03
DAV:  17    -0.353356206392E+03   -0.60383E-04   -0.73449E-07  4384   0.153E-03    0.116E-03
DAV:  18    -0.353356247310E+03   -0.40918E-04   -0.66389E-07  4080   0.142E-03    0.870E-04
DAV:  19    -0.353356277753E+03   -0.30443E-04   -0.66885E-07  4280   0.131E-03    0.814E-04
DAV:  20    -0.353356297513E+03   -0.19760E-04   -0.59516E-07  4152   0.137E-03    0.693E-04
DAV:  21    -0.353356302467E+03   -0.49534E-05   -0.29414E-07  3632   0.114E-03    0.449E-04
DAV:  22    -0.353356306245E+03   -0.37784E-05   -0.20107E-07  3672   0.723E-04    0.391E-04
DAV:  23    -0.353356309452E+03   -0.32071E-05   -0.13010E-07  3608   0.697E-04    0.288E-04
DAV:  24    -0.353356311728E+03   -0.22760E-05   -0.99256E-08  3560   0.518E-04    0.244E-04
DAV:  25    -0.353356312854E+03   -0.11258E-05   -0.57684E-08  3616   0.482E-04    0.183E-04
DAV:  26    -0.353356313704E+03   -0.85049E-06   -0.43635E-08  3528   0.331E-04
   7 F= -.36644419E+03 E0= -.36644419E+03  d E =-.490477E-01  mag=    53.0000
 curvature:  -2.94 expect dE=-0.647E-01 dE for cont linesearch -0.274E-04
 trial: gam= 0.69477 g(F)=  0.220E-01 g(S)=  0.000E+00 ort =-0.728E-03 (trialstep = 0.162E+01)
 search vector abs. value=  0.484E-01
 bond charge predicted
       N       E                     dE             d eps       ncg     rms          rms(c)
DAV:   1    -0.353297305334E+03    0.59008E-01   -0.98859E+00  6400   0.432E+00    0.210E+00
DAV:   2    -0.353368452352E+03   -0.71147E-01   -0.72891E-01  9136   0.202E+00    0.110E+00
DAV:   3    -0.353371721140E+03   -0.32688E-02   -0.30336E-02  9248   0.894E-01    0.757E-01
DAV:   4    -0.353369580413E+03    0.21407E-02   -0.48284E-03  9440   0.437E-01    0.481E-01
DAV:   5    -0.353368527974E+03    0.10524E-02   -0.16845E-03  9464   0.147E-01    0.377E-01
DAV:   6    -0.353367756412E+03    0.77156E-03   -0.25448E-03  9144   0.137E-01    0.150E-01
DAV:   7    -0.353368012530E+03   -0.25612E-03   -0.42060E-04  9192   0.570E-02    0.490E-02
DAV:   8    -0.353368377369E+03   -0.36484E-03   -0.62023E-05  9264   0.221E-02    0.310E-02
DAV:   9    -0.353368759729E+03   -0.38236E-03   -0.22090E-05  9080   0.161E-02    0.186E-02
DAV:  10    -0.353369039483E+03   -0.27975E-03   -0.94986E-06  9120   0.837E-03    0.750E-03
DAV:  11    -0.353369361470E+03   -0.32199E-03   -0.34146E-06  6024   0.402E-03    0.390E-03
DAV:  12    -0.353369622583E+03   -0.26111E-03   -0.24933E-06  5544   0.360E-03    0.351E-03
DAV:  13    -0.353369817752E+03   -0.19517E-03   -0.16844E-06  4976   0.290E-03    0.270E-03
DAV:  14    -0.353370025981E+03   -0.20823E-03   -0.28332E-06  5896   0.277E-03    0.212E-03
DAV:  15    -0.353370141728E+03   -0.11575E-03   -0.10675E-06  4608   0.182E-03    0.173E-03
DAV:  16    -0.353370247111E+03   -0.10538E-03   -0.14431E-06  4856   0.205E-03    0.130E-03
DAV:  17    -0.353370298304E+03   -0.51193E-04   -0.80603E-07  4280   0.173E-03    0.988E-04
DAV:  18    -0.353370325484E+03   -0.27180E-04   -0.57920E-07  3864   0.143E-03    0.930E-04
DAV:  19    -0.353370348352E+03   -0.22867E-04   -0.55919E-07  4160   0.139E-03    0.824E-04
DAV:  20    -0.353370360171E+03   -0.11820E-04   -0.41089E-07  3808   0.119E-03    0.672E-04
DAV:  21    -0.353370368251E+03   -0.80797E-05   -0.33242E-07  3880   0.107E-03    0.527E-04
DAV:  22    -0.353370371222E+03   -0.29707E-05   -0.20533E-07  3624   0.890E-04    0.429E-04
DAV:  23    -0.353370372454E+03   -0.12322E-05   -0.11128E-07  3616   0.635E-04    0.268E-04
DAV:  24    -0.353370373811E+03   -0.13572E-05   -0.74791E-08  3544   0.476E-04    0.240E-04
DAV:  25    -0.353370375146E+03   -0.13347E-05   -0.63683E-08  3608   0.420E-04    0.213E-04
DAV:  26    -0.353370375598E+03   -0.45262E-06   -0.41191E-08  3616   0.374E-04
   8 F= -.36646400E+03 E0= -.36646400E+03  d E =-.198078E-01  mag=    53.0000
 trial-energy change:   -0.019808  1 .order   -0.019825   -0.034927   -0.004724
 step:   1.8789(harm=  1.8789)  dis= 0.03927  next Energy=  -366.464386 (dE=-0.202E-01)
 bond charge predicted
       N       E                     dE             d eps       ncg     rms          rms(c)
DAV:   1    -0.353368080927E+03    0.22942E-02   -0.24169E-01  6480   0.678E-01    0.321E-01
DAV:   2    -0.353369665086E+03   -0.15842E-02   -0.17605E-02  9064   0.306E-01    0.156E-01
DAV:   3    -0.353369839371E+03   -0.17428E-03   -0.68161E-04  9192   0.128E-01    0.115E-01
DAV:   4    -0.353369782879E+03    0.56492E-04   -0.10733E-04  9488   0.648E-02    0.735E-02
DAV:   5    -0.353369738807E+03    0.44072E-04   -0.39423E-05  9216   0.199E-02    0.577E-02
DAV:   6    -0.353369687444E+03    0.51363E-04   -0.57142E-05  9096   0.202E-02    0.233E-02
DAV:   7    -0.353369695450E+03   -0.80068E-05   -0.97671E-06  8848   0.898E-03    0.782E-03
DAV:   8    -0.353369717598E+03   -0.22148E-04   -0.10323E-06  4000   0.378E-03    0.556E-03
DAV:   9    -0.353369744189E+03   -0.26591E-04   -0.88841E-07  3912   0.345E-03    0.347E-03
DAV:  10    -0.353369764136E+03   -0.19947E-04   -0.66905E-07  3784   0.221E-03    0.189E-03
DAV:  11    -0.353369781783E+03   -0.17647E-04   -0.54524E-07  3640   0.195E-03    0.140E-03
DAV:  12    -0.353369795082E+03   -0.13299E-04   -0.32270E-07  3600   0.168E-03    0.113E-03
DAV:  13    -0.353369811040E+03   -0.15958E-04   -0.30090E-07  3808   0.135E-03    0.910E-04
DAV:  14    -0.353369819560E+03   -0.85200E-05   -0.19453E-07  3640   0.945E-04    0.643E-04
DAV:  15    -0.353369827400E+03   -0.78403E-05   -0.13229E-07  3560   0.667E-04    0.493E-04
DAV:  16    -0.353369831715E+03   -0.43152E-05   -0.75069E-08  3616   0.622E-04    0.434E-04
DAV:  17    -0.353369839307E+03   -0.75913E-05   -0.10633E-07  3608   0.487E-04    0.430E-04
DAV:  18    -0.353369846370E+03   -0.70632E-05   -0.10937E-07  3680   0.596E-04    0.435E-04
DAV:  19    -0.353369850305E+03   -0.39350E-05   -0.99079E-08  3576   0.560E-04    0.392E-04
DAV:  20    -0.353369850845E+03   -0.53973E-06   -0.46945E-08  3672   0.483E-04
   9 F= -.36646436E+03 E0= -.36646436E+03  d E =-.201687E-01  mag=    53.0000
 curvature:  -2.12 expect dE=-0.122E-01 dE for cont linesearch -0.745E-10
 trial: gam= 0.21889 g(F)=  0.575E-02 g(S)=  0.000E+00 ort =-0.131E-05 (trialstep = 0.168E+01)
 search vector abs. value=  0.807E-02
 bond charge predicted
       N       E                     dE             d eps       ncg     rms          rms(c)
DAV:   1    -0.353362025589E+03    0.78247E-02   -0.19092E+00  6432   0.193E+00    0.908E-01
DAV:   2    -0.353375890564E+03   -0.13865E-01   -0.13767E-01  9112   0.902E-01    0.464E-01
DAV:   3    -0.353376718322E+03   -0.82776E-03   -0.46103E-03  9216   0.359E-01    0.313E-01
DAV:   4    -0.353376307543E+03    0.41078E-03   -0.77065E-04  9600   0.167E-01    0.208E-01
DAV:   5    -0.353375933814E+03    0.37373E-03   -0.39190E-04  9400   0.665E-02    0.154E-01
DAV:   6    -0.353375633747E+03    0.30007E-03   -0.41156E-04  9312   0.584E-02    0.626E-02
DAV:   7    -0.353375686585E+03   -0.52837E-04   -0.68232E-05  9192   0.308E-02    0.206E-02
DAV:   8    -0.353375834558E+03   -0.14797E-03   -0.12043E-05  8832   0.126E-02    0.136E-02
DAV:   9    -0.353375994943E+03   -0.16038E-03   -0.40125E-06  5600   0.799E-03    0.887E-03
DAV:  10    -0.353376105523E+03   -0.11058E-03   -0.27855E-06  4888   0.425E-03    0.510E-03
DAV:  11    -0.353376250067E+03   -0.14454E-03   -0.24074E-06  5104   0.275E-03    0.279E-03
DAV:  12    -0.353376381357E+03   -0.13129E-03   -0.10871E-06  4560   0.235E-03    0.231E-03
DAV:  13    -0.353376463833E+03   -0.82477E-04   -0.71294E-07  4024   0.200E-03    0.161E-03
DAV:  14    -0.353376531894E+03   -0.68060E-04   -0.73752E-07  4232   0.177E-03    0.145E-03
DAV:  15    -0.353376589756E+03   -0.57863E-04   -0.69456E-07  4104   0.150E-03    0.119E-03
DAV:  16    -0.353376666730E+03   -0.76974E-04   -0.14680E-06  4904   0.158E-03    0.104E-03
DAV:  17    -0.353376711092E+03   -0.44361E-04   -0.60167E-07  4360   0.126E-03    0.603E-04
DAV:  18    -0.353376728600E+03   -0.17509E-04   -0.36333E-07  3744   0.112E-03    0.764E-04
DAV:  19    -0.353376737608E+03   -0.90078E-05   -0.24647E-07  3664   0.953E-04    0.363E-04
DAV:  20    -0.353376742995E+03   -0.53867E-05   -0.17233E-07  3600   0.763E-04    0.424E-04
DAV:  21    -0.353376747629E+03   -0.46340E-05   -0.14886E-07  3816   0.672E-04    0.346E-04
DAV:  22    -0.353376749010E+03   -0.13815E-05   -0.81875E-08  3624   0.600E-04    0.174E-04
DAV:  23    -0.353376750520E+03   -0.15093E-05   -0.73190E-08  3568   0.391E-04    0.221E-04
DAV:  24    -0.353376750924E+03   -0.40401E-06   -0.34674E-08  3616   0.424E-04
  10 F= -.36647139E+03 E0= -.36647139E+03  d E =-.703341E-02  mag=    53.0000
 trial-energy change:   -0.007033  1 .order   -0.007016   -0.009627   -0.004406
 step:   3.0412(harm=  3.0894)  dis= 0.02137  next Energy=  -366.473198 (dE=-0.884E-02)
 bond charge predicted
       N       E                     dE             d eps       ncg     rms          rms(c)
DAV:   1    -0.353368752434E+03    0.79981E-02   -0.12682E+00  6424   0.157E+00    0.739E-01
DAV:   2    -0.353377858468E+03   -0.91060E-02   -0.91346E-02  9040   0.734E-01    0.376E-01
DAV:   3    -0.353378459922E+03   -0.60145E-03   -0.30257E-03  9232   0.289E-01    0.254E-01
DAV:   4    -0.353378181880E+03    0.27804E-03   -0.50439E-04  9608   0.135E-01    0.170E-01
DAV:   5    -0.353377911622E+03    0.27026E-03   -0.26052E-04  9392   0.542E-02    0.126E-01
DAV:   6    -0.353377687037E+03    0.22458E-03   -0.27446E-04  9320   0.481E-02    0.509E-02
DAV:   7    -0.353377724512E+03   -0.37475E-04   -0.45581E-05  9216   0.254E-02    0.168E-02
DAV:   8    -0.353377835376E+03   -0.11086E-03   -0.78346E-06  7872   0.103E-02    0.112E-02
DAV:   9    -0.353377957413E+03   -0.12204E-03   -0.26385E-06  5168   0.667E-03    0.723E-03
DAV:  10    -0.353378042318E+03   -0.84905E-04   -0.18678E-06  4168   0.378E-03    0.418E-03
DAV:  11    -0.353378147300E+03   -0.10498E-03   -0.25822E-06  5056   0.280E-03    0.253E-03
DAV:  12    -0.353378234462E+03   -0.87162E-04   -0.71530E-07  4264   0.220E-03    0.173E-03
DAV:  13    -0.353378304848E+03   -0.70386E-04   -0.61408E-07  4000   0.183E-03    0.156E-03
DAV:  14    -0.353378359066E+03   -0.54218E-04   -0.59778E-07  4144   0.165E-03    0.117E-03
DAV:  15    -0.353378410473E+03   -0.51407E-04   -0.69150E-07  4152   0.131E-03    0.112E-03
DAV:  16    -0.353378446621E+03   -0.36147E-04   -0.46468E-07  3864   0.135E-03    0.978E-04
DAV:  17    -0.353378489323E+03   -0.42702E-04   -0.91808E-07  4656   0.127E-03    0.865E-04
DAV:  18    -0.353378505022E+03   -0.15699E-04   -0.34466E-07  3744   0.120E-03    0.680E-04
DAV:  19    -0.353378516252E+03   -0.11230E-04   -0.32367E-07  3856   0.921E-04    0.551E-04
DAV:  20    -0.353378519384E+03   -0.31318E-05   -0.16198E-07  3624   0.881E-04    0.372E-04
DAV:  21    -0.353378522368E+03   -0.29842E-05   -0.12262E-07  3576   0.529E-04    0.341E-04
DAV:  22    -0.353378524121E+03   -0.17526E-05   -0.72085E-08  3584   0.561E-04    0.182E-04
DAV:  23    -0.353378525537E+03   -0.14168E-05   -0.64412E-08  3552   0.363E-04    0.272E-04
DAV:  24    -0.353378526036E+03   -0.49875E-06   -0.33045E-08  3608   0.406E-04
  11 F= -.36647326E+03 E0= -.36647326E+03  d E =-.890000E-02  mag=    53.0000
 curvature:  -2.17 expect dE=-0.100E-01 dE for cont linesearch -0.234E-05
 trial: gam= 0.78942 g(F)=  0.463E-02 g(S)=  0.000E+00 ort = 0.934E-04 (trialstep = 0.160E+01)
 search vector abs. value=  0.981E-02
 bond charge predicted
       N       E                     dE             d eps       ncg     rms          rms(c)
DAV:   1    -0.353369341827E+03    0.91837E-02   -0.20564E+00  6408   0.201E+00    0.906E-01
DAV:   2    -0.353383803677E+03   -0.14462E-01   -0.15208E-01  9096   0.928E-01    0.445E-01
DAV:   3    -0.353385030495E+03   -0.12268E-02   -0.46270E-03  9144   0.333E-01    0.312E-01
DAV:   4    -0.353384611406E+03    0.41909E-03   -0.66779E-04  9600   0.154E-01    0.217E-01
DAV:   5    -0.353384241674E+03    0.36973E-03   -0.27534E-04  9432   0.515E-02    0.168E-01
DAV:   6    -0.353383812507E+03    0.42917E-03   -0.43557E-04  9168   0.532E-02    0.794E-02
DAV:   7    -0.353383861461E+03   -0.48954E-04   -0.85592E-05  9168   0.305E-02    0.236E-02
DAV:   8    -0.353384055729E+03   -0.19427E-03   -0.13472E-05  8872   0.115E-02    0.131E-02
DAV:   9    -0.353384290531E+03   -0.23480E-03   -0.58347E-06  6800   0.886E-03    0.977E-03
DAV:  10    -0.353384420828E+03   -0.13030E-03   -0.16261E-06  4440   0.402E-03    0.517E-03
DAV:  11    -0.353384597872E+03   -0.17704E-03   -0.27517E-06  5416   0.269E-03    0.282E-03
DAV:  12    -0.353384765329E+03   -0.16746E-03   -0.11402E-06  4680   0.223E-03    0.251E-03
DAV:  13    -0.353384884121E+03   -0.11879E-03   -0.85256E-07  4248   0.205E-03    0.191E-03
DAV:  14    -0.353384988823E+03   -0.10470E-03   -0.12217E-06  4768   0.196E-03    0.134E-03
DAV:  15    -0.353385051714E+03   -0.62891E-04   -0.60514E-07  3872   0.151E-03    0.108E-03
DAV:  16    -0.353385151322E+03   -0.99608E-04   -0.15440E-06  4936   0.157E-03    0.106E-03
DAV:  17    -0.353385197890E+03   -0.46568E-04   -0.55970E-07  4120   0.142E-03    0.890E-04
DAV:  18    -0.353385238418E+03   -0.40529E-04   -0.95050E-07  4584   0.131E-03    0.794E-04
DAV:  19    -0.353385249245E+03   -0.10827E-04   -0.32371E-07  3712   0.127E-03    0.443E-04
DAV:  20    -0.353385254867E+03   -0.56216E-05   -0.22843E-07  3672   0.767E-04    0.458E-04
DAV:  21    -0.353385258383E+03   -0.35168E-05   -0.14128E-07  3624   0.784E-04    0.239E-04
DAV:  22    -0.353385260367E+03   -0.19838E-05   -0.10788E-07  3584   0.531E-04    0.294E-04
DAV:  23    -0.353385261154E+03   -0.78651E-06   -0.59624E-08  3568   0.524E-04
  12 F= -.36647808E+03 E0= -.36647808E+03  d E =-.482366E-02  mag=    53.0000
 trial-energy change:   -0.004824  1 .order   -0.004826   -0.007545   -0.002108
 step:   2.2235(harm=  2.2235)  dis= 0.01680  next Energy=  -366.478494 (dE=-0.523E-02)
 bond charge predicted
       N       E                     dE             d eps       ncg     rms          rms(c)
DAV:   1    -0.353384030032E+03    0.12303E-02   -0.30894E-01  6496   0.778E-01    0.351E-01
DAV:   2    -0.353386060719E+03   -0.20307E-02   -0.22830E-02  9016   0.360E-01    0.172E-01
DAV:   3    -0.353386342021E+03   -0.28130E-03   -0.69014E-04  9152   0.128E-01    0.121E-01
DAV:   4    -0.353386264298E+03    0.77724E-04   -0.99795E-05  9592   0.593E-02    0.839E-02
DAV:   5    -0.353386180769E+03    0.83529E-04   -0.41732E-05  9328   0.200E-02    0.650E-02
DAV:   6    -0.353386059083E+03    0.12169E-03   -0.66376E-05  9192   0.209E-02    0.306E-02
DAV:   7    -0.353386063392E+03   -0.43089E-05   -0.12928E-05  9136   0.120E-02    0.911E-03
DAV:   8    -0.353386109554E+03   -0.46162E-04   -0.13557E-06  4416   0.443E-03    0.554E-03
DAV:   9    -0.353386167388E+03   -0.57833E-04   -0.11542E-06  4424   0.388E-03    0.417E-03
DAV:  10    -0.353386207033E+03   -0.39646E-04   -0.72701E-07  3848   0.243E-03    0.213E-03
DAV:  11    -0.353386253283E+03   -0.46250E-04   -0.84912E-07  4008   0.173E-03    0.185E-03
DAV:  12    -0.353386283298E+03   -0.30014E-04   -0.42154E-07  3624   0.182E-03    0.120E-03
DAV:  13    -0.353386324361E+03   -0.41063E-04   -0.59125E-07  4120   0.124E-03    0.110E-03
DAV:  14    -0.353386352495E+03   -0.28134E-04   -0.37452E-07  3760   0.144E-03    0.841E-04
DAV:  15    -0.353386365631E+03   -0.13136E-04   -0.27307E-07  3568   0.987E-04    0.661E-04
DAV:  16    -0.353386378271E+03   -0.12641E-04   -0.20425E-07  3664   0.809E-04    0.548E-04
DAV:  17    -0.353386390920E+03   -0.12649E-04   -0.19316E-07  3688   0.736E-04    0.553E-04
DAV:  18    -0.353386407046E+03   -0.16125E-04   -0.28489E-07  4120   0.764E-04    0.485E-04
DAV:  19    -0.353386416603E+03   -0.95575E-05   -0.24885E-07  3760   0.855E-04    0.630E-04
DAV:  20    -0.353386417867E+03   -0.12638E-05   -0.12307E-07  3656   0.716E-04    0.154E-04
DAV:  21    -0.353386420221E+03   -0.23539E-05   -0.10951E-07  3584   0.459E-04    0.469E-04
DAV:  22    -0.353386421147E+03   -0.92573E-06   -0.61402E-08  3608   0.506E-04
  13 F= -.36647850E+03 E0= -.36647850E+03  d E =-.523731E-02  mag=    53.0000
 curvature:  -2.32 expect dE=-0.779E-02 dE for cont linesearch -0.339E-07
 trial: gam= 0.75054 g(F)=  0.336E-02 g(S)=  0.000E+00 ort = 0.120E-04 (trialstep = 0.173E+01)
 search vector abs. value=  0.891E-02
 bond charge predicted
       N       E                     dE             d eps       ncg     rms          rms(c)
DAV:   1    -0.353373953979E+03    0.12466E-01   -0.23830E+00  6440   0.216E+00    0.959E-01
DAV:   2    -0.353391748243E+03   -0.17794E-01   -0.17243E-01  9096   0.103E+00    0.560E-01
DAV:   3    -0.353393241701E+03   -0.14935E-02   -0.60833E-03  9352   0.440E-01    0.329E-01
DAV:   4    -0.353392784510E+03    0.45719E-03   -0.10117E-03  9600   0.204E-01    0.221E-01
DAV:   5    -0.353392623078E+03    0.16143E-03   -0.47363E-04  9456   0.789E-02    0.160E-01
DAV:   6    -0.353392657955E+03   -0.34876E-04   -0.55114E-04  9264   0.614E-02    0.639E-02
DAV:   7    -0.353392748918E+03   -0.90963E-04   -0.82212E-05  9128   0.297E-02    0.188E-02
DAV:   8    -0.353392825716E+03   -0.76798E-04   -0.98132E-06  7976   0.135E-02    0.138E-02
DAV:   9    -0.353392878350E+03   -0.52634E-04   -0.25862E-06  5192   0.767E-03    0.994E-03
DAV:  10    -0.353392916334E+03   -0.37984E-04   -0.14955E-06  4176   0.356E-03    0.563E-03
DAV:  11    -0.353392963700E+03   -0.47366E-04   -0.22719E-06  5176   0.305E-03    0.254E-03
DAV:  12    -0.353392992772E+03   -0.29072E-04   -0.79580E-07  3856   0.233E-03    0.157E-03
DAV:  13    -0.353393012384E+03   -0.19612E-04   -0.42532E-07  3736   0.183E-03    0.112E-03
DAV:  14    -0.353393025679E+03   -0.13295E-04   -0.25426E-07  3648   0.133E-03    0.914E-04
DAV:  15    -0.353393035814E+03   -0.10135E-04   -0.15349E-07  3704   0.102E-03    0.632E-04
DAV:  16    -0.353393045303E+03   -0.94892E-05   -0.13544E-07  3624   0.671E-04    0.582E-04
DAV:  17    -0.353393058360E+03   -0.13057E-04   -0.15161E-07  3872   0.751E-04    0.570E-04
DAV:  18    -0.353393066543E+03   -0.81830E-05   -0.14071E-07  3648   0.664E-04    0.423E-04
DAV:  19    -0.353393075071E+03   -0.85280E-05   -0.17501E-07  3832   0.659E-04    0.466E-04
DAV:  20    -0.353393076767E+03   -0.16957E-05   -0.82713E-08  3640   0.647E-04    0.221E-04
DAV:  21    -0.353393078982E+03   -0.22150E-05   -0.69690E-08  3544   0.383E-04    0.322E-04
DAV:  22    -0.353393080701E+03   -0.17191E-05   -0.49542E-08  3576   0.434E-04    0.158E-04
DAV:  23    -0.353393081674E+03   -0.97321E-06   -0.43663E-08  3600   0.312E-04
  14 F= -.36648169E+03 E0= -.36648169E+03  d E =-.319743E-02  mag=    53.0000
 trial-energy change:   -0.003197  1 .order   -0.003184   -0.005825   -0.000543
 step:   1.9012(harm=  1.9041)  dis= 0.01447  next Energy=  -366.481722 (dE=-0.322E-02)
 bond charge predicted
       N       E                     dE             d eps       ncg     rms          rms(c)
DAV:   1    -0.353393266669E+03   -0.18597E-03   -0.24364E-02  6560   0.218E-01    0.971E-02
DAV:   2    -0.353393410030E+03   -0.14336E-03   -0.17319E-03  9072   0.101E-01    0.532E-02
DAV:   3    -0.353393452856E+03   -0.42826E-04   -0.56979E-05  9232   0.411E-02    0.328E-02
DAV:   4    -0.353393447653E+03    0.52026E-05   -0.92020E-06  8688   0.193E-02    0.222E-02
DAV:   5    -0.353393445539E+03    0.21141E-05   -0.38965E-06  6176   0.784E-03    0.161E-02
DAV:   6    -0.353393446796E+03   -0.12570E-05   -0.11074E-05  8488   0.741E-03    0.704E-03
DAV:   7    -0.353393449055E+03   -0.22587E-05   -0.80829E-07  3616   0.291E-03    0.275E-03
DAV:   8    -0.353393452322E+03   -0.32667E-05   -0.37214E-07  3544   0.228E-03    0.187E-03
DAV:   9    -0.353393454062E+03   -0.17403E-05   -0.21100E-07  3640   0.136E-03    0.154E-03
DAV:  10    -0.353393454814E+03   -0.75234E-06   -0.74558E-08  3656   0.914E-04
  15 F= -.36648172E+03 E0= -.36648172E+03  d E =-.321927E-02  mag=    53.0000
 curvature:  -2.51 expect dE=-0.686E-02 dE for cont linesearch -0.107E-06
 trial: gam= 0.81038 g(F)=  0.273E-02 g(S)=  0.000E+00 ort =-0.195E-04 (trialstep = 0.176E+01)
 search vector abs. value=  0.855E-02
 bond charge predicted
       N       E                     dE             d eps       ncg     rms          rms(c)
DAV:   1    -0.353382547948E+03    0.10906E-01   -0.23417E+00  6400   0.212E+00    0.978E-01
DAV:   2    -0.353399588272E+03   -0.17040E-01   -0.18168E-01  9072   0.102E+00    0.465E-01
DAV:   3    -0.353400176274E+03   -0.58800E-03   -0.39008E-03  9016   0.274E-01    0.318E-01
DAV:   4    -0.353399929142E+03    0.24713E-03   -0.63716E-04  9520   0.134E-01    0.227E-01
DAV:   5    -0.353399738493E+03    0.19065E-03   -0.32810E-04  9408   0.609E-02    0.175E-01
DAV:   6    -0.353399654551E+03    0.83942E-04   -0.41307E-04  9224   0.685E-02    0.901E-02
DAV:   7    -0.353399664145E+03   -0.95937E-05   -0.94688E-05  9296   0.360E-02    0.265E-02
DAV:   8    -0.353399700195E+03   -0.36051E-04   -0.14082E-05  8896   0.112E-02    0.101E-02
DAV:   9    -0.353399741248E+03   -0.41053E-04   -0.27164E-06  5096   0.685E-03    0.821E-03
DAV:  10    -0.353399766127E+03   -0.24879E-04   -0.11491E-06  3688   0.414E-03    0.441E-03
DAV:  11    -0.353399799369E+03   -0.33243E-04   -0.18277E-06  4312   0.272E-03    0.288E-03
DAV:  12    -0.353399824369E+03   -0.25000E-04   -0.72428E-07  3656   0.280E-03    0.197E-03
DAV:  13    -0.353399848854E+03   -0.24485E-04   -0.46004E-07  3744   0.164E-03    0.135E-03
DAV:  14    -0.353399864436E+03   -0.15582E-04   -0.31116E-07  3728   0.167E-03    0.102E-03
DAV:  15    -0.353399875311E+03   -0.10875E-04   -0.22734E-07  3616   0.893E-04    0.770E-04
DAV:  16    -0.353399884844E+03   -0.95332E-05   -0.14792E-07  3664   0.102E-03    0.698E-04
DAV:  17    -0.353399899073E+03   -0.14229E-04   -0.23473E-07  3928   0.698E-04    0.624E-04
DAV:  18    -0.353399905902E+03   -0.68290E-05   -0.13085E-07  3648   0.843E-04    0.499E-04
DAV:  19    -0.353399914842E+03   -0.89396E-05   -0.23265E-07  3944   0.631E-04    0.510E-04
DAV:  20    -0.353399917717E+03   -0.28750E-05   -0.11093E-07  3632   0.731E-04    0.321E-04
DAV:  21    -0.353399919107E+03   -0.13897E-05   -0.78531E-08  3584   0.421E-04    0.304E-04
DAV:  22    -0.353399920417E+03   -0.13099E-05   -0.55837E-08  3560   0.464E-04    0.176E-04
DAV:  23    -0.353399921096E+03   -0.67923E-06   -0.43934E-08  3576   0.329E-04
  16 F= -.36648457E+03 E0= -.36648457E+03  d E =-.285354E-02  mag=    53.0000
 trial-energy change:   -0.002854  1 .order   -0.002834   -0.004783   -0.000885
 step:   2.1471(harm=  2.1614)  dis= 0.00852  next Energy=  -366.484667 (dE=-0.295E-02)
 bond charge predicted
       N       E                     dE             d eps       ncg     rms          rms(c)
DAV:   1    -0.353399983133E+03   -0.62716E-04   -0.11216E-01  6488   0.464E-01    0.215E-01
DAV:   2    -0.353400740416E+03   -0.75728E-03   -0.86842E-03  9064   0.223E-01    0.101E-01
DAV:   3    -0.353400816063E+03   -0.75647E-04   -0.18695E-04  8960   0.599E-02    0.698E-02
DAV:   4    -0.353400803352E+03    0.12712E-04   -0.30098E-05  9520   0.291E-02    0.498E-02
DAV:   5    -0.353400792858E+03    0.10493E-04   -0.15938E-05  8960   0.130E-02    0.383E-02
DAV:   6    -0.353400787847E+03    0.50115E-05   -0.19398E-05  9272   0.151E-02    0.199E-02
DAV:   7    -0.353400787839E+03    0.78508E-08   -0.30584E-06  5672   0.793E-03
  17 F= -.36648464E+03 E0= -.36648464E+03  d E =-.292620E-02  mag=    53.0000
 curvature:  -3.40 expect dE=-0.451E-02 dE for cont linesearch -0.162E-05
 trial: gam= 0.47785 g(F)=  0.133E-02 g(S)=  0.000E+00 ort = 0.639E-04 (trialstep = 0.184E+01)
 search vector abs. value=  0.334E-02
 bond charge predicted
       N       E                     dE             d eps       ncg     rms          rms(c)
DAV:   1    -0.353395149737E+03    0.56381E-02   -0.98887E-01  6440   0.140E+00    0.650E-01
DAV:   2    -0.353402272968E+03   -0.71232E-02   -0.73006E-02  9088   0.631E-01    0.310E-01
DAV:   3    -0.353403182155E+03   -0.90919E-03   -0.16559E-03  9200   0.170E-01    0.201E-01
DAV:   4    -0.353403004803E+03    0.17735E-03   -0.25489E-04  9488   0.790E-02    0.142E-01
DAV:   5    -0.353402798800E+03    0.20600E-03   -0.16051E-04  9376   0.485E-02    0.113E-01
DAV:   6    -0.353402583017E+03    0.21578E-03   -0.26306E-04  9248   0.476E-02    0.438E-02
DAV:   7    -0.353402643750E+03   -0.60733E-04   -0.35995E-05  9216   0.197E-02    0.159E-02
DAV:   8    -0.353402760669E+03   -0.11692E-03   -0.43270E-06  6272   0.681E-03    0.959E-03
DAV:   9    -0.353402885853E+03   -0.12518E-03   -0.21883E-06  5128   0.540E-03    0.527E-03
DAV:  10    -0.353402992823E+03   -0.10697E-03   -0.29111E-06  5320   0.412E-03    0.240E-03
DAV:  11    -0.353403071172E+03   -0.78349E-04   -0.13072E-06  4112   0.247E-03    0.226E-03
DAV:  12    -0.353403118669E+03   -0.47497E-04   -0.53966E-07  3728   0.212E-03    0.170E-03
DAV:  13    -0.353403185662E+03   -0.66993E-04   -0.63893E-07  4224   0.160E-03    0.138E-03
DAV:  14    -0.353403245221E+03   -0.59558E-04   -0.57203E-07  4000   0.166E-03    0.124E-03
DAV:  15    -0.353403284429E+03   -0.39208E-04   -0.52896E-07  3832   0.128E-03    0.103E-03
DAV:  16    -0.353403318158E+03   -0.33728E-04   -0.44051E-07  3912   0.133E-03    0.993E-04
DAV:  17    -0.353403342226E+03   -0.24069E-04   -0.41262E-07  3776   0.103E-03    0.571E-04
DAV:  18    -0.353403366003E+03   -0.23777E-04   -0.41839E-07  4000   0.109E-03    0.818E-04
DAV:  19    -0.353403382769E+03   -0.16766E-04   -0.41636E-07  3952   0.103E-03    0.433E-04
DAV:  20    -0.353403390277E+03   -0.75083E-05   -0.28866E-07  3648   0.983E-04    0.639E-04
DAV:  21    -0.353403393522E+03   -0.32447E-05   -0.18990E-07  3576   0.769E-04    0.210E-04
DAV:  22    -0.353403396127E+03   -0.26053E-05   -0.15198E-07  3728   0.633E-04    0.463E-04
DAV:  23    -0.353403397038E+03   -0.91121E-06   -0.91721E-08  3608   0.577E-04
  18 F= -.36648633E+03 E0= -.36648633E+03  d E =-.169107E-02  mag=    53.0000
 trial-energy change:   -0.001691  1 .order   -0.001683   -0.002496   -0.000871
 step:   2.7832(harm=  2.8237)  dis= 0.00939  next Energy=  -366.486558 (dE=-0.192E-02)
 bond charge predicted
       N       E                     dE             d eps       ncg     rms          rms(c)
DAV:   1    -0.353401939944E+03    0.14562E-02   -0.26122E-01  6480   0.721E-01    0.333E-01
DAV:   2    -0.353403703564E+03   -0.17636E-02   -0.19261E-02  9024   0.323E-01    0.158E-01
DAV:   3    -0.353404011697E+03   -0.30813E-03   -0.42580E-04  9184   0.833E-02    0.103E-01
DAV:   4    -0.353403955947E+03    0.55750E-04   -0.64064E-05  9480   0.383E-02    0.731E-02
DAV:   5    -0.353403880707E+03    0.75240E-04   -0.43708E-05  9272   0.252E-02    0.584E-02
DAV:   6    -0.353403791539E+03    0.89168E-04   -0.68765E-05  9264   0.252E-02    0.229E-02
DAV:   7    -0.353403811587E+03   -0.20048E-04   -0.94439E-06  8872   0.103E-02    0.864E-03
DAV:   8    -0.353403858525E+03   -0.46937E-04   -0.93805E-07  4168   0.371E-03    0.543E-03
DAV:   9    -0.353403907959E+03   -0.49434E-04   -0.89518E-07  4280   0.327E-03    0.337E-03
DAV:  10    -0.353403950349E+03   -0.42390E-04   -0.10239E-06  4216   0.267E-03    0.168E-03
DAV:  11    -0.353403980912E+03   -0.30563E-04   -0.79306E-07  3640   0.197E-03    0.166E-03
DAV:  12    -0.353403997903E+03   -0.16991E-04   -0.36839E-07  3616   0.174E-03    0.115E-03
DAV:  13    -0.353404021551E+03   -0.23648E-04   -0.31301E-07  3760   0.110E-03    0.994E-04
DAV:  14    -0.353404049001E+03   -0.27449E-04   -0.30537E-07  3768   0.123E-03    0.852E-04
DAV:  15    -0.353404064132E+03   -0.15132E-04   -0.25086E-07  3728   0.898E-04    0.650E-04
DAV:  16    -0.353404076592E+03   -0.12460E-04   -0.18489E-07  3576   0.808E-04    0.650E-04
DAV:  17    -0.353404086252E+03   -0.96605E-05   -0.15756E-07  3640   0.660E-04    0.384E-04
DAV:  18    -0.353404097957E+03   -0.11705E-04   -0.18590E-07  3824   0.658E-04    0.480E-04
DAV:  19    -0.353404108370E+03   -0.10413E-04   -0.21714E-07  4032   0.726E-04    0.413E-04
DAV:  20    -0.353404111071E+03   -0.27009E-05   -0.12484E-07  3624   0.712E-04    0.338E-04
DAV:  21    -0.353404112856E+03   -0.17850E-05   -0.94478E-08  3584   0.473E-04    0.243E-04
DAV:  22    -0.353404113839E+03   -0.98346E-06   -0.59992E-08  3600   0.466E-04
  19 F= -.36648657E+03 E0= -.36648657E+03  d E =-.193183E-02  mag=    53.0000
 curvature:  -3.47 expect dE=-0.479E-02 dE for cont linesearch -0.113E-05
 trial: gam= 1.02771 g(F)=  0.138E-02 g(S)=  0.000E+00 ort = 0.331E-04 (trialstep = 0.136E+01)
 search vector abs. value=  0.498E-02
 bond charge predicted
       N       E                     dE             d eps       ncg     rms          rms(c)
DAV:   1    -0.353399273578E+03    0.48393E-02   -0.75979E-01  6432   0.123E+00    0.560E-01
DAV:   2    -0.353404802030E+03   -0.55285E-02   -0.56959E-02  9080   0.572E-01    0.277E-01
DAV:   3    -0.353405539683E+03   -0.73765E-03   -0.16138E-03  9176   0.207E-01    0.193E-01
DAV:   4    -0.353405436984E+03    0.10270E-03   -0.23393E-04  9592   0.892E-02    0.130E-01
DAV:   5    -0.353405393269E+03    0.43715E-04   -0.10410E-04  9400   0.311E-02    0.103E-01
DAV:   6    -0.353405400097E+03   -0.68274E-05   -0.16625E-04  9216   0.323E-02    0.443E-02
DAV:   7    -0.353405419460E+03   -0.19363E-04   -0.25484E-05  9208   0.166E-02    0.108E-02
DAV:   8    -0.353405438146E+03   -0.18687E-04   -0.29827E-06  5512   0.557E-03    0.564E-03
DAV:   9    -0.353405454418E+03   -0.16272E-04   -0.98014E-07  3752   0.392E-03    0.436E-03
DAV:  10    -0.353405464422E+03   -0.10004E-04   -0.34688E-07  3640   0.220E-03    0.249E-03
DAV:  11    -0.353405478158E+03   -0.13736E-04   -0.46567E-07  3896   0.132E-03    0.155E-03
DAV:  12    -0.353405489055E+03   -0.10898E-04   -0.24534E-07  3624   0.145E-03    0.108E-03
DAV:  13    -0.353405497465E+03   -0.84097E-05   -0.20787E-07  3704   0.108E-03    0.713E-04
DAV:  14    -0.353405503044E+03   -0.55791E-05   -0.12882E-07  3592   0.988E-04    0.558E-04
DAV:  15    -0.353405505285E+03   -0.22406E-05   -0.73647E-08  3624   0.572E-04    0.362E-04
DAV:  16    -0.353405507626E+03   -0.23409E-05   -0.41881E-08  3568   0.467E-04    0.344E-04
DAV:  17    -0.353405510129E+03   -0.25030E-05   -0.32978E-08  3584   0.333E-04    0.256E-04
DAV:  18    -0.353405514420E+03   -0.42916E-05   -0.50323E-08  3648   0.367E-04    0.293E-04
DAV:  19    -0.353405516862E+03   -0.24413E-05   -0.42455E-08  3600   0.370E-04    0.218E-04
DAV:  20    -0.353405517602E+03   -0.74014E-06   -0.22762E-08  3616   0.318E-04
  20 F= -.36648816E+03 E0= -.36648816E+03  d E =-.158705E-02  mag=    53.0000
 trial-energy change:   -0.001587  1 .order   -0.001586   -0.001926   -0.001245
 step:   3.8452(harm=  3.8452)  dis= 0.01813  next Energy=  -366.489297 (dE=-0.272E-02)
 bond charge predicted
       N       E                     dE             d eps       ncg     rms          rms(c)
DAV:   1    -0.353385504365E+03    0.20012E-01   -0.25339E+00  6400   0.225E+00    0.102E+00
DAV:   2    -0.353404522746E+03   -0.19018E-01   -0.19016E-01  9064   0.105E+00    0.511E-01
DAV:   3    -0.353406530753E+03   -0.20080E-02   -0.54837E-03  9160   0.387E-01    0.355E-01
DAV:   4    -0.353406184500E+03    0.34625E-03   -0.80498E-04  9600   0.167E-01    0.238E-01
DAV:   5    -0.353406036154E+03    0.14835E-03   -0.34487E-04  9360   0.574E-02    0.190E-01
DAV:   6    -0.353406036960E+03   -0.80562E-06   -0.55543E-04  9184   0.578E-02    0.813E-02
DAV:   7    -0.353406088482E+03   -0.51523E-04   -0.85239E-05  9208   0.294E-02    0.196E-02
DAV:   8    -0.353406135692E+03   -0.47209E-04   -0.12308E-05  8632   0.102E-02    0.973E-03
DAV:   9    -0.353406176616E+03   -0.40925E-04   -0.21405E-06  4800   0.622E-03    0.756E-03
DAV:  10    -0.353406201207E+03   -0.24590E-04   -0.87097E-07  3768   0.354E-03    0.457E-03
DAV:  11    -0.353406233735E+03   -0.32528E-04   -0.18789E-06  4440   0.241E-03    0.288E-03
DAV:  12    -0.353406258718E+03   -0.24983E-04   -0.59705E-07  3784   0.258E-03    0.169E-03
DAV:  13    -0.353406279274E+03   -0.20557E-04   -0.39125E-07  3784   0.160E-03    0.123E-03
DAV:  14    -0.353406292230E+03   -0.12955E-04   -0.24007E-07  3592   0.148E-03    0.773E-04
DAV:  15    -0.353406302552E+03   -0.10322E-04   -0.20055E-07  3672   0.807E-04    0.664E-04
DAV:  16    -0.353406310632E+03   -0.80804E-05   -0.11557E-07  3584   0.872E-04    0.505E-04
DAV:  17    -0.353406318675E+03   -0.80428E-05   -0.12118E-07  3728   0.542E-04    0.459E-04
DAV:  18    -0.353406326084E+03   -0.74092E-05   -0.99391E-08  3600   0.627E-04    0.403E-04
DAV:  19    -0.353406333206E+03   -0.71216E-05   -0.13890E-07  3744   0.525E-04    0.338E-04
DAV:  20    -0.353406334965E+03   -0.17596E-05   -0.64160E-08  3632   0.582E-04    0.256E-04
DAV:  21    -0.353406336304E+03   -0.13381E-05   -0.45070E-08  3568   0.305E-04    0.172E-04
DAV:  22    -0.353406337925E+03   -0.16217E-05   -0.34331E-08  3584   0.343E-04    0.190E-04
DAV:  23    -0.353406339082E+03   -0.11563E-05   -0.33519E-08  3568   0.273E-04    0.148E-04
DAV:  24    -0.353406339610E+03   -0.52852E-06   -0.22162E-08  3616   0.291E-04
  21 F= -.36648930E+03 E0= -.36648930E+03  d E =-.272442E-02  mag=    53.0000
 curvature:  -6.76 expect dE=-0.583E-02 dE for cont linesearch -0.256E-07
 trial: gam= 0.66743 g(F)=  0.862E-03 g(S)=  0.000E+00 ort =-0.435E-05 (trialstep = 0.186E+01)
 search vector abs. value=  0.307E-02
 bond charge predicted
       N       E                     dE             d eps       ncg     rms          rms(c)
DAV:   1    -0.353399446781E+03    0.68923E-02   -0.91379E-01  6416   0.134E+00    0.597E-01
DAV:   2    -0.353405903365E+03   -0.64566E-02   -0.65838E-02  9088   0.640E-01    0.326E-01
DAV:   3    -0.353406839062E+03   -0.93570E-03   -0.24936E-03  9296   0.281E-01    0.210E-01
DAV:   4    -0.353406646621E+03    0.19244E-03   -0.36395E-04  9640   0.127E-01    0.139E-01
DAV:   5    -0.353406569636E+03    0.76986E-04   -0.14298E-04  9392   0.357E-02    0.105E-01
DAV:   6    -0.353406549619E+03    0.20017E-04   -0.19256E-04  9056   0.288E-02    0.425E-02
DAV:   7    -0.353406590975E+03   -0.41356E-04   -0.29493E-05  9152   0.174E-02    0.124E-02
DAV:   8    -0.353406634119E+03   -0.43144E-04   -0.42540E-06  6128   0.855E-03    0.752E-03
DAV:   9    -0.353406671422E+03   -0.37303E-04   -0.13784E-06  4328   0.455E-03    0.628E-03
DAV:  10    -0.353406694329E+03   -0.22907E-04   -0.58666E-07  3640   0.301E-03    0.358E-03
DAV:  11    -0.353406723453E+03   -0.29124E-04   -0.85575E-07  4080   0.177E-03    0.235E-03
DAV:  12    -0.353406749286E+03   -0.25833E-04   -0.47172E-07  3720   0.211E-03    0.154E-03
DAV:  13    -0.353406768946E+03   -0.19660E-04   -0.48357E-07  3720   0.132E-03    0.121E-03
DAV:  14    -0.353406783195E+03   -0.14248E-04   -0.26121E-07  3704   0.150E-03    0.770E-04
DAV:  15    -0.353406789873E+03   -0.66781E-05   -0.15265E-07  3616   0.830E-04    0.549E-04
DAV:  16    -0.353406794610E+03   -0.47369E-05   -0.90316E-08  3608   0.733E-04    0.528E-04
DAV:  17    -0.353406805043E+03   -0.10433E-04   -0.13117E-07  3624   0.488E-04    0.389E-04
DAV:  18    -0.353406810883E+03   -0.58401E-05   -0.72979E-08  3592   0.579E-04    0.383E-04
DAV:  19    -0.353406820849E+03   -0.99660E-05   -0.17284E-07  3912   0.499E-04    0.367E-04
DAV:  20    -0.353406823256E+03   -0.24071E-05   -0.65358E-08  3624   0.601E-04    0.204E-04
DAV:  21    -0.353406824930E+03   -0.16737E-05   -0.48433E-08  3544   0.301E-04    0.224E-04
DAV:  22    -0.353406826716E+03   -0.17856E-05   -0.35289E-08  3584   0.369E-04    0.157E-04
DAV:  23    -0.353406827752E+03   -0.10361E-05   -0.32584E-08  3592   0.267E-04    0.191E-04
DAV:  24    -0.353406828299E+03   -0.54740E-06   -0.21012E-08  3544   0.294E-04
  22 F= -.36649047E+03 E0= -.36649047E+03  d E =-.116786E-02  mag=    53.0000
 trial-energy change:   -0.001168  1 .order   -0.001172   -0.001597   -0.000747
 step:   3.5875(harm=  3.4917)  dis= 0.01174  next Energy=  -366.490811 (dE=-0.151E-02)
 bond charge predicted
       N       E                     dE             d eps       ncg     rms          rms(c)
DAV:   1    -0.353400123909E+03    0.67038E-02   -0.79270E-01  6456   0.125E+00    0.556E-01
DAV:   2    -0.353405693738E+03   -0.55698E-02   -0.57091E-02  9064   0.596E-01    0.304E-01
DAV:   3    -0.353406526458E+03   -0.83272E-03   -0.21604E-03  9264   0.262E-01    0.195E-01
DAV:   4    -0.353406359798E+03    0.16666E-03   -0.31525E-04  9640   0.118E-01    0.130E-01
DAV:   5    -0.353406288415E+03    0.71383E-04   -0.12371E-04  9392   0.332E-02    0.975E-02
DAV:   6    -0.353406272524E+03    0.15891E-04   -0.16720E-04  9056   0.268E-02    0.396E-02
DAV:   7    -0.353406309806E+03   -0.37282E-04   -0.25644E-05  9136   0.162E-02    0.116E-02
DAV:   8    -0.353406349069E+03   -0.39262E-04   -0.35792E-06  5824   0.803E-03    0.707E-03
DAV:   9    -0.353406382775E+03   -0.33706E-04   -0.12963E-06  4080   0.430E-03    0.588E-03
DAV:  10    -0.353406403516E+03   -0.20741E-04   -0.54158E-07  3608   0.287E-03    0.334E-03
DAV:  11    -0.353406430075E+03   -0.26558E-04   -0.73423E-07  4080   0.167E-03    0.222E-03
DAV:  12    -0.353406453739E+03   -0.23665E-04   -0.43597E-07  3760   0.199E-03    0.147E-03
DAV:  13    -0.353406471618E+03   -0.17878E-04   -0.44726E-07  3696   0.126E-03    0.114E-03
DAV:  14    -0.353406485219E+03   -0.13601E-04   -0.24420E-07  3688   0.143E-03    0.745E-04
DAV:  15    -0.353406491077E+03   -0.58580E-05   -0.13956E-07  3624   0.807E-04    0.512E-04
DAV:  16    -0.353406495345E+03   -0.42678E-05   -0.82706E-08  3608   0.691E-04    0.509E-04
DAV:  17    -0.353406504492E+03   -0.91473E-05   -0.11307E-07  3648   0.465E-04    0.366E-04
DAV:  18    -0.353406510066E+03   -0.55736E-05   -0.68163E-08  3576   0.542E-04    0.372E-04
DAV:  19    -0.353406518850E+03   -0.87846E-05   -0.14639E-07  3808   0.474E-04    0.362E-04
DAV:  20    -0.353406521326E+03   -0.24755E-05   -0.62571E-08  3624   0.572E-04    0.214E-04
DAV:  21    -0.353406522892E+03   -0.15668E-05   -0.46528E-08  3552   0.306E-04    0.226E-04
DAV:  22    -0.353406524634E+03   -0.17411E-05   -0.36392E-08  3576   0.363E-04    0.171E-04
DAV:  23    -0.353406525519E+03   -0.88534E-06   -0.30651E-08  3576   0.275E-04
  23 F= -.36649079E+03 E0= -.36649079E+03  d E =-.149082E-02  mag=    53.0000
 curvature:  -6.22 expect dE=-0.451E-02 dE for cont linesearch -0.120E-05
 trial: gam= 0.85529 g(F)=  0.725E-03 g(S)=  0.000E+00 ort =-0.243E-04 (trialstep = 0.220E+01)
 search vector abs. value=  0.293E-02
 bond charge predicted
       N       E                     dE             d eps       ncg     rms          rms(c)
DAV:   1    -0.353397434887E+03    0.90897E-02   -0.12311E+00  6432   0.154E+00    0.693E-01
DAV:   2    -0.353406121838E+03   -0.86870E-02   -0.93753E-02  9088   0.726E-01    0.344E-01
DAV:   3    -0.353406655017E+03   -0.53318E-03   -0.21409E-03  9056   0.225E-01    0.235E-01
DAV:   4    -0.353406521766E+03    0.13325E-03   -0.32555E-04  9608   0.103E-01    0.171E-01
DAV:   5    -0.353406451613E+03    0.70153E-04   -0.14424E-04  9384   0.376E-02    0.134E-01
DAV:   6    -0.353406451975E+03   -0.36228E-06   -0.24323E-04  9160   0.384E-02    0.626E-02
DAV:   7    -0.353406476203E+03   -0.24228E-04   -0.42650E-05  9192   0.203E-02    0.173E-02
DAV:   8    -0.353406494116E+03   -0.17912E-04   -0.50905E-06  6664   0.806E-03    0.654E-03
DAV:   9    -0.353406504527E+03   -0.10412E-04   -0.14906E-06  4168   0.519E-03    0.568E-03
DAV:  10    -0.353406510429E+03   -0.59013E-05   -0.50056E-07  3632   0.260E-03    0.353E-03
DAV:  11    -0.353406518538E+03   -0.81096E-05   -0.52549E-07  3832   0.173E-03    0.196E-03
DAV:  12    -0.353406523973E+03   -0.54348E-05   -0.31239E-07  3648   0.144E-03    0.143E-03
DAV:  13    -0.353406529415E+03   -0.54416E-05   -0.22134E-07  3640   0.131E-03    0.814E-04
DAV:  14    -0.353406531640E+03   -0.22255E-05   -0.10275E-07  3624   0.104E-03    0.625E-04
DAV:  15    -0.353406533135E+03   -0.14951E-05   -0.59477E-08  3584   0.703E-04    0.358E-04
DAV:  16    -0.353406534135E+03   -0.99999E-06   -0.32463E-08  3608   0.390E-04
  24 F= -.36649175E+03 E0= -.36649175E+03  d E =-.958132E-03  mag=    53.0000
 trial-energy change:   -0.000958  1 .order   -0.000964   -0.001552   -0.000376
 step:   2.9401(harm=  2.9091)  dis= 0.00854  next Energy=  -366.491810 (dE=-0.102E-02)
 bond charge predicted
       N       E                     dE             d eps       ncg     rms          rms(c)
DAV:   1    -0.353405264235E+03    0.12689E-02   -0.13761E-01  6528   0.516E-01    0.232E-01
DAV:   2    -0.353406177358E+03   -0.91312E-03   -0.10456E-02  9112   0.242E-01    0.114E-01
DAV:   3    -0.353406284112E+03   -0.10675E-03   -0.23869E-04  8984   0.751E-02    0.788E-02
DAV:   4    -0.353406268939E+03    0.15173E-04   -0.36159E-05  9584   0.345E-02    0.572E-02
DAV:   5    -0.353406261488E+03    0.74507E-05   -0.16307E-05  8960   0.124E-02    0.447E-02
DAV:   6    -0.353406263599E+03   -0.21110E-05   -0.26676E-05  9256   0.127E-02    0.210E-02
DAV:   7    -0.353406268174E+03   -0.45746E-05   -0.32860E-06  5120   0.664E-03    0.885E-03
DAV:   8    -0.353406272203E+03   -0.40288E-05   -0.12462E-06  4120   0.347E-03    0.319E-03
DAV:   9    -0.353406274295E+03   -0.20925E-05   -0.76730E-07  3624   0.296E-03    0.277E-03
DAV:  10    -0.353406275204E+03   -0.90900E-06   -0.36437E-07  3616   0.164E-03
  25 F= -.36649180E+03 E0= -.36649180E+03  d E =-.101460E-02  mag=    53.0000
 curvature:  -6.04 expect dE=-0.455E-02 dE for cont linesearch -0.860E-07
 trial: gam= 0.99189 g(F)=  0.753E-03 g(S)=  0.000E+00 ort = 0.646E-05 (trialstep = 0.189E+01)
 search vector abs. value=  0.365E-02
 bond charge predicted
       N       E                     dE             d eps       ncg     rms          rms(c)
DAV:   1    -0.353396612128E+03    0.96622E-02   -0.11752E+00  6416   0.152E+00    0.680E-01
DAV:   2    -0.353404851324E+03   -0.82392E-02   -0.84573E-02  9080   0.662E-01    0.328E-01
DAV:   3    -0.353405774651E+03   -0.92333E-03   -0.14391E-03  9168   0.138E-01    0.202E-01
DAV:   4    -0.353405665470E+03    0.10918E-03   -0.22327E-04  9496   0.571E-02    0.149E-01
DAV:   5    -0.353405609061E+03    0.56409E-04   -0.24717E-04  9352   0.633E-02    0.113E-01
DAV:   6    -0.353405674507E+03   -0.65446E-04   -0.23901E-04  9296   0.588E-02    0.411E-02
DAV:   7    -0.353405767916E+03   -0.93408E-04   -0.30988E-05  9200   0.229E-02    0.147E-02
DAV:   8    -0.353405852467E+03   -0.84552E-04   -0.41776E-06  6600   0.837E-03    0.695E-03
DAV:   9    -0.353405894137E+03   -0.41670E-04   -0.12441E-06  4792   0.474E-03    0.467E-03
DAV:  10    -0.353405915390E+03   -0.21253E-04   -0.98836E-07  4096   0.307E-03    0.238E-03
DAV:  11    -0.353405927615E+03   -0.12225E-04   -0.94427E-07  4088   0.188E-03    0.167E-03
DAV:  12    -0.353405933377E+03   -0.57612E-05   -0.35834E-07  3632   0.198E-03    0.905E-04
DAV:  13    -0.353405937779E+03   -0.44026E-05   -0.22344E-07  3688   0.112E-03    0.904E-04
DAV:  14    -0.353405940704E+03   -0.29250E-05   -0.12900E-07  3592   0.114E-03    0.518E-04
DAV:  15    -0.353405942582E+03   -0.18777E-05   -0.83919E-08  3616   0.552E-04    0.446E-04
DAV:  16    -0.353405943739E+03   -0.11570E-05   -0.43054E-08  3592   0.544E-04    0.269E-04
DAV:  17    -0.353405944851E+03   -0.11118E-05   -0.32456E-08  3584   0.284E-04    0.209E-04
DAV:  18    -0.353405945416E+03   -0.56565E-06   -0.15089E-08  3624   0.306E-04
  26 F= -.36649243E+03 E0= -.36649243E+03  d E =-.627932E-03  mag=    53.0000
 trial-energy change:   -0.000628  1 .order   -0.000632   -0.001434    0.000170
 step:   1.6853(harm=  1.6882)  dis= 0.00682  next Energy=  -366.492441 (dE=-0.637E-03)
 bond charge predicted
       N       E                     dE             d eps       ncg     rms          rms(c)
DAV:   1    -0.353405950726E+03   -0.58757E-05   -0.13560E-02  6528   0.163E-01    0.727E-02
DAV:   2    -0.353406018929E+03   -0.68203E-04   -0.97066E-04  9024   0.705E-02    0.344E-02
DAV:   3    -0.353406050783E+03   -0.31854E-04   -0.16056E-05  9056   0.131E-02    0.215E-02
DAV:   4    -0.353406048845E+03    0.19373E-05   -0.13451E-06  4080   0.504E-03    0.174E-02
DAV:   5    -0.353406048183E+03    0.66243E-06   -0.39075E-06  5712   0.675E-03
  27 F= -.36649243E+03 E0= -.36649243E+03  d E =-.628256E-03  mag=    53.0000
 curvature:  -4.06 expect dE=-0.213E-02 dE for cont linesearch -0.368E-05
 trial: gam= 0.71608 g(F)=  0.526E-03 g(S)=  0.000E+00 ort =-0.575E-04 (trialstep = 0.185E+01)
 search vector abs. value=  0.232E-02
 bond charge predicted
       N       E                     dE             d eps       ncg     rms          rms(c)
DAV:   1    -0.353400421958E+03    0.56269E-02   -0.71093E-01  6536   0.118E+00    0.547E-01
DAV:   2    -0.353405371901E+03   -0.49499E-02   -0.53857E-02  9016   0.561E-01    0.268E-01
DAV:   3    -0.353405967102E+03   -0.59520E-03   -0.12691E-03  9144   0.163E-01    0.176E-01
DAV:   4    -0.353405861875E+03    0.10523E-03   -0.19410E-04  9608   0.785E-02    0.129E-01
DAV:   5    -0.353405769118E+03    0.92758E-04   -0.10423E-04  9288   0.334E-02    0.972E-02
DAV:   6    -0.353405705647E+03    0.63470E-04   -0.14506E-04  9360   0.329E-02    0.443E-02
DAV:   7    -0.353405729438E+03   -0.23791E-04   -0.25289E-05  9192   0.171E-02    0.122E-02
DAV:   8    -0.353405772728E+03   -0.43290E-04   -0.28261E-06  5496   0.625E-03    0.623E-03
DAV:   9    -0.353405814528E+03   -0.41799E-04   -0.11817E-06  3880   0.452E-03    0.461E-03
DAV:  10    -0.353405847013E+03   -0.32485E-04   -0.70170E-07  3936   0.246E-03    0.275E-03
DAV:  11    -0.353405883623E+03   -0.36610E-04   -0.70460E-07  4056   0.176E-03    0.197E-03
DAV:  12    -0.353405912098E+03   -0.28475E-04   -0.49599E-07  3696   0.185E-03    0.130E-03
DAV:  13    -0.353405941413E+03   -0.29315E-04   -0.49718E-07  3816   0.150E-03    0.109E-03
DAV:  14    -0.353405954865E+03   -0.13452E-04   -0.28565E-07  3696   0.150E-03    0.788E-04
DAV:  15    -0.353405965252E+03   -0.10388E-04   -0.22235E-07  3552   0.731E-04    0.564E-04
DAV:  16    -0.353405973012E+03   -0.77600E-05   -0.11446E-07  3608   0.784E-04    0.494E-04
DAV:  17    -0.353405980765E+03   -0.77521E-05   -0.10828E-07  3520   0.482E-04    0.378E-04
DAV:  18    -0.353405992180E+03   -0.11416E-04   -0.12940E-07  3856   0.568E-04    0.467E-04
DAV:  19    -0.353406004136E+03   -0.11956E-04   -0.22211E-07  4064   0.638E-04    0.413E-04
DAV:  20    -0.353406006890E+03   -0.27540E-05   -0.10531E-07  3632   0.707E-04    0.295E-04
DAV:  21    -0.353406009107E+03   -0.22172E-05   -0.89810E-08  3568   0.409E-04    0.244E-04
DAV:  22    -0.353406010431E+03   -0.13231E-05   -0.56383E-08  3584   0.475E-04    0.204E-04
DAV:  23    -0.353406010972E+03   -0.54165E-06   -0.41268E-08  3584   0.309E-04
  28 F= -.36649301E+03 E0= -.36649301E+03  d E =-.579142E-03  mag=    53.0000
 trial-energy change:   -0.000579  1 .order   -0.000528   -0.000896   -0.000160
 step:   2.1206(harm=  2.2505)  dis= 0.00528  next Energy=  -366.493024 (dE=-0.591E-03)
 reached required accuracy - stopping structural energy minimisation
Note: The following floating-point exceptions are signalling: IEEE_OVERFLOW_FLAG IEEE_UNDERFLOW_FLAG IEEE_DENORMAL
Note: The following floating-point exceptions are signalling: IEEE_OVERFLOW_FLAG IEEE_UNDERFLOW_FLAG IEEE_DENORMAL
Note: The following floating-point exceptions are signalling: IEEE_OVERFLOW_FLAG IEEE_UNDERFLOW_FLAG IEEE_DENORMAL
Note: The following floating-point exceptions are signalling: IEEE_OVERFLOW_FLAG IEEE_UNDERFLOW_FLAG IEEE_DENORMAL
Note: The following floating-point exceptions are signalling: IEEE_OVERFLOW_FLAG IEEE_UNDERFLOW_FLAG IEEE_DENORMAL
Note: The following floating-point exceptions are signalling: IEEE_OVERFLOW_FLAG IEEE_UNDERFLOW_FLAG IEEE_DENORMAL
Note: The following floating-point exceptions are signalling: IEEE_OVERFLOW_FLAG IEEE_UNDERFLOW_FLAG IEEE_DENORMAL
Note: The following floating-point exceptions are signalling: IEEE_OVERFLOW_FLAG IEEE_UNDERFLOW_FLAG IEEE_DENORMAL
Note: The following floating-point exceptions are signalling: IEEE_OVERFLOW_FLAG IEEE_UNDERFLOW_FLAG IEEE_DENORMAL
Note: The following floating-point exceptions are signalling: IEEE_OVERFLOW_FLAG IEEE_UNDERFLOW_FLAG IEEE_DENORMAL
Note: The following floating-point exceptions are signalling: IEEE_OVERFLOW_FLAG IEEE_UNDERFLOW_FLAG IEEE_DENORMAL
Note: The following floating-point exceptions are signalling: IEEE_OVERFLOW_FLAG IEEE_UNDERFLOW_FLAG IEEE_DENORMAL
Note: The following floating-point exceptions are signalling: IEEE_OVERFLOW_FLAG IEEE_UNDERFLOW_FLAG IEEE_DENORMAL
Note: The following floating-point exceptions are signalling: IEEE_OVERFLOW_FLAG IEEE_UNDERFLOW_FLAG IEEE_DENORMAL
Note: The following floating-point exceptions are signalling: IEEE_OVERFLOW_FLAG IEEE_UNDERFLOW_FLAG IEEE_DENORMAL
Note: The following floating-point exceptions are signalling: IEEE_OVERFLOW_FLAG IEEE_UNDERFLOW_FLAG IEEE_DENORMAL
Note: The following floating-point exceptions are signalling: IEEE_OVERFLOW_FLAG IEEE_UNDERFLOW_FLAG IEEE_DENORMAL
Note: The following floating-point exceptions are signalling: IEEE_OVERFLOW_FLAG IEEE_UNDERFLOW_FLAG IEEE_DENORMAL
Note: The following floating-point exceptions are signalling: IEEE_OVERFLOW_FLAG IEEE_UNDERFLOW_FLAG IEEE_DENORMAL
Note: The following floating-point exceptions are signalling: IEEE_OVERFLOW_FLAG IEEE_UNDERFLOW_FLAG IEEE_DENORMAL
Note: The following floating-point exceptions are signalling: IEEE_OVERFLOW_FLAG IEEE_UNDERFLOW_FLAG IEEE_DENORMAL
Note: The following floating-point exceptions are signalling: IEEE_OVERFLOW_FLAG IEEE_UNDERFLOW_FLAG IEEE_DENORMAL
Note: The following floating-point exceptions are signalling: IEEE_OVERFLOW_FLAG IEEE_UNDERFLOW_FLAG IEEE_DENORMAL
Note: The following floating-point exceptions are signalling: IEEE_OVERFLOW_FLAG IEEE_UNDERFLOW_FLAG IEEE_DENORMAL
Note: The following floating-point exceptions are signalling: IEEE_OVERFLOW_FLAG IEEE_UNDERFLOW_FLAG IEEE_DENORMAL
Note: The following floating-point exceptions are signalling: IEEE_OVERFLOW_FLAG IEEE_UNDERFLOW_FLAG IEEE_DENORMAL
Note: The following floating-point exceptions are signalling: IEEE_OVERFLOW_FLAG IEEE_UNDERFLOW_FLAG IEEE_DENORMAL
Note: The following floating-point exceptions are signalling: IEEE_OVERFLOW_FLAG IEEE_UNDERFLOW_FLAG IEEE_DENORMAL
Note: The following floating-point exceptions are signalling: IEEE_OVERFLOW_FLAG IEEE_UNDERFLOW_FLAG IEEE_DENORMAL
Note: The following floating-point exceptions are signalling: IEEE_OVERFLOW_FLAG IEEE_UNDERFLOW_FLAG IEEE_DENORMAL
Note: The following floating-point exceptions are signalling: IEEE_OVERFLOW_FLAG IEEE_UNDERFLOW_FLAG IEEE_DENORMAL
Note: The following floating-point exceptions are signalling: IEEE_OVERFLOW_FLAG IEEE_UNDERFLOW_FLAG IEEE_DENORMAL
Note: The following floating-point exceptions are signalling: IEEE_OVERFLOW_FLAG IEEE_UNDERFLOW_FLAG IEEE_DENORMAL
Note: The following floating-point exceptions are signalling: IEEE_OVERFLOW_FLAG IEEE_UNDERFLOW_FLAG IEEE_DENORMAL
Note: The following floating-point exceptions are signalling: IEEE_OVERFLOW_FLAG IEEE_UNDERFLOW_FLAG IEEE_DENORMAL
Note: The following floating-point exceptions are signalling: IEEE_OVERFLOW_FLAG IEEE_UNDERFLOW_FLAG IEEE_DENORMAL
Note: The following floating-point exceptions are signalling: IEEE_OVERFLOW_FLAG IEEE_UNDERFLOW_FLAG IEEE_DENORMAL
Note: The following floating-point exceptions are signalling: IEEE_OVERFLOW_FLAG IEEE_UNDERFLOW_FLAG IEEE_DENORMAL
Note: The following floating-point exceptions are signalling: IEEE_OVERFLOW_FLAG IEEE_UNDERFLOW_FLAG IEEE_DENORMAL
Note: The following floating-point exceptions are signalling: IEEE_OVERFLOW_FLAG IEEE_UNDERFLOW_FLAG IEEE_DENORMAL
Note: The following floating-point exceptions are signalling: IEEE_OVERFLOW_FLAG IEEE_UNDERFLOW_FLAG IEEE_DENORMAL
Note: The following floating-point exceptions are signalling: IEEE_OVERFLOW_FLAG IEEE_UNDERFLOW_FLAG IEEE_DENORMAL
Note: The following floating-point exceptions are signalling: IEEE_OVERFLOW_FLAG IEEE_UNDERFLOW_FLAG IEEE_DENORMAL
Note: The following floating-point exceptions are signalling: IEEE_OVERFLOW_FLAG IEEE_UNDERFLOW_FLAG IEEE_DENORMAL
Note: The following floating-point exceptions are signalling: IEEE_OVERFLOW_FLAG IEEE_UNDERFLOW_FLAG IEEE_DENORMAL
Note: The following floating-point exceptions are signalling: IEEE_OVERFLOW_FLAG IEEE_UNDERFLOW_FLAG IEEE_DENORMAL
Note: The following floating-point exceptions are signalling: IEEE_OVERFLOW_FLAG IEEE_UNDERFLOW_FLAG IEEE_DENORMAL
Note: The following floating-point exceptions are signalling: IEEE_OVERFLOW_FLAG IEEE_UNDERFLOW_FLAG IEEE_DENORMAL
Note: The following floating-point exceptions are signalling: IEEE_OVERFLOW_FLAG IEEE_UNDERFLOW_FLAG IEEE_DENORMAL
Note: The following floating-point exceptions are signalling: IEEE_OVERFLOW_FLAG IEEE_UNDERFLOW_FLAG IEEE_DENORMAL
Note: The following floating-point exceptions are signalling: IEEE_OVERFLOW_FLAG IEEE_UNDERFLOW_FLAG IEEE_DENORMAL
Note: The following floating-point exceptions are signalling: IEEE_OVERFLOW_FLAG IEEE_UNDERFLOW_FLAG IEEE_DENORMAL
Note: The following floating-point exceptions are signalling: IEEE_OVERFLOW_FLAG IEEE_UNDERFLOW_FLAG IEEE_DENORMAL
Note: The following floating-point exceptions are signalling: IEEE_OVERFLOW_FLAG IEEE_UNDERFLOW_FLAG IEEE_DENORMAL
Note: The following floating-point exceptions are signalling: IEEE_OVERFLOW_FLAG IEEE_UNDERFLOW_FLAG IEEE_DENORMAL
Note: The following floating-point exceptions are signalling: IEEE_OVERFLOW_FLAG IEEE_UNDERFLOW_FLAG IEEE_DENORMAL
Note: The following floating-point exceptions are signalling: IEEE_OVERFLOW_FLAG IEEE_UNDERFLOW_FLAG IEEE_DENORMAL
Note: The following floating-point exceptions are signalling: IEEE_OVERFLOW_FLAG IEEE_UNDERFLOW_FLAG IEEE_DENORMAL
Note: The following floating-point exceptions are signalling: IEEE_OVERFLOW_FLAG IEEE_UNDERFLOW_FLAG IEEE_DENORMAL
Note: The following floating-point exceptions are signalling: IEEE_OVERFLOW_FLAG IEEE_UNDERFLOW_FLAG IEEE_DENORMAL
Note: The following floating-point exceptions are signalling: IEEE_OVERFLOW_FLAG IEEE_UNDERFLOW_FLAG IEEE_DENORMAL
Note: The following floating-point exceptions are signalling: IEEE_OVERFLOW_FLAG IEEE_UNDERFLOW_FLAG IEEE_DENORMAL
Note: The following floating-point exceptions are signalling: IEEE_OVERFLOW_FLAG IEEE_UNDERFLOW_FLAG IEEE_DENORMAL
Note: The following floating-point exceptions are signalling: IEEE_OVERFLOW_FLAG IEEE_UNDERFLOW_FLAG IEEE_DENORMAL
