CrCl3 3x3 + H S1 top-Cl (D3, U=0) (a=18.
   1.00000000000000     
    18.1388234955739875    0.0000000000000000    0.0000000000000000
    -9.0694117477869938   15.7086819419291253    0.0000000000000000
     0.0000000000000000    0.0000000000000000   20.0000000000000000
   Cr   Cl   H 
    18    54     1
Direct
     0.1079375418720908    0.2223341962461523    0.4999670176838812
     0.2099007460121135    0.1035327811019892    0.4955069345349180
     0.1110892963188750    0.5557204738342406    0.4999501862751237
     0.2217155819042974    0.4449874934437161    0.5000036305757821
     0.1085687017349858    0.8854335266700972    0.4984134579680670
     0.2221835135493082    0.7772788739360923    0.4998726397862284
     0.4567659206545509    0.2269653684232042    0.4955069345349180
     0.5580979649316856    0.1101981582684541    0.4984134579680670
     0.4449510847623668    0.5566052448727543    0.5000036305757821
     0.5587291247945803    0.4477299877073970    0.4999670176838812
     0.4444831531173561    0.8884286937201128    0.4998726397862284
     0.5555773703477965    0.7779645108487008    0.4999501862751237
     0.7793201966489016    0.2219268251500900    0.4996589082496561
     0.8881447803910916    0.1105950223915441    0.5000082006662949
     0.7785218862755727    0.5557835753337814    0.5000082006662949
     0.8891148200685606    0.4442572571681062    0.4998707428944925
     0.7775518465981037    0.8884757704328740    0.4998707428944925
     0.8873464700177627    0.7759399618345240    0.4996589082496561
     0.1182750644290343    0.3346330978021195    0.4336147822439803
     0.3333333333333357    0.1254755431397629    0.4398426829056090
     0.2115700173044136    0.2145533677112720    0.4345987329907657
     0.2103067805009997    0.3333184100584493    0.5672646925394716
     0.9977231194438076    0.2146181029977988    0.5663261749614209
     0.1112496863307119    0.1167359230689424    0.5657049835894785
     0.1194550517057665    0.6663180308962291    0.4334829962180370
     0.3333333333333357    0.4523321522446918    0.4345819231089513
     0.2141660502328516    0.5477505442478463    0.4335485136721125
     0.2141281147459760    0.6664694908070158    0.5664953151007818
     0.0000434907791266    0.5475602541130324    0.5661730306284163
     0.1191501557366988    0.4532365316955671    0.5664989304957967
     0.1117407354971711    0.9897325878493254    0.4273611391039224
     0.3333333333333357    0.7853763005565260    0.4338962066190293
     0.2126655078541537    0.8784387920942233    0.4327212634867897
     0.2099495123982915    0.9993549771469525    0.5650662534321721
     0.9984975676488701    0.8784987067778002    0.5653088129952781
     0.1189064790058400    0.7848455349140642    0.5661385495174470
     0.4550966493622576    0.3363166837401938    0.4345987329907657
     0.6695338857387999    0.1166478792033543    0.4339773581227158
     0.5549259311694935    0.2113251856854901    0.4273611391039224
     0.5554169803359524    0.3388195700715662    0.5657049835894785
     0.3333333333333357    0.2392953043640790    0.5854941621909744
     0.4567171542683799    0.1227387980819971    0.5650662534321721
     0.4525006164338199    0.6669178273483306    0.4335485136721125
     0.6682060825155393    0.4547817096065404    0.4326174983313861
     0.5483916022376296    0.5496913667064135    0.4336147822439803
     0.5475165109299656    0.6674197092921967    0.5664989304957967
     0.3333333333333357    0.5477436285029896    0.5663020836853355
     0.4563598861656718    0.4563449628907855    0.5672646925394716
     0.4540011588125177    0.9991066175734054    0.4327212634867897
     0.6663764409095595    0.7858888824765662    0.4335812913448976
     0.5472116149608979    0.8801963125237987    0.4334829962180370
     0.5477601876608245    0.9992723892415597    0.5661385495174470
     0.3333333333333357    0.8808661540095494    0.5659994112547923
     0.4525385519206954    0.7856747093943756    0.5664953151007818
     0.7869952550371819    0.3327652997356544    0.4334335900373553
     0.9984605841511249    0.1199089604243298    0.4326174983313861
     0.8820467937616631    0.2142178092481068    0.4334606037292267
     0.8813994418007005    0.3335117773933495    0.5663231975921356
     0.6681690990177942    0.2133344724622656    0.5653088129952781
     0.7867364007386504    0.1195502372703740    0.5671443338830996
     0.7846198729050012    0.6655043488197725    0.4334606037292267
     0.0002902257571048    0.4528457749003424    0.4335812913448976
     0.8809068974032193    0.5470541109079851    0.4335599119732770
     0.8799302659280139    0.6661471698650527    0.5671443338830996
     0.6689435472228565    0.5502283168873200    0.5663261749614209
     0.7864735022947109    0.4526712317462699    0.5662943095429128
     0.7857597692634450    0.9994805468381017    0.4335599119732770
     0.9971327809278644    0.7804473267978829    0.4339773581227158
     0.8796714116294824    0.8791033780318011    0.4334335900373553
     0.8801931643719534    0.9995310627848877    0.5662943095429128
     0.6666231758875377    0.8808500966672417    0.5661730306284163
     0.7852672248659638    0.7854456689259773    0.5663231975921356
     0.3333333333333357    0.1985152511201088    0.6377737551605916
 
  0.00000000E+00  0.00000000E+00  0.00000000E+00
  0.00000000E+00  0.00000000E+00  0.00000000E+00
  0.00000000E+00  0.00000000E+00  0.00000000E+00
  0.00000000E+00  0.00000000E+00  0.00000000E+00
  0.00000000E+00  0.00000000E+00  0.00000000E+00
  0.00000000E+00  0.00000000E+00  0.00000000E+00
  0.00000000E+00  0.00000000E+00  0.00000000E+00
  0.00000000E+00  0.00000000E+00  0.00000000E+00
  0.00000000E+00  0.00000000E+00  0.00000000E+00
  0.00000000E+00  0.00000000E+00  0.00000000E+00
  0.00000000E+00  0.00000000E+00  0.00000000E+00
  0.00000000E+00  0.00000000E+00  0.00000000E+00
  0.00000000E+00  0.00000000E+00  0.00000000E+00
  0.00000000E+00  0.00000000E+00  0.00000000E+00
  0.00000000E+00  0.00000000E+00  0.00000000E+00
  0.00000000E+00  0.00000000E+00  0.00000000E+00
  0.00000000E+00  0.00000000E+00  0.00000000E+00
  0.00000000E+00  0.00000000E+00  0.00000000E+00
  0.00000000E+00  0.00000000E+00  0.00000000E+00
  0.00000000E+00  0.00000000E+00  0.00000000E+00
  0.00000000E+00  0.00000000E+00  0.00000000E+00
  0.00000000E+00  0.00000000E+00  0.00000000E+00
  0.00000000E+00  0.00000000E+00  0.00000000E+00
  0.00000000E+00  0.00000000E+00  0.00000000E+00
  0.00000000E+00  0.00000000E+00  0.00000000E+00
  0.00000000E+00  0.00000000E+00  0.00000000E+00
  0.00000000E+00  0.00000000E+00  0.00000000E+00
  0.00000000E+00  0.00000000E+00  0.00000000E+00
  0.00000000E+00  0.00000000E+00  0.00000000E+00
  0.00000000E+00  0.00000000E+00  0.00000000E+00
  0.00000000E+00  0.00000000E+00  0.00000000E+00
  0.00000000E+00  0.00000000E+00  0.00000000E+00
  0.00000000E+00  0.00000000E+00  0.00000000E+00
  0.00000000E+00  0.00000000E+00  0.00000000E+00
  0.00000000E+00  0.00000000E+00  0.00000000E+00
  0.00000000E+00  0.00000000E+00  0.00000000E+00
  0.00000000E+00  0.00000000E+00  0.00000000E+00
  0.00000000E+00  0.00000000E+00  0.00000000E+00
  0.00000000E+00  0.00000000E+00  0.00000000E+00
  0.00000000E+00  0.00000000E+00  0.00000000E+00
  0.00000000E+00  0.00000000E+00  0.00000000E+00
  0.00000000E+00  0.00000000E+00  0.00000000E+00
  0.00000000E+00  0.00000000E+00  0.00000000E+00
  0.00000000E+00  0.00000000E+00  0.00000000E+00
  0.00000000E+00  0.00000000E+00  0.00000000E+00
  0.00000000E+00  0.00000000E+00  0.00000000E+00
  0.00000000E+00  0.00000000E+00  0.00000000E+00
  0.00000000E+00  0.00000000E+00  0.00000000E+00
  0.00000000E+00  0.00000000E+00  0.00000000E+00
  0.00000000E+00  0.00000000E+00  0.00000000E+00
  0.00000000E+00  0.00000000E+00  0.00000000E+00
  0.00000000E+00  0.00000000E+00  0.00000000E+00
  0.00000000E+00  0.00000000E+00  0.00000000E+00
  0.00000000E+00  0.00000000E+00  0.00000000E+00
  0.00000000E+00  0.00000000E+00  0.00000000E+00
  0.00000000E+00  0.00000000E+00  0.00000000E+00
  0.00000000E+00  0.00000000E+00  0.00000000E+00
  0.00000000E+00  0.00000000E+00  0.00000000E+00
  0.00000000E+00  0.00000000E+00  0.00000000E+00
  0.00000000E+00  0.00000000E+00  0.00000000E+00
  0.00000000E+00  0.00000000E+00  0.00000000E+00
  0.00000000E+00  0.00000000E+00  0.00000000E+00
  0.00000000E+00  0.00000000E+00  0.00000000E+00
  0.00000000E+00  0.00000000E+00  0.00000000E+00
  0.00000000E+00  0.00000000E+00  0.00000000E+00
  0.00000000E+00  0.00000000E+00  0.00000000E+00
  0.00000000E+00  0.00000000E+00  0.00000000E+00
  0.00000000E+00  0.00000000E+00  0.00000000E+00
  0.00000000E+00  0.00000000E+00  0.00000000E+00
  0.00000000E+00  0.00000000E+00  0.00000000E+00
  0.00000000E+00  0.00000000E+00  0.00000000E+00
  0.00000000E+00  0.00000000E+00  0.00000000E+00
  0.00000000E+00  0.00000000E+00  0.00000000E+00
