       N       E                     dE             d eps       ncg     rms          rms(c)
DAV:   1     0.465623084421E+04    0.46562E+04   -0.13873E+05 11904   0.919E+02
DAV:   2     0.917950317720E+03   -0.37383E+04   -0.34733E+04 14064   0.247E+02
DAV:   3    -0.285367043245E+03   -0.12033E+04   -0.11648E+04 16800   0.139E+02
DAV:   4    -0.387663529771E+03   -0.10230E+03   -0.10073E+03 18132   0.576E+01
DAV:   5    -0.389369572753E+03   -0.17060E+01   -0.16735E+01 18144   0.103E+01    0.613E+01
DAV:   6    -0.366499335196E+03    0.22870E+02   -0.32813E+02 17172   0.621E+01    0.620E+01
DAV:   7    -0.352471419766E+03    0.14028E+02   -0.55667E+01 17160   0.580E+01    0.321E+01
DAV:   8    -0.353520912308E+03   -0.10495E+01   -0.15697E+01 17532   0.116E+01    0.201E+01
DAV:   9    -0.353050209204E+03    0.47070E+00   -0.35253E+00 17076   0.987E+00    0.140E+01
DAV:  10    -0.352626389691E+03    0.42382E+00   -0.15235E+00 17184   0.726E+00    0.590E+00
DAV:  11    -0.352601647727E+03    0.24742E-01   -0.27384E-01 17028   0.182E+00    0.448E+00
DAV:  12    -0.352612759641E+03   -0.11112E-01   -0.53171E-02 16392   0.834E-01    0.304E+00
DAV:  13    -0.352657891314E+03   -0.45132E-01   -0.47438E-02 18864   0.129E+00    0.134E+00
DAV:  14    -0.352719262946E+03   -0.61372E-01   -0.55863E-02 16824   0.678E-01    0.917E-01
DAV:  15    -0.352748578584E+03   -0.29316E-01   -0.11665E-02 16452   0.472E-01    0.617E-01
DAV:  16    -0.352771505580E+03   -0.22927E-01   -0.32597E-03 16488   0.231E-01    0.383E-01
DAV:  17    -0.352841241515E+03   -0.69736E-01   -0.44528E-03 16548   0.156E-01    0.215E-01
DAV:  18    -0.352861995645E+03   -0.20754E-01   -0.69165E-04 17232   0.117E-01    0.977E-02
DAV:  19    -0.352887664121E+03   -0.25668E-01   -0.39595E-04 16440   0.476E-02    0.839E-02
DAV:  20    -0.352914146046E+03   -0.26482E-01   -0.41325E-04 14820   0.439E-02    0.659E-02
DAV:  21    -0.352928830971E+03   -0.14685E-01   -0.29814E-04 15216   0.350E-02    0.343E-02
DAV:  22    -0.352934843198E+03   -0.60122E-02   -0.15060E-04 13380   0.199E-02    0.259E-02
DAV:  23    -0.352937498031E+03   -0.26548E-02   -0.72686E-05 14592   0.166E-02    0.183E-02
DAV:  24    -0.352938088754E+03   -0.59072E-03   -0.16536E-05 14904   0.942E-03    0.148E-02
DAV:  25    -0.352938328567E+03   -0.23981E-03   -0.70460E-06 13056   0.681E-03    0.752E-03
DAV:  26    -0.352938657336E+03   -0.32877E-03   -0.92862E-06 12384   0.537E-03    0.468E-03
DAV:  27    -0.352938926692E+03   -0.26936E-03   -0.40961E-06 10908   0.353E-03    0.368E-03
DAV:  28    -0.352939065603E+03   -0.13891E-03   -0.12539E-06  9576   0.260E-03    0.297E-03
DAV:  29    -0.352939204522E+03   -0.13892E-03   -0.20318E-06 10212   0.225E-03    0.236E-03
DAV:  30    -0.352939307228E+03   -0.10271E-03   -0.12226E-06  9264   0.180E-03    0.172E-03
DAV:  31    -0.352939359168E+03   -0.51940E-04   -0.63809E-07  8520   0.153E-03    0.157E-03
DAV:  32    -0.352939383224E+03   -0.24056E-04   -0.75383E-07  8784   0.137E-03    0.119E-03
DAV:  33    -0.352939391835E+03   -0.86106E-05   -0.34580E-07  7728   0.129E-03    0.896E-04
DAV:  34    -0.352939403115E+03   -0.11280E-04   -0.21960E-07  7380   0.928E-04    0.809E-04
DAV:  35    -0.352939418294E+03   -0.15179E-04   -0.23397E-07  7632   0.889E-04    0.640E-04
DAV:  36    -0.352939425070E+03   -0.67758E-05   -0.14896E-07  7008   0.732E-04    0.481E-04
DAV:  37    -0.352939431291E+03   -0.62213E-05   -0.94794E-08  6972   0.625E-04    0.362E-04
DAV:  38    -0.352939437917E+03   -0.66253E-05   -0.10937E-07  7404   0.516E-04    0.291E-04
DAV:  39    -0.352939442330E+03   -0.44130E-05   -0.79512E-08  7284   0.512E-04    0.307E-04
DAV:  40    -0.352939444021E+03   -0.16917E-05   -0.44878E-08  6924   0.426E-04    0.188E-04
DAV:  41    -0.352939444737E+03   -0.71611E-06   -0.20388E-08  6924   0.329E-04
   1 F= -.36607576E+03 E0= -.36607355E+03  d E =-.366076E+03  mag=    54.9999
       N       E                     dE             d eps       ncg     rms          rms(c)
DAV:   1    -0.352820902889E+03    0.11854E+00   -0.34074E+01 11976   0.672E+00    0.451E+00
DAV:   2    -0.353150611655E+03   -0.32971E+00   -0.15101E+00 16776   0.267E+00    0.320E+00
DAV:   3    -0.353206131580E+03   -0.55520E-01   -0.66750E-02 17280   0.110E+00    0.992E-01
DAV:   4    -0.353200663821E+03    0.54678E-02   -0.97987E-03 17268   0.332E-01    0.639E-01
DAV:   5    -0.353196644008E+03    0.40198E-02   -0.77755E-03 17076   0.283E-01    0.404E-01
DAV:   6    -0.353197568017E+03   -0.92401E-03   -0.25866E-03 17328   0.225E-01    0.183E-01
DAV:   7    -0.353200263041E+03   -0.26950E-02   -0.61591E-04 17148   0.128E-01    0.110E-01
DAV:   8    -0.353202678118E+03   -0.24151E-02   -0.16949E-04 16860   0.518E-02    0.571E-02
DAV:   9    -0.353204649276E+03   -0.19712E-02   -0.52623E-05 16932   0.277E-02    0.407E-02
DAV:  10    -0.353206802171E+03   -0.21529E-02   -0.36633E-05 16428   0.150E-02    0.222E-02
DAV:  11    -0.353208586144E+03   -0.17840E-02   -0.23565E-05 15864   0.102E-02    0.125E-02
DAV:  12    -0.353209415642E+03   -0.82950E-03   -0.54031E-06 13548   0.559E-03    0.804E-03
DAV:  13    -0.353210200674E+03   -0.78503E-03   -0.51492E-06 12264   0.373E-03    0.562E-03
DAV:  14    -0.353210836191E+03   -0.63552E-03   -0.35681E-06 11592   0.253E-03    0.441E-03
DAV:  15    -0.353211711878E+03   -0.87569E-03   -0.93760E-06 12072   0.349E-03    0.267E-03
DAV:  16    -0.353212154837E+03   -0.44296E-03   -0.44353E-06 12288   0.233E-03    0.188E-03
DAV:  17    -0.353212495639E+03   -0.34080E-03   -0.45532E-06 11628   0.228E-03    0.130E-03
DAV:  18    -0.353212614265E+03   -0.11863E-03   -0.12497E-06  9756   0.139E-03    0.105E-03
DAV:  19    -0.353212676213E+03   -0.61949E-04   -0.10524E-06  8676   0.141E-03    0.103E-03
DAV:  20    -0.353212701419E+03   -0.25205E-04   -0.55381E-07  8364   0.133E-03    0.645E-04
DAV:  21    -0.353212712333E+03   -0.10915E-04   -0.37706E-07  7320   0.114E-03    0.587E-04
DAV:  22    -0.353212717212E+03   -0.48790E-05   -0.21756E-07  6876   0.987E-04    0.394E-04
DAV:  23    -0.353212721266E+03   -0.40538E-05   -0.13628E-07  6876   0.717E-04    0.321E-04
DAV:  24    -0.353212725355E+03   -0.40886E-05   -0.94481E-08  6936   0.586E-04    0.276E-04
DAV:  25    -0.353212728267E+03   -0.29120E-05   -0.76383E-08  6996   0.492E-04    0.225E-04
DAV:  26    -0.353212728836E+03   -0.56905E-06   -0.32982E-08  6900   0.440E-04
   2 F= -.36635275E+03 E0= -.36635151E+03  d E =-.276996E+00  mag=    55.0000
       N       E                     dE             d eps       ncg     rms          rms(c)
DAV:   1    -0.352880214824E+03    0.33251E+00   -0.35857E+01 12288   0.698E+00    0.458E+00
DAV:   2    -0.353225704262E+03   -0.34549E+00   -0.15638E+00 16308   0.270E+00    0.310E+00
DAV:   3    -0.353287579783E+03   -0.61876E-01   -0.75890E-02 17220   0.108E+00    0.999E-01
DAV:   4    -0.353281729542E+03    0.58502E-02   -0.92247E-03 17232   0.303E-01    0.652E-01
DAV:   5    -0.353277041969E+03    0.46876E-02   -0.86562E-03 17016   0.253E-01    0.366E-01
DAV:   6    -0.353278348434E+03   -0.13065E-02   -0.22644E-03 17280   0.179E-01    0.167E-01
DAV:   7    -0.353281013289E+03   -0.26649E-02   -0.39728E-04 17028   0.904E-02    0.978E-02
DAV:   8    -0.353283589592E+03   -0.25763E-02   -0.13206E-04 16896   0.390E-02    0.553E-02
DAV:   9    -0.353285842193E+03   -0.22526E-02   -0.50335E-05 16740   0.215E-02    0.358E-02
DAV:  10    -0.353288165617E+03   -0.23234E-02   -0.42332E-05 16248   0.142E-02    0.179E-02
DAV:  11    -0.353289708718E+03   -0.15431E-02   -0.17604E-05 15876   0.791E-03    0.109E-02
DAV:  12    -0.353290615256E+03   -0.90654E-03   -0.58435E-06 13284   0.522E-03    0.766E-03
DAV:  13    -0.353291331424E+03   -0.71617E-03   -0.44015E-06 12360   0.353E-03    0.586E-03
DAV:  14    -0.353291943861E+03   -0.61244E-03   -0.35867E-06 11688   0.257E-03    0.423E-03
DAV:  15    -0.353292780071E+03   -0.83621E-03   -0.95766E-06 11772   0.336E-03    0.233E-03
DAV:  16    -0.353293181857E+03   -0.40179E-03   -0.43196E-06 12360   0.230E-03    0.181E-03
DAV:  17    -0.353293448351E+03   -0.26649E-03   -0.31847E-06 11028   0.206E-03    0.136E-03
DAV:  18    -0.353293551472E+03   -0.10312E-03   -0.10588E-06  9336   0.151E-03    0.107E-03
DAV:  19    -0.353293609312E+03   -0.57840E-04   -0.11686E-06  9048   0.156E-03    0.113E-03
DAV:  20    -0.353293630226E+03   -0.20913E-04   -0.53189E-07  7992   0.138E-03    0.642E-04
DAV:  21    -0.353293641635E+03   -0.11410E-04   -0.39403E-07  7344   0.111E-03    0.671E-04
DAV:  22    -0.353293646250E+03   -0.46149E-05   -0.20803E-07  6888   0.101E-03    0.373E-04
DAV:  23    -0.353293651558E+03   -0.53078E-05   -0.15559E-07  6960   0.680E-04    0.369E-04
DAV:  24    -0.353293656193E+03   -0.46352E-05   -0.10627E-07  6900   0.666E-04    0.313E-04
DAV:  25    -0.353293658184E+03   -0.19903E-05   -0.76885E-08  6792   0.492E-04    0.243E-04
DAV:  26    -0.353293658586E+03   -0.40258E-06   -0.30698E-08  6996   0.440E-04
   3 F= -.36643732E+03 E0= -.36643690E+03  d E =-.361567E+00  mag=    55.0000
       N       E                     dE             d eps       ncg     rms          rms(c)
DAV:   1    -0.353119997683E+03    0.17366E+00   -0.41024E+01 11664   0.792E+00    0.414E+00
DAV:   2    -0.353446026163E+03   -0.32603E+00   -0.32942E+00 16692   0.421E+00    0.247E+00
DAV:   3    -0.353445486746E+03    0.53942E-03   -0.71357E-02 16860   0.961E-01    0.153E+00
DAV:   4    -0.353440916202E+03    0.45705E-02   -0.10089E-02 17136   0.296E-01    0.117E+00
DAV:   5    -0.353437106959E+03    0.38092E-02   -0.13300E-02 15780   0.228E-01    0.615E-01
DAV:   6    -0.353438112146E+03   -0.10052E-02   -0.49796E-03 16740   0.198E-01    0.181E-01
DAV:   7    -0.353438509356E+03   -0.39721E-03   -0.31910E-04 17232   0.790E-02    0.101E-01
DAV:   8    -0.353438832188E+03   -0.32283E-03   -0.69366E-05 16908   0.318E-02    0.802E-02
DAV:   9    -0.353439167084E+03   -0.33490E-03   -0.46405E-05 16452   0.220E-02    0.536E-02
DAV:  10    -0.353439410181E+03   -0.24310E-03   -0.38719E-05 16452   0.138E-02    0.169E-02
DAV:  11    -0.353439601554E+03   -0.19137E-03   -0.55391E-06 14268   0.611E-03    0.645E-03
DAV:  12    -0.353439676901E+03   -0.75347E-04   -0.74801E-07  7836   0.375E-03    0.407E-03
DAV:  13    -0.353439774117E+03   -0.97215E-04   -0.10971E-06  8748   0.240E-03    0.273E-03
DAV:  14    -0.353439861070E+03   -0.86954E-04   -0.11923E-06  8460   0.208E-03    0.212E-03
DAV:  15    -0.353439936619E+03   -0.75549E-04   -0.73415E-07  8148   0.171E-03    0.164E-03
DAV:  16    -0.353440001228E+03   -0.64609E-04   -0.79560E-07  8112   0.159E-03    0.147E-03
DAV:  17    -0.353440056223E+03   -0.54995E-04   -0.79309E-07  8292   0.163E-03    0.130E-03
DAV:  18    -0.353440092274E+03   -0.36051E-04   -0.68549E-07  7752   0.142E-03    0.103E-03
DAV:  19    -0.353440115845E+03   -0.23571E-04   -0.56467E-07  7764   0.139E-03    0.904E-04
DAV:  20    -0.353440128569E+03   -0.12724E-04   -0.38842E-07  7296   0.114E-03    0.625E-04
DAV:  21    -0.353440136660E+03   -0.80914E-05   -0.29634E-07  7176   0.103E-03    0.646E-04
DAV:  22    -0.353440141481E+03   -0.48216E-05   -0.22542E-07  7056   0.877E-04    0.385E-04
DAV:  23    -0.353440143787E+03   -0.23054E-05   -0.15864E-07  6972   0.745E-04    0.417E-04
DAV:  24    -0.353440144622E+03   -0.83496E-06   -0.83943E-08  6900   0.605E-04
   4 F= -.36658480E+03 E0= -.36658466E+03  d E =-.147480E+00  mag=    55.0000
       N       E                     dE             d eps       ncg     rms          rms(c)
DAV:   1    -0.353430565110E+03    0.95787E-02   -0.20484E+00 11700   0.177E+00    0.894E-01
DAV:   2    -0.353445197929E+03   -0.14633E-01   -0.15050E-01 16380   0.895E-01    0.471E-01
DAV:   3    -0.353445395164E+03   -0.19724E-03   -0.34618E-03 16620   0.206E-01    0.321E-01
DAV:   4    -0.353445173117E+03    0.22205E-03   -0.47682E-04 17064   0.732E-02    0.241E-01
DAV:   5    -0.353444960785E+03    0.21233E-03   -0.59130E-04 15564   0.476E-02    0.130E-01
DAV:   6    -0.353445024763E+03   -0.63977E-04   -0.22418E-04 16680   0.412E-02    0.376E-02
DAV:   7    -0.353445060379E+03   -0.35616E-04   -0.14503E-05 16992   0.162E-02    0.203E-02
DAV:   8    -0.353445098793E+03   -0.38415E-04   -0.27410E-06 10740   0.738E-03    0.163E-02
DAV:   9    -0.353445144112E+03   -0.45318E-04   -0.29500E-06 11052   0.550E-03    0.111E-02
DAV:  10    -0.353445169864E+03   -0.25752E-04   -0.25849E-06  9492   0.320E-03    0.496E-03
DAV:  11    -0.353445194091E+03   -0.24227E-04   -0.62314E-07  7488   0.209E-03    0.261E-03
DAV:  12    -0.353445213176E+03   -0.19085E-04   -0.42781E-07  7044   0.187E-03    0.143E-03
DAV:  13    -0.353445227717E+03   -0.14541E-04   -0.29941E-07  7092   0.139E-03    0.969E-04
DAV:  14    -0.353445237744E+03   -0.10028E-04   -0.18493E-07  6936   0.111E-03    0.748E-04
DAV:  15    -0.353445245200E+03   -0.74559E-05   -0.11917E-07  6864   0.744E-04    0.602E-04
DAV:  16    -0.353445256129E+03   -0.10928E-04   -0.12239E-07  7188   0.674E-04    0.573E-04
DAV:  17    -0.353445268119E+03   -0.11991E-04   -0.18281E-07  7392   0.681E-04    0.439E-04
DAV:  18    -0.353445272009E+03   -0.38897E-05   -0.92276E-08  6900   0.694E-04    0.362E-04
DAV:  19    -0.353445274070E+03   -0.20608E-05   -0.58574E-08  6816   0.433E-04    0.233E-04
DAV:  20    -0.353445276458E+03   -0.23888E-05   -0.43530E-08  6756   0.418E-04    0.266E-04
DAV:  21    -0.353445277982E+03   -0.15231E-05   -0.30933E-08  6780   0.346E-04    0.159E-04
DAV:  22    -0.353445279876E+03   -0.18948E-05   -0.41085E-08  7032   0.330E-04    0.237E-04
DAV:  23    -0.353445280339E+03   -0.46291E-06   -0.17699E-08  6912   0.349E-04
   5 F= -.36659010E+03 E0= -.36658994E+03  d E =-.152779E+00  mag=    55.0000
       N       E                     dE             d eps       ncg     rms          rms(c)
DAV:   1    -0.353371792366E+03    0.73488E-01   -0.20964E+01 11664   0.581E+00    0.265E+00
DAV:   2    -0.353517407620E+03   -0.14562E+00   -0.15645E+00 16704   0.285E+00    0.136E+00
DAV:   3    -0.353515266752E+03    0.21409E-02   -0.29158E-02 16440   0.559E-01    0.899E-01
DAV:   4    -0.353513219619E+03    0.20471E-02   -0.46735E-03 17016   0.196E-01    0.656E-01
DAV:   5    -0.353511147294E+03    0.20723E-02   -0.65624E-03 14352   0.149E-01    0.302E-01
DAV:   6    -0.353511488680E+03   -0.34139E-03   -0.23487E-03 16560   0.128E-01    0.107E-01
DAV:   7    -0.353511640292E+03   -0.15161E-03   -0.12291E-04 17136   0.501E-02    0.706E-02
DAV:   8    -0.353511829039E+03   -0.18875E-03   -0.36008E-05 17016   0.206E-02    0.497E-02
DAV:   9    -0.353512105116E+03   -0.27608E-03   -0.28334E-05 16092   0.136E-02    0.307E-02
DAV:  10    -0.353512291299E+03   -0.18618E-03   -0.13397E-05 16464   0.763E-03    0.107E-02
DAV:  11    -0.353512456243E+03   -0.16494E-03   -0.13929E-06  9840   0.342E-03    0.470E-03
DAV:  12    -0.353512561832E+03   -0.10559E-03   -0.12449E-06  8316   0.297E-03    0.337E-03
DAV:  13    -0.353512682911E+03   -0.12108E-03   -0.22722E-06 10140   0.258E-03    0.201E-03
DAV:  14    -0.353512764461E+03   -0.81550E-04   -0.72712E-07  8136   0.157E-03    0.192E-03
DAV:  15    -0.353512821201E+03   -0.56739E-04   -0.50828E-07  7788   0.148E-03    0.151E-03
DAV:  16    -0.353512900357E+03   -0.79156E-04   -0.13850E-06  8976   0.161E-03    0.142E-03
DAV:  17    -0.353512949058E+03   -0.48701E-04   -0.88256E-07  8400   0.149E-03    0.105E-03
DAV:  18    -0.353512967396E+03   -0.18338E-04   -0.41193E-07  7524   0.128E-03    0.880E-04
DAV:  19    -0.353512981117E+03   -0.13722E-04   -0.40703E-07  7536   0.109E-03    0.769E-04
DAV:  20    -0.353512989296E+03   -0.81787E-05   -0.32179E-07  7416   0.109E-03    0.603E-04
DAV:  21    -0.353512992899E+03   -0.36029E-05   -0.25790E-07  7176   0.917E-04    0.492E-04
DAV:  22    -0.353512994065E+03   -0.11668E-05   -0.13804E-07  7104   0.806E-04    0.321E-04
DAV:  23    -0.353512994892E+03   -0.82688E-06   -0.79451E-08  6912   0.523E-04
   6 F= -.36666033E+03 E0= -.36666016E+03  d E =-.702269E-01  mag=    55.0000
       N       E                     dE             d eps       ncg     rms          rms(c)
DAV:   1    -0.353512911185E+03    0.82881E-04   -0.96149E-03 12036   0.122E-01    0.629E-02
DAV:   2    -0.353512968283E+03   -0.57098E-04   -0.67147E-04 16380   0.577E-02    0.272E-02
DAV:   3    -0.353512972097E+03   -0.38148E-05   -0.12843E-05 15672   0.117E-02    0.190E-02
DAV:   4    -0.353512970984E+03    0.11133E-05   -0.12972E-06  8460   0.455E-03    0.145E-02
DAV:   5    -0.353512968973E+03    0.20113E-05   -0.64293E-06 12048   0.412E-03    0.659E-03
DAV:   6    -0.353512968976E+03   -0.34888E-08   -0.91195E-07  8028   0.297E-03
   7 F= -.36666036E+03 E0= -.36666019E+03  d E =-.702532E-01  mag=    55.0000
       N       E                     dE             d eps       ncg     rms          rms(c)
DAV:   1    -0.353513895505E+03   -0.92653E-03   -0.22735E+00 11664   0.195E+00    0.907E-01
DAV:   2    -0.353529058301E+03   -0.15163E-01   -0.15767E-01 16092   0.829E-01    0.451E-01
DAV:   3    -0.353529955615E+03   -0.89731E-03   -0.29062E-03 16152   0.149E-01    0.293E-01
DAV:   4    -0.353529612566E+03    0.34305E-03   -0.40472E-04 16956   0.495E-02    0.221E-01
DAV:   5    -0.353529113943E+03    0.49862E-03   -0.53432E-04 15924   0.467E-02    0.125E-01
DAV:   6    -0.353529058476E+03    0.55467E-04   -0.22801E-04 16812   0.333E-02    0.340E-02
DAV:   7    -0.353529178180E+03   -0.11970E-03   -0.19859E-05 16752   0.155E-02    0.180E-02
DAV:   8    -0.353529347743E+03   -0.16956E-03   -0.52907E-06 13284   0.871E-03    0.108E-02
DAV:   9    -0.353529492766E+03   -0.14502E-03   -0.30568E-06 11568   0.525E-03    0.572E-03
DAV:  10    -0.353529631170E+03   -0.13840E-03   -0.29674E-06 11016   0.287E-03    0.279E-03
DAV:  11    -0.353529732751E+03   -0.10158E-03   -0.64164E-07  8052   0.193E-03    0.201E-03
DAV:  12    -0.353529811859E+03   -0.79108E-04   -0.57552E-07  7956   0.172E-03    0.165E-03
DAV:  13    -0.353529889096E+03   -0.77236E-04   -0.75245E-07  8112   0.155E-03    0.146E-03
DAV:  14    -0.353529961722E+03   -0.72626E-04   -0.79247E-07  8352   0.160E-03    0.127E-03
DAV:  15    -0.353530005915E+03   -0.44193E-04   -0.59809E-07  7452   0.135E-03    0.104E-03
DAV:  16    -0.353530060397E+03   -0.54482E-04   -0.10665E-06  8844   0.141E-03    0.957E-04
DAV:  17    -0.353530091775E+03   -0.31378E-04   -0.56379E-07  8136   0.122E-03    0.634E-04
DAV:  18    -0.353530103070E+03   -0.11294E-04   -0.31881E-07  7224   0.111E-03    0.560E-04
DAV:  19    -0.353530111787E+03   -0.87172E-05   -0.30465E-07  7344   0.869E-04    0.444E-04
DAV:  20    -0.353530115056E+03   -0.32689E-05   -0.16541E-07  7032   0.862E-04    0.341E-04
DAV:  21    -0.353530116840E+03   -0.17839E-05   -0.11226E-07  6744   0.568E-04    0.253E-04
DAV:  22    -0.353530117701E+03   -0.86114E-06   -0.60583E-08  6912   0.535E-04
   8 F= -.36667831E+03 E0= -.36667811E+03  d E =-.179556E-01  mag=    55.0000
       N       E                     dE             d eps       ncg     rms          rms(c)
DAV:   1    -0.353407998359E+03    0.12212E+00   -0.20475E+01 11664   0.586E+00    0.275E+00
DAV:   2    -0.353549270987E+03   -0.14127E+00   -0.14378E+00 16644   0.255E+00    0.149E+00
DAV:   3    -0.353555268728E+03   -0.59977E-02   -0.25560E-02 16332   0.501E-01    0.899E-01
DAV:   4    -0.353552827001E+03    0.24417E-02   -0.37947E-03 17064   0.171E-01    0.687E-01
DAV:   5    -0.353549816757E+03    0.30102E-02   -0.48040E-03 16056   0.145E-01    0.392E-01
DAV:   6    -0.353549748181E+03    0.68576E-04   -0.22817E-03 16812   0.105E-01    0.110E-01
DAV:   7    -0.353550453121E+03   -0.70494E-03   -0.20458E-04 16860   0.498E-02    0.562E-02
DAV:   8    -0.353551353559E+03   -0.90044E-03   -0.54522E-05 16884   0.244E-02    0.324E-02
DAV:   9    -0.353552104814E+03   -0.75126E-03   -0.17361E-05 16656   0.137E-02    0.189E-02
DAV:  10    -0.353552843386E+03   -0.73857E-03   -0.14493E-05 16008   0.704E-03    0.814E-03
DAV:  11    -0.353553355538E+03   -0.51215E-03   -0.36297E-06 12192   0.383E-03    0.460E-03
DAV:  12    -0.353553759591E+03   -0.40405E-03   -0.23315E-06 10884   0.251E-03    0.350E-03
DAV:  13    -0.353554226026E+03   -0.46643E-03   -0.40190E-06 11580   0.241E-03    0.257E-03
DAV:  14    -0.353554554439E+03   -0.32841E-03   -0.25095E-06 10764   0.181E-03    0.185E-03
DAV:  15    -0.353554870872E+03   -0.31643E-03   -0.39946E-06 11424   0.209E-03    0.119E-03
DAV:  16    -0.353555028958E+03   -0.15809E-03   -0.19932E-06 10260   0.157E-03    0.863E-04
DAV:  17    -0.353555099087E+03   -0.70129E-04   -0.96898E-07  8976   0.129E-03    0.911E-04
DAV:  18    -0.353555118360E+03   -0.19273E-04   -0.32905E-07  7536   0.127E-03    0.690E-04
DAV:  19    -0.353555132473E+03   -0.14113E-04   -0.39088E-07  7800   0.921E-04    0.555E-04
DAV:  20    -0.353555140161E+03   -0.76881E-05   -0.23867E-07  7236   0.106E-03    0.449E-04
DAV:  21    -0.353555144066E+03   -0.39051E-05   -0.18062E-07  6960   0.726E-04    0.281E-04
DAV:  22    -0.353555145253E+03   -0.11870E-05   -0.79395E-08  7032   0.690E-04    0.234E-04
DAV:  23    -0.353555146317E+03   -0.10642E-05   -0.44575E-08  6828   0.370E-04    0.113E-04
DAV:  24    -0.353555147010E+03   -0.69273E-06   -0.19978E-08  6876   0.366E-04
   9 F= -.36670566E+03 E0= -.36670537E+03  d E =-.453038E-01  mag=    55.0000
       N       E                     dE             d eps       ncg     rms          rms(c)
DAV:   1    -0.353547076477E+03    0.80698E-02   -0.34823E+00 11772   0.247E+00    0.112E+00
DAV:   2    -0.353570074002E+03   -0.22998E-01   -0.22666E-01 16200   0.101E+00    0.549E-01
DAV:   3    -0.353572460773E+03   -0.23868E-02   -0.54143E-03 16476   0.220E-01    0.350E-01
DAV:   4    -0.353572021966E+03    0.43881E-03   -0.54332E-04 17220   0.695E-02    0.263E-01
DAV:   5    -0.353571427190E+03    0.59478E-03   -0.60858E-04 15984   0.509E-02    0.172E-01
DAV:   6    -0.353571253549E+03    0.17364E-03   -0.47502E-04 16620   0.444E-02    0.523E-02
DAV:   7    -0.353571442771E+03   -0.18922E-03   -0.59101E-05 16524   0.227E-02    0.271E-02
DAV:   8    -0.353571726255E+03   -0.28348E-03   -0.15466E-05 16668   0.113E-02    0.141E-02
DAV:   9    -0.353571961238E+03   -0.23498E-03   -0.42286E-06 12336   0.676E-03    0.713E-03
DAV:  10    -0.353572192844E+03   -0.23161E-03   -0.48851E-06 12948   0.420E-03    0.350E-03
DAV:  11    -0.353572346109E+03   -0.15326E-03   -0.11220E-06  9132   0.235E-03    0.269E-03
DAV:  12    -0.353572470716E+03   -0.12461E-03   -0.96637E-07  8580   0.218E-03    0.212E-03
DAV:  13    -0.353572592782E+03   -0.12207E-03   -0.17111E-06  9648   0.188E-03    0.141E-03
DAV:  14    -0.353572678175E+03   -0.85393E-04   -0.64426E-07  8256   0.139E-03    0.115E-03
DAV:  15    -0.353572744281E+03   -0.66106E-04   -0.67775E-07  8028   0.134E-03    0.112E-03
DAV:  16    -0.353572783196E+03   -0.38915E-04   -0.52172E-07  7476   0.144E-03    0.874E-04
DAV:  17    -0.353572820467E+03   -0.37271E-04   -0.79162E-07  8460   0.123E-03    0.797E-04
DAV:  18    -0.353572835219E+03   -0.14753E-04   -0.39569E-07  7224   0.130E-03    0.647E-04
DAV:  19    -0.353572843571E+03   -0.83516E-05   -0.33914E-07  7056   0.939E-04    0.553E-04
DAV:  20    -0.353572848901E+03   -0.53297E-05   -0.24539E-07  7224   0.945E-04    0.469E-04
DAV:  21    -0.353572851135E+03   -0.22340E-05   -0.15169E-07  6864   0.717E-04    0.268E-04
DAV:  22    -0.353572852715E+03   -0.15804E-05   -0.97624E-08  6792   0.596E-04    0.284E-04
DAV:  23    -0.353572853691E+03   -0.97624E-06   -0.56052E-08  6996   0.466E-04
  10 F= -.36672510E+03 E0= -.36672481E+03  d E =-.194437E-01  mag=    55.0000
       N       E                     dE             d eps       ncg     rms          rms(c)
DAV:   1    -0.353500886154E+03    0.71967E-01   -0.11136E+01 11760   0.442E+00    0.201E+00
DAV:   2    -0.353575892461E+03   -0.75006E-01   -0.72532E-01 16380   0.181E+00    0.101E+00
DAV:   3    -0.353582654263E+03   -0.67618E-02   -0.17006E-02 16440   0.399E-01    0.631E-01
DAV:   4    -0.353581405461E+03    0.12488E-02   -0.17766E-03 17268   0.129E-01    0.475E-01
DAV:   5    -0.353579904029E+03    0.15014E-02   -0.18515E-03 16152   0.914E-02    0.313E-01
DAV:   6    -0.353579520780E+03    0.38325E-03   -0.15749E-03 16536   0.802E-02    0.929E-02
DAV:   7    -0.353580004785E+03   -0.48400E-03   -0.20493E-04 16392   0.415E-02    0.483E-02
DAV:   8    -0.353580686907E+03   -0.68212E-03   -0.46803E-05 16812   0.198E-02    0.257E-02
DAV:   9    -0.353581248809E+03   -0.56190E-03   -0.14282E-05 16548   0.118E-02    0.130E-02
DAV:  10    -0.353581788355E+03   -0.53955E-03   -0.92672E-06 15528   0.636E-03    0.648E-03
DAV:  11    -0.353582148023E+03   -0.35967E-03   -0.31845E-06 11532   0.377E-03    0.415E-03
DAV:  12    -0.353582494560E+03   -0.34654E-03   -0.29610E-06 11400   0.299E-03    0.290E-03
DAV:  13    -0.353582801223E+03   -0.30666E-03   -0.29265E-06 11220   0.211E-03    0.196E-03
DAV:  14    -0.353583004938E+03   -0.20372E-03   -0.16158E-06  9828   0.165E-03    0.146E-03
DAV:  15    -0.353583135751E+03   -0.13081E-03   -0.12183E-06  8988   0.161E-03    0.155E-03
DAV:  16    -0.353583221931E+03   -0.86180E-04   -0.12469E-06  8832   0.165E-03    0.862E-04
DAV:  17    -0.353583262284E+03   -0.40353E-04   -0.70649E-07  8172   0.145E-03    0.913E-04
DAV:  18    -0.353583282185E+03   -0.19901E-04   -0.53035E-07  7464   0.137E-03    0.665E-04
DAV:  19    -0.353583294125E+03   -0.11940E-04   -0.42837E-07  7416   0.121E-03    0.679E-04
DAV:  20    -0.353583302887E+03   -0.87616E-05   -0.43173E-07  7764   0.108E-03    0.472E-04
DAV:  21    -0.353583306813E+03   -0.39262E-05   -0.23458E-07  7032   0.987E-04    0.387E-04
DAV:  22    -0.353583308498E+03   -0.16852E-05   -0.12105E-07  6852   0.659E-04    0.192E-04
DAV:  23    -0.353583310629E+03   -0.21304E-05   -0.82372E-08  6828   0.526E-04    0.248E-04
DAV:  24    -0.353583311858E+03   -0.12297E-05   -0.48850E-08  6840   0.432E-04    0.141E-04
DAV:  25    -0.353583312437E+03   -0.57812E-06   -0.30164E-08  6852   0.335E-04
  11 F= -.36673858E+03 E0= -.36673830E+03  d E =-.329247E-01  mag=    55.0000
       N       E                     dE             d eps       ncg     rms          rms(c)
DAV:   1    -0.353559588151E+03    0.23724E-01   -0.54322E+00 11784   0.305E+00    0.129E+00
DAV:   2    -0.353593954406E+03   -0.34366E-01   -0.37191E-01 16164   0.126E+00    0.658E-01
DAV:   3    -0.353595245779E+03   -0.12914E-02   -0.70374E-03 16164   0.230E-01    0.436E-01
DAV:   4    -0.353594418489E+03    0.82729E-03   -0.92311E-04 17004   0.842E-02    0.329E-01
DAV:   5    -0.353593245678E+03    0.11728E-02   -0.11115E-03 15828   0.685E-02    0.196E-01
DAV:   6    -0.353593016050E+03    0.22963E-03   -0.62940E-04 16860   0.573E-02    0.592E-02
DAV:   7    -0.353593321302E+03   -0.30525E-03   -0.66640E-05 16560   0.263E-02    0.297E-02
DAV:   8    -0.353593787868E+03   -0.46657E-03   -0.19381E-05 16908   0.134E-02    0.161E-02
DAV:   9    -0.353594168911E+03   -0.38104E-03   -0.48263E-06 13092   0.649E-03    0.735E-03
DAV:  10    -0.353594578968E+03   -0.41006E-03   -0.60744E-06 12756   0.384E-03    0.381E-03
DAV:  11    -0.353594822576E+03   -0.24361E-03   -0.10978E-06  9600   0.229E-03    0.287E-03
DAV:  12    -0.353595079244E+03   -0.25667E-03   -0.21893E-06 10272   0.223E-03    0.230E-03
DAV:  13    -0.353595301382E+03   -0.22214E-03   -0.16461E-06  9960   0.182E-03    0.178E-03
DAV:  14    -0.353595466621E+03   -0.16524E-03   -0.12444E-06  9096   0.167E-03    0.166E-03
DAV:  15    -0.353595572954E+03   -0.10633E-03   -0.93410E-07  8496   0.173E-03    0.144E-03
DAV:  16    -0.353595712445E+03   -0.13949E-03   -0.30983E-06 10860   0.190E-03    0.713E-04
DAV:  17    -0.353595758206E+03   -0.45761E-04   -0.50156E-07  8340   0.104E-03    0.872E-04
DAV:  18    -0.353595779243E+03   -0.21037E-04   -0.37984E-07  7836   0.107E-03    0.785E-04
DAV:  19    -0.353595784040E+03   -0.47975E-05   -0.18127E-07  7164   0.942E-04    0.461E-04
DAV:  20    -0.353595789649E+03   -0.56086E-05   -0.17870E-07  7212   0.660E-04    0.486E-04
DAV:  21    -0.353595793267E+03   -0.36186E-05   -0.12689E-07  7068   0.744E-04    0.320E-04
DAV:  22    -0.353595794463E+03   -0.11958E-05   -0.78319E-08  6900   0.531E-04    0.241E-04
DAV:  23    -0.353595795090E+03   -0.62649E-06   -0.38723E-08  6840   0.446E-04
  12 F= -.36675215E+03 E0= -.36675184E+03  d E =-.135667E-01  mag=    55.0000
       N       E                     dE             d eps       ncg     rms          rms(c)
DAV:   1    -0.353562854800E+03    0.32940E-01   -0.54866E+00 11868   0.306E+00    0.129E+00
DAV:   2    -0.353597399387E+03   -0.34545E-01   -0.37392E-01 16008   0.126E+00    0.656E-01
DAV:   3    -0.353598734355E+03   -0.13350E-02   -0.70803E-03 16128   0.230E-01    0.435E-01
DAV:   4    -0.353597912986E+03    0.82137E-03   -0.91271E-04 16980   0.835E-02    0.328E-01
DAV:   5    -0.353596729070E+03    0.11839E-02   -0.11171E-03 15756   0.685E-02    0.197E-01
DAV:   6    -0.353596485159E+03    0.24391E-03   -0.65125E-04 16860   0.577E-02    0.594E-02
DAV:   7    -0.353596791544E+03   -0.30638E-03   -0.70036E-05 16560   0.266E-02    0.302E-02
DAV:   8    -0.353597257662E+03   -0.46612E-03   -0.20266E-05 16896   0.136E-02    0.162E-02
DAV:   9    -0.353597640020E+03   -0.38236E-03   -0.50165E-06 13212   0.658E-03    0.732E-03
DAV:  10    -0.353598053766E+03   -0.41375E-03   -0.61910E-06 12768   0.389E-03    0.380E-03
DAV:  11    -0.353598295912E+03   -0.24215E-03   -0.11077E-06  9624   0.233E-03    0.293E-03
DAV:  12    -0.353598554438E+03   -0.25853E-03   -0.22515E-06 10332   0.227E-03    0.232E-03
DAV:  13    -0.353598776827E+03   -0.22239E-03   -0.16534E-06 10020   0.182E-03    0.179E-03
DAV:  14    -0.353598940766E+03   -0.16394E-03   -0.12415E-06  9072   0.169E-03    0.164E-03
DAV:  15    -0.353599049173E+03   -0.10841E-03   -0.95961E-07  8556   0.174E-03    0.148E-03
DAV:  16    -0.353599186180E+03   -0.13701E-03   -0.29734E-06 10752   0.189E-03    0.722E-04
DAV:  17    -0.353599232749E+03   -0.46570E-04   -0.50500E-07  8304   0.106E-03    0.893E-04
DAV:  18    -0.353599255058E+03   -0.22309E-04   -0.39503E-07  7860   0.108E-03    0.787E-04
DAV:  19    -0.353599260335E+03   -0.52769E-05   -0.19132E-07  7164   0.965E-04    0.498E-04
DAV:  20    -0.353599266132E+03   -0.57966E-05   -0.18453E-07  7212   0.678E-04    0.484E-04
DAV:  21    -0.353599269931E+03   -0.37988E-05   -0.13497E-07  7116   0.756E-04    0.375E-04
DAV:  22    -0.353599271220E+03   -0.12887E-05   -0.84451E-08  6936   0.554E-04    0.245E-04
DAV:  23    -0.353599271888E+03   -0.66806E-06   -0.43190E-08  6864   0.461E-04
  13 F= -.36675668E+03 E0= -.36675635E+03  d E =-.180918E-01  mag=    55.0000
       N       E                     dE             d eps       ncg     rms          rms(c)
DAV:   1    -0.353559073484E+03    0.40198E-01   -0.65392E+00 11688   0.333E+00    0.165E+00
DAV:   2    -0.353602016176E+03   -0.42943E-01   -0.44225E-01 16536   0.140E+00    0.800E-01
DAV:   3    -0.353603598920E+03   -0.15827E-02   -0.10042E-02 16368   0.332E-01    0.493E-01
DAV:   4    -0.353603017786E+03    0.58113E-03   -0.13192E-03 17184   0.108E-01    0.353E-01
DAV:   5    -0.353602560261E+03    0.45752E-03   -0.19959E-03 14364   0.810E-02    0.161E-01
DAV:   6    -0.353602783898E+03   -0.22364E-03   -0.75820E-04 16656   0.665E-02    0.545E-02
DAV:   7    -0.353602851560E+03   -0.67662E-04   -0.49965E-05 17148   0.294E-02    0.372E-02
DAV:   8    -0.353602919227E+03   -0.67666E-04   -0.22434E-05 16716   0.140E-02    0.194E-02
DAV:   9    -0.353602991863E+03   -0.72636E-04   -0.64311E-06 15048   0.787E-03    0.979E-03
DAV:  10    -0.353603034529E+03   -0.42666E-04   -0.22334E-06  9588   0.444E-03    0.425E-03
DAV:  11    -0.353603074282E+03   -0.39753E-04   -0.14234E-06  9156   0.264E-03    0.245E-03
DAV:  12    -0.353603099315E+03   -0.25032E-04   -0.65128E-07  7536   0.224E-03    0.165E-03
DAV:  13    -0.353603121365E+03   -0.22050E-04   -0.50546E-07  7368   0.172E-03    0.147E-03
DAV:  14    -0.353603142681E+03   -0.21317E-04   -0.44366E-07  7680   0.151E-03    0.110E-03
DAV:  15    -0.353603155465E+03   -0.12784E-04   -0.33965E-07  7296   0.124E-03    0.990E-04
DAV:  16    -0.353603164946E+03   -0.94807E-05   -0.28204E-07  7164   0.102E-03    0.734E-04
DAV:  17    -0.353603171592E+03   -0.66467E-05   -0.22961E-07  7128   0.913E-04    0.603E-04
DAV:  18    -0.353603175256E+03   -0.36638E-05   -0.16741E-07  7164   0.812E-04    0.462E-04
DAV:  19    -0.353603177419E+03   -0.21625E-05   -0.11999E-07  6984   0.671E-04    0.380E-04
DAV:  20    -0.353603178413E+03   -0.99391E-06   -0.68003E-08  6924   0.546E-04
  14 F= -.36676027E+03 E0= -.36675981E+03  d E =-.359065E-02  mag=    55.0000
       N       E                     dE             d eps       ncg     rms          rms(c)
DAV:   1    -0.353598930360E+03    0.42471E-02   -0.97144E-01 11676   0.128E+00    0.667E-01
DAV:   2    -0.353605147222E+03   -0.62169E-02   -0.65069E-02 16416   0.527E-01    0.290E-01
DAV:   3    -0.353605478804E+03   -0.33158E-03   -0.14707E-03 16212   0.120E-01    0.188E-01
DAV:   4    -0.353605395559E+03    0.83245E-04   -0.19858E-04 17244   0.435E-02    0.134E-01
DAV:   5    -0.353605327165E+03    0.68394E-04   -0.25679E-04 14712   0.303E-02    0.650E-02
DAV:   6    -0.353605364919E+03   -0.37754E-04   -0.10948E-04 16632   0.230E-02    0.211E-02
DAV:   7    -0.353605382609E+03   -0.17690E-04   -0.79599E-06 16008   0.113E-02    0.141E-02
DAV:   8    -0.353605399505E+03   -0.16896E-04   -0.32446E-06 10392   0.571E-03    0.754E-03
DAV:   9    -0.353605416390E+03   -0.16885E-04   -0.20481E-06  9300   0.369E-03    0.360E-03
DAV:  10    -0.353605424818E+03   -0.84290E-05   -0.80481E-07  7392   0.253E-03    0.205E-03
DAV:  11    -0.353605431441E+03   -0.66227E-05   -0.46321E-07  7356   0.176E-03    0.155E-03
DAV:  12    -0.353605438266E+03   -0.68249E-05   -0.24918E-07  7188   0.159E-03    0.769E-04
DAV:  13    -0.353605445222E+03   -0.69556E-05   -0.20000E-07  7416   0.106E-03    0.843E-04
DAV:  14    -0.353605448619E+03   -0.33975E-05   -0.10983E-07  7020   0.931E-04    0.543E-04
DAV:  15    -0.353605451723E+03   -0.31039E-05   -0.86416E-08  7008   0.557E-04    0.466E-04
DAV:  16    -0.353605453850E+03   -0.21272E-05   -0.45539E-08  6996   0.525E-04    0.389E-04
DAV:  17    -0.353605456121E+03   -0.22711E-05   -0.50266E-08  6984   0.407E-04    0.357E-04
DAV:  18    -0.353605457543E+03   -0.14221E-05   -0.36303E-08  7068   0.454E-04    0.330E-04
DAV:  19    -0.353605458059E+03   -0.51555E-06   -0.20560E-08  6924   0.327E-04
  15 F= -.36676267E+03 E0= -.36676227E+03  d E =-.599096E-02  mag=    55.0000
       N       E                     dE             d eps       ncg     rms          rms(c)
DAV:   1    -0.353580611408E+03    0.24846E-01   -0.48283E+00 11676   0.287E+00    0.137E+00
DAV:   2    -0.353613620407E+03   -0.33009E-01   -0.32378E-01 16512   0.125E+00    0.782E-01
DAV:   3    -0.353615562548E+03   -0.19421E-02   -0.84154E-03 16728   0.321E-01    0.454E-01
DAV:   4    -0.353614833499E+03    0.72905E-03   -0.94772E-04 17244   0.912E-02    0.339E-01
DAV:   5    -0.353613799095E+03    0.10344E-02   -0.13191E-03 14844   0.682E-02    0.182E-01
DAV:   6    -0.353613768926E+03    0.30169E-04   -0.66495E-04 16812   0.625E-02    0.554E-02
DAV:   7    -0.353613992286E+03   -0.22336E-03   -0.56415E-05 16764   0.285E-02    0.350E-02
DAV:   8    -0.353614291363E+03   -0.29908E-03   -0.20484E-05 16884   0.141E-02    0.187E-02
DAV:   9    -0.353614616237E+03   -0.32487E-03   -0.78289E-06 15864   0.857E-03    0.981E-03
DAV:  10    -0.353614849753E+03   -0.23352E-03   -0.25296E-06 10680   0.469E-03    0.479E-03
DAV:  11    -0.353615059023E+03   -0.20927E-03   -0.30664E-06 10776   0.327E-03    0.289E-03
DAV:  12    -0.353615206125E+03   -0.14710E-03   -0.89305E-07  8640   0.199E-03    0.228E-03
DAV:  13    -0.353615357845E+03   -0.15172E-03   -0.10735E-06  8604   0.196E-03    0.206E-03
DAV:  14    -0.353615542894E+03   -0.18505E-03   -0.27569E-06 10908   0.217E-03    0.126E-03
DAV:  15    -0.353615645568E+03   -0.10267E-03   -0.83091E-07  8460   0.131E-03    0.100E-03
DAV:  16    -0.353615697000E+03   -0.51432E-04   -0.46820E-07  7488   0.129E-03    0.921E-04
DAV:  17    -0.353615737043E+03   -0.40044E-04   -0.46960E-07  7740   0.129E-03    0.945E-04
DAV:  18    -0.353615794437E+03   -0.57394E-04   -0.15435E-06  9360   0.140E-03    0.547E-04
DAV:  19    -0.353615803796E+03   -0.93591E-05   -0.23418E-07  7104   0.105E-03    0.409E-04
DAV:  20    -0.353615811834E+03   -0.80381E-05   -0.20978E-07  7272   0.684E-04    0.407E-04
DAV:  21    -0.353615815898E+03   -0.40636E-05   -0.12343E-07  6864   0.774E-04    0.277E-04
DAV:  22    -0.353615818435E+03   -0.25371E-05   -0.11479E-07  6972   0.531E-04    0.248E-04
DAV:  23    -0.353615819383E+03   -0.94817E-06   -0.63469E-08  6864   0.573E-04
  16 F= -.36677052E+03 E0= -.36676992E+03  d E =-.785027E-02  mag=    55.0000
       N       E                     dE             d eps       ncg     rms          rms(c)
DAV:   1    -0.353615642662E+03    0.17577E-03   -0.85411E-02 11940   0.382E-01    0.179E-01
DAV:   2    -0.353616157205E+03   -0.51454E-03   -0.56270E-03 16236   0.162E-01    0.962E-02
DAV:   3    -0.353616236710E+03   -0.79506E-04   -0.14645E-04 16332   0.397E-02    0.599E-02
DAV:   4    -0.353616215345E+03    0.21366E-04   -0.16368E-05 16776   0.122E-02    0.449E-02
DAV:   5    -0.353616167938E+03    0.47407E-04   -0.22372E-05 14100   0.883E-03    0.245E-02
DAV:   6    -0.353616152945E+03    0.14993E-04   -0.11965E-05 16512   0.765E-03    0.736E-03
DAV:   7    -0.353616162789E+03   -0.98438E-05   -0.56245E-07  7224   0.368E-03    0.483E-03
DAV:   8    -0.353616178867E+03   -0.16078E-04   -0.64661E-07  7476   0.243E-03    0.310E-03
DAV:   9    -0.353616197484E+03   -0.18617E-04   -0.66844E-07  6972   0.198E-03    0.187E-03
DAV:  10    -0.353616205437E+03   -0.79537E-05   -0.32326E-07  6924   0.173E-03    0.114E-03
DAV:  11    -0.353616213275E+03   -0.78382E-05   -0.17019E-07  6840   0.103E-03    0.985E-04
DAV:  12    -0.353616223949E+03   -0.10673E-04   -0.12024E-07  6912   0.952E-04    0.676E-04
DAV:  13    -0.353616234184E+03   -0.10235E-04   -0.13545E-07  7116   0.664E-04    0.596E-04
DAV:  14    -0.353616241836E+03   -0.76523E-05   -0.10155E-07  6936   0.648E-04    0.444E-04
DAV:  15    -0.353616244759E+03   -0.29226E-05   -0.55236E-08  6960   0.506E-04    0.308E-04
DAV:  16    -0.353616249160E+03   -0.44018E-05   -0.54883E-08  6768   0.410E-04    0.318E-04
DAV:  17    -0.353616255180E+03   -0.60194E-05   -0.81008E-08  6996   0.470E-04    0.397E-04
DAV:  18    -0.353616257397E+03   -0.22171E-05   -0.49793E-08  6900   0.485E-04    0.249E-04
DAV:  19    -0.353616258509E+03   -0.11122E-05   -0.32780E-08  6768   0.333E-04    0.243E-04
DAV:  20    -0.353616259055E+03   -0.54549E-06   -0.13989E-08  6936   0.306E-04
  17 F= -.36677062E+03 E0= -.36676999E+03  d E =-.795398E-02  mag=    55.0000
       N       E                     dE             d eps       ncg     rms          rms(c)
DAV:   1    -0.353616934141E+03   -0.67563E-03   -0.66460E-01 11688   0.109E+00    0.490E-01
DAV:   2    -0.353621291101E+03   -0.43570E-02   -0.41772E-02 15864   0.416E-01    0.245E-01
DAV:   3    -0.353622023433E+03   -0.73233E-03   -0.10235E-03 16044   0.816E-02    0.150E-01
DAV:   4    -0.353621925171E+03    0.98262E-04   -0.11997E-04 17160   0.261E-02    0.110E-01
DAV:   5    -0.353621780962E+03    0.14421E-03   -0.18038E-04 16092   0.282E-02    0.602E-02
DAV:   6    -0.353621768701E+03    0.12261E-04   -0.58501E-05 16824   0.213E-02    0.168E-02
DAV:   7    -0.353621807196E+03   -0.38495E-04   -0.58812E-06 14652   0.881E-03    0.109E-02
DAV:   8    -0.353621863138E+03   -0.55943E-04   -0.19984E-06  9144   0.522E-03    0.613E-03
DAV:   9    -0.353621917472E+03   -0.54334E-04   -0.21681E-06  9588   0.334E-03    0.271E-03
DAV:  10    -0.353621951595E+03   -0.34123E-04   -0.10002E-06  7560   0.253E-03    0.203E-03
DAV:  11    -0.353621981613E+03   -0.30018E-04   -0.59880E-07  7368   0.214E-03    0.159E-03
DAV:  12    -0.353622015416E+03   -0.33803E-04   -0.58299E-07  8052   0.174E-03    0.125E-03
DAV:  13    -0.353622037959E+03   -0.22542E-04   -0.41484E-07  7416   0.150E-03    0.105E-03
DAV:  14    -0.353622059994E+03   -0.22036E-04   -0.44017E-07  7632   0.105E-03    0.760E-04
DAV:  15    -0.353622072548E+03   -0.12553E-04   -0.24300E-07  7224   0.106E-03    0.710E-04
DAV:  16    -0.353622085552E+03   -0.13005E-04   -0.28706E-07  7464   0.822E-04    0.500E-04
DAV:  17    -0.353622095124E+03   -0.95717E-05   -0.24032E-07  7452   0.948E-04    0.681E-04
DAV:  18    -0.353622098331E+03   -0.32073E-05   -0.15317E-07  7092   0.757E-04    0.272E-04
DAV:  19    -0.353622100575E+03   -0.22435E-05   -0.10593E-07  6948   0.594E-04    0.425E-04
DAV:  20    -0.353622102003E+03   -0.14279E-05   -0.70566E-08  7044   0.509E-04    0.176E-04
DAV:  21    -0.353622103118E+03   -0.11148E-05   -0.58454E-08  7104   0.428E-04    0.298E-04
DAV:  22    -0.353622103542E+03   -0.42426E-06   -0.34114E-08  6900   0.397E-04
  18 F= -.36677472E+03 E0= -.36677403E+03  d E =-.409762E-02  mag=    55.0000
       N       E                     dE             d eps       ncg     rms          rms(c)
DAV:   1    -0.353608213274E+03    0.13890E-01   -0.26658E+00 11664   0.219E+00    0.980E-01
DAV:   2    -0.353626392973E+03   -0.18180E-01   -0.16836E-01 16140   0.839E-01    0.503E-01
DAV:   3    -0.353628815668E+03   -0.24227E-02   -0.40717E-03 16224   0.168E-01    0.301E-01
DAV:   4    -0.353628468706E+03    0.34696E-03   -0.48001E-04 17196   0.534E-02    0.221E-01
DAV:   5    -0.353628036878E+03    0.43183E-03   -0.73872E-04 16092   0.570E-02    0.120E-01
DAV:   6    -0.353628045598E+03   -0.87196E-05   -0.24190E-04 16764   0.434E-02    0.340E-02
DAV:   7    -0.353628161043E+03   -0.11545E-03   -0.25862E-05 17040   0.182E-02    0.218E-02
DAV:   8    -0.353628314866E+03   -0.15382E-03   -0.95054E-06 16440   0.959E-03    0.105E-02
DAV:   9    -0.353628456441E+03   -0.14157E-03   -0.27391E-06 11148   0.442E-03    0.480E-03
DAV:  10    -0.353628583478E+03   -0.12704E-03   -0.32105E-06 11004   0.338E-03    0.299E-03
DAV:  11    -0.353628672890E+03   -0.89413E-04   -0.75006E-07  8304   0.224E-03    0.219E-03
DAV:  12    -0.353628748283E+03   -0.75393E-04   -0.76640E-07  8244   0.188E-03    0.187E-03
DAV:  13    -0.353628830301E+03   -0.82018E-04   -0.12409E-06  9324   0.187E-03    0.151E-03
DAV:  14    -0.353628890800E+03   -0.60499E-04   -0.88001E-07  8388   0.149E-03    0.123E-03
DAV:  15    -0.353628923364E+03   -0.32564E-04   -0.52660E-07  7776   0.141E-03    0.933E-04
DAV:  16    -0.353628950312E+03   -0.26947E-04   -0.58970E-07  8232   0.127E-03    0.893E-04
DAV:  17    -0.353628968987E+03   -0.18676E-04   -0.55565E-07  7932   0.130E-03    0.687E-04
DAV:  18    -0.353628974224E+03   -0.52371E-05   -0.30028E-07  7176   0.116E-03    0.517E-04
DAV:  19    -0.353628978805E+03   -0.45803E-05   -0.26535E-07  7212   0.813E-04    0.420E-04
DAV:  20    -0.353628981236E+03   -0.24319E-05   -0.17487E-07  7140   0.834E-04    0.388E-04
DAV:  21    -0.353628982281E+03   -0.10447E-05   -0.12111E-07  7032   0.612E-04    0.215E-04
DAV:  22    -0.353628982686E+03   -0.40498E-06   -0.61122E-08  6900   0.547E-04
  19 F= -.36677808E+03 E0= -.36677726E+03  d E =-.745923E-02  mag=    55.0000
       N       E                     dE             d eps       ncg     rms          rms(c)
DAV:   1    -0.353630543871E+03   -0.15616E-02   -0.39785E-01 11724   0.830E-01    0.414E-01
DAV:   2    -0.353632768304E+03   -0.22244E-02   -0.25098E-02 16344   0.337E-01    0.182E-01
DAV:   3    -0.353633003279E+03   -0.23498E-03   -0.53994E-04 16464   0.744E-02    0.123E-01
DAV:   4    -0.353632974225E+03    0.29054E-04   -0.68647E-05 16968   0.260E-02    0.881E-02
DAV:   5    -0.353632953794E+03    0.20431E-04   -0.13460E-04 15108   0.216E-02    0.364E-02
DAV:   6    -0.353632964718E+03   -0.10923E-04   -0.33589E-05 16644   0.158E-02    0.141E-02
DAV:   7    -0.353632971413E+03   -0.66958E-05   -0.20979E-06  9420   0.723E-03    0.866E-03
DAV:   8    -0.353632978880E+03   -0.74669E-05   -0.44349E-06 11004   0.405E-03    0.458E-03
DAV:   9    -0.353632985109E+03   -0.62289E-05   -0.43323E-07  7308   0.193E-03    0.278E-03
DAV:  10    -0.353632989944E+03   -0.48353E-05   -0.21834E-07  6960   0.160E-03    0.198E-03
DAV:  11    -0.353632996431E+03   -0.64863E-05   -0.24279E-07  7032   0.121E-03    0.110E-03
DAV:  12    -0.353633001206E+03   -0.47755E-05   -0.17207E-07  7104   0.124E-03    0.869E-04
DAV:  13    -0.353633004162E+03   -0.29557E-05   -0.10761E-07  6924   0.918E-04    0.614E-04
DAV:  14    -0.353633008784E+03   -0.46222E-05   -0.13364E-07  7200   0.664E-04    0.528E-04
DAV:  15    -0.353633011439E+03   -0.26552E-05   -0.76569E-08  6984   0.598E-04    0.386E-04
DAV:  16    -0.353633012558E+03   -0.11188E-05   -0.44849E-08  6912   0.473E-04    0.269E-04
DAV:  17    -0.353633013072E+03   -0.51413E-06   -0.20621E-08  6948   0.379E-04
  20 F= -.36678087E+03 E0= -.36678006E+03  d E =-.279173E-02  mag=    55.0000
       N       E                     dE             d eps       ncg     rms          rms(c)
DAV:   1    -0.353632801392E+03    0.21117E-03   -0.37230E-01 11664   0.802E-01    0.403E-01
DAV:   2    -0.353634878403E+03   -0.20770E-02   -0.23499E-02 16236   0.326E-01    0.176E-01
DAV:   3    -0.353635100597E+03   -0.22219E-03   -0.50663E-04 16356   0.720E-02    0.119E-01
DAV:   4    -0.353635073321E+03    0.27275E-04   -0.64512E-05 16980   0.252E-02    0.848E-02
DAV:   5    -0.353635053726E+03    0.19595E-04   -0.12603E-04 15132   0.209E-02    0.352E-02
DAV:   6    -0.353635064337E+03   -0.10611E-04   -0.31242E-05 16608   0.153E-02    0.136E-02
DAV:   7    -0.353635070942E+03   -0.66053E-05   -0.19401E-06  9336   0.699E-03    0.836E-03
DAV:   8    -0.353635078392E+03   -0.74494E-05   -0.41608E-06 10824   0.395E-03    0.450E-03
DAV:   9    -0.353635084518E+03   -0.61266E-05   -0.44238E-07  7296   0.192E-03    0.278E-03
DAV:  10    -0.353635089109E+03   -0.45906E-05   -0.21732E-07  6972   0.157E-03    0.197E-03
DAV:  11    -0.353635095537E+03   -0.64285E-05   -0.23189E-07  6960   0.119E-03    0.110E-03
DAV:  12    -0.353635100458E+03   -0.49209E-05   -0.16843E-07  7104   0.121E-03    0.865E-04
DAV:  13    -0.353635103433E+03   -0.29749E-05   -0.10734E-07  6924   0.917E-04    0.608E-04
DAV:  14    -0.353635107892E+03   -0.44585E-05   -0.13082E-07  7116   0.657E-04    0.521E-04
DAV:  15    -0.353635110608E+03   -0.27164E-05   -0.77366E-08  6972   0.599E-04    0.393E-04
DAV:  16    -0.353635111787E+03   -0.11790E-05   -0.47193E-08  6984   0.477E-04    0.266E-04
DAV:  17    -0.353635112310E+03   -0.52344E-06   -0.21814E-08  6900   0.386E-04
  21 F= -.36678177E+03 E0= -.36678097E+03  d E =-.369132E-02  mag=    55.0000
       N       E                     dE             d eps       ncg     rms          rms(c)
DAV:   1    -0.353636760588E+03   -0.16488E-02   -0.14114E-01 11664   0.480E-01    0.209E-01
DAV:   2    -0.353637522210E+03   -0.76162E-03   -0.89471E-03 16116   0.194E-01    0.110E-01
DAV:   3    -0.353637651257E+03   -0.12905E-03   -0.19813E-04 16344   0.409E-02    0.736E-02
DAV:   4    -0.353637634381E+03    0.16877E-04   -0.26655E-05 16896   0.154E-02    0.545E-02
DAV:   5    -0.353637621374E+03    0.13007E-04   -0.38185E-05 15732   0.120E-02    0.265E-02
DAV:   6    -0.353637625808E+03   -0.44349E-05   -0.11326E-05 15612   0.826E-03    0.774E-03
DAV:   7    -0.353637630211E+03   -0.44022E-05   -0.61480E-07  7548   0.379E-03    0.532E-03
DAV:   8    -0.353637635860E+03   -0.56491E-05   -0.51128E-07  7164   0.241E-03    0.380E-03
DAV:   9    -0.353637643888E+03   -0.80288E-05   -0.58282E-07  7440   0.183E-03    0.214E-03
DAV:  10    -0.353637647977E+03   -0.40884E-05   -0.31110E-07  6996   0.160E-03    0.122E-03
DAV:  11    -0.353637652267E+03   -0.42899E-05   -0.17773E-07  6816   0.125E-03    0.869E-04
DAV:  12    -0.353637656705E+03   -0.44381E-05   -0.13246E-07  6876   0.983E-04    0.643E-04
DAV:  13    -0.353637659553E+03   -0.28485E-05   -0.81224E-08  6888   0.723E-04    0.461E-04
DAV:  14    -0.353637662352E+03   -0.27982E-05   -0.65749E-08  6840   0.511E-04    0.357E-04
DAV:  15    -0.353637664038E+03   -0.16867E-05   -0.35458E-08  6840   0.449E-04    0.281E-04
DAV:  16    -0.353637665819E+03   -0.17810E-05   -0.39505E-08  6888   0.359E-04    0.252E-04
DAV:  17    -0.353637666980E+03   -0.11603E-05   -0.27640E-08  6864   0.389E-04    0.256E-04
DAV:  18    -0.353637667334E+03   -0.35460E-06   -0.12681E-08  6972   0.297E-04
  22 F= -.36678358E+03 E0= -.36678280E+03  d E =-.181120E-02  mag=    55.0000
       N       E                     dE             d eps       ncg     rms          rms(c)
DAV:   1    -0.353635632869E+03    0.20341E-02   -0.12686E+00 11664   0.144E+00    0.624E-01
DAV:   2    -0.353643074737E+03   -0.74419E-02   -0.80695E-02 16440   0.584E-01    0.331E-01
DAV:   3    -0.353643752174E+03   -0.67744E-03   -0.17900E-03 16440   0.125E-01    0.220E-01
DAV:   4    -0.353643625012E+03    0.12716E-03   -0.23846E-04 17076   0.476E-02    0.164E-01
DAV:   5    -0.353643525978E+03    0.99035E-04   -0.35107E-04 15672   0.365E-02    0.798E-02
DAV:   6    -0.353643562317E+03   -0.36340E-04   -0.10791E-04 16740   0.248E-02    0.233E-02
DAV:   7    -0.353643586180E+03   -0.23862E-04   -0.89251E-06 16572   0.114E-02    0.154E-02
DAV:   8    -0.353643615103E+03   -0.28924E-04   -0.19598E-06  8988   0.593E-03    0.102E-02
DAV:   9    -0.353643655864E+03   -0.40760E-04   -0.47996E-06 12444   0.448E-03    0.489E-03
DAV:  10    -0.353643676943E+03   -0.21079E-04   -0.69182E-07  8100   0.215E-03    0.261E-03
DAV:  11    -0.353643698618E+03   -0.21675E-04   -0.41513E-07  7428   0.192E-03    0.170E-03
DAV:  12    -0.353643717687E+03   -0.19069E-04   -0.42662E-07  7536   0.140E-03    0.136E-03
DAV:  13    -0.353643735360E+03   -0.17673E-04   -0.32988E-07  7368   0.154E-03    0.106E-03
DAV:  14    -0.353643749541E+03   -0.14181E-04   -0.36567E-07  7704   0.103E-03    0.845E-04
DAV:  15    -0.353643759291E+03   -0.97498E-05   -0.23889E-07  7104   0.104E-03    0.751E-04
DAV:  16    -0.353643769822E+03   -0.10532E-04   -0.35852E-07  7368   0.895E-04    0.579E-04
DAV:  17    -0.353643773533E+03   -0.37110E-05   -0.17796E-07  7104   0.960E-04    0.470E-04
DAV:  18    -0.353643774993E+03   -0.14592E-05   -0.10746E-07  6936   0.599E-04    0.275E-04
DAV:  19    -0.353643776329E+03   -0.13365E-05   -0.69405E-08  6852   0.533E-04    0.320E-04
DAV:  20    -0.353643777472E+03   -0.11431E-05   -0.59225E-08  6924   0.413E-04    0.190E-04
DAV:  21    -0.353643778057E+03   -0.58510E-06   -0.36960E-08  6840   0.412E-04
  23 F= -.36678745E+03 E0= -.36678674E+03  d E =-.568114E-02  mag=    55.0000
       N       E                     dE             d eps       ncg     rms          rms(c)
DAV:   1    -0.353616968199E+03    0.26809E-01   -0.50611E+00 11664   0.288E+00    0.124E+00
DAV:   2    -0.353647579497E+03   -0.30611E-01   -0.32493E-01 16560   0.117E+00    0.672E-01
DAV:   3    -0.353649662440E+03   -0.20829E-02   -0.72028E-03 16416   0.260E-01    0.442E-01
DAV:   4    -0.353649189689E+03    0.47275E-03   -0.94161E-04 17136   0.982E-02    0.331E-01
DAV:   5    -0.353648814153E+03    0.37554E-03   -0.14419E-03 15624   0.744E-02    0.162E-01
DAV:   6    -0.353648956899E+03   -0.14275E-03   -0.46828E-04 16752   0.507E-02    0.472E-02
DAV:   7    -0.353649029541E+03   -0.72642E-04   -0.39027E-05 17160   0.234E-02    0.314E-02
DAV:   8    -0.353649110738E+03   -0.81197E-04   -0.12629E-05 16476   0.119E-02    0.189E-02
DAV:   9    -0.353649214535E+03   -0.10380E-03   -0.77260E-06 14928   0.711E-03    0.879E-03
DAV:  10    -0.353649292133E+03   -0.77599E-04   -0.23257E-06  9888   0.396E-03    0.448E-03
DAV:  11    -0.353649356270E+03   -0.64137E-04   -0.16810E-06  8808   0.343E-03    0.284E-03
DAV:  12    -0.353649407463E+03   -0.51193E-04   -0.13164E-06  8580   0.242E-03    0.251E-03
DAV:  13    -0.353649458002E+03   -0.50539E-04   -0.10773E-06  8412   0.219E-03    0.172E-03
DAV:  14    -0.353649497308E+03   -0.39306E-04   -0.95923E-07  8544   0.170E-03    0.148E-03
DAV:  15    -0.353649527161E+03   -0.29854E-04   -0.84559E-07  8184   0.172E-03    0.113E-03
DAV:  16    -0.353649543579E+03   -0.16418E-04   -0.57606E-07  7428   0.139E-03    0.845E-04
DAV:  17    -0.353649552710E+03   -0.91313E-05   -0.38145E-07  7212   0.123E-03    0.737E-04
DAV:  18    -0.353649558299E+03   -0.55886E-05   -0.28183E-07  7092   0.990E-04    0.529E-04
DAV:  19    -0.353649562844E+03   -0.45454E-05   -0.27631E-07  7512   0.907E-04    0.545E-04
DAV:  20    -0.353649564031E+03   -0.11868E-05   -0.13028E-07  7104   0.797E-04    0.289E-04
DAV:  21    -0.353649564759E+03   -0.72805E-06   -0.76874E-08  6756   0.498E-04
  24 F= -.36678872E+03 E0= -.36678813E+03  d E =-.694443E-02  mag=    55.0000
       N       E                     dE             d eps       ncg     rms          rms(c)
DAV:   1    -0.353644813984E+03    0.47500E-02   -0.58116E-01 11676   0.980E-01    0.417E-01
DAV:   2    -0.353648121626E+03   -0.33076E-02   -0.36819E-02 16032   0.393E-01    0.223E-01
DAV:   3    -0.353648502228E+03   -0.38060E-03   -0.78831E-04 16368   0.809E-02    0.150E-01
DAV:   4    -0.353648438966E+03    0.63263E-04   -0.10315E-04 17064   0.288E-02    0.112E-01
DAV:   5    -0.353648393345E+03    0.45621E-04   -0.15605E-04 15648   0.240E-02    0.546E-02
DAV:   6    -0.353648403106E+03   -0.97608E-05   -0.48026E-05 16836   0.173E-02    0.155E-02
DAV:   7    -0.353648414885E+03   -0.11779E-04   -0.33882E-06 11700   0.804E-03    0.106E-02
DAV:   8    -0.353648429936E+03   -0.15052E-04   -0.16841E-06  7644   0.481E-03    0.707E-03
DAV:   9    -0.353648450821E+03   -0.20885E-04   -0.24724E-06  9396   0.345E-03    0.362E-03
DAV:  10    -0.353648461970E+03   -0.11149E-04   -0.76122E-07  7248   0.235E-03    0.213E-03
DAV:  11    -0.353648474462E+03   -0.12492E-04   -0.41050E-07  6900   0.190E-03    0.145E-03
DAV:  12    -0.353648486274E+03   -0.11812E-04   -0.34244E-07  7404   0.148E-03    0.991E-04
DAV:  13    -0.353648493816E+03   -0.75417E-05   -0.20490E-07  6936   0.123E-03    0.828E-04
DAV:  14    -0.353648501281E+03   -0.74654E-05   -0.17896E-07  7008   0.775E-04    0.609E-04
DAV:  15    -0.353648506413E+03   -0.51317E-05   -0.10244E-07  6912   0.744E-04    0.548E-04
DAV:  16    -0.353648513363E+03   -0.69502E-05   -0.17326E-07  7368   0.601E-04    0.381E-04
DAV:  17    -0.353648515528E+03   -0.21643E-05   -0.68609E-08  6936   0.674E-04    0.418E-04
DAV:  18    -0.353648516499E+03   -0.97143E-06   -0.40021E-08  6888   0.375E-04
  25 F= -.36678921E+03 E0= -.36678858E+03  d E =-.743511E-02  mag=    55.0000
       N       E                     dE             d eps       ncg     rms          rms(c)
DAV:   1    -0.353650215153E+03   -0.16996E-02   -0.14721E-01 11688   0.460E-01    0.269E-01
DAV:   2    -0.353650990792E+03   -0.77564E-03   -0.85261E-03 15492   0.174E-01    0.118E-01
DAV:   3    -0.353651138413E+03   -0.14762E-03   -0.27064E-04 16500   0.383E-02    0.745E-02
DAV:   4    -0.353651077833E+03    0.60580E-04   -0.33984E-05 17184   0.153E-02    0.514E-02
DAV:   5    -0.353650991304E+03    0.86529E-04   -0.38277E-05 16332   0.132E-02    0.262E-02
DAV:   6    -0.353650983935E+03    0.73688E-05   -0.97226E-06 14928   0.865E-03    0.901E-03
DAV:   7    -0.353651005349E+03   -0.21414E-04   -0.10325E-06  7416   0.389E-03    0.657E-03
DAV:   8    -0.353651044428E+03   -0.39079E-04   -0.11421E-06  8712   0.304E-03    0.480E-03
DAV:   9    -0.353651082898E+03   -0.38471E-04   -0.12107E-06  7944   0.249E-03    0.230E-03
DAV:  10    -0.353651103587E+03   -0.20688E-04   -0.60126E-07  7104   0.200E-03    0.166E-03
DAV:  11    -0.353651124258E+03   -0.20671E-04   -0.37227E-07  7224   0.156E-03    0.117E-03
DAV:  12    -0.353651150789E+03   -0.26532E-04   -0.41662E-07  7860   0.136E-03    0.100E-03
DAV:  13    -0.353651169028E+03   -0.18238E-04   -0.33444E-07  7188   0.118E-03    0.788E-04
DAV:  14    -0.353651180055E+03   -0.11027E-04   -0.23463E-07  7020   0.934E-04    0.625E-04
DAV:  15    -0.353651187786E+03   -0.77308E-05   -0.15392E-07  7068   0.773E-04    0.488E-04
DAV:  16    -0.353651199059E+03   -0.11273E-04   -0.20646E-07  7332   0.680E-04    0.531E-04
DAV:  17    -0.353651207580E+03   -0.85211E-05   -0.19246E-07  7308   0.782E-04    0.526E-04
DAV:  18    -0.353651209933E+03   -0.23524E-05   -0.11353E-07  7068   0.684E-04    0.320E-04
DAV:  19    -0.353651211379E+03   -0.14468E-05   -0.74841E-08  6876   0.493E-04    0.290E-04
DAV:  20    -0.353651212485E+03   -0.11053E-05   -0.51570E-08  6948   0.443E-04    0.177E-04
DAV:  21    -0.353651213131E+03   -0.64683E-06   -0.38508E-08  6852   0.372E-04
  26 F= -.36679157E+03 E0= -.36679095E+03  d E =-.236094E-02  mag=    55.0000
       N       E                     dE             d eps       ncg     rms          rms(c)
DAV:   1    -0.353649084764E+03    0.21277E-02   -0.76656E-01 11688   0.105E+00    0.607E-01
DAV:   2    -0.353653469944E+03   -0.43852E-02   -0.44399E-02 15636   0.398E-01    0.268E-01
DAV:   3    -0.353654005467E+03   -0.53552E-03   -0.14116E-03 16560   0.874E-02    0.169E-01
DAV:   4    -0.353653775853E+03    0.22961E-03   -0.17758E-04 17160   0.350E-02    0.117E-01
DAV:   5    -0.353653504361E+03    0.27149E-03   -0.19917E-04 16404   0.303E-02    0.592E-02
DAV:   6    -0.353653503044E+03    0.13168E-05   -0.53435E-05 16788   0.199E-02    0.208E-02
DAV:   7    -0.353653578845E+03   -0.75801E-04   -0.66506E-06 15240   0.846E-03    0.143E-02
DAV:   8    -0.353653713610E+03   -0.13477E-03   -0.30586E-06 10764   0.556E-03    0.877E-03
DAV:   9    -0.353653834369E+03   -0.12076E-03   -0.38915E-06 12420   0.411E-03    0.389E-03
DAV:  10    -0.353653918857E+03   -0.84488E-04   -0.79271E-07  8184   0.190E-03    0.193E-03
DAV:  11    -0.353654003833E+03   -0.84975E-04   -0.80414E-07  8532   0.181E-03    0.176E-03
DAV:  12    -0.353654065887E+03   -0.62054E-04   -0.64269E-07  7764   0.170E-03    0.138E-03
DAV:  13    -0.353654135887E+03   -0.70000E-04   -0.10508E-06  8844   0.167E-03    0.139E-03
DAV:  14    -0.353654179789E+03   -0.43902E-04   -0.60993E-07  7716   0.142E-03    0.104E-03
DAV:  15    -0.353654223696E+03   -0.43906E-04   -0.97457E-07  8700   0.142E-03    0.108E-03
DAV:  16    -0.353654243131E+03   -0.19436E-04   -0.48253E-07  7584   0.130E-03    0.642E-04
DAV:  17    -0.353654251665E+03   -0.85336E-05   -0.33633E-07  7176   0.106E-03    0.686E-04
DAV:  18    -0.353654254524E+03   -0.28594E-05   -0.18156E-07  7044   0.907E-04    0.317E-04
DAV:  19    -0.353654257435E+03   -0.29101E-05   -0.15328E-07  7056   0.640E-04    0.431E-04
DAV:  20    -0.353654259137E+03   -0.17024E-05   -0.10505E-07  7164   0.669E-04    0.257E-04
DAV:  21    -0.353654259718E+03   -0.58136E-06   -0.68287E-08  6900   0.482E-04
  27 F= -.36679384E+03 E0= -.36679324E+03  d E =-.463362E-02  mag=    55.0000
       N       E                     dE             d eps       ncg     rms          rms(c)
DAV:   1    -0.353655538957E+03   -0.12798E-02   -0.52125E-02 11868   0.296E-01    0.164E-01
DAV:   2    -0.353655776879E+03   -0.23792E-03   -0.28088E-03 15660   0.114E-01    0.718E-02
DAV:   3    -0.353655863567E+03   -0.86688E-04   -0.82917E-05 16476   0.254E-02    0.437E-02
DAV:   4    -0.353655845874E+03    0.17693E-04   -0.10787E-05 16596   0.985E-03    0.305E-02
DAV:   5    -0.353655809160E+03    0.36714E-04   -0.15139E-05 16236   0.853E-03    0.143E-02
DAV:   6    -0.353655803069E+03    0.60910E-05   -0.24070E-06  9588   0.593E-03    0.493E-03
DAV:   7    -0.353655814599E+03   -0.11530E-04   -0.77140E-07  6708   0.320E-03    0.358E-03
DAV:   8    -0.353655828491E+03   -0.13892E-04   -0.52925E-07  7092   0.200E-03    0.278E-03
DAV:   9    -0.353655840580E+03   -0.12089E-04   -0.33838E-07  6948   0.161E-03    0.168E-03
DAV:  10    -0.353655850402E+03   -0.98219E-05   -0.22351E-07  6924   0.123E-03    0.135E-03
DAV:  11    -0.353655862050E+03   -0.11648E-04   -0.18811E-07  7308   0.112E-03    0.788E-04
DAV:  12    -0.353655869381E+03   -0.73307E-05   -0.15067E-07  6984   0.870E-04    0.650E-04
DAV:  13    -0.353655875181E+03   -0.57997E-05   -0.11277E-07  6768   0.706E-04    0.425E-04
DAV:  14    -0.353655879781E+03   -0.45999E-05   -0.85745E-08  6900   0.559E-04    0.380E-04
DAV:  15    -0.353655884657E+03   -0.48763E-05   -0.83439E-08  6996   0.530E-04    0.334E-04
