Cr8Cl24Co1
   1.0000000000000000
    12.0969953537000006    0.0000000000000000    0.0000000000000000
    -6.0484976768000003   10.4763052858000005    0.0000000000000000
     0.0000000000000000    0.0000000000000000   17.6700248717999990
   Cr   Cl   Co   H
     8    24     1     1
Direct
  0.1613715057370500  0.8280260873581448  0.3396669511726817
  0.1616969967459196  0.3281981389286274  0.3396218337608528
  0.6644810241532603  0.8372098195651928  0.3411353760439919
  0.6642051608123634  0.3309307650590615  0.3436978829249883
  0.8311444067184727  0.6647764345203203  0.3438115269668260
  0.8312958440368861  0.1676641076852783  0.3396307161762956
  0.3312995782522895  0.6676715678902464  0.3396507111575523
  0.3251260743780661  0.1585776045700395  0.3410228202581723
  0.1715450148762664  0.9913536618243146  0.2633571342279230
  0.1800139910497829  0.4978575043596071  0.2652689148012385
  0.6779939444134618  0.0043514247184618  0.2633549678229538
  0.6672484761827545  0.4979090928039037  0.2716934521333974
  0.3146351861181627  0.8183823444567035  0.2626563085649881
  0.3189086341738747  0.3174406398774556  0.2659808442417428
  0.8178909958247363  0.8186297462186477  0.2690914908103108
  0.8194898117788607  0.3224969154859249  0.2655354483674833
  0.9947645227719901  0.6733126926780653  0.2655643141497320
  0.9942857110276161  0.1770335291964341  0.2628585648336494
  0.4993154877014404  0.6782238064209406  0.2661605344581124
  0.4969637632680394  0.1765797669371208  0.2690859093859003
  0.9983116667060051  0.8173605131071846  0.4183838446992244
  0.9989991492655813  0.3208825023377127  0.4156528279483881
  0.4960793619898510  0.8238327904727539  0.4154808694090126
  0.4925756338145988  0.3141694990268297  0.4268099408044622
  0.3143526202474523  0.9934981549436154  0.4166132556053435
  0.3223847540811849  0.4978627620025969  0.4201818849658646
  0.8188020468170566  0.0023849061997420  0.4166859531059208
  0.8171996206342023  0.4978015896653619  0.4199750418663682
  0.1758691025293541  0.6748986668731167  0.4157976828484687
  0.1703586334339520  0.1721359445831562  0.4154948259491747
  0.6770295608171280  0.6823179541018169  0.4271262443504830
  0.6790736529138772  0.1786438948552670  0.4184344195151576
  0.5039911455191718  0.4985649249434664  0.4260713727272608
  0.5014023302092639  0.4987922633328843  0.5073421339461062

  0.00000000E+00  0.00000000E+00  0.00000000E+00
  0.00000000E+00  0.00000000E+00  0.00000000E+00
  0.00000000E+00  0.00000000E+00  0.00000000E+00
  0.00000000E+00  0.00000000E+00  0.00000000E+00
  0.00000000E+00  0.00000000E+00  0.00000000E+00
  0.00000000E+00  0.00000000E+00  0.00000000E+00
  0.00000000E+00  0.00000000E+00  0.00000000E+00
  0.00000000E+00  0.00000000E+00  0.00000000E+00
  0.00000000E+00  0.00000000E+00  0.00000000E+00
  0.00000000E+00  0.00000000E+00  0.00000000E+00
  0.00000000E+00  0.00000000E+00  0.00000000E+00
  0.00000000E+00  0.00000000E+00  0.00000000E+00
  0.00000000E+00  0.00000000E+00  0.00000000E+00
  0.00000000E+00  0.00000000E+00  0.00000000E+00
  0.00000000E+00  0.00000000E+00  0.00000000E+00
  0.00000000E+00  0.00000000E+00  0.00000000E+00
  0.00000000E+00  0.00000000E+00  0.00000000E+00
  0.00000000E+00  0.00000000E+00  0.00000000E+00
  0.00000000E+00  0.00000000E+00  0.00000000E+00
  0.00000000E+00  0.00000000E+00  0.00000000E+00
  0.00000000E+00  0.00000000E+00  0.00000000E+00
  0.00000000E+00  0.00000000E+00  0.00000000E+00
  0.00000000E+00  0.00000000E+00  0.00000000E+00
  0.00000000E+00  0.00000000E+00  0.00000000E+00
  0.00000000E+00  0.00000000E+00  0.00000000E+00
  0.00000000E+00  0.00000000E+00  0.00000000E+00
  0.00000000E+00  0.00000000E+00  0.00000000E+00
  0.00000000E+00  0.00000000E+00  0.00000000E+00
  0.00000000E+00  0.00000000E+00  0.00000000E+00
  0.00000000E+00  0.00000000E+00  0.00000000E+00
  0.00000000E+00  0.00000000E+00  0.00000000E+00
  0.00000000E+00  0.00000000E+00  0.00000000E+00
  0.00000000E+00  0.00000000E+00  0.00000000E+00
  0.00000000E+00  0.00000000E+00  0.00000000E+00