CrCl3 3x3 + H S1 top-Cl (D3, U=0) (a=18.
   1.00000000000000     
    18.1388234955739875    0.0000000000000000    0.0000000000000000
    -9.0694117477869938   15.7086819419291253    0.0000000000000000
     0.0000000000000000    0.0000000000000000   20.0000000000000000
   Cr   Cl   H 
    18    54     1
Direct
     0.1087441039241921    0.2221767954828393    0.5006980320836598
     0.2103693471488286    0.1032187453943061    0.4952703085124368
     0.1110401191501872    0.5555614093773712    0.5000051468639184
     0.2219981692630027    0.4449143282399611    0.4998904584243561
     0.1078609955414590    0.8847743363776848    0.4981626230360916
     0.2223256185859431    0.7773569924761338    0.5000981100027775
     0.4562973195178359    0.2261827315788062    0.4952703085124368
     0.5588056711252124    0.1102466741695685    0.4981626230360916
     0.4446684974036616    0.5562494923102941    0.4998904584243561
     0.5579225627424792    0.4467660248919829    0.5006980320836598
     0.4443410480807213    0.8883647072235195    0.5000981100027775
     0.5556265475164843    0.7778546235605194    0.5000051468639184
     0.7789736260700452    0.2221072072106373    0.4998853898229481
     0.8884268032012589    0.1109622473446903    0.5000690648023599
     0.7782398634654054    0.5558687774767602    0.5000690648023599
     0.8889517509243461    0.4444314993362768    0.5000108929001884
     0.7777149157423182    0.8888130817452591    0.5000108929001884
     0.8876930405966191    0.7764669144739277    0.4998853898229481
     0.1190045791598991    0.3340285963510100    0.4337691467182583
     0.3333333333333357    0.1243315435889961    0.4389363656395652
     0.2113892174023227    0.2141035147063393    0.4340053101576458
     0.2123244428351668    0.3337923389376124    0.5668405360810695
     0.9981829408979387    0.2151583214278937    0.5663323084103473
     0.1117746289893447    0.1165600668138199    0.5663082012264802
     0.1192892556504794    0.6665162483869176    0.4337888262603490
     0.3333333333333357    0.4525219305486718    0.4340198057214631
     0.2141946354675671    0.5478337051226686    0.4335874116590318
     0.2142856682558886    0.6663377186324391    0.5663322721744085
     0.0001162555481181    0.5476145812623106    0.5662450284207665
     0.1191371404417704    0.4528581085918077    0.5662066510876648
     0.1109843314805824    0.9894876841216695    0.4273453458469993
     0.3333333333333357    0.7857541458984799    0.4338959551677418
     0.2134918176830421    0.8793677353282187    0.4335025777140936
     0.2093780103284218    0.9981339834782095    0.5642806406758850
     0.9987375220378558    0.8788831864767653    0.5654018309027069
     0.1191513714786667    0.7850877924768002    0.5665276279610791
     0.4552774492643487    0.3360476306373522    0.4340053101576458
     0.6701102272588459    0.1159839675140941    0.4342067801482428
     0.5556823351860820    0.2118366859744228    0.4273453458469993
     0.5548920376773196    0.3381187711578110    0.5663082012264802
     0.3333333333333357    0.2373727446413322    0.5804388982758779
     0.4572886563382496    0.1220893064831235    0.5642806406758850
     0.4524720311991043    0.6669724029884373    0.4335874116590318
     0.6675732019638718    0.4537833574413251    0.4336331917431844
     0.5476620875067651    0.5483573505244392    0.4337691467182583
     0.5475295262248939    0.6670543014833658    0.5662066510876648
     0.3333333333333357    0.5478854711065955    0.5661402756360598
     0.4543422238315047    0.4548012294357814    0.5668405360810695
     0.4531748489836293    0.9992092509785123    0.4335025777140936
     0.6665263613064686    0.7858273384979330    0.4337581503985500
     0.5473774110161849    0.8805603260697742    0.4337888262603490
     0.5475152951879975    0.9992697543314690    0.5665276279610791
     0.3333333333333357    0.8807993840427197    0.5662526126749567
     0.4523809984107828    0.7853853837098862    0.5663322721744085
     0.7863000943899501    0.3330683806897253    0.4338048404841022
     0.9990934647027924    0.1195434888107818    0.4336331917431844
     0.8815555978729606    0.2143626168922734    0.4335812932142298
     0.8812255091960187    0.3337378696051177    0.5664467198332365
     0.6679291446288085    0.2134789977722449    0.5654018309027069
     0.7862384661615693    0.1192022255351284    0.5667365028387611
     0.7851110687937037    0.6661403523526415    0.4335812932142298
     0.0001403053601957    0.4526343105248000    0.4337581503985500
     0.8808305533473176    0.5472575243228672    0.4336568442202643
     0.8804282005050950    0.6662970927068879    0.5667365028387611
     0.6684837257687255    0.5503087138632837    0.5663323084103473
     0.7861742133854216    0.4527486764233019    0.5661693927617183
     0.7858361133193467    0.9997603043088854    0.4336568442202643
     0.9965564394078184    0.7792070735885767    0.4342067801482428
     0.8803665722767142    0.8801016196331037    0.4338048404841022
     0.8804924532812427    0.9999077963712091    0.5661693927617183
     0.6665504111185462    0.8808316590475281    0.5662450284207665
     0.7854411574706456    0.7858456937424275    0.5664467198332365
     0.3333333333333357    0.2070897570151384    0.6389873653686375
 
  0.00000000E+00  0.00000000E+00  0.00000000E+00
  0.00000000E+00  0.00000000E+00  0.00000000E+00
  0.00000000E+00  0.00000000E+00  0.00000000E+00
  0.00000000E+00  0.00000000E+00  0.00000000E+00
  0.00000000E+00  0.00000000E+00  0.00000000E+00
  0.00000000E+00  0.00000000E+00  0.00000000E+00
  0.00000000E+00  0.00000000E+00  0.00000000E+00
  0.00000000E+00  0.00000000E+00  0.00000000E+00
  0.00000000E+00  0.00000000E+00  0.00000000E+00
  0.00000000E+00  0.00000000E+00  0.00000000E+00
  0.00000000E+00  0.00000000E+00  0.00000000E+00
  0.00000000E+00  0.00000000E+00  0.00000000E+00
  0.00000000E+00  0.00000000E+00  0.00000000E+00
  0.00000000E+00  0.00000000E+00  0.00000000E+00
  0.00000000E+00  0.00000000E+00  0.00000000E+00
  0.00000000E+00  0.00000000E+00  0.00000000E+00
  0.00000000E+00  0.00000000E+00  0.00000000E+00
  0.00000000E+00  0.00000000E+00  0.00000000E+00
  0.00000000E+00  0.00000000E+00  0.00000000E+00
  0.00000000E+00  0.00000000E+00  0.00000000E+00
  0.00000000E+00  0.00000000E+00  0.00000000E+00
  0.00000000E+00  0.00000000E+00  0.00000000E+00
  0.00000000E+00  0.00000000E+00  0.00000000E+00
  0.00000000E+00  0.00000000E+00  0.00000000E+00
  0.00000000E+00  0.00000000E+00  0.00000000E+00
  0.00000000E+00  0.00000000E+00  0.00000000E+00
  0.00000000E+00  0.00000000E+00  0.00000000E+00
  0.00000000E+00  0.00000000E+00  0.00000000E+00
  0.00000000E+00  0.00000000E+00  0.00000000E+00
  0.00000000E+00  0.00000000E+00  0.00000000E+00
  0.00000000E+00  0.00000000E+00  0.00000000E+00
  0.00000000E+00  0.00000000E+00  0.00000000E+00
  0.00000000E+00  0.00000000E+00  0.00000000E+00
  0.00000000E+00  0.00000000E+00  0.00000000E+00
  0.00000000E+00  0.00000000E+00  0.00000000E+00
  0.00000000E+00  0.00000000E+00  0.00000000E+00
  0.00000000E+00  0.00000000E+00  0.00000000E+00
  0.00000000E+00  0.00000000E+00  0.00000000E+00
  0.00000000E+00  0.00000000E+00  0.00000000E+00
  0.00000000E+00  0.00000000E+00  0.00000000E+00
  0.00000000E+00  0.00000000E+00  0.00000000E+00
  0.00000000E+00  0.00000000E+00  0.00000000E+00
  0.00000000E+00  0.00000000E+00  0.00000000E+00
  0.00000000E+00  0.00000000E+00  0.00000000E+00
  0.00000000E+00  0.00000000E+00  0.00000000E+00
  0.00000000E+00  0.00000000E+00  0.00000000E+00
  0.00000000E+00  0.00000000E+00  0.00000000E+00
  0.00000000E+00  0.00000000E+00  0.00000000E+00
  0.00000000E+00  0.00000000E+00  0.00000000E+00
  0.00000000E+00  0.00000000E+00  0.00000000E+00
  0.00000000E+00  0.00000000E+00  0.00000000E+00
  0.00000000E+00  0.00000000E+00  0.00000000E+00
  0.00000000E+00  0.00000000E+00  0.00000000E+00
  0.00000000E+00  0.00000000E+00  0.00000000E+00
  0.00000000E+00  0.00000000E+00  0.00000000E+00
  0.00000000E+00  0.00000000E+00  0.00000000E+00
  0.00000000E+00  0.00000000E+00  0.00000000E+00
  0.00000000E+00  0.00000000E+00  0.00000000E+00
  0.00000000E+00  0.00000000E+00  0.00000000E+00
  0.00000000E+00  0.00000000E+00  0.00000000E+00
  0.00000000E+00  0.00000000E+00  0.00000000E+00
  0.00000000E+00  0.00000000E+00  0.00000000E+00
  0.00000000E+00  0.00000000E+00  0.00000000E+00
  0.00000000E+00  0.00000000E+00  0.00000000E+00
  0.00000000E+00  0.00000000E+00  0.00000000E+00
  0.00000000E+00  0.00000000E+00  0.00000000E+00
  0.00000000E+00  0.00000000E+00  0.00000000E+00
  0.00000000E+00  0.00000000E+00  0.00000000E+00
  0.00000000E+00  0.00000000E+00  0.00000000E+00
  0.00000000E+00  0.00000000E+00  0.00000000E+00
  0.00000000E+00  0.00000000E+00  0.00000000E+00
  0.00000000E+00  0.00000000E+00  0.00000000E+00
  0.00000000E+00  0.00000000E+00  0.00000000E+00
