CrCl3 2x2 S1 (D3, U=3.29eV) from POSCAR 
   1.00000000000000     
    12.0925489970493256    0.0000000000000000    0.0000000000000000
    -6.0462744985246628   10.4724546279527502    0.0000000000000000
     0.0000000000000000    0.0000000000000000   20.0000000000000000
   Cr   Cl   Co
     8    24     1
Direct
     0.1665227339295022    0.3330332410903941    0.4999466146878568
     0.3276040929358435    0.1627159025263201    0.4978884432972321
     0.6723959070641566    0.3351118095904624    0.4978884432972321
     0.8332673759534556    0.1669664932254289    0.4999367392236434
     0.1667326240465445    0.8336991172719591    0.4999367392236434
     0.3331545262446721    0.6668605479629049    0.4999160862313195
     0.6668454737553280    0.8337060217182186    0.4999160862313195
     0.8334772660704978    0.6665105071609061    0.4999466146878568
     0.1778532767174104    0.5001357193252648    0.4320896654920585
     0.5000000000000000    0.1786854811900918    0.4324457276254371
     0.3223026159922303    0.3237477131578182    0.4318282555492542
     0.3224358595826254    0.4999710154366633    0.5682097664774788
     0.0000224466524685    0.3223811258875381    0.5680034052033913
     0.1758012666373762    0.1781891106808095    0.5690968823219212
     0.6776973840077697    0.5014450971655878    0.4318282555492542
     0.0003055347544109    0.1777280607197582    0.4320454607726370
     0.8268050225120986    0.3210806700696997    0.4301197514726420
     0.8241987333626238    0.5023878440434333    0.5690968823219212
     0.5000000000000000    0.3259721763422899    0.5727386333518888
     0.6778265664108581    0.1766728442149418    0.5687154082108592
     0.1731949774879012    0.9942756475576009    0.4301197514726420
     0.5000000000000000    0.6778047184479352    0.4320524458622320
     0.3222809870859475    0.8221514585213709    0.4320107104275646
     0.3221734335891419    0.9988462778040836    0.5687154082108592
     0.9999775533475315    0.8223586792350696    0.5680034052033913
     0.1778294506428877    0.6776226239416151    0.5679550382271294
     0.6777190129140526    0.9998704714354235    0.4320107104275646
     0.9996944652455890    0.6774225259653472    0.4320454607726370
     0.8221467232825895    0.8222824426078543    0.4320896654920585
     0.8221705493571122    0.9997931732987273    0.5679550382271294
     0.5000000000000000    0.8222582713849835    0.5680106863556795
     0.6775641404173746    0.6775351558540378    0.5682097664774788
     0.5000000000000000    0.3211279567336530    0.6785142448747128
 
  0.00000000E+00  0.00000000E+00  0.00000000E+00
  0.00000000E+00  0.00000000E+00  0.00000000E+00
  0.00000000E+00  0.00000000E+00  0.00000000E+00
  0.00000000E+00  0.00000000E+00  0.00000000E+00
  0.00000000E+00  0.00000000E+00  0.00000000E+00
  0.00000000E+00  0.00000000E+00  0.00000000E+00
  0.00000000E+00  0.00000000E+00  0.00000000E+00
  0.00000000E+00  0.00000000E+00  0.00000000E+00
  0.00000000E+00  0.00000000E+00  0.00000000E+00
  0.00000000E+00  0.00000000E+00  0.00000000E+00
  0.00000000E+00  0.00000000E+00  0.00000000E+00
  0.00000000E+00  0.00000000E+00  0.00000000E+00
  0.00000000E+00  0.00000000E+00  0.00000000E+00
  0.00000000E+00  0.00000000E+00  0.00000000E+00
  0.00000000E+00  0.00000000E+00  0.00000000E+00
  0.00000000E+00  0.00000000E+00  0.00000000E+00
  0.00000000E+00  0.00000000E+00  0.00000000E+00
  0.00000000E+00  0.00000000E+00  0.00000000E+00
  0.00000000E+00  0.00000000E+00  0.00000000E+00
  0.00000000E+00  0.00000000E+00  0.00000000E+00
  0.00000000E+00  0.00000000E+00  0.00000000E+00
  0.00000000E+00  0.00000000E+00  0.00000000E+00
  0.00000000E+00  0.00000000E+00  0.00000000E+00
  0.00000000E+00  0.00000000E+00  0.00000000E+00
  0.00000000E+00  0.00000000E+00  0.00000000E+00
  0.00000000E+00  0.00000000E+00  0.00000000E+00
  0.00000000E+00  0.00000000E+00  0.00000000E+00
  0.00000000E+00  0.00000000E+00  0.00000000E+00
  0.00000000E+00  0.00000000E+00  0.00000000E+00
  0.00000000E+00  0.00000000E+00  0.00000000E+00
  0.00000000E+00  0.00000000E+00  0.00000000E+00
  0.00000000E+00  0.00000000E+00  0.00000000E+00
  0.00000000E+00  0.00000000E+00  0.00000000E+00
