       N       E                     dE             d eps       ncg     rms          rms(c)
DAV:   1     0.214747570455E+04    0.21475E+04   -0.64408E+04  5460   0.921E+02
DAV:   2     0.428064069647E+03   -0.17194E+04   -0.16195E+04  6588   0.247E+02
DAV:   3    -0.110387897624E+03   -0.53845E+03   -0.52716E+03  8172   0.140E+02
DAV:   4    -0.152642336077E+03   -0.42254E+02   -0.41555E+02  8256   0.539E+01
DAV:   5    -0.153604022282E+03   -0.96169E+00   -0.93855E+00  8208   0.100E+01    0.464E+01
DAV:   6    -0.166895883131E+03   -0.13292E+02   -0.23590E+02  9078   0.673E+01    0.691E+01
DAV:   7    -0.147564603895E+03    0.19331E+02   -0.45841E+01  7470   0.261E+01    0.339E+01
DAV:   8    -0.163549956924E+03   -0.15985E+02   -0.33148E+01  6624   0.625E+01    0.680E+01
DAV:   9    -0.139808439122E+03    0.23742E+02   -0.30300E+00  8256   0.110E+01    0.219E+01
DAV:  10    -0.142537639712E+03   -0.27292E+01   -0.41904E+00  7662   0.143E+01    0.122E+01
DAV:  11    -0.143353433817E+03   -0.81579E+00   -0.28521E+00  7968   0.762E+00    0.687E+00
DAV:  12    -0.143794827116E+03   -0.44139E+00   -0.21581E+00  7152   0.678E+00    0.462E+00
DAV:  13    -0.144014094517E+03   -0.21927E+00   -0.35535E-01  7620   0.334E+00    0.324E+00
DAV:  14    -0.144083831538E+03   -0.69737E-01   -0.15759E-01  7788   0.199E+00    0.253E+00
DAV:  15    -0.144169471522E+03   -0.85640E-01   -0.19506E-01  6894   0.131E+00    0.209E+00
DAV:  16    -0.144177582658E+03   -0.81111E-02   -0.19407E-02  8136   0.587E-01    0.191E+00
DAV:  17    -0.144180478366E+03   -0.28957E-02   -0.31380E-02  7962   0.517E-01    0.161E+00
DAV:  18    -0.144181384912E+03   -0.90655E-03   -0.17915E-02  8064   0.696E-01    0.138E+00
DAV:  19    -0.144177000152E+03    0.43848E-02   -0.92759E-03  8880   0.395E-01    0.121E+00
DAV:  20    -0.144168129602E+03    0.88706E-02   -0.17566E-02  8346   0.572E-01    0.965E-01
DAV:  21    -0.144143337482E+03    0.24792E-01   -0.69183E-02  8064   0.128E+00    0.505E-01
DAV:  22    -0.144136765102E+03    0.65724E-02   -0.34577E-02  8670   0.819E-01    0.217E-01
DAV:  23    -0.144145309598E+03   -0.85445E-02   -0.64970E-03  7338   0.243E-01    0.186E-01
DAV:  24    -0.144146532844E+03   -0.12232E-02   -0.48822E-03  8352   0.286E-01    0.937E-02
DAV:  25    -0.144150953478E+03   -0.44206E-02   -0.34472E-03  7782   0.189E-01    0.969E-02
DAV:  26    -0.144154272259E+03   -0.33188E-02   -0.61720E-04  7356   0.135E-01    0.700E-02
DAV:  27    -0.144155497017E+03   -0.12248E-02   -0.56508E-04  7554   0.508E-02    0.671E-02
DAV:  28    -0.144156669383E+03   -0.11724E-02   -0.24502E-03  7656   0.925E-02    0.789E-02
DAV:  29    -0.144157694368E+03   -0.10250E-02   -0.34094E-03  7350   0.703E-02    0.764E-02
DAV:  30    -0.144158208977E+03   -0.51461E-03   -0.25075E-03  7602   0.534E-02    0.723E-02
DAV:  31    -0.144158359964E+03   -0.15099E-03   -0.23282E-03  7386   0.685E-02    0.557E-02
DAV:  32    -0.144158130241E+03    0.22972E-03   -0.20293E-03  7572   0.467E-02    0.510E-02
DAV:  33    -0.144157880537E+03    0.24970E-03   -0.20836E-03  7500   0.477E-02    0.438E-02
DAV:  34    -0.144156676469E+03    0.12041E-02   -0.62611E-03  7176   0.836E-02    0.423E-02
DAV:  35    -0.144157658942E+03   -0.98247E-03   -0.22763E-03  6630   0.559E-02    0.312E-02
DAV:  36    -0.144156028192E+03    0.16307E-02   -0.10779E-02  6930   0.116E-01    0.458E-02
DAV:  37    -0.144158755355E+03   -0.27272E-02   -0.66477E-04  6486   0.549E-02    0.232E-02
DAV:  38    -0.144158785861E+03   -0.30505E-04   -0.16222E-03  7134   0.410E-02    0.247E-02
DAV:  39    -0.144158837838E+03   -0.51977E-04   -0.25291E-03  7194   0.501E-02    0.283E-02
DAV:  40    -0.144159271773E+03   -0.43394E-03   -0.92874E-04  6912   0.345E-02    0.226E-02
DAV:  41    -0.144159739050E+03   -0.46728E-03   -0.71199E-05  5802   0.223E-02    0.125E-02
DAV:  42    -0.144159242158E+03    0.49689E-03   -0.15515E-03  6582   0.469E-02    0.215E-02
DAV:  43    -0.144159752872E+03   -0.51071E-03   -0.15708E-04  5544   0.265E-02    0.945E-03
DAV:  44    -0.144159757987E+03   -0.51153E-05   -0.70609E-05  4974   0.138E-02    0.505E-03
DAV:  45    -0.144159819439E+03   -0.61453E-04   -0.48119E-06  4272   0.595E-03    0.290E-03
DAV:  46    -0.144159819302E+03    0.13748E-06   -0.25409E-05  4626   0.907E-03    0.224E-03
DAV:  47    -0.144159839090E+03   -0.19788E-04   -0.39308E-06  3882   0.453E-03    0.138E-03
DAV:  48    -0.144159839471E+03   -0.38146E-06   -0.25690E-06  3738   0.254E-03
   1 F= -.15021158E+03 E0= -.15021158E+03  d E =-.150212E+03  mag=    27.0003
       N       E                     dE             d eps       ncg     rms          rms(c)
DAV:   1    -0.144140101460E+03    0.19738E-01   -0.28723E+01  5484   0.107E+01    0.375E+00
DAV:   2    -0.144364385837E+03   -0.22428E+00   -0.24132E+00  7434   0.550E+00    0.238E+00
DAV:   3    -0.144373805168E+03   -0.94193E-02   -0.89355E-02  6744   0.151E+00    0.122E+00
DAV:   4    -0.144371152347E+03    0.26528E-02   -0.14189E-02  7668   0.416E-01    0.957E-01
DAV:   5    -0.144373926617E+03   -0.27743E-02   -0.15441E-02  7608   0.588E-01    0.585E-01
DAV:   6    -0.144378223056E+03   -0.42964E-02   -0.71893E-03  7566   0.348E-01    0.246E-01
DAV:   7    -0.144383768762E+03   -0.55457E-02   -0.14932E-03  7650   0.148E-01    0.113E-01
DAV:   8    -0.144388335018E+03   -0.45663E-02   -0.63123E-04  7560   0.719E-02    0.107E-01
DAV:   9    -0.144393165074E+03   -0.48301E-02   -0.52108E-04  7524   0.647E-02    0.781E-02
DAV:  10    -0.144396263467E+03   -0.30984E-02   -0.35570E-04  7494   0.349E-02    0.541E-02
DAV:  11    -0.144398948455E+03   -0.26850E-02   -0.46501E-04  7620   0.363E-02    0.463E-02
DAV:  12    -0.144401187931E+03   -0.22395E-02   -0.71339E-04  7680   0.436E-02    0.423E-02
DAV:  13    -0.144402839495E+03   -0.16516E-02   -0.11357E-03  7398   0.419E-02    0.386E-02
DAV:  14    -0.144402339202E+03    0.50029E-03   -0.53161E-03  7098   0.973E-02    0.400E-02
DAV:  15    -0.144401601488E+03    0.73771E-03   -0.18834E-03  7560   0.558E-02    0.323E-02
DAV:  16    -0.144401997052E+03   -0.39556E-03   -0.53235E-04  6924   0.319E-02    0.244E-02
DAV:  17    -0.144400532307E+03    0.14647E-02   -0.26205E-03  6810   0.643E-02    0.258E-02
DAV:  18    -0.144400695036E+03   -0.16273E-03   -0.82219E-04  6900   0.347E-02    0.198E-02
DAV:  19    -0.144401849124E+03   -0.11541E-02   -0.44022E-04  6630   0.255E-02    0.161E-02
DAV:  20    -0.144402309776E+03   -0.46065E-03   -0.21188E-03  6954   0.568E-02    0.185E-02
DAV:  21    -0.144403407548E+03   -0.10978E-02   -0.55995E-04  7014   0.302E-02    0.121E-02
DAV:  22    -0.144403936203E+03   -0.52865E-03   -0.65328E-05  5802   0.151E-02    0.581E-03
DAV:  23    -0.144404178146E+03   -0.24194E-03   -0.73817E-06  4914   0.673E-03    0.355E-03
DAV:  24    -0.144404327075E+03   -0.14893E-03   -0.62402E-06  5010   0.424E-03    0.199E-03
DAV:  25    -0.144404385417E+03   -0.58341E-04   -0.31685E-06  4200   0.335E-03    0.169E-03
DAV:  26    -0.144404403728E+03   -0.18311E-04   -0.12801E-06  4074   0.256E-03    0.134E-03
DAV:  27    -0.144404415460E+03   -0.11731E-04   -0.11127E-06  3930   0.206E-03    0.147E-03
DAV:  28    -0.144404419127E+03   -0.36676E-05   -0.25841E-06  3936   0.334E-03    0.800E-04
DAV:  29    -0.144404419116E+03    0.11061E-07   -0.16469E-06  3792   0.208E-03
   2 F= -.15043554E+03 E0= -.15043554E+03  d E =-.223956E+00  mag=    27.0000
       N       E                     dE             d eps       ncg     rms          rms(c)
DAV:   1    -0.144205172854E+03    0.19925E+00   -0.31668E+01  5496   0.112E+01    0.397E+00
DAV:   2    -0.144457569681E+03   -0.25240E+00   -0.26134E+00  7404   0.581E+00    0.263E+00
DAV:   3    -0.144466234080E+03   -0.86644E-02   -0.90739E-02  6756   0.157E+00    0.132E+00
DAV:   4    -0.144461843347E+03    0.43907E-02   -0.15585E-02  7716   0.450E-01    0.103E+00
DAV:   5    -0.144462213463E+03   -0.37012E-03   -0.19546E-02  7596   0.583E-01    0.603E-01
DAV:   6    -0.144466375596E+03   -0.41621E-02   -0.83699E-03  7722   0.425E-01    0.228E-01
DAV:   7    -0.144472265644E+03   -0.58900E-02   -0.15832E-03  7494   0.163E-01    0.115E-01
DAV:   8    -0.144477594334E+03   -0.53287E-02   -0.52257E-04  7674   0.719E-02    0.108E-01
DAV:   9    -0.144483724831E+03   -0.61305E-02   -0.51402E-04  7536   0.625E-02    0.752E-02
DAV:  10    -0.144487432175E+03   -0.37073E-02   -0.33108E-04  7548   0.384E-02    0.467E-02
DAV:  11    -0.144490360305E+03   -0.29281E-02   -0.35777E-04  7548   0.314E-02    0.393E-02
DAV:  12    -0.144492794256E+03   -0.24340E-02   -0.53554E-04  7596   0.391E-02    0.362E-02
DAV:  13    -0.144494597253E+03   -0.18030E-02   -0.88376E-04  7254   0.398E-02    0.319E-02
DAV:  14    -0.144494794499E+03   -0.19725E-03   -0.24698E-03  7122   0.678E-02    0.295E-02
DAV:  15    -0.144494291131E+03    0.50337E-03   -0.66314E-04  7326   0.366E-02    0.225E-02
DAV:  16    -0.144494072976E+03    0.21815E-03   -0.47782E-04  7218   0.272E-02    0.181E-02
DAV:  17    -0.144493315813E+03    0.75716E-03   -0.89993E-04  7404   0.364E-02    0.167E-02
DAV:  18    -0.144493409068E+03   -0.93254E-04   -0.23261E-04  6840   0.199E-02    0.125E-02
DAV:  19    -0.144494320546E+03   -0.91148E-03   -0.19943E-04  6168   0.175E-02    0.101E-02
DAV:  20    -0.144494987114E+03   -0.66657E-03   -0.33718E-04  7098   0.230E-02    0.819E-03
DAV:  21    -0.144495412165E+03   -0.42505E-03   -0.49265E-05  5784   0.109E-02    0.440E-03
DAV:  22    -0.144495687489E+03   -0.27532E-03   -0.80889E-06  5124   0.614E-03    0.252E-03
DAV:  23    -0.144495848567E+03   -0.16108E-03   -0.82711E-06  5094   0.414E-03    0.163E-03
DAV:  24    -0.144495888284E+03   -0.39716E-04   -0.16614E-06  4302   0.236E-03    0.128E-03
DAV:  25    -0.144495901086E+03   -0.12802E-04   -0.82520E-07  3996   0.221E-03    0.123E-03
DAV:  26    -0.144495904295E+03   -0.32097E-05   -0.57866E-07  4134   0.197E-03    0.718E-04
DAV:  27    -0.144495906294E+03   -0.19989E-05   -0.80896E-07  3900   0.186E-03    0.775E-04
DAV:  28    -0.144495909212E+03   -0.29182E-05   -0.55492E-07  3666   0.161E-03    0.468E-04
DAV:  29    -0.144495913815E+03   -0.46022E-05   -0.29499E-07  3684   0.882E-04    0.329E-04
DAV:  30    -0.144495917563E+03   -0.37485E-05   -0.10624E-07  3666   0.703E-04    0.266E-04
DAV:  31    -0.144495920704E+03   -0.31410E-05   -0.63341E-08  3774   0.493E-04    0.183E-04
DAV:  32    -0.144495923000E+03   -0.22957E-05   -0.34878E-08  3666   0.416E-04    0.173E-04
DAV:  33    -0.144495923865E+03   -0.86517E-06   -0.27954E-08  3546   0.369E-04
   3 F= -.15050769E+03 E0= -.15050769E+03  d E =-.296104E+00  mag=    27.0000
       N       E                     dE             d eps       ncg     rms          rms(c)
DAV:   1    -0.144463156872E+03    0.32766E-01   -0.10803E+01  5418   0.665E+00    0.199E+00
DAV:   2    -0.144540593175E+03   -0.77436E-01   -0.79091E-01  7650   0.334E+00    0.123E+00
DAV:   3    -0.144545506878E+03   -0.49137E-02   -0.23715E-02  7638   0.809E-01    0.734E-01
DAV:   4    -0.144543884612E+03    0.16223E-02   -0.30595E-03  7668   0.287E-01    0.538E-01
DAV:   5    -0.144541844242E+03    0.20404E-02   -0.22748E-03  7596   0.160E-01    0.375E-01
DAV:   6    -0.144539805260E+03    0.20390E-02   -0.27238E-03  7170   0.156E-01    0.126E-01
DAV:   7    -0.144540429801E+03   -0.62454E-03   -0.61161E-04  7284   0.962E-02    0.883E-02
DAV:   8    -0.144540954879E+03   -0.52508E-03   -0.11872E-04  7506   0.689E-02    0.543E-02
DAV:   9    -0.144542402681E+03   -0.14478E-02   -0.71696E-05  7410   0.404E-02    0.365E-02
DAV:  10    -0.144543485012E+03   -0.10823E-02   -0.42225E-05  7194   0.159E-02    0.191E-02
DAV:  11    -0.144544170558E+03   -0.68555E-03   -0.14732E-05  7446   0.188E-02    0.835E-03
DAV:  12    -0.144544868067E+03   -0.69751E-03   -0.11358E-05  5430   0.604E-03    0.662E-03
DAV:  13    -0.144545631639E+03   -0.76357E-03   -0.18182E-05  5850   0.748E-03    0.544E-03
DAV:  14    -0.144546145635E+03   -0.51400E-03   -0.14130E-05  5658   0.621E-03    0.487E-03
DAV:  15    -0.144546517938E+03   -0.37230E-03   -0.16181E-05  5424   0.555E-03    0.403E-03
DAV:  16    -0.144546709079E+03   -0.19114E-03   -0.10145E-05  5286   0.450E-03    0.351E-03
DAV:  17    -0.144546787482E+03   -0.78403E-04   -0.73411E-06  4776   0.367E-03    0.316E-03
DAV:  18    -0.144546764206E+03    0.23276E-04   -0.11738E-05  4716   0.450E-03    0.295E-03
DAV:  19    -0.144546733314E+03    0.30892E-04   -0.59578E-06  4206   0.361E-03    0.278E-03
DAV:  20    -0.144546720170E+03    0.13144E-04   -0.65878E-06  4176   0.355E-03    0.240E-03
DAV:  21    -0.144546723695E+03   -0.35252E-05   -0.11892E-05  3900   0.415E-03    0.207E-03
DAV:  22    -0.144546735374E+03   -0.11678E-04   -0.12500E-05  4410   0.422E-03    0.191E-03
DAV:  23    -0.144546752652E+03   -0.17278E-04   -0.30059E-06  4140   0.248E-03    0.134E-03
DAV:  24    -0.144546771255E+03   -0.18603E-04   -0.22122E-06  3912   0.201E-03    0.108E-03
DAV:  25    -0.144546786039E+03   -0.14784E-04   -0.18683E-06  3972   0.192E-03    0.810E-04
DAV:  26    -0.144546796983E+03   -0.10944E-04   -0.92558E-07  3984   0.152E-03    0.720E-04
DAV:  27    -0.144546803029E+03   -0.60464E-05   -0.34289E-07  3918   0.133E-03    0.447E-04
DAV:  28    -0.144546805247E+03   -0.22179E-05   -0.93183E-08  3480   0.102E-03    0.333E-04
DAV:  29    -0.144546806727E+03   -0.14803E-05   -0.58925E-08  3540   0.675E-04    0.220E-04
DAV:  30    -0.144546807678E+03   -0.95028E-06   -0.40521E-08  3570   0.591E-04
   4 F= -.15055383E+03 E0= -.15055383E+03  d E =-.461450E-01  mag=    27.0000
       N       E                     dE             d eps       ncg     rms          rms(c)
DAV:   1    -0.144541623761E+03    0.51830E-02   -0.13642E+00  5442   0.233E+00    0.735E-01
DAV:   2    -0.144550434643E+03   -0.88109E-02   -0.94258E-02  7584   0.113E+00    0.420E-01
DAV:   3    -0.144551349082E+03   -0.91444E-03   -0.32382E-03  7458   0.294E-01    0.269E-01
DAV:   4    -0.144551112072E+03    0.23701E-03   -0.39078E-04  7674   0.112E-01    0.192E-01
DAV:   5    -0.144550736865E+03    0.37521E-03   -0.26117E-04  7446   0.537E-02    0.138E-01
DAV:   6    -0.144550232687E+03    0.50418E-03   -0.34817E-04  7182   0.530E-02    0.477E-02
DAV:   7    -0.144550333223E+03   -0.10054E-03   -0.74857E-05  7278   0.310E-02    0.296E-02
