       N       E                     dE             d eps       ncg     rms          rms(c)
DAV:   1     0.209712842985E+04    0.20971E+04   -0.61271E+04  2954   0.896E+02
DAV:   2     0.403320259129E+03   -0.16938E+04   -0.15890E+04  3682   0.237E+02
DAV:   3    -0.112580250013E+03   -0.51590E+03   -0.50537E+03  4200   0.135E+02
DAV:   4    -0.150547429921E+03   -0.37967E+02   -0.37525E+02  4424   0.543E+01
DAV:   5    -0.151271730913E+03   -0.72430E+00   -0.72279E+00  4340   0.837E+00    0.405E+01
DAV:   6    -0.142299858207E+03    0.89719E+01   -0.15585E+02  4774   0.600E+01    0.379E+01
DAV:   7    -0.140546590187E+03    0.17533E+01   -0.16884E+01  4235   0.390E+01    0.195E+01
DAV:   8    -0.141201520286E+03   -0.65493E+00   -0.42968E+00  3962   0.549E+00    0.908E+00
DAV:   9    -0.141169927252E+03    0.31593E-01   -0.85616E-01  4494   0.847E+00    0.264E+00
DAV:  10    -0.141204897775E+03   -0.34971E-01   -0.20216E-01  4340   0.222E+00    0.946E-01
DAV:  11    -0.141235459038E+03   -0.30561E-01   -0.96066E-03  4123   0.540E-01    0.525E-01
DAV:  12    -0.141269564778E+03   -0.34106E-01   -0.52794E-03  4277   0.291E-01    0.321E-01
DAV:  13    -0.141293805271E+03   -0.24240E-01   -0.11089E-03  3934   0.121E-01    0.106E-01
DAV:  14    -0.141304058995E+03   -0.10254E-01   -0.22731E-04  4200   0.106E-01    0.841E-02
DAV:  15    -0.141311121306E+03   -0.70623E-02   -0.85796E-05  4074   0.337E-02    0.481E-02
DAV:  16    -0.141332869320E+03   -0.21748E-01   -0.15822E-04  3710   0.436E-02    0.329E-02
DAV:  17    -0.141336814488E+03   -0.39452E-02   -0.26155E-05  3892   0.148E-02    0.308E-02
DAV:  18    -0.141339154290E+03   -0.23398E-02   -0.17400E-05  3241   0.128E-02    0.153E-02
DAV:  19    -0.141341848767E+03   -0.26945E-02   -0.45749E-05  3234   0.185E-02    0.481E-03
DAV:  20    -0.141342021854E+03   -0.17309E-03   -0.92232E-06  3122   0.730E-03    0.573E-03
DAV:  21    -0.141342058849E+03   -0.36995E-04   -0.98798E-07  2324   0.263E-03    0.277E-03
DAV:  22    -0.141342147330E+03   -0.88481E-04   -0.11854E-06  2268   0.282E-03    0.353E-03
DAV:  23    -0.141342168396E+03   -0.21066E-04   -0.68554E-07  2345   0.209E-03    0.175E-03
DAV:  24    -0.141342190737E+03   -0.22341E-04   -0.19534E-07  2268   0.155E-03    0.125E-03
DAV:  25    -0.141342229794E+03   -0.39057E-04   -0.59652E-07  2310   0.173E-03    0.184E-03
DAV:  26    -0.141342245370E+03   -0.15575E-04   -0.16203E-07  2338   0.132E-03    0.830E-04
DAV:  27    -0.141342251731E+03   -0.63615E-05   -0.92114E-08  1988   0.898E-04    0.745E-04
DAV:  28    -0.141342256188E+03   -0.44565E-05   -0.71396E-08  2002   0.697E-04    0.598E-04
DAV:  29    -0.141342259154E+03   -0.29667E-05   -0.57363E-08  2058   0.549E-04    0.187E-04
DAV:  30    -0.141342260029E+03   -0.87494E-06   -0.28182E-08  1953   0.478E-04
   1 F= -.14716786E+03 E0= -.14716786E+03  d E =-.147168E+03  mag=    24.0000
       N       E                     dE             d eps       ncg     rms          rms(c)
DAV:   1    -0.141378763334E+03   -0.36504E-01   -0.12806E+01  2954   0.706E+00    0.245E+00
DAV:   2    -0.141467540813E+03   -0.88777E-01   -0.10316E+00  4333   0.425E+00    0.176E+00
DAV:   3    -0.141462692902E+03    0.48479E-02   -0.24631E-02  4592   0.101E+00    0.918E-01
DAV:   4    -0.141460978877E+03    0.17140E-02   -0.26544E-03  4207   0.161E-01    0.737E-01
DAV:   5    -0.141459601747E+03    0.13771E-02   -0.63115E-03  3297   0.179E-01    0.400E-01
DAV:   6    -0.141459881438E+03   -0.27969E-03   -0.20974E-03  4221   0.280E-01    0.884E-02
DAV:   7    -0.141460028042E+03   -0.14660E-03   -0.21007E-04  4018   0.472E-02    0.897E-02
DAV:   8    -0.141460112392E+03   -0.84350E-04   -0.28024E-05  3878   0.175E-02    0.806E-02
DAV:   9    -0.141460235749E+03   -0.12336E-03   -0.22875E-05  3857   0.112E-02    0.393E-02
DAV:  10    -0.141460292939E+03   -0.57190E-04   -0.59184E-06  3493   0.602E-03    0.213E-02
DAV:  11    -0.141460368597E+03   -0.75658E-04   -0.46525E-06  3255   0.989E-03    0.843E-03
DAV:  12    -0.141460426511E+03   -0.57914E-04   -0.12905E-06  2366   0.330E-03    0.379E-03
DAV:  13    -0.141460462762E+03   -0.36250E-04   -0.37770E-07  2191   0.214E-03    0.152E-03
DAV:  14    -0.141460484957E+03   -0.22196E-04   -0.21200E-07  2058   0.151E-03    0.978E-04
DAV:  15    -0.141460514848E+03   -0.29891E-04   -0.34608E-07  2331   0.137E-03    0.182E-03
DAV:  16    -0.141460548466E+03   -0.33617E-04   -0.58525E-07  2450   0.143E-03    0.216E-03
DAV:  17    -0.141460554606E+03   -0.61400E-05   -0.18568E-07  2226   0.136E-03    0.976E-04
DAV:  18    -0.141460555463E+03   -0.85693E-06   -0.96349E-08  1988   0.896E-04
   2 F= -.14727072E+03 E0= -.14727072E+03  d E =-.102855E+00  mag=    24.0000
       N       E                     dE             d eps       ncg     rms          rms(c)
DAV:   1    -0.141420637698E+03    0.39917E-01   -0.14140E+01  2940   0.741E+00    0.257E+00
DAV:   2    -0.141517911136E+03   -0.97273E-01   -0.11280E+00  4326   0.445E+00    0.186E+00
DAV:   3    -0.141512495563E+03    0.54156E-02   -0.26927E-02  4564   0.106E+00    0.947E-01
DAV:   4    -0.141510589701E+03    0.19059E-02   -0.29634E-03  4193   0.167E-01    0.761E-01
DAV:   5    -0.141509083195E+03    0.15065E-02   -0.65899E-03  3367   0.183E-01    0.422E-01
DAV:   6    -0.141509372514E+03   -0.28932E-03   -0.22468E-03  4228   0.292E-01    0.912E-02
DAV:   7    -0.141509544088E+03   -0.17157E-03   -0.23808E-04  3913   0.488E-02    0.938E-02
DAV:   8    -0.141509638492E+03   -0.94404E-04   -0.30997E-05  3850   0.184E-02    0.850E-02
DAV:   9    -0.141509778376E+03   -0.13988E-03   -0.23564E-05  3941   0.116E-02    0.412E-02
DAV:  10    -0.141509842445E+03   -0.64069E-04   -0.60070E-06  3374   0.601E-03    0.229E-02
DAV:  11    -0.141509923625E+03   -0.81179E-04   -0.54333E-06  3465   0.103E-02    0.966E-03
DAV:  12    -0.141509989940E+03   -0.66315E-04   -0.10765E-06  2324   0.313E-03    0.401E-03
DAV:  13    -0.141510036515E+03   -0.46575E-04   -0.50679E-07  2240   0.241E-03    0.161E-03
DAV:  14    -0.141510060477E+03   -0.23962E-04   -0.25157E-07  2114   0.200E-03    0.162E-03
DAV:  15    -0.141510088089E+03   -0.27612E-04   -0.34719E-07  2226   0.159E-03    0.197E-03
DAV:  16    -0.141510130932E+03   -0.42843E-04   -0.94623E-07  2548   0.170E-03    0.166E-03
DAV:  17    -0.141510135399E+03   -0.44672E-05   -0.15819E-07  2212   0.132E-03    0.112E-03
DAV:  18    -0.141510136111E+03   -0.71192E-06   -0.74361E-08  1981   0.737E-04
   3 F= -.14730384E+03 E0= -.14730384E+03  d E =-.135980E+00  mag=    24.0000
