34
Lattice="12.1682319641 0.0 0.0 -6.1300719178 10.5529468653 0.0 0.0 0.0 17.6887664795" Properties=species:S:1:pos:R:3:momenta:R:3 pbc="T T T"
Cr      -0.26487838       3.41312088       5.86725504       0.00000000       0.00000000       0.00000000
Cr      -3.14673014       8.81857094       6.09303524       0.00000000       0.00000000       0.00000000
Cr       5.83118909       3.55992699       5.94912762       0.00000000       0.00000000       0.00000000
Cr       2.86706443       8.97995106       6.01879503       0.00000000       0.00000000       0.00000000
Cr       8.85226374       1.85717537       5.85264325       0.00000000       0.00000000       0.00000000
Cr       5.99024335       7.24377777       6.08388807       0.00000000       0.00000000       0.00000000
Cr       2.83496875       1.70644467       5.96509055       0.00000000       0.00000000       0.00000000
Cr      -0.12920133       7.10461435       6.03275164       0.00000000       0.00000000       0.00000000
Cl      -0.97270214       5.40236385       4.65452729       0.00000000       0.00000000       0.00000000
Cl      -4.10398708      10.49169427       4.68028668       0.00000000       0.00000000       0.00000000
Cl       4.67641272       5.22203562       4.65493856       0.00000000       0.00000000       0.00000000
Cl       7.94396326      -0.01136333       4.62883511       0.00000000       0.00000000       0.00000000
Cl       1.79003593       3.34758103       4.52388646       0.00000000       0.00000000       0.00000000
Cl      -1.20154814       8.70537113       4.67879176       0.00000000       0.00000000       0.00000000
Cl       7.70373398       3.49370231       4.54360623       0.00000000       0.00000000       0.00000000
Cl       4.80961964       8.84769147       4.70435883       0.00000000       0.00000000       0.00000000
Cl      10.59284628       1.84454730       4.31815457       0.00000000       0.00000000       0.00000000
Cl       7.96295200       7.20923653       4.72269425       0.00000000       0.00000000       0.00000000
Cl       4.79343890       1.86871541       4.63015628       0.00000000       0.00000000       0.00000000
Cl       1.92767064       7.13047937       4.72280211       0.00000000       0.00000000       0.00000000
Cl       9.92099407       3.45628147       7.21728197       0.00000000       0.00000000       0.00000000
Cl      -4.88848995       8.82113749       7.62962409       0.00000000       0.00000000       0.00000000
Cl       3.79314705       3.50044279       7.30132062       0.00000000       0.00000000       0.00000000
Cl       0.91525318       8.80452580       7.35215247       0.00000000       0.00000000       0.00000000
Cl       1.00573370       5.44835973       7.36709926       0.00000000       0.00000000       0.00000000
Cl       3.88942315       0.10906381       7.33407241       0.00000000       0.00000000       0.00000000
Cl       6.67491354       5.27537642       7.32279671       0.00000000       0.00000000       0.00000000
Cl       9.80665807       0.20185931       7.28325974       0.00000000       0.00000000       0.00000000
Cl       0.89413017       1.80787563       7.28149243       0.00000000       0.00000000       0.00000000
Cl      -2.01213499       7.17838996       7.41987573       0.00000000       0.00000000       0.00000000
Cl       6.92021252       1.96082693       7.28640050       0.00000000       0.00000000       0.00000000
Cl       4.00717222       7.51067998       7.62093755       0.00000000       0.00000000       0.00000000
Ni       2.74540920       5.15501397       5.90520815       0.00000000       0.00000000       0.00000000
H        3.36167643       6.18048638       6.83924095       0.00000000       0.00000000       0.00000000
