CrCl3 1x1 + H S3 top-Cr (D3, U=0) (a=6.0
   1.00000000000000     
     6.0462744985246628    0.0000000000000000    0.0000000000000000
    -3.0231372492623314    5.2362273139763751    0.0000000000000000
     0.0000000000000000    0.0000000000000000   20.0000000000000000
   Cr   Cl   H 
     2     6     1
Direct
     0.3333333333333357    0.6666666666666643    0.4965428096940309
     0.6666666666666643    0.3333333333333357    0.5058621856060339
     0.3678378439661109    0.0083313157084136    0.4339984191033194
     0.9916686842915864    0.3595065282576974    0.4339984191033194
     0.6404934717423026    0.6321621560338961    0.4339984191033194
     0.6538909127470500    0.9817398644812907    0.5633095043470290
     0.0182601355187093    0.6721510482657594    0.5633095043470290
     0.3278489517342407    0.3461090872529500    0.5633095043470290
     0.6666666666666643    0.3333333333333357    0.5831712343488764
 
  0.00000000E+00  0.00000000E+00  0.00000000E+00
  0.00000000E+00  0.00000000E+00  0.00000000E+00
  0.00000000E+00  0.00000000E+00  0.00000000E+00
  0.00000000E+00  0.00000000E+00  0.00000000E+00
  0.00000000E+00  0.00000000E+00  0.00000000E+00
  0.00000000E+00  0.00000000E+00  0.00000000E+00
  0.00000000E+00  0.00000000E+00  0.00000000E+00
  0.00000000E+00  0.00000000E+00  0.00000000E+00
  0.00000000E+00  0.00000000E+00  0.00000000E+00
