CrCl3 2x2 + Fe S2 hollow (D3, U=0) (a_2x
   1.00000000000000     
    12.0925489970493256    0.0000000000000000    0.0000000000000000
    -6.0462744985246628   10.4724546279527502    0.0000000000000000
     0.0000000000000000    0.0000000000000000   20.0000000000000000
   Cr   Cl   Fe
     8    24     1
Direct
     0.1594551585468788    0.3246786242801488    0.4998741451754833
     0.3246786242801488    0.1594551585468788    0.4998741451754833
     0.6753213757198515    0.3347765342667159    0.4998741451754833
     0.8333333333333286    0.1666666666666714    0.4952253362990945
     0.1666666666666714    0.8333333333333286    0.4952253362990945
     0.3347765342667159    0.6753213757198515    0.4998741451754833
     0.6652234657332839    0.8405448414531214    0.4998741451754833
     0.8405448414531214    0.6652234657332839    0.4998741451754833
     0.1800279424372487    0.5000000000000000    0.4352173005147292
     0.5000000000000000    0.1800279424372487    0.4352173005147292
     0.3298005199925385    0.3298005199925385    0.4380615468020112
     0.3123343192641953    0.5000000000000000    0.5799323972437002
     0.9951236593345895    0.3200176118509862    0.5664269536810150
     0.1671126705478347    0.1671126705478347    0.5687289678144147
     0.6701994800074612    0.5000000000000000    0.4380615468020112
     0.9973422234899643    0.1722414621674617    0.4278612760080965
     0.8277585378325384    0.3251007613225025    0.4278612760080965
     0.8328873294521655    0.5000000000000000    0.5687289678144147
     0.5000000000000000    0.3123343192641953    0.5799323972437002
     0.6799823881490139    0.1751060474836034    0.5664269536810150
     0.1722414621674617    0.9973422234899643    0.4278612760080965
     0.5000000000000000    0.6701994800074612    0.4380615468020112
     0.3251007613225025    0.8277585378325384    0.4278612760080965
     0.3200176118509862    0.9951236593345895    0.5664269536810150
     0.0048763406654105    0.8248939525163969    0.5664269536810150
     0.1751060474836034    0.6799823881490139    0.5664269536810150
     0.6748992386774976    0.0026577765100358    0.4278612760080965
     0.0026577765100358    0.6748992386774976    0.4278612760080965
     0.8199720575627513    0.8199720575627513    0.4352173005147292
     0.8248939525163969    0.0048763406654105    0.5664269536810150
     0.5000000000000000    0.8328873294521655    0.5687289678144147
     0.6876656807358049    0.6876656807358049    0.5799323972437002
     0.5000000000000000    0.5000000000000000    0.5737544410896757
 
  0.00000000E+00  0.00000000E+00  0.00000000E+00
  0.00000000E+00  0.00000000E+00  0.00000000E+00
  0.00000000E+00  0.00000000E+00  0.00000000E+00
  0.00000000E+00  0.00000000E+00  0.00000000E+00
  0.00000000E+00  0.00000000E+00  0.00000000E+00
  0.00000000E+00  0.00000000E+00  0.00000000E+00
  0.00000000E+00  0.00000000E+00  0.00000000E+00
  0.00000000E+00  0.00000000E+00  0.00000000E+00
  0.00000000E+00  0.00000000E+00  0.00000000E+00
  0.00000000E+00  0.00000000E+00  0.00000000E+00
  0.00000000E+00  0.00000000E+00  0.00000000E+00
  0.00000000E+00  0.00000000E+00  0.00000000E+00
  0.00000000E+00  0.00000000E+00  0.00000000E+00
  0.00000000E+00  0.00000000E+00  0.00000000E+00
  0.00000000E+00  0.00000000E+00  0.00000000E+00
  0.00000000E+00  0.00000000E+00  0.00000000E+00
  0.00000000E+00  0.00000000E+00  0.00000000E+00
  0.00000000E+00  0.00000000E+00  0.00000000E+00
  0.00000000E+00  0.00000000E+00  0.00000000E+00
  0.00000000E+00  0.00000000E+00  0.00000000E+00
  0.00000000E+00  0.00000000E+00  0.00000000E+00
  0.00000000E+00  0.00000000E+00  0.00000000E+00
  0.00000000E+00  0.00000000E+00  0.00000000E+00
  0.00000000E+00  0.00000000E+00  0.00000000E+00
  0.00000000E+00  0.00000000E+00  0.00000000E+00
  0.00000000E+00  0.00000000E+00  0.00000000E+00
  0.00000000E+00  0.00000000E+00  0.00000000E+00
  0.00000000E+00  0.00000000E+00  0.00000000E+00
  0.00000000E+00  0.00000000E+00  0.00000000E+00
  0.00000000E+00  0.00000000E+00  0.00000000E+00
  0.00000000E+00  0.00000000E+00  0.00000000E+00
  0.00000000E+00  0.00000000E+00  0.00000000E+00
  0.00000000E+00  0.00000000E+00  0.00000000E+00
