Cr8Cl24
   1.0000000000000000
    12.1343889235999995    0.0000000000000000    0.0000000000000000
    -6.0613529830999999   10.5120826004999994    0.0000000000000000
     0.0000000000000000    0.0000000000000000   17.6887664794999999
   Cr   Cl   Co   H
     8    24     1     1
Direct
     0.1510243534499001    0.3358594132131477    0.3368967905129803
     0.1585311898274726    0.8413483369551820    0.3336274655782615
     0.6640742734831589    0.3392746698028521    0.3368874611668378
     0.6607871726446124    0.8490191566976328    0.3368923731230779
     0.8253766494036280    0.1747127294849732    0.3336291760846135
     0.8328484175483333    0.6768277249228651    0.3368724048510561
     0.3197667732857650    0.1670618497650266    0.3368866072130156
     0.3231842500717892    0.6801980000374995    0.3369147303690395
     0.1698596024423583    0.5080685495178158    0.2647427245481468
     0.1703111725527423    0.0057841091677011    0.2565655569257048
     0.6560048946182209    0.5080390197993192    0.2679014707246590
     0.6726509164985583    0.0102381054402820    0.2566056052391303
     0.3277655992538465    0.3438841621756385    0.2679074616944203
     0.3112400729144097    0.8294954532165338    0.2565818327974740
     0.8135052191281757    0.3273775290511449    0.2565767707222539
     0.8140148265310723    0.8301174194977544    0.2646389516436838
     0.9897629188169594    0.1863691216356265    0.2565689720794810
     0.9941424329906046    0.6885934366270338    0.2565981499463649
     0.4919657204449425    0.1859212371061140    0.2647060409577114
     0.4919177935045386    0.6722757089542005    0.2678661054212225
     0.9877014065998602    0.3265053116660622    0.4123593616541003
     0.9961635025982498    0.8307893204773884    0.4123639755847137
     0.4919549310786275    0.3311296961551011    0.4176932006443201
     0.4919877719121564    0.8357993386579426    0.4102361784256909
     0.3150644058189075    0.5082402046205788    0.4177451903013780
     0.3103827087771312    0.0036960426407552    0.4123364899657349
     0.8194805264936774    0.5080506864643116    0.4102947351776298
     0.8147995413363643    0.0123041977422893    0.4123572733201390
     0.1644051320155996    0.1804669733632282    0.4103584387946324
     0.1692454841752834    0.6895920301515887    0.4123847997389758
     0.6735785978433896    0.1853696786887755    0.4123689147439829
     0.6688454853425939    0.6851432177399652    0.4176800921306367
     0.4918899640344791    0.5081109444094635    0.3580615414955076
     0.4919365025626051    0.5081509521541997    0.4411331884234077

  0.00000000E+00  0.00000000E+00  0.00000000E+00
  0.00000000E+00  0.00000000E+00  0.00000000E+00
  0.00000000E+00  0.00000000E+00  0.00000000E+00
  0.00000000E+00  0.00000000E+00  0.00000000E+00
  0.00000000E+00  0.00000000E+00  0.00000000E+00
  0.00000000E+00  0.00000000E+00  0.00000000E+00
  0.00000000E+00  0.00000000E+00  0.00000000E+00
  0.00000000E+00  0.00000000E+00  0.00000000E+00
  0.00000000E+00  0.00000000E+00  0.00000000E+00
  0.00000000E+00  0.00000000E+00  0.00000000E+00
  0.00000000E+00  0.00000000E+00  0.00000000E+00
  0.00000000E+00  0.00000000E+00  0.00000000E+00
  0.00000000E+00  0.00000000E+00  0.00000000E+00
  0.00000000E+00  0.00000000E+00  0.00000000E+00
  0.00000000E+00  0.00000000E+00  0.00000000E+00
  0.00000000E+00  0.00000000E+00  0.00000000E+00
  0.00000000E+00  0.00000000E+00  0.00000000E+00
  0.00000000E+00  0.00000000E+00  0.00000000E+00
  0.00000000E+00  0.00000000E+00  0.00000000E+00
  0.00000000E+00  0.00000000E+00  0.00000000E+00
  0.00000000E+00  0.00000000E+00  0.00000000E+00
  0.00000000E+00  0.00000000E+00  0.00000000E+00
  0.00000000E+00  0.00000000E+00  0.00000000E+00
  0.00000000E+00  0.00000000E+00  0.00000000E+00
  0.00000000E+00  0.00000000E+00  0.00000000E+00
  0.00000000E+00  0.00000000E+00  0.00000000E+00
  0.00000000E+00  0.00000000E+00  0.00000000E+00
  0.00000000E+00  0.00000000E+00  0.00000000E+00
  0.00000000E+00  0.00000000E+00  0.00000000E+00
  0.00000000E+00  0.00000000E+00  0.00000000E+00
  0.00000000E+00  0.00000000E+00  0.00000000E+00
  0.00000000E+00  0.00000000E+00  0.00000000E+00
  0.00000000E+00  0.00000000E+00  0.00000000E+00
  0.00000000E+00  0.00000000E+00  0.00000000E+00