CrCl3 1x1 + H S2 hollow (D3, U=0) (a=6.0
   1.00000000000000     
     6.0462744985246628    0.0000000000000000    0.0000000000000000
    -3.0231372492623314    5.2362273139763751    0.0000000000000000
     0.0000000000000000    0.0000000000000000   20.0000000000000000
   Cr   Cl   H 
     2     6     1
Direct
     0.3333333333333357    0.6666666666666643    0.5008738669063396
     0.6666666666666643    0.3333333333333357    0.5008738669063396
     0.3620013129470248    0.0000000000000000    0.4343213771316045
     0.0000000000000000    0.3620013129470248    0.4343213771316045
     0.6379986870529751    0.6379986870529751    0.4343213771316045
     0.6911875476760491    0.0000000000000000    0.5701532774201755
     0.0000000000000000    0.6911875476760491    0.5701532774201755
     0.3088124523239507    0.3088124523239507    0.5701532774201755
     0.0000000000000000    0.0000000000000000    0.5648283025319857
 
  0.00000000E+00  0.00000000E+00  0.00000000E+00
  0.00000000E+00  0.00000000E+00  0.00000000E+00
  0.00000000E+00  0.00000000E+00  0.00000000E+00
  0.00000000E+00  0.00000000E+00  0.00000000E+00
  0.00000000E+00  0.00000000E+00  0.00000000E+00
  0.00000000E+00  0.00000000E+00  0.00000000E+00
  0.00000000E+00  0.00000000E+00  0.00000000E+00
  0.00000000E+00  0.00000000E+00  0.00000000E+00
  0.00000000E+00  0.00000000E+00  0.00000000E+00
