 running   16 mpi-ranks, with    1 threads/rank, on    1 nodes
 distrk:  each k-point on   16 cores,    1 groups
 distr:  one band on    4 cores,    4 groups
 vasp.6.5.1 10Mar25 (build Feb 13 2026 23:13:13) complex                        
  
 POSCAR found type information on POSCAR CrClH 
 POSCAR found :  3 types and       9 ions
 scaLAPACK will be used
 LDA part: xc-table for (Slater+PW92), standard interpolation
 POSCAR, INCAR and KPOINTS ok, starting setup
 FFT: planning ... GRIDC
 FFT: planning ... GRID_SOFT
 FFT: planning ... GRID
 WAVECAR not read
 entering main loop
       N       E                     dE             d eps       ncg     rms          rms(c)
DAV:   1     0.530016580692E+03    0.53002E+03   -0.15687E+04   720   0.924E+02
DAV:   2     0.883109841525E+02   -0.44171E+03   -0.42351E+03   960   0.250E+02
DAV:   3    -0.349762702487E+02   -0.12329E+03   -0.12060E+03  1024   0.134E+02
DAV:   4    -0.436864523127E+02   -0.87102E+01   -0.83360E+01  1044   0.483E+01
DAV:   5    -0.439772230057E+02   -0.29077E+00   -0.28907E+00   936   0.821E+00    0.225E+01
DAV:   6    -0.465693785687E+02   -0.25922E+01   -0.11004E+02  1080   0.746E+01    0.289E+01
DAV:   7    -0.395854890303E+02    0.69839E+01   -0.20191E+01  1008   0.944E+01    0.104E+01
DAV:   8    -0.398222423043E+02   -0.23675E+00   -0.41549E+00   944   0.984E+00    0.582E+00
DAV:   9    -0.396327835181E+02    0.18946E+00   -0.90120E-01  1016   0.990E+00    0.266E+00
DAV:  10    -0.396071702591E+02    0.25613E-01   -0.17261E-01  1076   0.280E+00    0.161E+00
DAV:  11    -0.397040515703E+02   -0.96881E-01   -0.56695E-02   808   0.108E+00    0.128E+00
DAV:  12    -0.397783417981E+02   -0.74290E-01   -0.16882E-02   944   0.775E-01    0.792E-01
DAV:  13    -0.398652818946E+02   -0.86940E-01   -0.21747E-02  1008   0.131E+00    0.377E-01
DAV:  14    -0.399134166599E+02   -0.48135E-01   -0.73842E-03  1024   0.584E-01    0.208E-01
DAV:  15    -0.399347436151E+02   -0.21327E-01   -0.93571E-04   864   0.153E-01    0.124E-01
DAV:  16    -0.399484351887E+02   -0.13692E-01   -0.56114E-04   996   0.112E-01    0.609E-02
DAV:  17    -0.399580058221E+02   -0.95706E-02   -0.30703E-04   904   0.824E-02    0.318E-02
DAV:  18    -0.399615453542E+02   -0.35395E-02   -0.77786E-05  1064   0.487E-02    0.186E-02
DAV:  19    -0.399634549173E+02   -0.19096E-02   -0.20912E-05   888   0.193E-02    0.122E-02
DAV:  20    -0.399668588557E+02   -0.34039E-02   -0.14102E-04   820   0.326E-02    0.108E-02
DAV:  21    -0.399671653901E+02   -0.30653E-03   -0.54045E-06   828   0.110E-02    0.942E-03
DAV:  22    -0.399678244578E+02   -0.65907E-03   -0.23200E-05   812   0.158E-02    0.401E-03
DAV:  23    -0.399679723843E+02   -0.14793E-03   -0.11234E-05   848   0.898E-03    0.246E-03
DAV:  24    -0.399679703058E+02    0.20785E-05   -0.73449E-07   664   0.349E-03    0.156E-03
DAV:  25    -0.399679734543E+02   -0.31485E-05   -0.26929E-07   524   0.248E-03    0.801E-04
DAV:  26    -0.399679811133E+02   -0.76590E-05   -0.11576E-07   460   0.241E-03    0.903E-04
DAV:  27    -0.399679836443E+02   -0.25310E-05   -0.48556E-08   452   0.151E-03    0.712E-04
DAV:  28    -0.399679874880E+02   -0.38437E-05   -0.50419E-08   456   0.115E-03    0.329E-04
DAV:  29    -0.399679921464E+02   -0.46584E-05   -0.11688E-07   508   0.118E-03    0.403E-04
DAV:  30    -0.399679935764E+02   -0.14301E-05   -0.41406E-08   480   0.118E-03    0.293E-04
DAV:  31    -0.399679948990E+02   -0.13226E-05   -0.37732E-08   456   0.726E-04    0.150E-04
DAV:  32    -0.399679953208E+02   -0.42177E-06   -0.19063E-08   464   0.783E-04
   1 F= -.41561230E+02 E0= -.41555947E+02  d E =-.415612E+02  mag=     5.5062
 curvature:   0.00 expect dE= 0.000E+00 dE for cont linesearch  0.000E+00
 trial: gam= 0.00000 g(F)=  0.127E-01 g(S)=  0.000E+00 ort = 0.000E+00 (trialstep = 0.100E+01)
 search vector abs. value=  0.127E-01
 bond charge predicted
       N       E                     dE             d eps       ncg     rms          rms(c)
DAV:   1    -0.399753436109E+02   -0.73487E-02   -0.11146E+00   720   0.424E+00    0.654E-01
DAV:   2    -0.399819378957E+02   -0.65943E-02   -0.80066E-02  1060   0.175E+00    0.257E-01
DAV:   3    -0.399811401725E+02    0.79772E-03   -0.16672E-03  1020   0.351E-01    0.190E-01
DAV:   4    -0.399808391095E+02    0.30106E-03   -0.29630E-04  1072   0.162E-01    0.130E-01
DAV:   5    -0.399801500116E+02    0.68910E-03   -0.24509E-04   816   0.698E-02    0.848E-02
DAV:   6    -0.399800052689E+02    0.14474E-03   -0.12302E-04  1024   0.572E-02    0.282E-02
DAV:   7    -0.399804858523E+02   -0.48058E-03   -0.13797E-05   928   0.227E-02    0.158E-02
DAV:   8    -0.399809501545E+02   -0.46430E-03   -0.74583E-06   800   0.178E-02    0.136E-02
DAV:   9    -0.399814627934E+02   -0.51264E-03   -0.10485E-05   896   0.157E-02    0.928E-03
DAV:  10    -0.399819840005E+02   -0.52121E-03   -0.15333E-05   864   0.113E-02    0.527E-03
DAV:  11    -0.399823336513E+02   -0.34965E-03   -0.15798E-05   840   0.102E-02    0.264E-03
DAV:  12    -0.399823905962E+02   -0.56945E-04   -0.17709E-06   680   0.438E-03    0.252E-03
DAV:  13    -0.399824102449E+02   -0.19649E-04   -0.99649E-07   544   0.354E-03    0.158E-03
DAV:  14    -0.399824111726E+02   -0.92765E-06   -0.16249E-07   476   0.266E-03
   2 F= -.41573765E+02 E0= -.41569163E+02  d E =-.125357E-01  mag=     5.5591
 ZBRENT: can't locate minimum, use default step
 trial-energy change:   -0.012536  1 .order   -0.012193   -0.012737   -0.011649
 step:   4.0000(harm= 11.7069)  dis= 0.04405  next Energy=   -41.635783 (dE=-0.746E-01)
 bond charge predicted
       N       E                     dE             d eps       ncg     rms          rms(c)
DAV:   1    -0.399491766302E+02    0.33234E-01   -0.10009E+01   720   0.127E+01    0.166E+00
DAV:   2    -0.400152585836E+02   -0.66082E-01   -0.71408E-01  1088   0.552E+00    0.843E-01
DAV:   3    -0.400127891165E+02    0.24695E-02   -0.65567E-03   976   0.615E-01    0.544E-01
DAV:   4    -0.400117135042E+02    0.10756E-02   -0.20626E-03   916   0.208E-01    0.404E-01
DAV:   5    -0.400104764841E+02    0.12370E-02   -0.35865E-03  1048   0.393E-01    0.164E-01
DAV:   6    -0.400107659512E+02   -0.28947E-03   -0.61876E-04  1036   0.220E-01    0.771E-02
DAV:   7    -0.400110859625E+02   -0.32001E-03   -0.69662E-05  1008   0.655E-02    0.350E-02
DAV:   8    -0.400114515015E+02   -0.36554E-03   -0.23210E-05   928   0.236E-02    0.315E-02
DAV:   9    -0.400116138240E+02   -0.16232E-03   -0.54526E-06   920   0.176E-02    0.195E-02
DAV:  10    -0.400118008217E+02   -0.18700E-03   -0.72330E-06   840   0.131E-02    0.824E-03
DAV:  11    -0.400118888471E+02   -0.88025E-04   -0.15757E-06   592   0.776E-03    0.237E-03
DAV:  12    -0.400119282741E+02   -0.39427E-04   -0.63758E-07   512   0.506E-03    0.217E-03
DAV:  13    -0.400119557779E+02   -0.27504E-04   -0.43606E-07   476   0.454E-03    0.170E-03
DAV:  14    -0.400120558040E+02   -0.10003E-03   -0.40117E-06   688   0.562E-03    0.152E-03
DAV:  15    -0.400120900008E+02   -0.34197E-04   -0.99090E-07   624   0.383E-03    0.135E-03
DAV:  16    -0.400121063594E+02   -0.16359E-04   -0.56281E-07   532   0.301E-03    0.832E-04
DAV:  17    -0.400121110873E+02   -0.47280E-05   -0.39538E-07   584   0.281E-03    0.619E-04
DAV:  18    -0.400121117575E+02   -0.67014E-06   -0.15627E-07   480   0.218E-03
   3 F= -.41597262E+02 E0= -.41592313E+02  d E =-.360323E-01  mag=     5.5815
 curvature:  -2.82 expect dE=-0.294E-01 dE for cont linesearch -0.483E-02
 ZBRENT: increasing intervall
 opt :  10.0000  next Energy=   -41.583390 (dE=-0.222E-01)
 bond charge predicted
       N       E                     dE             d eps       ncg     rms          rms(c)
DAV:   1    -0.398212167205E+02    0.19089E+00   -0.39894E+01   720   0.255E+01    0.475E+00
DAV:   2    -0.400270110529E+02   -0.20579E+00   -0.29765E+00  1000   0.103E+01    0.194E+00
DAV:   3    -0.398327359294E+02    0.19428E+00   -0.14712E-01   868   0.226E+00    0.178E+00
DAV:   4    -0.397204001295E+02    0.11234E+00   -0.37546E-02  1032   0.132E+00    0.120E+00
DAV:   5    -0.396382627719E+02    0.82137E-01   -0.36891E-02   912   0.962E-01    0.736E-01
DAV:   6    -0.397475604142E+02   -0.10930E+00   -0.95963E-03  1024   0.652E-01    0.517E-01
DAV:   7    -0.398791054409E+02   -0.13155E+00   -0.13003E-02   988   0.591E-01    0.379E-01
DAV:   8    -0.399652230638E+02   -0.86118E-01   -0.11225E-02   908   0.488E-01    0.260E-01
DAV:   9    -0.400693372252E+02   -0.10411E+00   -0.27797E-02   808   0.538E-01    0.157E-01
DAV:  10    -0.401347937122E+02   -0.65456E-01   -0.12082E-02   864   0.352E-01    0.687E-02
DAV:  11    -0.401497908889E+02   -0.14997E-01   -0.13314E-03   948   0.123E-01    0.350E-02
DAV:  12    -0.401518051060E+02   -0.20142E-02   -0.23599E-04   968   0.559E-02    0.161E-02
DAV:  13    -0.401520418974E+02   -0.23679E-03   -0.45349E-05   936   0.224E-02    0.856E-03
DAV:  14    -0.401523137284E+02   -0.27183E-03   -0.15133E-05   800   0.154E-02    0.688E-03
DAV:  15    -0.401525683032E+02   -0.25457E-03   -0.17099E-05   824   0.130E-02    0.546E-03
DAV:  16    -0.401527389905E+02   -0.17069E-03   -0.19315E-05   828   0.137E-02    0.299E-03
DAV:  17    -0.401528066084E+02   -0.67618E-04   -0.84099E-06   852   0.105E-02    0.188E-03
DAV:  18    -0.401528232070E+02   -0.16599E-04   -0.11276E-06   652   0.480E-03    0.151E-03
DAV:  19    -0.401528370202E+02   -0.13813E-04   -0.12967E-06   604   0.479E-03    0.132E-03
DAV:  20    -0.401528436171E+02   -0.65969E-05   -0.61401E-07   556   0.359E-03    0.737E-04
DAV:  21    -0.401528474071E+02   -0.37899E-05   -0.37406E-07   508   0.256E-03    0.740E-04
DAV:  22    -0.401528486012E+02   -0.11941E-05   -0.16956E-07   508   0.194E-03    0.319E-04
DAV:  23    -0.401528499125E+02   -0.13113E-05   -0.13039E-07   484   0.171E-03    0.401E-04
DAV:  24    -0.401528504431E+02   -0.53068E-06   -0.88250E-08   512   0.138E-03
   4 F= -.41721634E+02 E0= -.41715398E+02  d E =-.160404E+00  mag=     7.0000
 curvature:   8.11 expect dE= 0.443E+00 dE for cont linesearch  0.266E+00
 ZBRENT: increasing intervall
 opt :  22.0000  next Energy=   -42.156661 (dE=-0.595E+00)
 bond charge predicted
       N       E                     dE             d eps       ncg     rms          rms(c)
DAV:   1    -0.391502384893E+02    0.10026E+01   -0.15747E+02   720   0.511E+01    0.671E+00
DAV:   2    -0.403078445061E+02   -0.11576E+01   -0.12559E+01  1036   0.236E+01    0.441E+00
DAV:   3    -0.402627834625E+02    0.45061E-01   -0.21210E-01   976   0.307E+00    0.238E+00
DAV:   4    -0.402428696543E+02    0.19914E-01   -0.45096E-02   992   0.105E+00    0.192E+00
DAV:   5    -0.402273301712E+02    0.15539E-01   -0.25245E-02   888   0.834E-01    0.104E+00
DAV:   6    -0.402229863838E+02    0.43438E-02   -0.16389E-02  1056   0.719E-01    0.328E-01
DAV:   7    -0.402237932916E+02   -0.80691E-03   -0.15530E-03  1004   0.209E-01    0.136E-01
DAV:   8    -0.402274301482E+02   -0.36369E-02   -0.20288E-04   976   0.899E-02    0.145E-01
DAV:   9    -0.402315839034E+02   -0.41538E-02   -0.20818E-04   828   0.757E-02    0.728E-02
DAV:  10    -0.402351343797E+02   -0.35505E-02   -0.18008E-04  1028   0.653E-02    0.174E-02
DAV:  11    -0.402363020668E+02   -0.11677E-02   -0.15676E-05   928   0.198E-02    0.111E-02
DAV:  12    -0.402372327348E+02   -0.93067E-03   -0.11376E-05   788   0.126E-02    0.655E-03
DAV:  13    -0.402384155149E+02   -0.11828E-02   -0.25531E-05   816   0.154E-02    0.636E-03
DAV:  14    -0.402391280675E+02   -0.71255E-03   -0.25311E-05   840   0.137E-02    0.451E-03
DAV:  15    -0.402394105936E+02   -0.28253E-03   -0.94886E-06   848   0.851E-03    0.262E-03
DAV:  16    -0.402395496808E+02   -0.13909E-03   -0.53436E-06   776   0.583E-03    0.153E-03
DAV:  17    -0.402395642890E+02   -0.14608E-04   -0.60013E-07   592   0.272E-03    0.498E-04
DAV:  18    -0.402395685356E+02   -0.42466E-05   -0.35061E-07   528   0.257E-03    0.559E-04
DAV:  19    -0.402395695267E+02   -0.99110E-06   -0.14621E-07   480   0.236E-03
   5 F= -.41759159E+02 E0= -.41749019E+02  d E =-.197929E+00  mag=     7.0000
 curvature: -13.24 expect dE=-0.845E+00 dE for cont linesearch -0.305E+00
 ZBRENT: bracketing found
 ZBRENT: interpolating
 opt :  16.5313  next Energy=   -41.806003 (dE=-0.245E+00)
 bond charge predicted
       N       E                     dE             d eps       ncg     rms          rms(c)
DAV:   1    -0.400893463567E+02    0.15022E+00   -0.33225E+01   720   0.230E+01    0.341E+00
DAV:   2    -0.402648786656E+02   -0.17553E+00   -0.19334E+00   992   0.911E+00    0.143E+00
DAV:   3    -0.402600867924E+02    0.47919E-02   -0.49309E-02  1064   0.179E+00    0.100E+00
DAV:   4    -0.402574906003E+02    0.25962E-02   -0.56920E-03  1072   0.491E-01    0.735E-01
DAV:   5    -0.402555405176E+02    0.19501E-02   -0.37567E-03   952   0.311E-01    0.440E-01
DAV:   6    -0.402549894478E+02    0.55107E-03   -0.24087E-03  1044   0.298E-01    0.152E-01
DAV:   7    -0.402553275959E+02   -0.33815E-03   -0.29637E-04  1060   0.141E-01    0.656E-02
DAV:   8    -0.402558678024E+02   -0.54021E-03   -0.52598E-05  1080   0.798E-02    0.349E-02
DAV:   9    -0.402562561943E+02   -0.38839E-03   -0.15614E-05   832   0.195E-02    0.228E-02
DAV:  10    -0.402567404082E+02   -0.48421E-03   -0.16217E-05   912   0.171E-02    0.104E-02
DAV:  11    -0.402570537620E+02   -0.31335E-03   -0.43685E-06   824   0.913E-03    0.419E-03
DAV:  12    -0.402572505941E+02   -0.19683E-03   -0.16540E-06   668   0.519E-03    0.267E-03
DAV:  13    -0.402575306725E+02   -0.28008E-03   -0.49267E-06   752   0.643E-03    0.244E-03
DAV:  14    -0.402576994355E+02   -0.16876E-03   -0.35357E-06   792   0.514E-03    0.195E-03
DAV:  15    -0.402577696728E+02   -0.70237E-04   -0.18711E-06   696   0.391E-03    0.540E-04
DAV:  16    -0.402577841438E+02   -0.14471E-04   -0.41776E-07   576   0.280E-03    0.630E-04
DAV:  17    -0.402577852519E+02   -0.11081E-05   -0.13335E-07   496   0.254E-03    0.318E-04
DAV:  18    -0.402577873312E+02   -0.20793E-05   -0.10086E-07   512   0.135E-03    0.288E-04
DAV:  19    -0.402577880597E+02   -0.72851E-06   -0.43202E-08   496   0.146E-03
   6 F= -.41800034E+02 E0= -.41790598E+02  d E =-.238805E+00  mag=     7.0000
 curvature:  -2.03 expect dE=-0.555E-01 dE for cont linesearch -0.623E-03
 trial: gam= 1.98785 g(F)=  0.273E-01 g(S)=  0.000E+00 ort = 0.198E-02 (trialstep = 0.612E+00)
 search vector abs. value=  0.855E-01
 bond charge predicted
       N       E                     dE             d eps       ncg     rms          rms(c)
DAV:   1    -0.402625109144E+02   -0.47236E-02   -0.27815E+00   720   0.658E+00    0.775E-01
DAV:   2    -0.402783973314E+02   -0.15886E-01   -0.16260E-01  1020   0.277E+00    0.407E-01
DAV:   3    -0.402784315283E+02   -0.34197E-04   -0.30120E-03  1084   0.479E-01    0.246E-01
DAV:   4    -0.402781000037E+02    0.33152E-03   -0.40152E-04   928   0.990E-02    0.182E-01
DAV:   5    -0.402776048258E+02    0.49518E-03   -0.70482E-04   824   0.124E-01    0.827E-02
DAV:   6    -0.402777255029E+02   -0.12068E-03   -0.17184E-04  1020   0.102E-01    0.234E-02
DAV:   7    -0.402778513803E+02   -0.12588E-03   -0.92040E-06   988   0.225E-02    0.127E-02
DAV:   8    -0.402780119429E+02   -0.16056E-03   -0.24676E-06   728   0.775E-03    0.110E-02
DAV:   9    -0.402781565644E+02   -0.14462E-03   -0.19133E-06   680   0.619E-03    0.598E-03
DAV:  10    -0.402782916820E+02   -0.13512E-03   -0.19961E-06   720   0.586E-03    0.218E-03
DAV:  11    -0.402783970481E+02   -0.10537E-03   -0.12359E-06   632   0.453E-03    0.139E-03
DAV:  12    -0.402784484410E+02   -0.51393E-04   -0.46954E-07   552   0.357E-03    0.127E-03
DAV:  13    -0.402785590090E+02   -0.11057E-03   -0.31767E-06   760   0.481E-03    0.865E-04
DAV:  14    -0.402786044089E+02   -0.45400E-04   -0.10515E-06   656   0.303E-03    0.674E-04
DAV:  15    -0.402786181252E+02   -0.13716E-04   -0.41124E-07   560   0.281E-03    0.524E-04
DAV:  16    -0.402786227156E+02   -0.45904E-05   -0.28117E-07   512   0.236E-03    0.252E-04
DAV:  17    -0.402786246727E+02   -0.19571E-05   -0.20950E-07   516   0.215E-03    0.159E-04
DAV:  18    -0.402786247481E+02   -0.75352E-07   -0.98308E-08   480   0.185E-03
   7 F= -.41815095E+02 E0= -.41805641E+02  d E =-.150606E-01  mag=     7.0000
 trial-energy change:   -0.015061  1 .order   -0.015080   -0.019103   -0.011057
 step:   1.4526(harm=  1.4526)  dis= 0.05037  next Energy=   -41.822712 (dE=-0.227E-01)
 bond charge predicted
       N       E                     dE             d eps       ncg     rms          rms(c)
DAV:   1    -0.402622663417E+02    0.16358E-01   -0.52468E+00   720   0.904E+00    0.108E+00
DAV:   2    -0.402926446116E+02   -0.30378E-01   -0.31003E-01  1040   0.386E+00    0.586E-01
DAV:   3    -0.402926464937E+02   -0.18821E-05   -0.57038E-03  1088   0.669E-01    0.340E-01
DAV:   4    -0.402920201576E+02    0.62634E-03   -0.80833E-04   904   0.137E-01    0.250E-01
DAV:   5    -0.402911999307E+02    0.82023E-03   -0.13665E-03   828   0.175E-01    0.113E-01
DAV:   6    -0.402914285353E+02   -0.22860E-03   -0.33027E-04  1016   0.143E-01    0.316E-02
DAV:   7    -0.402916542897E+02   -0.22575E-03   -0.16860E-05  1024   0.309E-02    0.180E-02
DAV:   8    -0.402919208040E+02   -0.26651E-03   -0.43265E-06   784   0.101E-02    0.154E-02
DAV:   9    -0.402921793202E+02   -0.25852E-03   -0.35736E-06   772   0.763E-03    0.817E-03
DAV:  10    -0.402924006841E+02   -0.22136E-03   -0.30212E-06   760   0.760E-03    0.258E-03
DAV:  11    -0.402925668929E+02   -0.16621E-03   -0.21311E-06   744   0.548E-03    0.201E-03
DAV:  12    -0.402926524768E+02   -0.85584E-04   -0.65110E-07   600   0.384E-03    0.153E-03
DAV:  13    -0.402928230855E+02   -0.17061E-03   -0.49345E-06   792   0.583E-03    0.104E-03
DAV:  14    -0.402928908851E+02   -0.67800E-04   -0.19343E-06   744   0.369E-03    0.963E-04
DAV:  15    -0.402929044058E+02   -0.13521E-04   -0.27264E-07   560   0.220E-03    0.785E-04
DAV:  16    -0.402929114000E+02   -0.69941E-05   -0.36901E-07   576   0.219E-03    0.337E-04
DAV:  17    -0.402929121412E+02   -0.74119E-06   -0.12423E-07   512   0.216E-03
   8 F= -.41822635E+02 E0= -.41813197E+02  d E =-.226006E-01  mag=     7.0000
 curvature:  -1.99 expect dE=-0.332E-01 dE for cont linesearch -0.133E-05
 trial: gam= 0.07115 g(F)=  0.167E-01 g(S)=  0.000E+00 ort =-0.239E-03 (trialstep = 0.780E+00)
 search vector abs. value=  0.171E-01
 bond charge predicted
       N       E                     dE             d eps       ncg     rms          rms(c)
DAV:   1    -0.402953529937E+02   -0.24416E-02   -0.97406E-01   720   0.406E+00    0.629E-01
DAV:   2    -0.403010349435E+02   -0.56819E-02   -0.55735E-02   996   0.159E+00    0.268E-01
DAV:   3    -0.403014764607E+02   -0.44152E-03   -0.14746E-03  1000   0.280E-01    0.170E-01
DAV:   4    -0.403012719131E+02    0.20455E-03   -0.14637E-04   952   0.635E-02    0.125E-01
DAV:   5    -0.403008666049E+02    0.40531E-03   -0.22441E-04   868   0.742E-02    0.737E-02
DAV:   6    -0.403008203403E+02    0.46265E-04   -0.93282E-05   944   0.527E-02    0.247E-02
DAV:   7    -0.403009855362E+02   -0.16520E-03   -0.11792E-05  1056   0.230E-02    0.108E-02
DAV:   8    -0.403011919734E+02   -0.20644E-03   -0.33984E-06   732   0.108E-02    0.526E-03
DAV:   9    -0.403013418502E+02   -0.14988E-03   -0.14589E-06   620   0.612E-03    0.295E-03
DAV:  10    -0.403015449285E+02   -0.20308E-03   -0.34270E-06   800   0.677E-03    0.232E-03
DAV:  11    -0.403016325434E+02   -0.87615E-04   -0.50432E-07   584   0.325E-03    0.164E-03
DAV:  12    -0.403018381146E+02   -0.20557E-03   -0.50091E-06   764   0.570E-03    0.111E-03
DAV:  13    -0.403019145346E+02   -0.76420E-04   -0.18942E-06   728   0.374E-03    0.528E-04
DAV:  14    -0.403019272234E+02   -0.12689E-04   -0.20586E-07   544   0.232E-03    0.362E-04
DAV:  15    -0.403019380745E+02   -0.10851E-04   -0.36347E-07   564   0.212E-03    0.309E-04
DAV:  16    -0.403019407367E+02   -0.26622E-05   -0.15987E-07   504   0.247E-03    0.232E-04
DAV:  17    -0.403019414779E+02   -0.74125E-06   -0.10397E-07   480   0.151E-03
   9 F= -.41834242E+02 E0= -.41825114E+02  d E =-.116076E-01  mag=     7.0000
 ZBRENT: can't locate minimum, use default step
 trial-energy change:   -0.011608  1 .order   -0.011590   -0.013000   -0.010180
 step:   3.1200(harm=  3.5954)  dis= 0.02710  next Energy=   -41.852598 (dE=-0.300E-01)
 bond charge predicted
       N       E                     dE             d eps       ncg     rms          rms(c)
DAV:   1    -0.402527123774E+02    0.49228E-01   -0.87636E+00   720   0.122E+01    0.199E+00
DAV:   2    -0.403053769633E+02   -0.52665E-01   -0.49453E-01  1012   0.460E+00    0.826E-01
DAV:   3    -0.403092030367E+02   -0.38261E-02   -0.11355E-02   896   0.719E-01    0.522E-01
DAV:   4    -0.403079639080E+02    0.12391E-02   -0.14823E-03   944   0.197E-01    0.394E-01
DAV:   5    -0.403047924148E+02    0.31715E-02   -0.21480E-03   852   0.230E-01    0.210E-01
DAV:   6    -0.403043583143E+02    0.43410E-03   -0.68452E-04   944   0.132E-01    0.737E-02
DAV:   7    -0.403054080328E+02   -0.10497E-02   -0.74298E-05   992   0.488E-02    0.357E-02
DAV:   8    -0.403073577039E+02   -0.19497E-02   -0.31522E-05   832   0.268E-02    0.138E-02
DAV:   9    -0.403085391742E+02   -0.11815E-02   -0.13244E-05   888   0.151E-02    0.803E-03
DAV:  10    -0.403096319006E+02   -0.10927E-02   -0.10054E-05   768   0.104E-02    0.625E-03
DAV:  11    -0.403109813373E+02   -0.13494E-02   -0.25820E-05   848   0.145E-02    0.365E-03
DAV:  12    -0.403115903274E+02   -0.60899E-03   -0.14532E-05   868   0.108E-02    0.263E-03
DAV:  13    -0.403118155452E+02   -0.22522E-03   -0.46785E-06   816   0.630E-03    0.147E-03
DAV:  14    -0.403119094477E+02   -0.93902E-04   -0.22187E-06   744   0.406E-03    0.911E-04
DAV:  15    -0.403119377111E+02   -0.28263E-04   -0.92968E-07   624   0.306E-03    0.732E-04
DAV:  16    -0.403119415595E+02   -0.38484E-05   -0.25967E-07   528   0.284E-03    0.493E-04
DAV:  17    -0.403119426315E+02   -0.10719E-05   -0.13362E-07   476   0.198E-03    0.311E-04
DAV:  18    -0.403119432185E+02   -0.58708E-06   -0.75135E-08   464   0.160E-03
  10 F= -.41852047E+02 E0= -.41844021E+02  d E =-.294126E-01  mag=     7.0000
 curvature:  -1.79 expect dE=-0.486E-02 dE for cont linesearch -0.448E-03
 ZBRENT: extrapolating
 opt :   3.5604  next Energy=   -41.852503 (dE=-0.299E-01)
 bond charge predicted
       N       E                     dE             d eps       ncg     rms          rms(c)
DAV:   1    -0.403087777150E+02    0.31649E-02   -0.31012E-01   720   0.229E+00    0.349E-01
DAV:   2    -0.403105674157E+02   -0.17897E-02   -0.18266E-02   996   0.926E-01    0.157E-01
DAV:   3    -0.403107113255E+02   -0.14391E-03   -0.45045E-04  1040   0.164E-01    0.960E-02
DAV:   4    -0.403106165433E+02    0.94782E-04   -0.47120E-05   960   0.359E-02    0.701E-02
DAV:   5    -0.403104101852E+02    0.20636E-03   -0.81855E-05   844   0.448E-02    0.377E-02
DAV:   6    -0.403104043900E+02    0.57952E-05   -0.26519E-05   952   0.306E-02    0.107E-02
DAV:   7    -0.403104812700E+02   -0.76880E-04   -0.19414E-06   600   0.119E-02    0.606E-03
DAV:   8    -0.403105871784E+02   -0.10591E-03   -0.28462E-06   712   0.108E-02    0.387E-03
DAV:   9    -0.403106382193E+02   -0.51041E-04   -0.54399E-07   520   0.445E-03    0.215E-03
DAV:  10    -0.403106972741E+02   -0.59055E-04   -0.60314E-07   576   0.374E-03    0.169E-03
DAV:  11    -0.403107719044E+02   -0.74630E-04   -0.99669E-07   592   0.398E-03    0.101E-03
DAV:  12    -0.403108306232E+02   -0.58719E-04   -0.97542E-07   632   0.407E-03    0.865E-04
DAV:  13    -0.403108715547E+02   -0.40931E-04   -0.68028E-07   600   0.345E-03    0.698E-04
DAV:  14    -0.403109033740E+02   -0.31819E-04   -0.94089E-07   632   0.341E-03    0.540E-04
DAV:  15    -0.403109135976E+02   -0.10224E-04   -0.33309E-07   544   0.284E-03    0.438E-04
DAV:  16    -0.403109187028E+02   -0.51052E-05   -0.32691E-07   528   0.239E-03    0.268E-04
DAV:  17    -0.403109194155E+02   -0.71276E-06   -0.15065E-07   480   0.240E-03
  11 F= -.41852502E+02 E0= -.41844702E+02  d E =-.298671E-01  mag=     7.0000
 curvature:  -1.82 expect dE=-0.580E-02 dE for cont linesearch -0.129E-06
 trial: gam= 0.19058 g(F)=  0.319E-02 g(S)=  0.000E+00 ort =-0.349E-04 (trialstep = 0.134E+01)
 search vector abs. value=  0.379E-02
 bond charge predicted
       N       E                     dE             d eps       ncg     rms          rms(c)
DAV:   1    -0.403075155742E+02    0.34031E-02   -0.60857E-01   720   0.320E+00    0.541E-01
DAV:   2    -0.403109431404E+02   -0.34276E-02   -0.34586E-02  1008   0.137E+00    0.280E-01
DAV:   3    -0.403111562218E+02   -0.21308E-03   -0.14289E-03  1104   0.333E-01    0.181E-01
DAV:   4    -0.403109498682E+02    0.20635E-03   -0.11532E-04  1012   0.664E-02    0.138E-01
DAV:   5    -0.403105399292E+02    0.40994E-03   -0.16731E-04   812   0.559E-02    0.753E-02
DAV:   6    -0.403104193269E+02    0.12060E-03   -0.88793E-05  1028   0.680E-02    0.229E-02
DAV:   7    -0.403105535042E+02   -0.13418E-03   -0.88750E-06   980   0.186E-02    0.161E-02
DAV:   8    -0.403107853532E+02   -0.23185E-03   -0.36590E-06   712   0.117E-02    0.105E-02
DAV:   9    -0.403110370446E+02   -0.25169E-03   -0.59872E-06   880   0.105E-02    0.411E-03
DAV:  10    -0.403111320232E+02   -0.94979E-04   -0.74744E-07   544   0.473E-03    0.225E-03
DAV:  11    -0.403112885475E+02   -0.15652E-03   -0.22491E-06   704   0.500E-03    0.171E-03
DAV:  12    -0.403114163449E+02   -0.12780E-03   -0.16918E-06   696   0.409E-03    0.156E-03
DAV:  13    -0.403115335503E+02   -0.11721E-03   -0.28694E-06   760   0.489E-03    0.103E-03
DAV:  14    -0.403115844046E+02   -0.50854E-04   -0.11524E-06   664   0.288E-03    0.510E-04
DAV:  15    -0.403115978570E+02   -0.13452E-04   -0.35188E-07   544   0.247E-03    0.331E-04
DAV:  16    -0.403115999343E+02   -0.20773E-05   -0.16199E-07   480   0.225E-03    0.204E-04
DAV:  17    -0.403116008988E+02   -0.96445E-06   -0.11099E-07   500   0.158E-03
  12 F= -.41854917E+02 E0= -.41847068E+02  d E =-.241458E-02  mag=     7.0000
 trial-energy change:   -0.002415  1 .order   -0.002397   -0.004248   -0.000546
 step:   1.5269(harm=  1.5332)  dis= 0.00934  next Energy=   -41.854956 (dE=-0.245E-02)
 bond charge predicted
       N       E                     dE             d eps       ncg     rms          rms(c)
DAV:   1    -0.403113091977E+02    0.29074E-03   -0.12408E-02   728   0.458E-01    0.760E-02
DAV:   2    -0.403113631504E+02   -0.53953E-04   -0.72439E-04  1016   0.203E-01    0.413E-02
DAV:   3    -0.403113752942E+02   -0.12144E-04   -0.28517E-05  1096   0.481E-02    0.257E-02
DAV:   4    -0.403113641164E+02    0.11178E-04   -0.18709E-06   576   0.925E-03    0.206E-02
DAV:   5    -0.403113385102E+02    0.25606E-04   -0.64826E-06   820   0.117E-02    0.106E-02
DAV:   6    -0.403113298294E+02    0.86808E-05   -0.10367E-06   480   0.975E-03    0.263E-03
DAV:   7    -0.403113379154E+02   -0.80860E-05   -0.53291E-07   488   0.734E-03    0.251E-03
DAV:   8    -0.403113466755E+02   -0.87601E-05   -0.34622E-07   492   0.530E-03    0.184E-03
DAV:   9    -0.403113550025E+02   -0.83269E-05   -0.25327E-07   480   0.342E-03    0.161E-03
DAV:  10    -0.403113620854E+02   -0.70829E-05   -0.13701E-07   480   0.276E-03    0.138E-03
DAV:  11    -0.403113732770E+02   -0.11192E-04   -0.19249E-07   536   0.252E-03    0.679E-04
DAV:  12    -0.403113807613E+02   -0.74842E-05   -0.18030E-07   480   0.227E-03    0.605E-04
DAV:  13    -0.403113823734E+02   -0.16121E-05   -0.84774E-08   480   0.198E-03    0.211E-04
DAV:  14    -0.403113882230E+02   -0.58496E-05   -0.14657E-07   492   0.125E-03    0.446E-04
DAV:  15    -0.403113921332E+02   -0.39102E-05   -0.10193E-07   496   0.162E-03    0.233E-04
DAV:  16    -0.403113939429E+02   -0.18097E-05   -0.84423E-08   504   0.128E-03    0.238E-04
DAV:  17    -0.403113951532E+02   -0.12102E-05   -0.65366E-08   480   0.130E-03    0.178E-04
DAV:  18    -0.403113956741E+02   -0.52096E-06   -0.49265E-08   480   0.102E-03
  13 F= -.41854959E+02 E0= -.41847104E+02  d E =-.245708E-02  mag=     7.0000
 curvature:  -0.91 expect dE=-0.313E-03 dE for cont linesearch -0.217E-07
 trial: gam= 0.09934 g(F)=  0.342E-03 g(S)=  0.000E+00 ort = 0.950E-05 (trialstep = 0.137E+01)
 search vector abs. value=  0.382E-03
 bond charge predicted
       N       E                     dE             d eps       ncg     rms          rms(c)
DAV:   1    -0.403115017522E+02   -0.10660E-03   -0.26589E-02   720   0.678E-01    0.730E-02
DAV:   2    -0.403116236403E+02   -0.12189E-03   -0.14505E-03  1032   0.250E-01    0.357E-02
DAV:   3    -0.403116306354E+02   -0.69952E-05   -0.21784E-05  1044   0.380E-02    0.243E-02
DAV:   4    -0.403116273773E+02    0.32582E-05   -0.35920E-06   720   0.105E-02    0.182E-02
DAV:   5    -0.403116182991E+02    0.90782E-05   -0.90134E-06   888   0.145E-02    0.813E-03
DAV:   6    -0.403116192180E+02   -0.91889E-06   -0.13755E-06   476   0.821E-03
  14 F= -.41855371E+02 E0= -.41847448E+02  d E =-.412327E-03  mag=     7.0000
 ZBRENT: can't locate minimum, use default step
 trial-energy change:   -0.000412  1 .order   -0.000430   -0.000472   -0.000388
 step:   5.4970(harm=  7.7347)  dis= 0.00478  next Energy=   -41.856287 (dE=-0.133E-02)
 bond charge predicted
       N       E                     dE             d eps       ncg     rms          rms(c)
DAV:   1    -0.403106089131E+02    0.10094E-02   -0.23921E-01   720   0.204E+00    0.219E-01
DAV:   2    -0.403117892483E+02   -0.11803E-02   -0.13194E-02  1040   0.762E-01    0.110E-01
DAV:   3    -0.403117968504E+02   -0.76021E-05   -0.19772E-04  1028   0.118E-01    0.733E-02
DAV:   4    -0.403117731140E+02    0.23736E-04   -0.36429E-05  1040   0.314E-02    0.546E-02
DAV:   5    -0.403117329648E+02    0.40149E-04   -0.53330E-05   856   0.348E-02    0.243E-02
DAV:   6    -0.403117468500E+02   -0.13885E-04   -0.15380E-05  1000   0.279E-02    0.609E-03
DAV:   7    -0.403117634005E+02   -0.16550E-04   -0.52599E-07   524   0.827E-03    0.412E-03
DAV:   8    -0.403117823819E+02   -0.18981E-04   -0.43670E-07   524   0.534E-03    0.347E-03
DAV:   9    -0.403117987731E+02   -0.16391E-04   -0.33017E-07   496   0.420E-03    0.165E-03
DAV:  10    -0.403118090169E+02   -0.10244E-04   -0.27111E-07   504   0.356E-03    0.109E-03
DAV:  11    -0.403118233915E+02   -0.14375E-04   -0.41089E-07   552   0.385E-03    0.868E-04
DAV:  12    -0.403118346116E+02   -0.11220E-04   -0.32343E-07   512   0.350E-03    0.528E-04
DAV:  13    -0.403118369430E+02   -0.23314E-05   -0.15182E-07   480   0.272E-03    0.429E-04
DAV:  14    -0.403118428626E+02   -0.59196E-05   -0.17145E-07   500   0.184E-03    0.414E-04
DAV:  15    -0.403118482292E+02   -0.53666E-05   -0.17542E-07   508   0.195E-03    0.186E-04
DAV:  16    -0.403118514976E+02   -0.32685E-05   -0.16747E-07   524   0.176E-03    0.309E-04
DAV:  17    -0.403118521987E+02   -0.70105E-06   -0.87795E-08   480   0.170E-03
  15 F= -.41856187E+02 E0= -.41848062E+02  d E =-.122770E-02  mag=     7.0000
 curvature:  -3.77 expect dE=-0.229E-03 dE for cont linesearch -0.105E-03
 trial: gam=-0.11902 g(F)=  0.608E-04 g(S)=  0.000E+00 ort = 0.103E-03 (trialstep = 0.220E+01)
 search vector abs. value=  0.417E-04
 reached required accuracy - stopping structural energy minimisation
