CrCl3 2x2 + Co | Bands U_all | In-Plane Embedded Interstitial (z=0.00A)
   1.0000000000000000     
    12.1343886061900470    0.0033722835295982    0.0000000000000000
    -6.0642738577024948   10.5103973726591580    0.0000000000000000
     0.0000000000000000    0.0000000000000000   17.6887664794999999
   Cr   Cl   Co
     8    24     1
Direct
  0.1460408440030030  0.3297604859424135  0.3357126052830604
  0.1627672676691792  0.8435710662955419  0.3418016311501038
  0.6575888537382338  0.3382448671244300  0.3356739208287076
  0.6608670274304836  0.8466824976360303  0.3352753792779725
  0.8209076871996296  0.1724411484641248  0.3330214490570210
  0.8378297446710830  0.6865361007144325  0.3390658339618689
  0.3229979996603518  0.1694763496491751  0.3394876341643064
  0.3263537093499069  0.6780264601862588  0.3390206749097321
  0.1720546618472627  0.5129341516375034  0.2645971004918479
  0.1701505868776654  0.0083215266198717  0.2638204365523713
  0.6437054679229264  0.4925956394662679  0.2571645558784799
  0.6573977985573060  0.0030942983314783  0.2597201809440902
  0.3228244468905849  0.3344097681461628  0.2617661092713583
  0.3171946343678766  0.8310287520999549  0.2620699190087623
  0.8077782813883496  0.3286292618869253  0.2574050781394734
  0.8134573299546161  0.8356718729579694  0.2594123834625670
  0.9678373792543011  0.1725073717771558  0.2487892679208946
  0.0033201569365177  0.6935560593923934  0.2616018555333380
  0.4877854484200865  0.1787041092369540  0.2627108422187472
  0.4921712110455280  0.6791714249112565  0.2595641635171193
  0.9803666908560096  0.3224659718840701  0.4131747100180740
  0.0159151334290661  0.8434442006146462  0.4261150181227303
  0.4918009132546839  0.3371562924242977  0.4150547999276130
  0.4960967100289603  0.8374810868797998  0.4120194121005299
  0.3402999174570999  0.5236242771825663  0.4174249046384507
  0.3262977157792458  0.0129767120273736  0.4150323814779424
  0.8119022734144400  0.5033357655911419  0.4100723223264196
  0.8135721024954715  0.0077537244949116  0.4110141074981932
  0.1705494646944279  0.1806248411021483  0.4154082565377209
  0.1761270615538194  0.6874452059277263  0.4173553442173595
  0.6664913990209986  0.1851387292448028  0.4126750533971771
  0.6609102381723542  0.6817289936207290  0.4129640164420986
  0.4919700016585642  0.5081253185294066  0.3372486987238555

  0.00000000E+00  0.00000000E+00  0.00000000E+00
  0.00000000E+00  0.00000000E+00  0.00000000E+00
  0.00000000E+00  0.00000000E+00  0.00000000E+00
  0.00000000E+00  0.00000000E+00  0.00000000E+00
  0.00000000E+00  0.00000000E+00  0.00000000E+00
  0.00000000E+00  0.00000000E+00  0.00000000E+00
  0.00000000E+00  0.00000000E+00  0.00000000E+00
  0.00000000E+00  0.00000000E+00  0.00000000E+00
  0.00000000E+00  0.00000000E+00  0.00000000E+00
  0.00000000E+00  0.00000000E+00  0.00000000E+00
  0.00000000E+00  0.00000000E+00  0.00000000E+00
  0.00000000E+00  0.00000000E+00  0.00000000E+00
  0.00000000E+00  0.00000000E+00  0.00000000E+00
  0.00000000E+00  0.00000000E+00  0.00000000E+00
  0.00000000E+00  0.00000000E+00  0.00000000E+00
  0.00000000E+00  0.00000000E+00  0.00000000E+00
  0.00000000E+00  0.00000000E+00  0.00000000E+00
  0.00000000E+00  0.00000000E+00  0.00000000E+00
  0.00000000E+00  0.00000000E+00  0.00000000E+00
  0.00000000E+00  0.00000000E+00  0.00000000E+00
  0.00000000E+00  0.00000000E+00  0.00000000E+00
  0.00000000E+00  0.00000000E+00  0.00000000E+00
  0.00000000E+00  0.00000000E+00  0.00000000E+00
  0.00000000E+00  0.00000000E+00  0.00000000E+00
  0.00000000E+00  0.00000000E+00  0.00000000E+00
  0.00000000E+00  0.00000000E+00  0.00000000E+00
  0.00000000E+00  0.00000000E+00  0.00000000E+00
  0.00000000E+00  0.00000000E+00  0.00000000E+00
  0.00000000E+00  0.00000000E+00  0.00000000E+00
  0.00000000E+00  0.00000000E+00  0.00000000E+00
  0.00000000E+00  0.00000000E+00  0.00000000E+00
  0.00000000E+00  0.00000000E+00  0.00000000E+00
  0.00000000E+00  0.00000000E+00  0.00000000E+00
