Cr12 Cl36
1.0
   0.0000000000000000   11.9272160000000014    0.0000000000000000
  18.3409140000000015    0.0000000000000000    0.0000000000000000
   0.0000000000000000   -5.0620549999999991   -5.9214240000000018
Cr Cl
12 36
direct
   0.5000000000000000    0.1241850000000000    0.5000000000000000 Cr
   0.0000000000000000    0.3758150000000000    0.5000000000000000 Cr
   0.0000000000000000    0.0936700000000000    0.0000000000000000 Cr
   0.5000000000000000    0.4063300000000000    0.0000000000000000 Cr
   0.0000000000000000    0.0000000000000000    0.5000000000000000 Cr
   0.5000000000000000    0.0000000000000000    0.0000000000000000 Cr
   0.0000000000000000    0.6241850000000000    0.5000000000000000 Cr
   0.5000000000000000    0.8758150000000000    0.5000000000000000 Cr
   0.5000000000000000    0.5936699999999999    0.0000000000000000 Cr
   0.0000000000000000    0.9063300000000001    0.0000000000000000 Cr
   0.5000000000000000    0.5000000000000000    0.5000000000000000 Cr
   0.0000000000000000    0.5000000000000000    0.0000000000000000 Cr
   0.4967545000000001    0.1836035000000000    0.7360930000000001 Cl
   0.5032454999999999    0.1836035000000000    0.2639069999999999 Cl
   0.0032454999999999    0.3163965000000000    0.2639069999999999 Cl
   0.9967545000000002    0.3163965000000000    0.7360930000000001 Cl
   0.9860590000000001    0.0989240000000000    0.2901249999999999 Cl
   0.0139409999999999    0.0989240000000000    0.7098750000000001 Cl
   0.5139410000000000    0.4010760000000000    0.7098750000000001 Cl
   0.4860590000000001    0.4010760000000000    0.2901249999999999 Cl
   0.7096055000000000    0.3307385000000000    0.2113779999999998 Cl
   0.2903945000000000    0.3307385000000000    0.7886220000000002 Cl
   0.7903945000000000    0.1692615000000000    0.7886220000000002 Cl
   0.2096055000000000    0.1692615000000000    0.2113779999999998 Cl
   0.7468180000000002    0.0000000000000000    0.2930169999999999 Cl
   0.2531819999999998    0.0000000000000000    0.7069830000000001 Cl
   0.4810290000000002    0.0000000000000000    0.2880090000000000 Cl
   0.5189709999999998    0.0000000000000000    0.7119910000000000 Cl
   0.1717210000000001    0.0000000000000000    0.1829090000000000 Cl
   0.8282789999999999    0.0000000000000000    0.8170910000000000 Cl
   0.9967545000000002    0.6836035000000000    0.7360930000000001 Cl
   0.0032454999999999    0.6836035000000000    0.2639069999999999 Cl
   0.5032454999999998    0.8163965000000000    0.2639069999999999 Cl
   0.4967545000000002    0.8163965000000000    0.7360930000000001 Cl
   0.4860590000000001    0.5989240000000000    0.2901249999999999 Cl
   0.5139410000000000    0.5989240000000000    0.7098750000000001 Cl
   0.0139410000000000    0.9010760000000000    0.7098750000000001 Cl
   0.9860590000000000    0.9010760000000000    0.2901249999999999 Cl
   0.2096055000000000    0.8307385000000000    0.2113779999999998 Cl
   0.7903945000000001    0.8307385000000000    0.7886220000000002 Cl
   0.2903945000000000    0.6692615000000000    0.7886220000000002 Cl
   0.7096054999999999    0.6692615000000000    0.2113779999999998 Cl
   0.2468180000000002    0.5000000000000000    0.2930169999999999 Cl
   0.7531819999999998    0.5000000000000000    0.7069830000000001 Cl
   0.9810290000000002    0.5000000000000000    0.2880090000000000 Cl
   0.0189709999999998    0.5000000000000000    0.7119910000000000 Cl
   0.6717210000000002    0.5000000000000000    0.1829090000000000 Cl
   0.3282789999999999    0.5000000000000000    0.8170910000000000 Cl
