Cr6 Cl18
1.0
   8.6823280000000000    5.9408789999999998    0.0000000000000000
  -8.6823280000000000    5.9408789999999998    0.0000000000000000
   0.0000000000000000    4.5667590000000002    6.3853380000000000
Cr Cl
6 18
direct
   0.6099680000000000    0.3900320000000000    0.5000000000000000 Cr
   0.1052810000000000    0.8947190000000000    0.0000000000000000 Cr
   0.0000000000000000    0.0000000000000000    0.5000000000000000 Cr
   0.5000000000000000    0.5000000000000000    0.0000000000000000 Cr
   0.3900320000000000    0.6099680000000000    0.5000000000000000 Cr
   0.8947190000000000    0.1052810000000000    0.0000000000000000 Cr
   0.6395020000000000    0.0168980000000000    0.1250710000000000 Cl
   0.9831020000000000    0.3604980000000000    0.8749290000000000 Cl
   0.6071029999999999    0.2531510000000000    0.3464820000000000 Cl
   0.7468490000000000    0.3928970000000000    0.6535180000000000 Cl
   0.0826860000000000    0.8744970000000000    0.3241160000000000 Cl
   0.1255030000000000    0.9173140000000000    0.6758840000000000 Cl
   0.8430879999999999    0.8430879999999999    0.1302830000000000 Cl
   0.1569120000000000    0.1569120000000000    0.8697170000000000 Cl
   0.7400780000000000    0.7400780000000000    0.7417160000000000 Cl
   0.2599220000000000    0.2599220000000000    0.2582840000000000 Cl
   0.5344770000000000    0.5344770000000000    0.2774990000000000 Cl
   0.4655230000000000    0.4655230000000000    0.7225009999999999 Cl
   0.0168980000000000    0.6395020000000000    0.1250710000000000 Cl
   0.3604980000000000    0.9831020000000000    0.8749290000000000 Cl
   0.2531510000000000    0.6071029999999999    0.3464820000000000 Cl
   0.3928970000000000    0.7468490000000000    0.6535180000000000 Cl
   0.8744970000000000    0.0826860000000000    0.3241160000000000 Cl
   0.9173140000000000    0.1255030000000000    0.6758840000000000 Cl
