Cr12 Cl36
1.0
   0.0000000000000000   11.8817579999999996    0.0000000000000000
  17.3646560000000001    0.0000000000000000    0.0000000000000000
   0.0000000000000000   -4.5667589999999985   -6.3853380000000008
Cr Cl
12 36
direct
   0.0000000000000000    0.3900320000000002    0.5000000000000000 Cr
   0.5000000000000000    0.3947190000000000    0.0000000000000000 Cr
   0.0000000000000000    0.0000000000000000    0.5000000000000000 Cr
   0.5000000000000000    0.0000000000000000    0.0000000000000000 Cr
   0.5000000000000000    0.1099679999999998    0.5000000000000000 Cr
   0.0000000000000000    0.1052810000000000    0.0000000000000000 Cr
   0.5000000000000000    0.8900320000000002    0.5000000000000000 Cr
   0.0000000000000000    0.8947190000000000    0.0000000000000000 Cr
   0.5000000000000000    0.5000000000000000    0.5000000000000000 Cr
   0.0000000000000000    0.5000000000000000    0.0000000000000000 Cr
   0.0000000000000000    0.6099679999999998    0.5000000000000000 Cr
   0.5000000000000000    0.6052810000000000    0.0000000000000000 Cr
   0.8282000000000000    0.1886980000000000    0.8749290000000001 Cl
   0.1718000000000000    0.1886980000000000    0.1250709999999999 Cl
   0.9301270000000000    0.3230240000000001    0.6535179999999999 Cl
   0.0698730000000000    0.3230240000000001    0.3464820000000001 Cl
   0.4785915000000001    0.3959055000000000    0.6758839999999999 Cl
   0.5214084999999999    0.3959055000000000    0.3241160000000001 Cl
   0.8430879999999998    0.0000000000000000    0.8697170000000001 Cl
   0.1569120000000002    0.0000000000000000    0.1302829999999999 Cl
   0.7400779999999999    0.0000000000000000    0.2582840000000000 Cl
   0.2599220000000001    0.0000000000000000    0.7417160000000000 Cl
   0.5344769999999999    0.0000000000000000    0.7225010000000001 Cl
   0.4655230000000001    0.0000000000000000    0.2774989999999999 Cl
   0.3282000000000000    0.3113020000000000    0.8749290000000001 Cl
   0.6718000000000000    0.3113020000000000    0.1250709999999999 Cl
   0.4301270000000000    0.1769759999999999    0.6535179999999999 Cl
   0.5698730000000000    0.1769759999999999    0.3464820000000001 Cl
   0.9785915000000001    0.1040945000000000    0.6758839999999999 Cl
   0.0214084999999999    0.1040945000000000    0.3241160000000001 Cl
   0.3282000000000000    0.6886980000000000    0.8749290000000001 Cl
   0.6718000000000000    0.6886980000000000    0.1250709999999999 Cl
   0.4301270000000000    0.8230240000000002    0.6535179999999999 Cl
   0.5698729999999999    0.8230240000000002    0.3464820000000001 Cl
   0.9785915000000001    0.8959055000000000    0.6758839999999999 Cl
   0.0214084999999999    0.8959055000000000    0.3241160000000001 Cl
   0.3430879999999998    0.5000000000000000    0.8697170000000001 Cl
   0.6569120000000002    0.5000000000000000    0.1302829999999999 Cl
   0.2400779999999999    0.5000000000000000    0.2582840000000000 Cl
   0.7599220000000000    0.5000000000000000    0.7417160000000000 Cl
   0.0344769999999999    0.5000000000000000    0.7225010000000001 Cl
   0.9655230000000001    0.5000000000000000    0.2774989999999999 Cl
   0.8282000000000000    0.8113020000000000    0.8749290000000001 Cl
   0.1718000000000000    0.8113020000000000    0.1250709999999999 Cl
   0.9301270000000001    0.6769759999999998    0.6535179999999999 Cl
   0.0698730000000000    0.6769759999999998    0.3464820000000001 Cl
   0.4785915000000001    0.6040945000000000    0.6758839999999999 Cl
   0.5214084999999999    0.6040945000000000    0.3241160000000001 Cl
