Cr4 Cl12
1.0
   0.0000000000000000    6.0001032330308810    0.0000000000000000
  10.3830567436737429    0.0000000000000000    0.0000000000000000
   0.0000000000000000   -1.8907217678124593   -5.9990609271236677
Cr Cl
4 12
direct
   0.5000000000000000    0.6667320399999999    0.5000000000000000 Cr
   0.5000000000000000    0.3332679600000001    0.5000000000000000 Cr
   0.0000000000000000    0.1667320399999999    0.5000000000000000 Cr
   0.0000000000000000    0.8332679600000001    0.5000000000000000 Cr
   0.7480722000000001    0.8220178499999999    0.7224481200000001 Cl
   0.2519277999999999    0.8220178499999999    0.2775518799999999 Cl
   0.2134964150000003    0.0000000000000000    0.7234171700000001 Cl
   0.7865035849999997    0.0000000000000000    0.2765828299999999 Cl
   0.7480722000000001    0.1779821500000001    0.7224481200000001 Cl
   0.2519277999999999    0.1779821500000001    0.2775518799999999 Cl
   0.2480722000000001    0.3220178499999999    0.7224481200000001 Cl
   0.7519277999999998    0.3220178499999999    0.2775518799999999 Cl
   0.7134964150000003    0.5000000000000000    0.7234171700000001 Cl
   0.2865035849999997    0.5000000000000000    0.2765828299999999 Cl
   0.2480722000000001    0.6779821500000001    0.7224481200000001 Cl
   0.7519277999999998    0.6779821500000001    0.2775518799999999 Cl
