Cr6 Cl18
1.0
   2.9980550308212730   -5.1927836372699208    0.0000000000000000
   2.9980550308212730    5.1927836372699208    0.0000000000000000
   0.0000000000000000    0.0000000000000000   17.8852091806017945
Cr Cl
6 18
direct
   0.3333333333333333    0.6666666666666666    0.0001360766666667 Cr
   0.3333333333333333    0.6666666666666667    0.3331972566666667 Cr
   0.0000000000000000    0.0000000000000000    0.3334694100000000 Cr
   0.0000000000000000    0.0000000000000000    0.6665305900000000 Cr
   0.6666666666666666    0.3333333333333333    0.6668027433333333 Cr
   0.6666666666666666    0.3333333333333335    0.9998639233333333 Cr
   0.6443183333333333    0.6440197866666664    0.0746738666666667 Cl
   0.6669652133333336    0.9776516666666666    0.2586594666666666 Cl
   0.9997014533333330    0.3556816666666667    0.0746738666666667 Cl
   0.3106864533333331    0.3330347866666664    0.2586594666666666 Cl
   0.0223483333333333    0.6893135466666669    0.2586594666666666 Cl
   0.3559802133333336    0.0002985466666670    0.0746738666666667 Cl
   0.3109850000000001    0.9773531199999996    0.4080072000000000 Cl
   0.3336318800000002    0.3109849999999998    0.5919927999999999 Cl
   0.6663681199999996    0.6890149999999999    0.4080072000000000 Cl
   0.9773531199999997    0.6663681199999997    0.5919927999999999 Cl
   0.6890149999999999    0.0226468800000001    0.5919927999999999 Cl
   0.0226468800000004    0.3336318800000003    0.4080072000000000 Cl
   0.9776516666666666    0.3106864533333331    0.7413405333333334 Cl
   0.0002985466666670    0.6443183333333331    0.9253261333333332 Cl
   0.3330347866666663    0.0223483333333334    0.7413405333333334 Cl
   0.6440197866666664    0.9997014533333330    0.9253261333333332 Cl
   0.3556816666666666    0.3559802133333334    0.9253261333333332 Cl
   0.6893135466666669    0.6669652133333336    0.7413405333333334 Cl
