Cr6 Cl18
1.0
   2.9965566300250934   -5.1901883309608365    0.0000000000000000
   2.9965566300250934    5.1901883309608365    0.0000000000000000
   0.0000000000000000    0.0000000000000000   19.4575879806611880
Cr Cl
6 18
direct
   0.2221681099999999    0.7778318900000001    0.6666666666666666 Cr
   0.8888173650000000    0.1111826350000001    0.6666666666666666 Cr
   0.2221681099999999    0.4443362199999998    0.3333333333333333 Cr
   0.8888173650000000    0.7776347299999999    0.3333333333333333 Cr
   0.2223652700000001    0.1111826350000000    0.0000000000000000 Cr
   0.5556637800000002    0.7778318900000001    0.0000000000000000 Cr
   0.2450024900000000    0.4444914699999999    0.9312456000000000 Cl
   0.1994994899999999    0.0883957200000001    0.5979342200000000 Cl
   0.2450024900000000    0.8005110200000001    0.0687544000000000 Cl
   0.5555711400000002    0.4671805300000001    0.2646564400000000 Cl
   0.5555711400000002    0.0883906100000000    0.7353435600000000 Cl
   0.1994889799999999    0.4444914699999999    0.7354210666666666 Cl
   0.5555085300000001    0.7549975100000000    0.4020877333333333 Cl
   0.9116042799999999    0.1111037699999999    0.2646008866666665 Cl
   0.9116042799999999    0.8005005100000000    0.7353991133333333 Cl
   0.5328194699999999    0.0883906100000000    0.9313231066666666 Cl
   0.1994994899999999    0.1111037699999999    0.4020657800000000 Cl
   0.5328194699999999    0.4444288599999998    0.0686768933333333 Cl
   0.8888962300000001    0.0883957200000001    0.0687324466666667 Cl
   0.9116093900000000    0.4671805300000001    0.4020102266666666 Cl
   0.9116093900000000    0.4444288599999998    0.5979897733333333 Cl
   0.5555085300000001    0.8005110200000001    0.5979122666666665 Cl
   0.1994889799999999    0.7549975100000000    0.2645789333333333 Cl
   0.8888962300000001    0.8005005100000000    0.9312675533333332 Cl
