Cr2 Cl6
1.0
   5.4347962000000001    0.0380067600000000    4.2426640500000001
   2.0920781399999999    5.0158923700000004    4.2419861299999999
   0.0551091600000000    0.0381749600000000    6.8927688199999997
Cr Cl
2 6
direct
   0.6665305900000000    0.6666475800000000    0.6665421800000000 Cr
   0.3334694100000000    0.3333524200000000    0.3334578200000000 Cr
   0.5693459199999999    0.9257416700000000    0.2810193900000000 Cl
   0.7190159900000000    0.4306149800000000    0.0743209500000000 Cl
   0.2809840100000000    0.5693850200000000    0.9256790499999999 Cl
   0.0743546300000000    0.7189692100000000    0.4306143500000000 Cl
   0.4306540800000000    0.0742583300000000    0.7189806100000000 Cl
   0.9256453700000000    0.2810307900000000    0.5693856500000000 Cl
