Cr6 Cl18
1.0
   5.9931162400000000   -0.0000076500000000    0.0000263400000000
  -2.9965492500000002    5.1901891500000001   -0.0000907700000000
   0.0000649700000000   -0.0001466600000000   19.4575879799999996
Cr Cl
6 18
direct
   0.8888104200000000    0.1111508600000000    0.6666423400000000 Cr
   0.5554649800000000    0.4445069100000000    0.6666414500000000 Cr
   0.8888280800000000    0.7776640200000000    0.3333867000000000 Cr
   0.5554725100000000    0.1109543200000000    0.3333832800000000 Cr
   0.8890629200000000    0.4445396500000000    0.9999681200000000 Cr
   0.2223520400000000    0.1111928800000000    0.9999686200000000 Cr
   0.9116536300000000    0.7778192700000000    0.9312456000000000 Cl
   0.8661506300000000    0.4217235200000000    0.5979342200000000 Cl
   0.9117827400000000    0.1339755900000000    0.0687232300000000 Cl
   0.2222222800000000    0.8005083300000000    0.2646564400000000 Cl
   0.2222290800000000    0.4217589400000000    0.7353728100000000 Cl
   0.8660862400000000    0.7778065000000000    0.7353849099999999 Cl
   0.2221895500000000    0.0883607900000000    0.4020903800000000 Cl
   0.5783286800000000    0.4444108300000000    0.2646659100000000 Cl
   0.5782772100000000    0.1338623400000000    0.7353653600000000 Cl
   0.1996127700000000    0.4218381000000000    0.9312525699999999 Cl
   0.8662062800000000    0.4444191400000000    0.4020712700000000 Cl
   0.1994953800000000    0.7777871500000000    0.0687111300000000 Cl
   0.5556003200000000    0.4216912000000000    0.0687004700000000 Cl
   0.5781678000000000    0.8004043900000000    0.4020817000000000 Cl
   0.5782091200000000    0.7777556100000000    0.5979249700000000 Cl
   0.2221748200000000    0.1338645300000000    0.5979160000000000 Cl
   0.8660355000000000    0.0882133800000000    0.2646440300000000 Cl
   0.5555880300000000    0.1337917600000000    0.9312654900000000 Cl
