Cr2 Cl6
1.0
   6.0484980000000004    0.0000000000000000    0.0000000000000000
  -3.0242490000000002    5.2381529227393697    0.0000000000000000
   0.0000000000000000    0.0000000000000000   17.6700000000000017
Cr Cl
2 6
direct
   0.3333333333333333    0.6666666666666666    0.5000000000000000 Cr
   0.6666666666666666    0.3333333333333333    0.5000000000000000 Cr
   0.3550000000000000    0.0000000000000000    0.4236000000000000 Cl
   0.0000000000000000    0.3550000000000000    0.4236000000000000 Cl
   0.6450000000000000    0.6450000000000000    0.4236000000000000 Cl
   0.6450000000000000    0.0000000000000000    0.5764000000000000 Cl
   0.0000000000000000    0.6450000000000000    0.5764000000000000 Cl
   0.3550000000000000    0.3550000000000000    0.5764000000000000 Cl
