 running   16 mpi-ranks, with    1 threads/rank, on    1 nodes
 distrk:  each k-point on   16 cores,    1 groups
 distr:  one band on    4 cores,    4 groups
 vasp.6.5.1 10Mar25 (build Feb 13 2026 23:13:13) complex                        
  
 POSCAR found type information on POSCAR CrCl
 POSCAR found :  2 types and       8 ions
 scaLAPACK will be used
 -----------------------------------------------------------------------------
|                                                                             |
|               ----> ADVICE to this user running VASP <----                  |
|                                                                             |
|     You have a (more or less) 'small supercell' and for smaller cells       |
|     it is recommended to use the reciprocal-space projection scheme!        |
|     The real-space optimization is not efficient for small cells and it     |
|     is also less accurate ...                                               |
|     Therefore, set LREAL=.FALSE. in the INCAR file.                         |
|                                                                             |
 -----------------------------------------------------------------------------

 LDA part: xc-table for (Slater+PW92), standard interpolation
 POSCAR, INCAR and KPOINTS ok, starting setup
 FFT: planning ... GRIDC
 FFT: planning ... GRID_SOFT
 FFT: planning ... GRID
 WAVECAR not read
 entering main loop
       N       E                     dE             d eps       ncg     rms          rms(c)
DAV:   1     0.522127115673E+03    0.52213E+03   -0.15299E+04   720   0.904E+02
DAV:   2     0.873179524582E+02   -0.43481E+03   -0.41584E+03   968   0.244E+02
DAV:   3    -0.359908585025E+02   -0.12331E+03   -0.12048E+03  1024   0.131E+02
DAV:   4    -0.430177952308E+02   -0.70269E+01   -0.69348E+01   980   0.450E+01
DAV:   5    -0.432606956863E+02   -0.24290E+00   -0.24225E+00  1032   0.829E+00    0.203E+01
DAV:   6    -0.406704786733E+02    0.25902E+01   -0.37315E+01  1068   0.620E+01    0.211E+01
DAV:   7    -0.390082763096E+02    0.16622E+01   -0.59999E+00  1076   0.550E+01    0.973E+00
DAV:   8    -0.391060256055E+02   -0.97749E-01   -0.11791E+00   900   0.510E+00    0.447E+00
DAV:   9    -0.390514702112E+02    0.54555E-01   -0.25778E-01  1072   0.803E+00    0.130E+00
DAV:  10    -0.390512494322E+02    0.22078E-03   -0.53072E-02  1060   0.255E+00    0.558E-01
DAV:  11    -0.390551270427E+02   -0.38776E-02   -0.36082E-03  1068   0.754E-01    0.232E-01
DAV:  12    -0.390606371380E+02   -0.55101E-02   -0.10543E-03   976   0.218E-01    0.128E-01
DAV:  13    -0.390635659833E+02   -0.29288E-02   -0.14296E-04  1060   0.965E-02    0.523E-02
DAV:  14    -0.390658339069E+02   -0.22679E-02   -0.48410E-05  1012   0.429E-02    0.372E-02
DAV:  15    -0.390678405108E+02   -0.20066E-02   -0.40844E-05   956   0.376E-02    0.152E-02
DAV:  16    -0.390693814613E+02   -0.15410E-02   -0.39900E-05   996   0.462E-02    0.170E-02
DAV:  17    -0.390696975696E+02   -0.31611E-03   -0.34880E-06   712   0.933E-03    0.126E-02
DAV:  18    -0.390704021246E+02   -0.70455E-03   -0.21140E-05   816   0.214E-02    0.724E-03
DAV:  19    -0.390705103312E+02   -0.10821E-03   -0.39202E-06   748   0.933E-03    0.339E-03
DAV:  20    -0.390705208065E+02   -0.10475E-04   -0.76102E-07   544   0.481E-03    0.164E-03
DAV:  21    -0.390705494501E+02   -0.28644E-04   -0.63535E-07   528   0.375E-03    0.142E-03
DAV:  22    -0.390705655828E+02   -0.16133E-04   -0.30574E-07   512   0.270E-03    0.696E-04
DAV:  23    -0.390705732195E+02   -0.76367E-05   -0.20204E-07   492   0.226E-03    0.598E-04
DAV:  24    -0.390705800495E+02   -0.68300E-05   -0.28182E-07   520   0.259E-03    0.722E-04
DAV:  25    -0.390705821074E+02   -0.20579E-05   -0.78896E-08   472   0.204E-03    0.392E-04
DAV:  26    -0.390705853392E+02   -0.32319E-05   -0.54691E-08   448   0.933E-04    0.383E-04
DAV:  27    -0.390705879005E+02   -0.25613E-05   -0.46152E-08   456   0.110E-03    0.332E-04
DAV:  28    -0.390705888088E+02   -0.90822E-06   -0.27775E-08   436   0.923E-04
   1 F= -.40524652E+02 E0= -.40524652E+02  d E =-.405247E+02  mag=     6.0000
 curvature:   0.00 expect dE= 0.000E+00 dE for cont linesearch  0.000E+00
 trial: gam= 0.00000 g(F)=  0.208E-02 g(S)=  0.000E+00 ort = 0.000E+00 (trialstep = 0.100E+01)
 search vector abs. value=  0.208E-02
 bond charge predicted
       N       E                     dE             d eps       ncg     rms          rms(c)
DAV:   1    -0.390698801719E+02    0.70773E-03   -0.19358E-01   720   0.174E+00    0.305E-01
DAV:   2    -0.390710880484E+02   -0.12079E-02   -0.13950E-02  1064   0.992E-01    0.193E-01
DAV:   3    -0.390709981728E+02    0.89876E-04   -0.31853E-04  1068   0.262E-01    0.111E-01
DAV:   4    -0.390709788508E+02    0.19322E-04   -0.37979E-05  1104   0.709E-02    0.920E-02
DAV:   5    -0.390709657130E+02    0.13138E-04   -0.98504E-05   768   0.435E-02    0.462E-02
DAV:   6    -0.390709685696E+02   -0.28566E-05   -0.32251E-05  1048   0.778E-02    0.889E-03
DAV:   7    -0.390709717760E+02   -0.32064E-05   -0.16605E-06   520   0.852E-03    0.984E-03
DAV:   8    -0.390709739827E+02   -0.22068E-05   -0.26930E-07   448   0.410E-03    0.966E-03
DAV:   9    -0.390709765878E+02   -0.26051E-05   -0.37628E-07   408   0.764E-03    0.233E-03
DAV:  10    -0.390709786372E+02   -0.20494E-05   -0.42314E-07   440   0.454E-03    0.132E-03
DAV:  11    -0.390709791562E+02   -0.51898E-06   -0.19828E-07   468   0.420E-03
   2 F= -.40526252E+02 E0= -.40526252E+02  d E =-.160011E-02  mag=     6.0000
 trial-energy change:   -0.001600  1 .order   -0.001572   -0.002085   -0.001059
 step:   1.7943(harm=  2.0318)  dis= 0.00695  next Energy=   -40.526687 (dE=-0.203E-02)
 bond charge predicted
       N       E                     dE             d eps       ncg     rms          rms(c)
DAV:   1    -0.390698723637E+02    0.11063E-02   -0.12226E-01   720   0.138E+00    0.242E-01
DAV:   2    -0.390706351433E+02   -0.76278E-03   -0.87874E-03  1076   0.786E-01    0.153E-01
DAV:   3    -0.390705778627E+02    0.57281E-04   -0.20073E-04  1052   0.208E-01    0.880E-02
DAV:   4    -0.390705648002E+02    0.13062E-04   -0.24046E-05  1104   0.565E-02    0.729E-02
DAV:   5    -0.390705558314E+02    0.89688E-05   -0.62122E-05   764   0.346E-02    0.365E-02
DAV:   6    -0.390705586132E+02   -0.27818E-05   -0.20289E-05  1060   0.617E-02    0.711E-03
DAV:   7    -0.390705619114E+02   -0.32982E-05   -0.10551E-06   512   0.671E-03    0.784E-03
DAV:   8    -0.390705641966E+02   -0.22851E-05   -0.16601E-07   476   0.317E-03    0.765E-03
DAV:   9    -0.390705667204E+02   -0.25239E-05   -0.23968E-07   440   0.600E-03    0.185E-03
DAV:  10    -0.390705686870E+02   -0.19665E-05   -0.26570E-07   444   0.367E-03    0.107E-03
DAV:  11    -0.390705691741E+02   -0.48709E-06   -0.12835E-07   464   0.336E-03
   3 F= -.40526801E+02 E0= -.40526801E+02  d E =-.214849E-02  mag=     6.0000
 curvature:  -0.96 expect dE=-0.632E-04 dE for cont linesearch -0.303E-04
 trial: gam=-0.09149 g(F)=  0.657E-04 g(S)=  0.000E+00 ort = 0.256E-03 (trialstep = 0.116E+01)
 search vector abs. value=  0.362E-04
 reached required accuracy - stopping structural energy minimisation
