CrCl3 1x1 + H S3 top-Cr (no_vdw, U=0) (a
    1.000000000000000     
     6.0462744985246628    0.0000000000000000    0.0000000000000000
    -3.0231372492623314    5.2362273139763751    0.0000000000000000
     0.0000000000000000    0.0000000000000000   20.0000000000000000
   Cr   Cl   H 
     2     6     1
Direct
     0.3333333333333357    0.6666666666666643    0.4960887754328071
     0.6666666666666643    0.3333333333333357    0.5062090456109920
     0.3676963759521181    0.0089109736059452    0.4336685738996064
     0.9910890263940547    0.3587854023461730    0.4336685738996064
     0.6412145976538270    0.6323036240478820    0.4336685738996064
     0.6524951040337917    0.9811745741119798    0.5636240120979491
     0.0188254258880200    0.6713205299218115    0.5636240120979491
     0.3286794700781884    0.3475048959662085    0.5636240120979491
     0.6666666666666643    0.3333333333333357    0.5833244209635347
 
  0.00000000E+00  0.00000000E+00  0.00000000E+00
  0.00000000E+00  0.00000000E+00  0.00000000E+00
  0.00000000E+00  0.00000000E+00  0.00000000E+00
  0.00000000E+00  0.00000000E+00  0.00000000E+00
  0.00000000E+00  0.00000000E+00  0.00000000E+00
  0.00000000E+00  0.00000000E+00  0.00000000E+00
  0.00000000E+00  0.00000000E+00  0.00000000E+00
  0.00000000E+00  0.00000000E+00  0.00000000E+00
  0.00000000E+00  0.00000000E+00  0.00000000E+00
