 running   16 mpi-ranks, with    1 threads/rank, on    1 nodes
 distrk:  each k-point on   16 cores,    1 groups
 distr:  one band on    4 cores,    4 groups
 vasp.6.5.1 10Mar25 (build Jan 13 2026 20:43:53) complex                         
 POSCAR found type information on POSCAR CrClH 
 POSCAR found :  3 types and       9 ions
 scaLAPACK will be used
 LDA part: xc-table for (Slater+PW92), standard interpolation
 POSCAR, INCAR and KPOINTS ok, starting setup
 FFT: planning ... GRIDC
 FFT: planning ... GRID_SOFT
 FFT: planning ... GRID
 WAVECAR not read
 entering main loop
       N       E                     dE             d eps       ncg     rms          rms(c)
DAV:   1     0.530006108956E+03    0.53001E+03   -0.15652E+04   720   0.921E+02
DAV:   2     0.876842803068E+02   -0.44232E+03   -0.42092E+03   952   0.251E+02
DAV:   3    -0.368722869026E+02   -0.12456E+03   -0.12225E+03  1048   0.134E+02
DAV:   4    -0.445733168376E+02   -0.77010E+01   -0.76196E+01   984   0.477E+01
DAV:   5    -0.448407952144E+02   -0.26748E+00   -0.26669E+00  1044   0.852E+00    0.233E+01
DAV:   6    -0.439354977967E+02    0.90530E+00   -0.49801E+01  1080   0.713E+01    0.237E+01
DAV:   7    -0.406315616072E+02    0.33039E+01   -0.14980E+01  1088   0.895E+01    0.110E+01
DAV:   8    -0.404971691728E+02    0.13439E+00   -0.44624E+00  1108   0.189E+01    0.611E+00
DAV:   9    -0.402557085189E+02    0.24146E+00   -0.11851E+00  1120   0.164E+01    0.401E+00
DAV:  10    -0.402016245179E+02    0.54084E-01   -0.44797E-01  1092   0.835E+00    0.120E+00
DAV:  11    -0.403131489902E+02   -0.11152E+00   -0.50553E-02  1076   0.178E+00    0.552E-01
DAV:  12    -0.404022619725E+02   -0.89113E-01   -0.10890E-02  1036   0.693E-01    0.279E-01
DAV:  13    -0.404470896355E+02   -0.44828E-01   -0.29409E-03  1012   0.403E-01    0.205E-01
DAV:  14    -0.405203630812E+02   -0.73273E-01   -0.70754E-03   912   0.336E-01    0.127E-01
DAV:  15    -0.405482654129E+02   -0.27902E-01   -0.16799E-03   972   0.192E-01    0.102E-01
DAV:  16    -0.405762431574E+02   -0.27978E-01   -0.17174E-03   840   0.146E-01    0.660E-02
DAV:  17    -0.406002072917E+02   -0.23964E-01   -0.23935E-03   884   0.157E-01    0.298E-02
DAV:  18    -0.406025178559E+02   -0.23106E-02   -0.23898E-04   908   0.595E-02    0.187E-02
DAV:  19    -0.406029887292E+02   -0.47087E-03   -0.37348E-05   876   0.264E-02    0.908E-03
DAV:  20    -0.406032173674E+02   -0.22864E-03   -0.24236E-05   788   0.193E-02    0.666E-03
DAV:  21    -0.406032597263E+02   -0.42359E-04   -0.32771E-06   764   0.736E-03    0.378E-03
DAV:  22    -0.406032974110E+02   -0.37685E-04   -0.11229E-06   544   0.458E-03    0.147E-03
DAV:  23    -0.406033448536E+02   -0.47443E-04   -0.18814E-06   584   0.546E-03    0.161E-03
DAV:  24    -0.406033706441E+02   -0.25790E-04   -0.99708E-07   608   0.470E-03    0.130E-03
DAV:  25    -0.406033800022E+02   -0.93581E-05   -0.29244E-07   512   0.271E-03    0.648E-04
DAV:  26    -0.406033884992E+02   -0.84970E-05   -0.28015E-07   500   0.252E-03    0.577E-04
DAV:  27    -0.406033937541E+02   -0.52549E-05   -0.18911E-07   500   0.238E-03    0.361E-04
DAV:  28    -0.406033973819E+02   -0.36277E-05   -0.16517E-07   464   0.184E-03    0.289E-04
DAV:  29    -0.406033994957E+02   -0.21138E-05   -0.10382E-07   456   0.190E-03    0.242E-04
DAV:  30    -0.406034006591E+02   -0.11634E-05   -0.72471E-08   444   0.126E-03    0.142E-04
DAV:  31    -0.406034015793E+02   -0.92020E-06   -0.55646E-08   456   0.111E-03
   1 F= -.40603402E+02 E0= -.40603402E+02  d E =-.406034E+02  mag=     5.0000
 curvature:   0.00 expect dE= 0.000E+00 dE for cont linesearch  0.000E+00
 trial: gam= 0.00000 g(F)=  0.107E+00 g(S)=  0.000E+00 ort = 0.000E+00 (trialstep = 0.100E+01)
 search vector abs. value=  0.107E+00
 bond charge predicted
       N       E                     dE             d eps       ncg     rms          rms(c)
DAV:   1    -0.406248443158E+02   -0.21444E-01   -0.92778E+00   720   0.126E+01    0.168E+00
DAV:   2    -0.407005533417E+02   -0.75709E-01   -0.79017E-01  1084   0.889E+00    0.168E+00
DAV:   3    -0.406898814071E+02    0.10672E-01   -0.79902E-02  1084   0.485E+00    0.711E-01
DAV:   4    -0.406878494151E+02    0.20320E-02   -0.86788E-03  1104   0.150E+00    0.534E-01
DAV:   5    -0.406869536207E+02    0.89579E-03   -0.45056E-03  1000   0.402E-01    0.315E-01
DAV:   6    -0.406872141961E+02   -0.26058E-03   -0.13750E-03  1076   0.426E-01    0.920E-02
DAV:   7    -0.406872673447E+02   -0.53149E-04   -0.11975E-04  1060   0.884E-02    0.487E-02
DAV:   8    -0.406872810503E+02   -0.13706E-04   -0.16793E-05  1080   0.486E-02    0.441E-02
DAV:   9    -0.406872790656E+02    0.19847E-05   -0.23647E-05   816   0.246E-02    0.212E-02
DAV:  10    -0.406872843605E+02   -0.52949E-05   -0.13141E-05  1104   0.287E-02    0.374E-03
DAV:  11    -0.406872875830E+02   -0.32225E-05   -0.63896E-07   472   0.473E-03    0.156E-03
DAV:  12    -0.406872896145E+02   -0.20315E-05   -0.27591E-07   464   0.447E-03    0.107E-03
DAV:  13    -0.406872917283E+02   -0.21138E-05   -0.15486E-07   456   0.285E-03    0.677E-04
DAV:  14    -0.406872932021E+02   -0.14738E-05   -0.58124E-08   452   0.204E-03    0.412E-04
DAV:  15    -0.406872946624E+02   -0.14603E-05   -0.39788E-08   452   0.125E-03    0.309E-04
DAV:  16    -0.406872953157E+02   -0.65331E-06   -0.22171E-08   480   0.985E-04
   2 F= -.40687295E+02 E0= -.40687295E+02  d E =-.838937E-01  mag=     5.0000
 trial-energy change:   -0.083894  1 .order   -0.083850   -0.106746   -0.060953
 step:   2.3311(harm=  2.3311)  dis= 0.07840  next Energy=   -40.727818 (dE=-0.124E+00)
 bond charge predicted
       N       E                     dE             d eps       ncg     rms          rms(c)
DAV:   1    -0.406159617081E+02    0.71333E-01   -0.16453E+01   720   0.169E+01    0.223E+00
DAV:   2    -0.407501729699E+02   -0.13421E+00   -0.13773E+00  1084   0.118E+01    0.223E+00
DAV:   3    -0.407322276479E+02    0.17945E-01   -0.12529E-01  1080   0.623E+00    0.924E-01
DAV:   4    -0.407287424911E+02    0.34852E-02   -0.12714E-02  1092   0.195E+00    0.701E-01
DAV:   5    -0.407271497744E+02    0.15927E-02   -0.71414E-03   992   0.505E-01    0.425E-01
DAV:   6    -0.407275049564E+02   -0.35518E-03   -0.23050E-03  1104   0.523E-01    0.112E-01
DAV:   7    -0.407275961331E+02   -0.91177E-04   -0.20593E-04  1064   0.109E-01    0.640E-02
DAV:   8    -0.407276138326E+02   -0.17699E-04   -0.42379E-05  1088   0.970E-02    0.596E-02
DAV:   9    -0.407276006680E+02    0.13165E-04   -0.38224E-05  1032   0.439E-02    0.266E-02
DAV:  10    -0.407276042584E+02   -0.35904E-05   -0.16667E-05  1112   0.317E-02    0.542E-03
DAV:  11    -0.407276066835E+02   -0.24251E-05   -0.11776E-06   456   0.809E-03    0.341E-03
DAV:  12    -0.407276085499E+02   -0.18664E-05   -0.92938E-07   456   0.105E-02    0.195E-03
DAV:  13    -0.407276101544E+02   -0.16045E-05   -0.45361E-07   452   0.416E-03    0.162E-03
DAV:  14    -0.407276108998E+02   -0.74537E-06   -0.10709E-07   456   0.330E-03
   3 F= -.40727611E+02 E0= -.40727611E+02  d E =-.124209E+00  mag=     5.0000
 curvature:  -1.17 expect dE=-0.624E-01 dE for cont linesearch -0.255E-05
 trial: gam= 0.50636 g(F)=  0.536E-01 g(S)=  0.000E+00 ort =-0.483E-03 (trialstep = 0.127E+01)
 search vector abs. value=  0.804E-01
 bond charge predicted
       N       E                     dE             d eps       ncg     rms          rms(c)
DAV:   1    -0.407017010503E+02    0.25909E-01   -0.88574E+00   720   0.125E+01    0.158E+00
DAV:   2    -0.407622474837E+02   -0.60546E-01   -0.64274E-01  1104   0.670E+00    0.108E+00
DAV:   3    -0.407599293974E+02    0.23181E-02   -0.56018E-02  1120   0.391E+00    0.765E-01
DAV:   4    -0.407559088680E+02    0.40205E-02   -0.10265E-02  1100   0.185E+00    0.425E-01
DAV:   5    -0.407539178074E+02    0.19911E-02   -0.26779E-03   880   0.243E-01    0.288E-01
DAV:   6    -0.407525160991E+02    0.14017E-02   -0.15280E-03  1096   0.442E-01    0.828E-02
DAV:   7    -0.407530290579E+02   -0.51296E-03   -0.20300E-04  1056   0.124E-01    0.441E-02
DAV:   8    -0.407539963386E+02   -0.96728E-03   -0.45020E-05  1064   0.565E-02    0.315E-02
DAV:   9    -0.407550809998E+02   -0.10847E-02   -0.19115E-05   976   0.255E-02    0.172E-02
DAV:  10    -0.407560839371E+02   -0.10029E-02   -0.16161E-05   928   0.184E-02    0.841E-03
DAV:  11    -0.407569334070E+02   -0.84947E-03   -0.96457E-06   904   0.135E-02    0.515E-03
DAV:  12    -0.407576785395E+02   -0.74513E-03   -0.94285E-06   888   0.129E-02    0.406E-03
DAV:  13    -0.407583236086E+02   -0.64507E-03   -0.13420E-05   904   0.117E-02    0.275E-03
DAV:  14    -0.407586502480E+02   -0.32664E-03   -0.10521E-05   856   0.882E-03    0.110E-03
DAV:  15    -0.407587024227E+02   -0.52175E-04   -0.13390E-06   704   0.387E-03    0.576E-04
DAV:  16    -0.407587123892E+02   -0.99665E-05   -0.35763E-07   552   0.270E-03    0.278E-04
DAV:  17    -0.407587139253E+02   -0.15361E-05   -0.18398E-07   480   0.224E-03    0.206E-04
DAV:  18    -0.407587141781E+02   -0.25272E-06   -0.93002E-08   480   0.167E-03
   4 F= -.40758714E+02 E0= -.40758714E+02  d E =-.311033E-01  mag=     5.0000
 trial-energy change:   -0.031103  1 .order   -0.032287   -0.067520    0.002946
 step:   1.2077(harm=  1.2133)  dis= 0.04230  next Energy=   -40.758782 (dE=-0.312E-01)
 bond charge predicted
       N       E                     dE             d eps       ncg     rms          rms(c)
DAV:   1    -0.407586630252E+02    0.50900E-04   -0.18964E-02   760   0.579E-01    0.725E-02
DAV:   2    -0.407587716711E+02   -0.10865E-03   -0.13108E-03  1116   0.296E-01    0.449E-02
DAV:   3    -0.407587729578E+02   -0.12867E-05   -0.11210E-04  1120   0.172E-01    0.347E-02
DAV:   4    -0.407587584322E+02    0.14526E-04   -0.20814E-05  1112   0.858E-02    0.183E-02
DAV:   5    -0.407587411482E+02    0.17284E-04   -0.53568E-06   848   0.114E-02    0.124E-02
DAV:   6    -0.407587257080E+02    0.15440E-04   -0.19278E-06   576   0.196E-02    0.351E-03
DAV:   7    -0.407587281436E+02   -0.24356E-05   -0.11822E-06   424   0.113E-02    0.274E-03
DAV:   8    -0.407587321869E+02   -0.40434E-05   -0.85329E-07   448   0.704E-03    0.187E-03
DAV:   9    -0.407587410486E+02   -0.88616E-05   -0.40488E-07   480   0.457E-03    0.168E-03
