CrCl3 2x2 + Fe S1 top-Cl (D3, U=0) (a_2x
   1.00000000000000     
    12.0925489970493256    0.0000000000000000    0.0000000000000000
    -6.0462744985246628   10.4724546279527502    0.0000000000000000
     0.0000000000000000    0.0000000000000000   20.0000000000000000
   Cr   Cl   Fe
     8    24     1
Direct
     0.1552042478223458    0.3176801907479763    0.5026361798278438
     0.3314702311867497    0.1560826228904005    0.5071872468210499
     0.6685297688132503    0.3246123917036365    0.5071872468210499
     0.8300290737599535    0.1584334037389704    0.5021753948098259
     0.1699709262400466    0.8284043299790026    0.5021753948098259
     0.3329246871478072    0.6649436554941328    0.5067612488253972
     0.6670753128521928    0.8320189683463114    0.5067612488253972
     0.8447957521776542    0.6624759429256447    0.5026361798278438
     0.1817322109549046    0.4997064035529664    0.4389794672228932
     0.5000000000000000    0.1686161192074313    0.4407806663937244
     0.3376005742500225    0.3254194132178927    0.4392926366128562
     0.3387530659812546    0.5098803494325913    0.5800923055569007
     0.9893294044749829    0.3106510754405195    0.5722864654711335
     0.1760568824796526    0.1655356194473292    0.5727472039385915
     0.6623994257499775    0.4878188389678632    0.4392926366128562
     0.9764698453987899    0.1587218601131586    0.4269276740514338
     0.8175422325644601    0.3166940951427877    0.4363038590118039
     0.8239431175203474    0.4894787369676766    0.5727472039385915
     0.5000000000000000    0.3192318041972671    0.5775018410015014
     0.6741491300769710    0.1687487149609964    0.5734410383428087
     0.1824577674355398    0.9991518625783277    0.4363038590118039
     0.5000000000000000    0.6665068726555768    0.4384090605716566
     0.3331509046555833    0.8219943986003915    0.4376076649178755
     0.3258508699230290    0.9945995848840324    0.5734410383428087
     0.0106705955250171    0.8213216709655364    0.5722864654711335
     0.1770400580185844    0.6721623486699601    0.5720507344644503
     0.6668490953444166    0.9888434939448083    0.4376076649178755
     0.0235301546012100    0.6822520147143614    0.4269276740514338
     0.8182677890450955    0.8179741925980618    0.4389794672228932
     0.8229599419814156    0.9951222906513756    0.5720507344644503
     0.5000000000000000    0.8257778899977761    0.5724484098035058
     0.6612469340187455    0.6711272834513297    0.5800923055569007
     0.5000000000000000    0.4983614613820930    0.5131679757397959
 
  0.00000000E+00  0.00000000E+00  0.00000000E+00
  0.00000000E+00  0.00000000E+00  0.00000000E+00
  0.00000000E+00  0.00000000E+00  0.00000000E+00
  0.00000000E+00  0.00000000E+00  0.00000000E+00
  0.00000000E+00  0.00000000E+00  0.00000000E+00
  0.00000000E+00  0.00000000E+00  0.00000000E+00
  0.00000000E+00  0.00000000E+00  0.00000000E+00
  0.00000000E+00  0.00000000E+00  0.00000000E+00
  0.00000000E+00  0.00000000E+00  0.00000000E+00
  0.00000000E+00  0.00000000E+00  0.00000000E+00
  0.00000000E+00  0.00000000E+00  0.00000000E+00
  0.00000000E+00  0.00000000E+00  0.00000000E+00
  0.00000000E+00  0.00000000E+00  0.00000000E+00
  0.00000000E+00  0.00000000E+00  0.00000000E+00
  0.00000000E+00  0.00000000E+00  0.00000000E+00
  0.00000000E+00  0.00000000E+00  0.00000000E+00
  0.00000000E+00  0.00000000E+00  0.00000000E+00
  0.00000000E+00  0.00000000E+00  0.00000000E+00
  0.00000000E+00  0.00000000E+00  0.00000000E+00
  0.00000000E+00  0.00000000E+00  0.00000000E+00
  0.00000000E+00  0.00000000E+00  0.00000000E+00
  0.00000000E+00  0.00000000E+00  0.00000000E+00
  0.00000000E+00  0.00000000E+00  0.00000000E+00
  0.00000000E+00  0.00000000E+00  0.00000000E+00
  0.00000000E+00  0.00000000E+00  0.00000000E+00
  0.00000000E+00  0.00000000E+00  0.00000000E+00
  0.00000000E+00  0.00000000E+00  0.00000000E+00
  0.00000000E+00  0.00000000E+00  0.00000000E+00
  0.00000000E+00  0.00000000E+00  0.00000000E+00
  0.00000000E+00  0.00000000E+00  0.00000000E+00
  0.00000000E+00  0.00000000E+00  0.00000000E+00
  0.00000000E+00  0.00000000E+00  0.00000000E+00
  0.00000000E+00  0.00000000E+00  0.00000000E+00
