Cr2Cl6 Monolayer 1x1 Primitive Cell     
   1.0000000000000000     
     6.0324193043466243    0.0000000000000000    0.0000000000000000
    -3.0162096521733122    5.2242283638438272    0.0000000000000000
     0.0000000000000000    0.0000000000000000   17.6700000000000017
  Cr              Cl            
     2     6
Direct
     0.3333333333333357    0.6666666666666643    0.5000000000000000
     0.6666666666666643    0.3333333333333357    0.5000000000000000
     0.3551805971691837    0.0000000000000000    0.4236793724306792
     0.0000000000000000    0.3551805971691837    0.4236793724306792
     0.6448194028308164    0.6448194028308164    0.4236793724306792
     0.6448194028308164    0.0000000000000000    0.5763206275693207
     0.0000000000000000    0.6448194028308164    0.5763206275693207
     0.3551805971691837    0.3551805971691837    0.5763206275693207

  0.00000000E+00  0.00000000E+00  0.00000000E+00
  0.00000000E+00  0.00000000E+00  0.00000000E+00
  0.00000000E+00  0.00000000E+00  0.00000000E+00
  0.00000000E+00  0.00000000E+00  0.00000000E+00
  0.00000000E+00  0.00000000E+00  0.00000000E+00
  0.00000000E+00  0.00000000E+00  0.00000000E+00
  0.00000000E+00  0.00000000E+00  0.00000000E+00
  0.00000000E+00  0.00000000E+00  0.00000000E+00
