       N       E                     dE             d eps       ncg     rms          rms(c)
DAV:   1     0.520818924647E+03    0.52082E+03   -0.15611E+04  2304   0.922E+02
DAV:   2     0.865590895085E+02   -0.43426E+03   -0.41282E+03  2968   0.244E+02
DAV:   3    -0.323861590863E+02   -0.11895E+03   -0.11643E+03  3288   0.132E+02
DAV:   4    -0.398269548915E+02   -0.74408E+01   -0.72616E+01  3136   0.457E+01
DAV:   5    -0.400738907429E+02   -0.24694E+00   -0.24553E+00  3276   0.818E+00    0.197E+01
DAV:   6    -0.375152135298E+02    0.25587E+01   -0.39536E+01  3392   0.612E+01    0.199E+01
DAV:   7    -0.365967125429E+02    0.91850E+00   -0.46767E+00  3408   0.452E+01    0.948E+00
DAV:   8    -0.367313287767E+02   -0.13462E+00   -0.10524E+00  3020   0.499E+00    0.456E+00
DAV:   9    -0.367157052855E+02    0.15623E-01   -0.19361E-01  3424   0.762E+00    0.127E+00
DAV:  10    -0.367200590092E+02   -0.43537E-02   -0.51954E-02  3368   0.315E+00    0.457E-01
DAV:  11    -0.367280130008E+02   -0.79540E-02   -0.30403E-03  3092   0.553E-01    0.265E-01
DAV:  12    -0.367400869884E+02   -0.12074E-01   -0.13056E-03  3420   0.378E-01    0.155E-01
DAV:  13    -0.367468417142E+02   -0.67547E-02   -0.30278E-04  3356   0.190E-01    0.506E-02
DAV:  14    -0.367494968786E+02   -0.26552E-02   -0.72027E-05  3340   0.120E-01    0.378E-02
DAV:  15    -0.367513786411E+02   -0.18818E-02   -0.28877E-05  3064   0.367E-02    0.200E-02
DAV:  16    -0.367547208480E+02   -0.33422E-02   -0.55179E-05  2952   0.539E-02    0.154E-02
DAV:  17    -0.367549946212E+02   -0.27377E-03   -0.49388E-06  2384   0.120E-02    0.142E-02
DAV:  18    -0.367552197701E+02   -0.22515E-03   -0.53006E-06  2340   0.977E-03    0.655E-03
DAV:  19    -0.367552748020E+02   -0.55032E-04   -0.43284E-06  2280   0.165E-02    0.275E-03
DAV:  20    -0.367552632421E+02    0.11560E-04   -0.45753E-06  2156   0.780E-03    0.298E-03
DAV:  21    -0.367552678948E+02   -0.46527E-05   -0.75203E-07  1880   0.430E-03    0.126E-03
DAV:  22    -0.367552973588E+02   -0.29464E-04   -0.40931E-07  1680   0.521E-03    0.178E-03
DAV:  23    -0.367553157559E+02   -0.18397E-04   -0.25573E-07  1660   0.461E-03    0.101E-03
DAV:  24    -0.367553392815E+02   -0.23526E-04   -0.91925E-07  1796   0.295E-03    0.108E-03
DAV:  25    -0.367553424732E+02   -0.31918E-05   -0.13651E-07  1668   0.240E-03    0.616E-04
DAV:  26    -0.367553434919E+02   -0.10187E-05   -0.87803E-08  1464   0.148E-03    0.287E-04
DAV:  27    -0.367553450581E+02   -0.15662E-05   -0.48419E-08  1416   0.141E-03    0.372E-04
DAV:  28    -0.367553465129E+02   -0.14549E-05   -0.46635E-08  1476   0.895E-04    0.245E-04
DAV:  29    -0.367553473531E+02   -0.84022E-06   -0.25561E-08  1436   0.862E-04
   1 F= -.37674539E+02 E0= -.37674539E+02  d E =-.376745E+02  mag=     6.0000
       N       E                     dE             d eps       ncg     rms          rms(c)
DAV:   1    -0.367630044400E+02   -0.76579E-02   -0.43690E-01  2588   0.380E+00    0.795E-01
DAV:   2    -0.367545998422E+02    0.84046E-02   -0.27690E-02  3300   0.136E+00    0.372E-01
DAV:   3    -0.367527774767E+02    0.18224E-02   -0.73752E-03  3380   0.116E+00    0.289E-01
DAV:   4    -0.367524729579E+02    0.30452E-03   -0.69434E-04  3440   0.379E-01    0.139E-01
DAV:   5    -0.367523930540E+02    0.79904E-04   -0.36802E-04  2480   0.813E-02    0.946E-02
DAV:   6    -0.367524243429E+02   -0.31289E-04   -0.55188E-05  3396   0.140E-01    0.395E-02
DAV:   7    -0.367524393633E+02   -0.15020E-04   -0.32934E-05  3464   0.891E-02    0.130E-02
DAV:   8    -0.367524515095E+02   -0.12146E-04   -0.63899E-06  2876   0.180E-02    0.670E-03
DAV:   9    -0.367524681587E+02   -0.16649E-04   -0.54348E-07  1396   0.491E-03    0.209E-03
DAV:  10    -0.367524738875E+02   -0.57287E-05   -0.26212E-07  1376   0.357E-03    0.987E-04
DAV:  11    -0.367524748960E+02   -0.10085E-05   -0.10066E-07  1448   0.310E-03    0.645E-04
DAV:  12    -0.367524783960E+02   -0.35001E-05   -0.12253E-07  1440   0.171E-03    0.460E-04
DAV:  13    -0.367524817202E+02   -0.33242E-05   -0.12428E-07  1560   0.189E-03    0.677E-04
DAV:  14    -0.367524825179E+02   -0.79775E-06   -0.62473E-08  1388   0.169E-03
   2 F= -.37676273E+02 E0= -.37676273E+02  d E =-.173345E-02  mag=     6.0000
       N       E                     dE             d eps       ncg     rms          rms(c)
DAV:   1    -0.367534386164E+02   -0.95690E-03   -0.93322E-03  2648   0.556E-01    0.116E-01
DAV:   2    -0.367532617218E+02    0.17689E-03   -0.58898E-04  3256   0.198E-01    0.545E-02
DAV:   3    -0.367532216636E+02    0.40058E-04   -0.15954E-04  3388   0.172E-01    0.428E-02
DAV:   4    -0.367532136693E+02    0.79943E-05   -0.14848E-05  3536   0.552E-02    0.202E-02
DAV:   5    -0.367532089311E+02    0.47381E-05   -0.79323E-06  2416   0.118E-02    0.139E-02
DAV:   6    -0.367532070905E+02    0.18406E-05   -0.63094E-07  1668   0.202E-02    0.570E-03
DAV:   7    -0.367532072071E+02   -0.11655E-06   -0.61161E-07  1564   0.146E-02
   3 F= -.37676324E+02 E0= -.37676324E+02  d E =-.178491E-02  mag=     6.0000
       N       E                     dE             d eps       ncg     rms          rms(c)
DAV:   1    -0.367533177539E+02   -0.11066E-03   -0.20969E-04  2600   0.838E-02    0.179E-02
DAV:   2    -0.367533142524E+02    0.35014E-05   -0.13342E-05  3184   0.302E-02    0.814E-03
DAV:   3    -0.367533131898E+02    0.10626E-05   -0.33482E-06  1960   0.266E-02    0.662E-03
DAV:   4    -0.367533129852E+02    0.20459E-06   -0.56459E-07  1524   0.116E-02
   4 F= -.37676324E+02 E0= -.37676324E+02  d E =-.178544E-02  mag=     6.0000
       N       E                     dE             d eps       ncg     rms          rms(c)
DAV:   1    -0.367533904017E+02   -0.77212E-04   -0.10232E-04  2544   0.596E-02    0.122E-02
DAV:   2    -0.367533882040E+02    0.21977E-05   -0.62870E-06  2388   0.197E-02    0.584E-03
DAV:   3    -0.367533874220E+02    0.78195E-06   -0.21482E-06  1752   0.190E-02
   5 F= -.37676322E+02 E0= -.37676322E+02  d E =-.178332E-02  mag=     6.0000
