CrCl3 2x2 + H S1 top-Cl (D3, U=0) (a_2x2
   1.0000000000000000     
    12.0925489970493256    0.0000000000000000    0.0000000000000000
    -6.0462744985246628   10.4724546279527502    0.0000000000000000
     0.0000000000000000    0.0000000000000000   20.0000000000000000
   Cr   Cl   H 
     8    24     1
Direct
  0.1649699688741362  0.3353523661200764  0.4998611367788591
  0.3190484477048555  0.1601652806511774  0.4959829542813843
  0.6809515522951444  0.3411168329463148  0.4959829542813843
  0.8347276424809030  0.1674921053433493  0.4977306916408524
  0.1652723575190969  0.8327644628624321  0.4977306916408524
  0.3333574658844491  0.6684237849455430  0.4997506813012919
  0.6666425341155510  0.8350663190610796  0.4997506813012919
  0.8350300311258638  0.6703823972459472  0.4998611367788591
  0.1774919586539475  0.5026023444746042  0.4320302603823948
  0.5000000000000000  0.1861427715780864  0.4367000921381120
  0.3233042084700246  0.3283879341041021  0.4334506239224485
  0.3206781505879805  0.5014350980815648  0.5683045521512124
  0.9978666152492724  0.3253227165248754  0.5658867751519213
  0.1690245225713504  0.1774789802551774  0.5677787808963223
  0.6766957915299754  0.5050837256340845  0.4334506239224485
  0.0018135014564248  0.1770959265755792  0.4315256669126982
  0.8304419210134777  0.3203673920160702  0.4258450262115658
  0.8309754774286494  0.5084544576838269  0.5677787808963223
  0.5000000000000000  0.3416021679336802  0.5994690904939770
  0.6804475179521734  0.1816570728669582  0.5664892526751610
  0.1695580789865225  0.9899254710025928  0.4258450262115658
  0.5000000000000000  0.6777309108345251  0.4328021193646964
  0.3231908376527257  0.8233705286663571  0.4314829612887991
  0.3195524820478264  0.0012095549147846  0.5664892526751610
  0.0021333847507277  0.8274561012756102  0.5658867751519213
  0.1777370075667564  0.6796545164179001  0.5669827977579439
  0.6768091623472744  0.0001796910136314  0.4314829612887991
  0.9981864985435753  0.6752824251191404  0.4315256669126982
  0.8225080413460525  0.8251103858206499  0.4320302603823948
  0.8222629924332439  0.0019175088511438  0.5669827977579439
  0.5000000000000000  0.8246374922817281  0.5672474918023188
  0.6793218494120193  0.6807569474935912  0.5683045521512124
  0.5000000000000000  0.2467242309720233  0.6293630767551194

  0.00000000E+00  0.00000000E+00  0.00000000E+00
  0.00000000E+00  0.00000000E+00  0.00000000E+00
  0.00000000E+00  0.00000000E+00  0.00000000E+00
  0.00000000E+00  0.00000000E+00  0.00000000E+00
  0.00000000E+00  0.00000000E+00  0.00000000E+00
  0.00000000E+00  0.00000000E+00  0.00000000E+00
  0.00000000E+00  0.00000000E+00  0.00000000E+00
  0.00000000E+00  0.00000000E+00  0.00000000E+00
  0.00000000E+00  0.00000000E+00  0.00000000E+00
  0.00000000E+00  0.00000000E+00  0.00000000E+00
  0.00000000E+00  0.00000000E+00  0.00000000E+00
  0.00000000E+00  0.00000000E+00  0.00000000E+00
  0.00000000E+00  0.00000000E+00  0.00000000E+00
  0.00000000E+00  0.00000000E+00  0.00000000E+00
  0.00000000E+00  0.00000000E+00  0.00000000E+00
  0.00000000E+00  0.00000000E+00  0.00000000E+00
  0.00000000E+00  0.00000000E+00  0.00000000E+00
  0.00000000E+00  0.00000000E+00  0.00000000E+00
  0.00000000E+00  0.00000000E+00  0.00000000E+00
  0.00000000E+00  0.00000000E+00  0.00000000E+00
  0.00000000E+00  0.00000000E+00  0.00000000E+00
  0.00000000E+00  0.00000000E+00  0.00000000E+00
  0.00000000E+00  0.00000000E+00  0.00000000E+00
  0.00000000E+00  0.00000000E+00  0.00000000E+00
  0.00000000E+00  0.00000000E+00  0.00000000E+00
  0.00000000E+00  0.00000000E+00  0.00000000E+00
  0.00000000E+00  0.00000000E+00  0.00000000E+00
  0.00000000E+00  0.00000000E+00  0.00000000E+00
  0.00000000E+00  0.00000000E+00  0.00000000E+00
  0.00000000E+00  0.00000000E+00  0.00000000E+00
  0.00000000E+00  0.00000000E+00  0.00000000E+00
  0.00000000E+00  0.00000000E+00  0.00000000E+00
  0.00000000E+00  0.00000000E+00  0.00000000E+00
