CrCl3 2x2 + H S1 top-Cl (D3, U=0) (a_2x2
   1.00000000000000     
    12.0925489970493256    0.0000000000000000    0.0000000000000000
    -6.0462744985246628   10.4724546279527502    0.0000000000000000
     0.0000000000000000    0.0000000000000000   20.0000000000000000
   Cr   Cl   H 
     8    24     1
Direct
     0.1649375668814712    0.3353512744488993    0.4998010786375038
     0.3183866449350948    0.1595508627410029    0.4956916369431976
     0.6816133550649049    0.3411642178058939    0.4956916369431976
     0.8348154576327165    0.1675440940867864    0.4976473381446098
     0.1651845423672834    0.8327286364540554    0.4976473381446098
     0.3333772750757930    0.6683908982940117    0.4996796232188246
     0.6666227249242068    0.8350136232182106    0.4996796232188246
     0.8350624331185288    0.6704137075674352    0.4998010786375038
     0.1789121749151441    0.5025624182452970    0.4333528184098113
     0.5000000000000000    0.1883180225097021    0.4386071464357267
     0.3219007611759123    0.3259687371314345    0.4347778790883978
     0.3191066586738446    0.5014542663772107    0.5669163420408805
     0.9979869475678673    0.3237106152086508    0.5646289948658469
     0.1705356383464434    0.1783554331471129    0.5660941684724551
     0.6780992388240873    0.5040679759555289    0.4347778790883978
     0.0017765411665663    0.1786494481507756    0.4328308154933588
     0.8291846118965899    0.3189851387730448    0.4271570988722805
     0.8294643616535566    0.5078197948006694    0.5660941684724551
     0.5000000000000000    0.3418229682401206    0.5997058342657210
     0.6818517077477093    0.1837605741453607    0.5647970161938330
     0.1708153881034101    0.9898005268764545    0.4271570988722805
     0.5000000000000000    0.6789809836467210    0.4341527667508755
     0.3217345819937736    0.8218345750465202    0.4327598138556170
     0.3181482922522908    0.0019088663976513    0.5647970161938330
     0.0020130524321330    0.8257236676407907    0.5646289948658469
     0.1792574339035606    0.6812287847880617    0.5657336788750507
     0.6782654180062264    0.0000999930527468    0.4327598138556170
     0.9982234588334334    0.6768729069842025    0.4328308154933588
     0.8210878250848567    0.8236502433301529    0.4333528184098113
     0.8207425660964395    0.0019713508845015    0.5657336788750507
     0.5000000000000000    0.8232229610898735    0.5659668892665392
     0.6808933413261560    0.6823476077033672    0.5669163420408805
     0.5000000000000000    0.2470747268259451    0.6296169503177155
 
  0.00000000E+00  0.00000000E+00  0.00000000E+00
  0.00000000E+00  0.00000000E+00  0.00000000E+00
  0.00000000E+00  0.00000000E+00  0.00000000E+00
  0.00000000E+00  0.00000000E+00  0.00000000E+00
  0.00000000E+00  0.00000000E+00  0.00000000E+00
  0.00000000E+00  0.00000000E+00  0.00000000E+00
  0.00000000E+00  0.00000000E+00  0.00000000E+00
  0.00000000E+00  0.00000000E+00  0.00000000E+00
  0.00000000E+00  0.00000000E+00  0.00000000E+00
  0.00000000E+00  0.00000000E+00  0.00000000E+00
  0.00000000E+00  0.00000000E+00  0.00000000E+00
  0.00000000E+00  0.00000000E+00  0.00000000E+00
  0.00000000E+00  0.00000000E+00  0.00000000E+00
  0.00000000E+00  0.00000000E+00  0.00000000E+00
  0.00000000E+00  0.00000000E+00  0.00000000E+00
  0.00000000E+00  0.00000000E+00  0.00000000E+00
  0.00000000E+00  0.00000000E+00  0.00000000E+00
  0.00000000E+00  0.00000000E+00  0.00000000E+00
  0.00000000E+00  0.00000000E+00  0.00000000E+00
  0.00000000E+00  0.00000000E+00  0.00000000E+00
  0.00000000E+00  0.00000000E+00  0.00000000E+00
  0.00000000E+00  0.00000000E+00  0.00000000E+00
  0.00000000E+00  0.00000000E+00  0.00000000E+00
  0.00000000E+00  0.00000000E+00  0.00000000E+00
  0.00000000E+00  0.00000000E+00  0.00000000E+00
  0.00000000E+00  0.00000000E+00  0.00000000E+00
  0.00000000E+00  0.00000000E+00  0.00000000E+00
  0.00000000E+00  0.00000000E+00  0.00000000E+00
  0.00000000E+00  0.00000000E+00  0.00000000E+00
  0.00000000E+00  0.00000000E+00  0.00000000E+00
  0.00000000E+00  0.00000000E+00  0.00000000E+00
  0.00000000E+00  0.00000000E+00  0.00000000E+00
  0.00000000E+00  0.00000000E+00  0.00000000E+00
