 running on   64 total cores
 distrk:  each k-point on   64 cores,    1 groups
 distr:  one band on    8 cores,    8 groups
 vasp.6.2.0 18Jan21 (build Jul 28 2023 11:58:00) complex                         
 POSCAR found type information on POSCAR CrClH 
 POSCAR found :  3 types and      33 ions
 scaLAPACK will be used
 LDA part: xc-table for Pade appr. of Perdew
 POSCAR, INCAR and KPOINTS ok, starting setup
 FFT: planning ...
 WAVECAR not read
 entering main loop
       N       E                     dE             d eps       ncg     rms          rms(c)
DAV:   1     0.209373102831E+04    0.20937E+04   -0.61744E+04  5328   0.919E+02
DAV:   2     0.424182315705E+03   -0.16695E+04   -0.15606E+04  6312   0.245E+02
DAV:   3    -0.107522659715E+03   -0.53170E+03   -0.51655E+03  7408   0.140E+02
DAV:   4    -0.151363451527E+03   -0.43841E+02   -0.43160E+02  8112   0.568E+01
DAV:   5    -0.152225139219E+03   -0.86169E+00   -0.85246E+00  8032   0.104E+01    0.406E+01
DAV:   6    -0.144074519469E+03    0.81506E+01   -0.14457E+02  8424   0.594E+01    0.369E+01
DAV:   7    -0.143112026760E+03    0.96249E+00   -0.17558E+01  7832   0.392E+01    0.199E+01
DAV:   8    -0.143630503204E+03   -0.51848E+00   -0.41667E+00  7968   0.753E+00    0.959E+00
DAV:   9    -0.143544847186E+03    0.85656E-01   -0.85305E-01  8328   0.852E+00    0.277E+00
DAV:  10    -0.143592199740E+03   -0.47353E-01   -0.22112E-01  7784   0.248E+00    0.118E+00
DAV:  11    -0.143615514223E+03   -0.23314E-01   -0.19641E-02  6920   0.893E-01    0.723E-01
DAV:  12    -0.143638789220E+03   -0.23275E-01   -0.50285E-03  7944   0.414E-01    0.512E-01
DAV:  13    -0.143667602751E+03   -0.28814E-01   -0.26061E-03  6984   0.182E-01    0.210E-01
DAV:  14    -0.143695882437E+03   -0.28280E-01   -0.10595E-03  7360   0.114E-01    0.149E-01
DAV:  15    -0.143711276015E+03   -0.15394E-01   -0.37579E-04  7680   0.717E-02    0.107E-01
DAV:  16    -0.143753585269E+03   -0.42309E-01   -0.80932E-04  6288   0.631E-02    0.653E-02
DAV:  17    -0.143781341582E+03   -0.27756E-01   -0.45473E-04  6400   0.472E-02    0.523E-02
DAV:  18    -0.143786396508E+03   -0.50549E-02   -0.92601E-05  7216   0.262E-02    0.404E-02
DAV:  19    -0.143793240778E+03   -0.68443E-02   -0.11938E-04  6424   0.328E-02    0.195E-02
DAV:  20    -0.143794854795E+03   -0.16140E-02   -0.50293E-05  7144   0.219E-02    0.170E-02
DAV:  21    -0.143795240189E+03   -0.38539E-03   -0.75880E-06  6072   0.692E-03    0.885E-03
DAV:  22    -0.143795408957E+03   -0.16877E-03   -0.44938E-06  5464   0.797E-03    0.445E-03
DAV:  23    -0.143795461176E+03   -0.52219E-04   -0.21975E-06  4568   0.451E-03    0.334E-03
DAV:  24    -0.143795500039E+03   -0.38863E-04   -0.65543E-07  3728   0.364E-03    0.284E-03
DAV:  25    -0.143795545093E+03   -0.45055E-04   -0.78823E-07  3768   0.291E-03    0.245E-03
DAV:  26    -0.143795585159E+03   -0.40066E-04   -0.88386E-07  3856   0.284E-03    0.223E-03
DAV:  27    -0.143795605793E+03   -0.20634E-04   -0.68715E-07  3808   0.275E-03    0.146E-03
DAV:  28    -0.143795612521E+03   -0.67281E-05   -0.29889E-07  3536   0.198E-03    0.119E-03
DAV:  29    -0.143795627319E+03   -0.14798E-04   -0.20864E-07  3472   0.153E-03    0.123E-03
DAV:  30    -0.143795635638E+03   -0.83190E-05   -0.11356E-07  3440   0.146E-03    0.598E-04
DAV:  31    -0.143795637453E+03   -0.18154E-05   -0.61358E-08  3192   0.846E-04    0.456E-04
DAV:  32    -0.143795638962E+03   -0.15088E-05   -0.30027E-08  3016   0.651E-04    0.402E-04
DAV:  33    -0.143795642029E+03   -0.30673E-05   -0.42077E-08  3304   0.513E-04    0.336E-04
DAV:  34    -0.143795643422E+03   -0.13926E-05   -0.23020E-08  3192   0.499E-04    0.272E-04
DAV:  35    -0.143795643852E+03   -0.42957E-06   -0.13302E-08  3120   0.393E-04
   1 F= -.14963665E+03 E0= -.14963664E+03  d E =-.149637E+03  mag=    25.0000
 curvature:   0.00 expect dE= 0.000E+00 dE for cont linesearch  0.000E+00
 trial: gam= 0.00000 g(F)=  0.132E+00 g(S)=  0.000E+00 ort = 0.000E+00 (trialstep = 0.100E+01)
 search vector abs. value=  0.132E+00
 bond charge predicted
       N       E                     dE             d eps       ncg     rms          rms(c)
DAV:   1    -0.143823292681E+03   -0.27649E-01   -0.12223E+01  5184   0.708E+00    0.249E+00
DAV:   2    -0.143914799979E+03   -0.91507E-01   -0.10455E+00  7416   0.439E+00    0.176E+00
DAV:   3    -0.143911060314E+03    0.37397E-02   -0.25715E-02  7616   0.103E+00    0.935E-01
DAV:   4    -0.143909194907E+03    0.18654E-02   -0.29580E-03  7664   0.196E-01    0.756E-01
DAV:   5    -0.143907458552E+03    0.17364E-02   -0.63923E-03  5968   0.194E-01    0.419E-01
DAV:   6    -0.143907700126E+03   -0.24157E-03   -0.21354E-03  7504   0.223E-01    0.110E-01
DAV:   7    -0.143907807860E+03   -0.10773E-03   -0.17233E-04  7664   0.594E-02    0.803E-02
DAV:   8    -0.143907978990E+03   -0.17113E-03   -0.47312E-05  7672   0.416E-02    0.755E-02
DAV:   9    -0.143908188574E+03   -0.20958E-03   -0.17915E-05  6960   0.106E-02    0.469E-02
DAV:  10    -0.143908332732E+03   -0.14416E-03   -0.11227E-05  6976   0.930E-03    0.249E-02
DAV:  11    -0.143908483893E+03   -0.15116E-03   -0.58243E-06  6096   0.957E-03    0.511E-03
DAV:  12    -0.143908584290E+03   -0.10040E-03   -0.13817E-06  4016   0.358E-03    0.235E-03
DAV:  13    -0.143908652493E+03   -0.68203E-04   -0.80982E-07  3832   0.324E-03    0.207E-03
DAV:  14    -0.143908710472E+03   -0.57980E-04   -0.83659E-07  3688   0.288E-03    0.228E-03
DAV:  15    -0.143908780171E+03   -0.69699E-04   -0.15437E-06  4368   0.297E-03    0.186E-03
DAV:  16    -0.143908851870E+03   -0.71699E-04   -0.22284E-06  4792   0.278E-03    0.152E-03
DAV:  17    -0.143908869917E+03   -0.18047E-04   -0.33610E-07  3752   0.177E-03    0.783E-04
DAV:  18    -0.143908875992E+03   -0.60753E-05   -0.21724E-07  3456   0.142E-03    0.714E-04
DAV:  19    -0.143908879349E+03   -0.33565E-05   -0.18340E-07  3456   0.118E-03    0.437E-04
DAV:  20    -0.143908880432E+03   -0.10834E-05   -0.10397E-07  3112   0.106E-03    0.245E-04
DAV:  21    -0.143908881372E+03   -0.93966E-06   -0.98893E-08  3408   0.742E-04
   2 F= -.14973473E+03 E0= -.14973471E+03  d E =-.980845E-01  mag=    25.0000
 trial-energy change:   -0.098085  1 .order   -0.098546   -0.132233   -0.064858
 step:   2.0512(harm=  1.9626)  dis= 0.03051  next Energy=  -149.768286 (dE=-0.132E+00)
 bond charge predicted
       N       E                     dE             d eps       ncg     rms          rms(c)
DAV:   1    -0.143863519378E+03    0.45361E-01   -0.13505E+01  5184   0.744E+00    0.261E+00
DAV:   2    -0.143963837442E+03   -0.10032E+00   -0.11435E+00  7408   0.460E+00    0.186E+00
DAV:   3    -0.143959667188E+03    0.41703E-02   -0.28202E-02  7648   0.109E+00    0.964E-01
DAV:   4    -0.143957584287E+03    0.20829E-02   -0.32767E-03  7640   0.202E-01    0.779E-01
DAV:   5    -0.143955716782E+03    0.18675E-02   -0.65760E-03  6080   0.197E-01    0.443E-01
DAV:   6    -0.143955942325E+03   -0.22554E-03   -0.22811E-03  7528   0.227E-01    0.116E-01
DAV:   7    -0.143956062045E+03   -0.11972E-03   -0.18939E-04  7680   0.647E-02    0.824E-02
DAV:   8    -0.143956252978E+03   -0.19093E-03   -0.50038E-05  7680   0.435E-02    0.780E-02
DAV:   9    -0.143956485382E+03   -0.23240E-03   -0.17472E-05  6992   0.107E-02    0.483E-02
DAV:  10    -0.143956643418E+03   -0.15804E-03   -0.11467E-05  6872   0.943E-03    0.266E-02
DAV:  11    -0.143956810168E+03   -0.16675E-03   -0.70459E-06  6560   0.103E-02    0.560E-03
DAV:  12    -0.143956931418E+03   -0.12125E-03   -0.12405E-06  3992   0.370E-03    0.262E-03
DAV:  13    -0.143956996583E+03   -0.65165E-04   -0.78973E-07  3760   0.345E-03    0.231E-03
DAV:  14    -0.143957061300E+03   -0.64717E-04   -0.10634E-06  3912   0.307E-03    0.250E-03
DAV:  15    -0.143957132412E+03   -0.71112E-04   -0.14199E-06  4232   0.306E-03    0.179E-03
DAV:  16    -0.143957211549E+03   -0.79137E-04   -0.24108E-06  4880   0.288E-03    0.164E-03
DAV:  17    -0.143957232877E+03   -0.21328E-04   -0.36130E-07  3768   0.183E-03    0.882E-04
DAV:  18    -0.143957240759E+03   -0.78819E-05   -0.23341E-07  3488   0.144E-03    0.844E-04
DAV:  19    -0.143957245488E+03   -0.47287E-05   -0.21753E-07  3480   0.124E-03    0.483E-04
DAV:  20    -0.143957247112E+03   -0.16236E-05   -0.13318E-07  3240   0.116E-03    0.272E-04
DAV:  21    -0.143957247989E+03   -0.87766E-06   -0.11176E-07  3384   0.847E-04
   3 F= -.14976695E+03 E0= -.14976691E+03  d E =-.130305E+00  mag=    25.0000
 curvature:  -0.97 expect dE=-0.288E-02 dE for cont linesearch -0.489E-04
 ZBRENT: interpolating
 opt :   2.0110  next Energy=  -149.767005 (dE=-0.130E+00)
 bond charge predicted
       N       E                     dE             d eps       ncg     rms          rms(c)
DAV:   1    -0.143956547052E+03    0.70006E-03   -0.19792E-02  5464   0.284E-01    0.107E-01
DAV:   2    -0.143956687652E+03   -0.14060E-03   -0.16187E-03  7360   0.173E-01    0.693E-02
DAV:   3    -0.143956685821E+03    0.18313E-05   -0.43275E-05  7680   0.446E-02    0.392E-02
DAV:   4    -0.143956682036E+03    0.37849E-05   -0.33267E-06  4360   0.861E-03    0.311E-02
DAV:   5    -0.143956677099E+03    0.49377E-05   -0.16534E-05  5440   0.922E-03    0.195E-02
DAV:   6    -0.143956677389E+03   -0.29010E-06   -0.28796E-06  3784   0.909E-03
   4 F= -.14976700E+03 E0= -.14976696E+03  d E =-.130356E+00  mag=    25.0000
 curvature:  -1.03 expect dE=-0.289E-02 dE for cont linesearch -0.455E-06
 trial: gam= 0.02305 g(F)=  0.281E-02 g(S)=  0.000E+00 ort =-0.242E-03 (trialstep = 0.120E+01)
 search vector abs. value=  0.287E-02
 bond charge predicted
       N       E                     dE             d eps       ncg     rms          rms(c)
DAV:   1    -0.143954862204E+03    0.18149E-02   -0.37000E-01  5184   0.125E+00    0.581E-01
DAV:   2    -0.143957396880E+03   -0.25347E-02   -0.21463E-02  7344   0.484E-01    0.232E-01
DAV:   3    -0.143957890210E+03   -0.49333E-03   -0.85339E-04  7520   0.125E-01    0.132E-01
DAV:   4    -0.143957734741E+03    0.15547E-03   -0.10587E-04  7488   0.374E-02    0.878E-02
DAV:   5    -0.143957485608E+03    0.24913E-03   -0.10015E-04  6168   0.256E-02    0.515E-02
DAV:   6    -0.143957423557E+03    0.62051E-04   -0.49341E-05  7264   0.191E-02    0.167E-02
DAV:   7    -0.143957485998E+03   -0.62441E-04   -0.62209E-06  5960   0.819E-03    0.116E-02
DAV:   8    -0.143957598488E+03   -0.11249E-03   -0.18938E-06  4224   0.507E-03    0.719E-03
DAV:   9    -0.143957706320E+03   -0.10783E-03   -0.19806E-06  4152   0.506E-03    0.416E-03
DAV:  10    -0.143957786856E+03   -0.80537E-04   -0.14633E-06  3856   0.446E-03    0.241E-03
DAV:  11    -0.143957845205E+03   -0.58349E-04   -0.86041E-07  3672   0.358E-03    0.226E-03
DAV:  12    -0.143957940133E+03   -0.94927E-04   -0.18698E-06  4520   0.317E-03    0.133E-03
DAV:  13    -0.143958000489E+03   -0.60356E-04   -0.71366E-07  3840   0.225E-03    0.107E-03
DAV:  14    -0.143958035381E+03   -0.34892E-04   -0.49873E-07  3672   0.217E-03    0.106E-03
DAV:  15    -0.143958063068E+03   -0.27687E-04   -0.52859E-07  3712   0.186E-03    0.737E-04
DAV:  16    -0.143958087970E+03   -0.24902E-04   -0.61305E-07  3752   0.194E-03    0.806E-04
DAV:  17    -0.143958099551E+03   -0.11581E-04   -0.44990E-07  3704   0.189E-03    0.452E-04
DAV:  18    -0.143958103086E+03   -0.35349E-05   -0.28198E-07  3288   0.158E-03    0.429E-04
DAV:  19    -0.143958105271E+03   -0.21847E-05   -0.20117E-07  3440   0.121E-03    0.224E-04
DAV:  20    -0.143958106487E+03   -0.12159E-05   -0.13559E-07  3256   0.105E-03    0.245E-04
DAV:  21    -0.143958107173E+03   -0.68646E-06   -0.95880E-08  3240   0.831E-04
   5 F= -.14976804E+03 E0= -.14976800E+03  d E =-.103995E-02  mag=    25.0000
 trial-energy change:   -0.001040  1 .order   -0.001022   -0.003368    0.001323
 step:   0.8686(harm=  0.8632)  dis= 0.00216  next Energy=  -149.768227 (dE=-0.122E-02)
 bond charge predicted
       N       E                     dE             d eps       ncg     rms          rms(c)
DAV:   1    -0.143957935777E+03    0.17071E-03   -0.28511E-02  5200   0.346E-01    0.161E-01
DAV:   2    -0.143958097071E+03   -0.16129E-03   -0.16396E-03  7120   0.132E-01    0.630E-02
DAV:   3    -0.143958159876E+03   -0.62805E-04   -0.67138E-05  7560   0.343E-02    0.366E-02
DAV:   4    -0.143958141280E+03    0.18596E-04   -0.78584E-06  6888   0.100E-02    0.244E-02
DAV:   5    -0.143958102061E+03    0.39218E-04   -0.81714E-06  5728   0.724E-03    0.144E-02
DAV:   6    -0.143958085262E+03    0.16799E-04   -0.34698E-06  4784   0.550E-03    0.486E-03
DAV:   7    -0.143958092739E+03   -0.74770E-05   -0.64117E-07  3080   0.384E-03    0.358E-03
DAV:   8    -0.143958104713E+03   -0.11974E-04   -0.36208E-07  3280   0.269E-03    0.269E-03
DAV:   9    -0.143958125960E+03   -0.21247E-04   -0.43895E-07  3448   0.231E-03    0.166E-03
DAV:  10    -0.143958135074E+03   -0.91145E-05   -0.22322E-07  3024   0.209E-03    0.113E-03
DAV:  11    -0.143958145341E+03   -0.10266E-04   -0.17177E-07  3224   0.135E-03    0.872E-04
DAV:  12    -0.143958157007E+03   -0.11666E-04   -0.16026E-07  3344   0.124E-03    0.682E-04
DAV:  13    -0.143958165451E+03   -0.84439E-05   -0.14315E-07  3216   0.112E-03    0.471E-04
DAV:  14    -0.143958171397E+03   -0.59460E-05   -0.11527E-07  3248   0.101E-03    0.452E-04
DAV:  15    -0.143958175375E+03   -0.39779E-05   -0.88568E-08  3120   0.822E-04    0.303E-04
DAV:  16    -0.143958178316E+03   -0.29414E-05   -0.67844E-08  3128   0.734E-04    0.311E-04
DAV:  17    -0.143958182965E+03   -0.46490E-05   -0.11290E-07  3456   0.702E-04    0.307E-04
DAV:  18    -0.143958184217E+03   -0.12517E-05   -0.62677E-08  3080   0.829E-04    0.167E-04
DAV:  19    -0.143958184635E+03   -0.41863E-06   -0.39666E-08  3000   0.485E-04
   6 F= -.14976823E+03 E0= -.14976819E+03  d E =-.122593E-02  mag=    25.0000
 curvature:  -0.44 expect dE=-0.747E-03 dE for cont linesearch -0.112E-07
 trial: gam= 0.60501 g(F)=  0.169E-02 g(S)=  0.000E+00 ort =-0.853E-05 (trialstep = 0.114E+01)
 search vector abs. value=  0.273E-02
 bond charge predicted
       N       E                     dE             d eps       ncg     rms          rms(c)
DAV:   1    -0.143955711171E+03    0.24730E-02   -0.31410E-01  5184   0.114E+00    0.475E-01
DAV:   2    -0.143957905998E+03   -0.21948E-02   -0.19730E-02  7272   0.465E-01    0.199E-01
DAV:   3    -0.143958245077E+03   -0.33908E-03   -0.60228E-04  7608   0.113E-01    0.115E-01
DAV:   4    -0.143958161466E+03    0.83612E-04   -0.76062E-05  7472   0.312E-02    0.768E-02
DAV:   5    -0.143958014639E+03    0.14683E-03   -0.82735E-05  6272   0.227E-02    0.436E-02
DAV:   6    -0.143957977080E+03    0.37559E-04   -0.38408E-05  7056   0.164E-02    0.129E-02
DAV:   7    -0.143958013422E+03   -0.36342E-04   -0.36429E-06  5168   0.688E-03    0.971E-03
DAV:   8    -0.143958069653E+03   -0.56231E-04   -0.16781E-06  3840   0.494E-03    0.669E-03
DAV:   9    -0.143958116009E+03   -0.46356E-04   -0.12670E-06  3704   0.422E-03    0.365E-03
DAV:  10    -0.143958166610E+03   -0.50601E-04   -0.12241E-06  3744   0.391E-03    0.250E-03
DAV:  11    -0.143958203016E+03   -0.36406E-04   -0.73899E-07  3552   0.353E-03    0.160E-03
DAV:  12    -0.143958245300E+03   -0.42284E-04   -0.83350E-07  3848   0.267E-03    0.122E-03
DAV:  13    -0.143958268444E+03   -0.23144E-04   -0.46825E-07  3536   0.234E-03    0.856E-04
DAV:  14    -0.143958290706E+03   -0.22262E-04   -0.46646E-07  3584   0.172E-03    0.769E-04
DAV:  15    -0.143958305885E+03   -0.15179E-04   -0.34745E-07  3576   0.180E-03    0.585E-04
DAV:  16    -0.143958318209E+03   -0.12324E-04   -0.37836E-07  3664   0.145E-03    0.505E-04
DAV:  17    -0.143958324743E+03   -0.65347E-05   -0.26919E-07  3488   0.155E-03    0.351E-04
DAV:  18    -0.143958327062E+03   -0.23187E-05   -0.17554E-07  3176   0.113E-03    0.214E-04
DAV:  19    -0.143958328986E+03   -0.19238E-05   -0.13148E-07  3288   0.998E-04    0.184E-04
DAV:  20    -0.143958329889E+03   -0.90268E-06   -0.90576E-08  3208   0.825E-04
   7 F= -.14976868E+03 E0= -.14976864E+03  d E =-.450854E-03  mag=    25.0000
 trial-energy change:   -0.000451  1 .order   -0.000462   -0.001915    0.000990
 step:   0.7423(harm=  0.7485)  dis= 0.00167  next Energy=  -149.768852 (dE=-0.623E-03)
 bond charge predicted
       N       E                     dE             d eps       ncg     rms          rms(c)
DAV:   1    -0.143958292651E+03    0.36335E-04   -0.37668E-02  5224   0.395E-01    0.166E-01
DAV:   2    -0.143958527131E+03   -0.23448E-03   -0.23442E-03  7256   0.159E-01    0.679E-02
DAV:   3    -0.143958589515E+03   -0.62384E-04   -0.72233E-05  7576   0.386E-02    0.401E-02
DAV:   4    -0.143958575576E+03    0.13939E-04   -0.89000E-06  7328   0.108E-02    0.269E-02
DAV:   5    -0.143958546472E+03    0.29104E-04   -0.97155E-06  5920   0.781E-03    0.156E-02
DAV:   6    -0.143958534414E+03    0.12058E-04   -0.45582E-06  5480   0.586E-03    0.468E-03
DAV:   7    -0.143958541072E+03   -0.66579E-05   -0.53054E-07  3096   0.329E-03    0.344E-03
DAV:   8    -0.143958552162E+03   -0.11090E-04   -0.32518E-07  3312   0.254E-03    0.276E-03
DAV:   9    -0.143958563865E+03   -0.11703E-04   -0.32712E-07  3208   0.212E-03    0.154E-03
DAV:  10    -0.143958572551E+03   -0.86868E-05   -0.20104E-07  3064   0.195E-03    0.124E-03
DAV:  11    -0.143958578156E+03   -0.56041E-05   -0.12507E-07  3080   0.133E-03    0.773E-04
DAV:  12    -0.143958588027E+03   -0.98714E-05   -0.14695E-07  3456   0.109E-03    0.651E-04
DAV:  13    -0.143958593493E+03   -0.54659E-05   -0.98806E-08  3152   0.108E-03    0.390E-04
DAV:  14    -0.143958597640E+03   -0.41470E-05   -0.83167E-08  3104   0.810E-04    0.393E-04
DAV:  15    -0.143958600043E+03   -0.24029E-05   -0.54601E-08  3080   0.726E-04    0.245E-04
DAV:  16    -0.143958602295E+03   -0.22525E-05   -0.47265E-08  3080   0.549E-04    0.245E-04
DAV:  17    -0.143958606023E+03   -0.37281E-05   -0.77636E-08  3464   0.623E-04    0.300E-04
DAV:  18    -0.143958606792E+03   -0.76911E-06   -0.41309E-08  3024   0.672E-04
   8 F= -.14976885E+03 E0= -.14976881E+03  d E =-.622303E-03  mag=    25.0000
 curvature:  -0.61 expect dE=-0.261E-03 dE for cont linesearch -0.175E-07
 trial: gam= 0.24808 g(F)=  0.430E-03 g(S)=  0.000E+00 ort = 0.887E-05 (trialstep = 0.106E+01)
 search vector abs. value=  0.603E-03
 bond charge predicted
       N       E                     dE             d eps       ncg     rms          rms(c)
DAV:   1    -0.143958152127E+03    0.45390E-03   -0.59693E-02  5216   0.496E-01    0.158E-01
DAV:   2    -0.143958503842E+03   -0.35172E-03   -0.41540E-03  7384   0.226E-01    0.786E-02
DAV:   3    -0.143958601544E+03   -0.97702E-04   -0.11611E-04  7416   0.554E-02    0.497E-02
DAV:   4    -0.143958587818E+03    0.13726E-04   -0.10170E-05  7424   0.134E-02    0.354E-02
DAV:   5    -0.143958562694E+03    0.25124E-04   -0.92454E-06  5424   0.740E-03    0.250E-02
DAV:   6    -0.143958538938E+03    0.23756E-04   -0.13272E-05  7016   0.902E-03    0.810E-03
DAV:   7    -0.143958548122E+03   -0.91837E-05   -0.12699E-06  3616   0.389E-03    0.360E-03
DAV:   8    -0.143958561737E+03   -0.13615E-04   -0.39347E-07  3376   0.293E-03    0.280E-03
DAV:   9    -0.143958570146E+03   -0.84088E-05   -0.23399E-07  3016   0.220E-03    0.174E-03
DAV:  10    -0.143958582698E+03   -0.12552E-04   -0.21357E-07  3216   0.164E-03    0.130E-03
DAV:  11    -0.143958589388E+03   -0.66903E-05   -0.12234E-07  3016   0.138E-03    0.817E-04
DAV:  12    -0.143958601111E+03   -0.11722E-04   -0.16221E-07  3384   0.109E-03    0.801E-04
DAV:  13    -0.143958609518E+03   -0.84078E-05   -0.12537E-07  3264   0.115E-03    0.389E-04
DAV:  14    -0.143958614662E+03   -0.51431E-05   -0.10191E-07  3072   0.870E-04    0.424E-04
DAV:  15    -0.143958617796E+03   -0.31350E-05   -0.66372E-08  3040   0.803E-04    0.225E-04
DAV:  16    -0.143958621232E+03   -0.34351E-05   -0.68213E-08  3208   0.609E-04    0.259E-04
DAV:  17    -0.143958625051E+03   -0.38198E-05   -0.78845E-08  3352   0.703E-04    0.225E-04
DAV:  18    -0.143958626070E+03   -0.10181E-05   -0.46892E-08  3024   0.662E-04    0.151E-04
DAV:  19    -0.143958626968E+03   -0.89897E-06   -0.39515E-08  3016   0.474E-04
   9 F= -.14976922E+03 E0= -.14976918E+03  d E =-.363834E-03  mag=    25.0000
 trial-energy change:   -0.000364  1 .order   -0.000363   -0.000457   -0.000270
 step:   2.5809(harm=  2.5809)  dis= 0.00258  next Energy=  -149.769410 (dE=-0.558E-03)
 bond charge predicted
       N       E                     dE             d eps       ncg     rms          rms(c)
DAV:   1    -0.143957340079E+03    0.12860E-02   -0.12414E-01  5184   0.716E-01    0.228E-01
DAV:   2    -0.143958125974E+03   -0.78590E-03   -0.86404E-03  7424   0.326E-01    0.113E-01
DAV:   3    -0.143958286453E+03   -0.16048E-03   -0.24170E-04  7424   0.799E-02    0.716E-02
DAV:   4    -0.143958259587E+03    0.26866E-04   -0.21254E-05  7592   0.194E-02    0.510E-02
DAV:   5    -0.143958217048E+03    0.42539E-04   -0.19066E-05  5792   0.106E-02    0.360E-02
DAV:   6    -0.143958176706E+03    0.40341E-04   -0.27567E-05  7072   0.130E-02    0.116E-02
DAV:   7    -0.143958193166E+03   -0.16459E-04   -0.29671E-06  4552   0.564E-03    0.493E-03
DAV:   8    -0.143958214826E+03   -0.21660E-04   -0.60258E-07  3432   0.331E-03    0.372E-03
DAV:   9    -0.143958230145E+03   -0.15319E-04   -0.34204E-07  3080   0.275E-03    0.246E-03
DAV:  10    -0.143958253743E+03   -0.23599E-04   -0.42843E-07  3496   0.206E-03    0.165E-03
DAV:  11    -0.143958265810E+03   -0.12067E-04   -0.23102E-07  3064   0.197E-03    0.103E-03
DAV:  12    -0.143958284578E+03   -0.18768E-04   -0.28236E-07  3384   0.148E-03    0.985E-04
DAV:  13    -0.143958298226E+03   -0.13647E-04   -0.21106E-07  3416   0.154E-03    0.558E-04
DAV:  14    -0.143958307875E+03   -0.96492E-05   -0.18986E-07  3168   0.112E-03    0.530E-04
DAV:  15    -0.143958313400E+03   -0.55253E-05   -0.12049E-07  3040   0.109E-03    0.322E-04
DAV:  16    -0.143958318896E+03   -0.54958E-05   -0.12352E-07  3448   0.807E-04    0.324E-04
DAV:  17    -0.143958324393E+03   -0.54967E-05   -0.12776E-07  3296   0.936E-04    0.292E-04
DAV:  18    -0.143958326409E+03   -0.20162E-05   -0.89279E-08  3064   0.836E-04    0.185E-04
DAV:  19    -0.143958327442E+03   -0.10326E-05   -0.61840E-08  3024   0.680E-04    0.169E-04
DAV:  20    -0.143958327811E+03   -0.36981E-06   -0.35997E-08  3024   0.551E-04
  10 F= -.14976941E+03 E0= -.14976937E+03  d E =-.558819E-03  mag=    25.0000
 curvature:  -1.80 expect dE=-0.512E-03 dE for cont linesearch -0.170E-09
 trial: gam= 0.67383 g(F)=  0.285E-03 g(S)=  0.000E+00 ort =-0.239E-06 (trialstep = 0.136E+01)
 search vector abs. value=  0.558E-03
 reached required accuracy - stopping structural energy minimisation
Note: The following floating-point exceptions are signalling: IEEE_OVERFLOW_FLAG IEEE_UNDERFLOW_FLAG IEEE_DENORMAL
Note: The following floating-point exceptions are signalling: IEEE_OVERFLOW_FLAG IEEE_UNDERFLOW_FLAG IEEE_DENORMAL
Note: The following floating-point exceptions are signalling: IEEE_OVERFLOW_FLAG IEEE_UNDERFLOW_FLAG IEEE_DENORMAL
Note: The following floating-point exceptions are signalling: IEEE_OVERFLOW_FLAG IEEE_UNDERFLOW_FLAG IEEE_DENORMAL
Note: The following floating-point exceptions are signalling: IEEE_OVERFLOW_FLAG IEEE_UNDERFLOW_FLAG IEEE_DENORMAL
Note: The following floating-point exceptions are signalling: IEEE_OVERFLOW_FLAG IEEE_UNDERFLOW_FLAG IEEE_DENORMAL
Note: The following floating-point exceptions are signalling: IEEE_OVERFLOW_FLAG IEEE_UNDERFLOW_FLAG IEEE_DENORMAL
Note: The following floating-point exceptions are signalling: IEEE_OVERFLOW_FLAG IEEE_UNDERFLOW_FLAG IEEE_DENORMAL
Note: The following floating-point exceptions are signalling: IEEE_OVERFLOW_FLAG IEEE_UNDERFLOW_FLAG IEEE_DENORMAL
Note: The following floating-point exceptions are signalling: IEEE_OVERFLOW_FLAG IEEE_UNDERFLOW_FLAG IEEE_DENORMAL
Note: The following floating-point exceptions are signalling: IEEE_OVERFLOW_FLAG IEEE_UNDERFLOW_FLAG IEEE_DENORMAL
Note: The following floating-point exceptions are signalling: IEEE_OVERFLOW_FLAG IEEE_UNDERFLOW_FLAG IEEE_DENORMAL
Note: The following floating-point exceptions are signalling: IEEE_OVERFLOW_FLAG IEEE_UNDERFLOW_FLAG IEEE_DENORMAL
Note: The following floating-point exceptions are signalling: IEEE_OVERFLOW_FLAG IEEE_UNDERFLOW_FLAG IEEE_DENORMAL
Note: The following floating-point exceptions are signalling: IEEE_OVERFLOW_FLAG IEEE_UNDERFLOW_FLAG IEEE_DENORMAL
Note: The following floating-point exceptions are signalling: IEEE_OVERFLOW_FLAG IEEE_UNDERFLOW_FLAG IEEE_DENORMAL
Note: The following floating-point exceptions are signalling: IEEE_OVERFLOW_FLAG IEEE_UNDERFLOW_FLAG IEEE_DENORMAL
Note: The following floating-point exceptions are signalling: IEEE_OVERFLOW_FLAG IEEE_UNDERFLOW_FLAG IEEE_DENORMAL
Note: The following floating-point exceptions are signalling: IEEE_OVERFLOW_FLAG IEEE_UNDERFLOW_FLAG IEEE_DENORMAL
Note: The following floating-point exceptions are signalling: IEEE_OVERFLOW_FLAG IEEE_UNDERFLOW_FLAG IEEE_DENORMAL
Note: The following floating-point exceptions are signalling: IEEE_OVERFLOW_FLAG IEEE_UNDERFLOW_FLAG IEEE_DENORMAL
Note: The following floating-point exceptions are signalling: IEEE_OVERFLOW_FLAG IEEE_UNDERFLOW_FLAG IEEE_DENORMAL
Note: The following floating-point exceptions are signalling: IEEE_OVERFLOW_FLAG IEEE_UNDERFLOW_FLAG IEEE_DENORMAL
Note: The following floating-point exceptions are signalling: IEEE_OVERFLOW_FLAG IEEE_UNDERFLOW_FLAG IEEE_DENORMAL
Note: The following floating-point exceptions are signalling: IEEE_OVERFLOW_FLAG IEEE_UNDERFLOW_FLAG IEEE_DENORMAL
Note: The following floating-point exceptions are signalling: IEEE_OVERFLOW_FLAG IEEE_UNDERFLOW_FLAG IEEE_DENORMAL
Note: The following floating-point exceptions are signalling: IEEE_OVERFLOW_FLAG IEEE_UNDERFLOW_FLAG IEEE_DENORMAL
Note: The following floating-point exceptions are signalling: IEEE_OVERFLOW_FLAG IEEE_UNDERFLOW_FLAG IEEE_DENORMAL
Note: The following floating-point exceptions are signalling: IEEE_OVERFLOW_FLAG IEEE_UNDERFLOW_FLAG IEEE_DENORMAL
Note: The following floating-point exceptions are signalling: IEEE_OVERFLOW_FLAG IEEE_UNDERFLOW_FLAG IEEE_DENORMAL
Note: The following floating-point exceptions are signalling: IEEE_OVERFLOW_FLAG IEEE_UNDERFLOW_FLAG IEEE_DENORMAL
Note: The following floating-point exceptions are signalling: IEEE_OVERFLOW_FLAG IEEE_UNDERFLOW_FLAG IEEE_DENORMAL
Note: The following floating-point exceptions are signalling: IEEE_OVERFLOW_FLAG IEEE_UNDERFLOW_FLAG IEEE_DENORMAL
Note: The following floating-point exceptions are signalling: IEEE_OVERFLOW_FLAG IEEE_UNDERFLOW_FLAG IEEE_DENORMAL
Note: The following floating-point exceptions are signalling: IEEE_OVERFLOW_FLAG IEEE_UNDERFLOW_FLAG IEEE_DENORMAL
Note: The following floating-point exceptions are signalling: IEEE_OVERFLOW_FLAG IEEE_UNDERFLOW_FLAG IEEE_DENORMAL
Note: The following floating-point exceptions are signalling: IEEE_OVERFLOW_FLAG IEEE_UNDERFLOW_FLAG IEEE_DENORMAL
Note: The following floating-point exceptions are signalling: IEEE_OVERFLOW_FLAG IEEE_UNDERFLOW_FLAG IEEE_DENORMAL
Note: The following floating-point exceptions are signalling: IEEE_OVERFLOW_FLAG IEEE_UNDERFLOW_FLAG IEEE_DENORMAL
Note: The following floating-point exceptions are signalling: IEEE_OVERFLOW_FLAG IEEE_UNDERFLOW_FLAG IEEE_DENORMAL
Note: The following floating-point exceptions are signalling: IEEE_OVERFLOW_FLAG IEEE_UNDERFLOW_FLAG IEEE_DENORMAL
Note: The following floating-point exceptions are signalling: IEEE_OVERFLOW_FLAG IEEE_UNDERFLOW_FLAG IEEE_DENORMAL
Note: The following floating-point exceptions are signalling: IEEE_OVERFLOW_FLAG IEEE_UNDERFLOW_FLAG IEEE_DENORMAL
Note: The following floating-point exceptions are signalling: IEEE_OVERFLOW_FLAG IEEE_UNDERFLOW_FLAG IEEE_DENORMAL
Note: The following floating-point exceptions are signalling: IEEE_OVERFLOW_FLAG IEEE_UNDERFLOW_FLAG IEEE_DENORMAL
Note: The following floating-point exceptions are signalling: IEEE_OVERFLOW_FLAG IEEE_UNDERFLOW_FLAG IEEE_DENORMAL
Note: The following floating-point exceptions are signalling: IEEE_OVERFLOW_FLAG IEEE_UNDERFLOW_FLAG IEEE_DENORMAL
Note: The following floating-point exceptions are signalling: IEEE_OVERFLOW_FLAG IEEE_UNDERFLOW_FLAG IEEE_DENORMAL
Note: The following floating-point exceptions are signalling: IEEE_OVERFLOW_FLAG IEEE_UNDERFLOW_FLAG IEEE_DENORMAL
Note: The following floating-point exceptions are signalling: IEEE_OVERFLOW_FLAG IEEE_UNDERFLOW_FLAG IEEE_DENORMAL
Note: The following floating-point exceptions are signalling: IEEE_OVERFLOW_FLAG IEEE_UNDERFLOW_FLAG IEEE_DENORMAL
Note: The following floating-point exceptions are signalling: IEEE_OVERFLOW_FLAG IEEE_UNDERFLOW_FLAG IEEE_DENORMAL
Note: The following floating-point exceptions are signalling: IEEE_OVERFLOW_FLAG IEEE_UNDERFLOW_FLAG IEEE_DENORMAL
Note: The following floating-point exceptions are signalling: IEEE_OVERFLOW_FLAG IEEE_UNDERFLOW_FLAG IEEE_DENORMAL
Note: The following floating-point exceptions are signalling: IEEE_OVERFLOW_FLAG IEEE_UNDERFLOW_FLAG IEEE_DENORMAL
Note: The following floating-point exceptions are signalling: IEEE_OVERFLOW_FLAG IEEE_UNDERFLOW_FLAG IEEE_DENORMAL
Note: The following floating-point exceptions are signalling: IEEE_OVERFLOW_FLAG IEEE_UNDERFLOW_FLAG IEEE_DENORMAL
Note: The following floating-point exceptions are signalling: IEEE_OVERFLOW_FLAG IEEE_UNDERFLOW_FLAG IEEE_DENORMAL
Note: The following floating-point exceptions are signalling: IEEE_OVERFLOW_FLAG IEEE_UNDERFLOW_FLAG IEEE_DENORMAL
Note: The following floating-point exceptions are signalling: IEEE_OVERFLOW_FLAG IEEE_UNDERFLOW_FLAG IEEE_DENORMAL
Note: The following floating-point exceptions are signalling: IEEE_OVERFLOW_FLAG IEEE_UNDERFLOW_FLAG IEEE_DENORMAL
Note: The following floating-point exceptions are signalling: IEEE_OVERFLOW_FLAG IEEE_UNDERFLOW_FLAG IEEE_DENORMAL
Note: The following floating-point exceptions are signalling: IEEE_OVERFLOW_FLAG IEEE_UNDERFLOW_FLAG IEEE_DENORMAL
Note: The following floating-point exceptions are signalling: IEEE_OVERFLOW_FLAG IEEE_UNDERFLOW_FLAG IEEE_DENORMAL
