34
Lattice="12.0969953537 0.0 0.0 -6.0484976768 10.4763052858 0.0 0.0 0.0 17.6700248718" Properties=species:S:1:pos:R:3:momenta:R:3 pbc="T T T"
Cr      -3.08163734       8.76343686       5.97764422       0.00000000       0.00000000       0.00000000
Cr      -0.07828142       3.48481375       6.01288010       0.00000000       0.00000000       0.00000000
Cr       2.94098450       8.80136965       6.01697265       0.00000000       0.00000000       0.00000000
Cr       6.03371257       3.52988657       6.01295797       0.00000000       0.00000000       0.00000000
Cr       6.03326830       7.01897024       6.01906311       0.00000000       0.00000000       0.00000000
Cr       9.01309618       1.77983522       5.97243779       0.00000000       0.00000000       0.00000000
Cr      -0.07937168       7.05384729       6.01405273       0.00000000       0.00000000       0.00000000
Cr       2.94486024       1.74286952       6.01519857       0.00000000       0.00000000       0.00000000
Cl       2.10910182       0.01406573       4.63628906       0.00000000       0.00000000       0.00000000
Cl      -0.88960256       5.26938500       4.70777436       0.00000000       0.00000000       0.00000000
Cl       8.15389033       0.05121573       4.63345887       0.00000000       0.00000000       0.00000000
Cl       5.11527860       5.27630517       4.72150448       0.00000000       0.00000000       0.00000000
Cl      -1.15876102       8.64093517       4.63348393       0.00000000       0.00000000       0.00000000
Cl       1.89082595       3.40648947       4.71803069       0.00000000       0.00000000       0.00000000
Cl       4.89476932       8.61597776       4.71571331       0.00000000       0.00000000       0.00000000
Cl       7.94724086       3.38763145       4.63081062       0.00000000       0.00000000       0.00000000
Cl       7.94629922       7.15802746       4.63713194       0.00000000       0.00000000       0.00000000
Cl      10.93943889       1.89702746       4.63256326       0.00000000       0.00000000       0.00000000
Cl       1.89183099       7.13292813       4.72144368       0.00000000       0.00000000       0.00000000
Cl       4.89455610       1.93418746       4.70829636       0.00000000       0.00000000       0.00000000
Cl       7.09334531       8.63769303       7.34330970       0.00000000       0.00000000       0.00000000
Cl      10.08563257       3.38180142       7.33489348       0.00000000       0.00000000       0.00000000
Cl       0.99402481       8.68055387       7.34624944       0.00000000       0.00000000       0.00000000
Cl       4.05825094       3.38332134       7.45157376       0.00000000       0.00000000       0.00000000
Cl       3.82194135       0.01687318       7.33819690       0.00000000       0.00000000       0.00000000
Cl       0.78191232       5.26928048       7.45131967       0.00000000       0.00000000       0.00000000
Cl       9.86192796       0.05247372       7.33971268       0.00000000       0.00000000       0.00000000
Cl       6.90430155       5.27245084       7.34661987       0.00000000       0.00000000       0.00000000
Cl      -2.01126274       7.15867254       7.33818203       0.00000000       0.00000000       0.00000000
Cl       0.99851008       1.86059708       7.34591970       0.00000000       0.00000000       0.00000000
Cl       4.05684075       7.16494465       7.45698346       0.00000000       0.00000000       0.00000000
Cl       7.09010906       1.90848879       7.33549018       0.00000000       0.00000000       0.00000000
Ni       2.96458457       5.27417868       7.73412564       0.00000000       0.00000000       0.00000000
H        2.95950121       5.27591818       9.19369238       0.00000000       0.00000000       0.00000000
