                                        
   1.00000000000000     
    12.0969953537000006    0.0000000000000000    0.0000000000000000
    -6.0484976768000003   10.4763052858000005    0.0000000000000000
     0.0000000000000000    0.0000000000000000   17.6700248717999990
   Cr   Cl   Ni   H 
     8    24     1     1
Direct
     0.1635063280311723    0.8365007152473356    0.3382929151568523
     0.1598476880952827    0.3326376675009824    0.3402870197809801
     0.6631777065175779    0.8401215319050059    0.3405186295436923
     0.6672477993960383    0.3369400255195036    0.3402914265443219
     0.8337336971749395    0.6699852717556646    0.3406369347096421
     0.8300147454823561    0.1698915000603145    0.3379982674101739
     0.3300959313256601    0.6733144075459279    0.3403533820466659
     0.3266188260367737    0.1663629943223524    0.3404182290577525
     0.1750205408877592    0.0013426229640767    0.2623815806546469
     0.1779514851010932    0.5029812378324943    0.2664271498534548
     0.6764869714124503    0.0048887207818777    0.2622214117691710
     0.6746761958458062    0.5036417920033853    0.2672041784128676
     0.3166145897058606    0.8248074995174228    0.2622228300326146
     0.3188860908469877    0.3251613404187904    0.2670075862577914
     0.8158394795977861    0.8224252275410194    0.2668764384971663
     0.8186405384884307    0.3233612761432310    0.2620715396720429
     0.9985114439921201    0.6832587693768443    0.2624292822700577
     0.9948493694459625    0.1810779092040698    0.2621707267379466
     0.4968199778884319    0.6808629505056477    0.2672007376155011
     0.4969217213964395    0.1846249617493116    0.2664566911110521
     0.9986215049306816    0.8244980259351162    0.4155800429634584
     0.9951327728201551    0.3228047792767922    0.4151037437008864
     0.4964658365401119    0.8285892430163416    0.4157464122322345
     0.4969508746895677    0.3229498612084841    0.4217070331426246
     0.3167466777624560    0.0016106043760320    0.4152906946203879
     0.3161225336382792    0.5029712609994105    0.4216926531254849
     0.8177422065290073    0.0050087997731017    0.4153764770697692
     0.8223821017114821    0.5032738825457272    0.4157673755413647
     0.1753988256961524    0.6833203448891564    0.4152898527670575
     0.1713422422397921    0.1776005020086776    0.4157277510450784
     0.6773188904821392    0.6839190401110240    0.4220131839318683
     0.6771909336635794    0.1821719337248267    0.4151375129464203
     0.4967872499578748    0.5034388114806420    0.4376974957168954
     0.4964500536697877    0.5036048527594147    0.5202987800620599
 
  0.00000000E+00  0.00000000E+00  0.00000000E+00
  0.00000000E+00  0.00000000E+00  0.00000000E+00
  0.00000000E+00  0.00000000E+00  0.00000000E+00
  0.00000000E+00  0.00000000E+00  0.00000000E+00
  0.00000000E+00  0.00000000E+00  0.00000000E+00
  0.00000000E+00  0.00000000E+00  0.00000000E+00
  0.00000000E+00  0.00000000E+00  0.00000000E+00
  0.00000000E+00  0.00000000E+00  0.00000000E+00
  0.00000000E+00  0.00000000E+00  0.00000000E+00
  0.00000000E+00  0.00000000E+00  0.00000000E+00
  0.00000000E+00  0.00000000E+00  0.00000000E+00
  0.00000000E+00  0.00000000E+00  0.00000000E+00
  0.00000000E+00  0.00000000E+00  0.00000000E+00
  0.00000000E+00  0.00000000E+00  0.00000000E+00
  0.00000000E+00  0.00000000E+00  0.00000000E+00
  0.00000000E+00  0.00000000E+00  0.00000000E+00
  0.00000000E+00  0.00000000E+00  0.00000000E+00
  0.00000000E+00  0.00000000E+00  0.00000000E+00
  0.00000000E+00  0.00000000E+00  0.00000000E+00
  0.00000000E+00  0.00000000E+00  0.00000000E+00
  0.00000000E+00  0.00000000E+00  0.00000000E+00
  0.00000000E+00  0.00000000E+00  0.00000000E+00
  0.00000000E+00  0.00000000E+00  0.00000000E+00
  0.00000000E+00  0.00000000E+00  0.00000000E+00
  0.00000000E+00  0.00000000E+00  0.00000000E+00
  0.00000000E+00  0.00000000E+00  0.00000000E+00
  0.00000000E+00  0.00000000E+00  0.00000000E+00
  0.00000000E+00  0.00000000E+00  0.00000000E+00
  0.00000000E+00  0.00000000E+00  0.00000000E+00
  0.00000000E+00  0.00000000E+00  0.00000000E+00
  0.00000000E+00  0.00000000E+00  0.00000000E+00
  0.00000000E+00  0.00000000E+00  0.00000000E+00
  0.00000000E+00  0.00000000E+00  0.00000000E+00
  0.00000000E+00  0.00000000E+00  0.00000000E+00
