34
Lattice="12.2092962265 0.0 0.0 -6.0854095134 10.5847228971 0.0 0.0 0.0 17.6887664795" Properties=species:S:1:pos:R:3:momenta:R:3 pbc="T T T"
Cr      -0.16967831       3.57635533       5.95387464       0.00000000       0.00000000       0.00000000
Cr      -3.21220616       8.93206827       5.83300931       0.00000000       0.00000000       0.00000000
Cr       6.08065160       3.61689597       5.88253608       0.00000000       0.00000000       0.00000000
Cr       2.90818852       8.95354430       5.93319820       0.00000000       0.00000000       0.00000000
Cr       9.04977724       1.83886353       5.83201746       0.00000000       0.00000000       0.00000000
Cr       6.01560488       7.15530047       5.93438438       0.00000000       0.00000000       0.00000000
Cr       2.88951693       1.80552338       5.95506528       0.00000000       0.00000000       0.00000000
Cr      -0.19101520       7.24483795       5.88214761       0.00000000       0.00000000       0.00000000
Cl      -0.98239677       5.33406632       4.61561652       0.00000000       0.00000000       0.00000000
Cl       1.94749476       0.14520585       4.55184192       0.00000000       0.00000000       0.00000000
Cl       4.94649169       5.41561837       4.69477172       0.00000000       0.00000000       0.00000000
Cl       8.15619573       0.05179366       4.52228950       0.00000000       0.00000000       0.00000000
Cl       1.92233792       3.66218352       4.75404981       0.00000000       0.00000000       0.00000000
Cl      -1.38360667       8.89652324       4.38813362       0.00000000       0.00000000       0.00000000
Cl       8.10859602       3.40501083       4.38563652       0.00000000       0.00000000       0.00000000
Cl       4.88544802       8.78475085       4.61681194       0.00000000       0.00000000       0.00000000
Cl      11.07049627       1.93162704       4.55137976       0.00000000       0.00000000       0.00000000
Cl       7.89267089       7.26691435       4.52338836       0.00000000       0.00000000       0.00000000
Cl       4.81817760       1.97674122       4.61738425       0.00000000       0.00000000       0.00000000
Cl       1.93096478       7.16175125       4.69128546       0.00000000       0.00000000       0.00000000
Cl      10.07947619       3.47051712       7.23539946       0.00000000       0.00000000       0.00000000
Cl       7.05136714       8.81255293       7.24565397       0.00000000       0.00000000       0.00000000
Cl       3.92053111       3.40451312       7.48722496       0.00000000       0.00000000       0.00000000
Cl       0.97290652       8.85685768       7.28004007       0.00000000       0.00000000       0.00000000
Cl       0.70350617       5.27085137       7.48307321       0.00000000       0.00000000       0.00000000
Cl       3.77412817       0.05286374       7.23647748       0.00000000       0.00000000       0.00000000
Cl       6.89573520       5.43019367       7.28147377       0.00000000       0.00000000       0.00000000
Cl       9.91534077       0.09217057       7.24529625       0.00000000       0.00000000       0.00000000
Cl       0.90581885       1.90751655       7.28745667       0.00000000       0.00000000       0.00000000
Cl      -2.16836032       7.32605149       7.21944980       0.00000000       0.00000000       0.00000000
Cl       7.13834712       1.94342908       7.21946861       0.00000000       0.00000000       0.00000000
Cl       4.00925216       7.27277102       7.36942709       0.00000000       0.00000000       0.00000000
Fe       2.85992372       5.28090099       6.85456893       0.00000000       0.00000000       0.00000000
H        2.92883405       5.40132373       8.32939616       0.00000000       0.00000000       0.00000000
