Cr8Cl24                                 
   1.0000000000000000     
    12.1343889235999995    0.0000000000000000    0.0000000000000000
    -6.0613529830999999   10.5120826004999994    0.0000000000000000
     0.0000000000000000    0.0000000000000000   17.6887664794999999
   Cr   Cl   Co   H 
     8    24     1     1
Direct
  0.1484015900475128  0.3246521881926573  0.3323535953229371
  0.1609881478617265  0.8386598749935241  0.3340537895986164
  0.6592593083647205  0.3357780555131922  0.3376843613069088
  0.6565102350224256  0.8447917770040413  0.3414434390514219
  0.8230629073069008  0.1703795132856571  0.3341511625141293
  0.8359070286035281  0.6678540045798870  0.3318068794619674
  0.3238666735954167  0.1678353868967392  0.3375686162685791
  0.3274666032985877  0.6790581757555184  0.3415155289577066
  0.1791627311944424  0.5120221473859464  0.2662483174083090
  0.1722985672607311  0.0068737065882863  0.2594574268107104
  0.6621534717939702  0.4988586770511456  0.2588846078586896
  0.6593383569656935 -0.0007550507176258  0.2616821668667096
  0.3200660943765254  0.3269672753782450  0.2582559505823747
  0.3244509657426384  0.8314186120775261  0.2617264807614539
  0.8112821536584536  0.3270003160934001  0.2595597779946410
  0.8047365663654198  0.8249631073309321  0.2666911406319366
  0.9671621412213013  0.1672174532693702  0.2488147339058192
  0.0166746738312751  0.6915417627748307  0.2485774267118158
  0.4918188862165326  0.1788413371062499  0.2626825449359456
  0.4925411682798345  0.6752275556968081  0.2678808567224563
  0.9869915458180066  0.3224565542686246  0.4116761561754450
 -0.0036499328033855  0.8266169472116913  0.4115034299799514
  0.4914883324037898  0.3318312764979721  0.4143379623206516
  0.4918172566651080  0.8446213041475042  0.4144085180686573
  0.3438013630647411  0.5319413101087250  0.4306306307040179
  0.3150720798327506  0.0050679791626173  0.4139608448395349
  0.8113659237480723  0.4986935775947773  0.4144505346502709
  0.8144265528533244  0.0072518564266686  0.4143032911561617
  0.1716569397043056  0.1783730437247539  0.4143593439971610
  0.1694447731256354  0.6841293086736014  0.4142143265609283
  0.6684303552475326  0.1820416085444068  0.4140199797878586
  0.6411659631927320  0.6826516269221043  0.4336509110360943
  0.4899120322411632  0.4946228232166686  0.3312717120848442
  0.4970987538986217  0.6143292352435732  0.4394135869652941

  0.00000000E+00  0.00000000E+00  0.00000000E+00
  0.00000000E+00  0.00000000E+00  0.00000000E+00
  0.00000000E+00  0.00000000E+00  0.00000000E+00
  0.00000000E+00  0.00000000E+00  0.00000000E+00
  0.00000000E+00  0.00000000E+00  0.00000000E+00
  0.00000000E+00  0.00000000E+00  0.00000000E+00
  0.00000000E+00  0.00000000E+00  0.00000000E+00
  0.00000000E+00  0.00000000E+00  0.00000000E+00
  0.00000000E+00  0.00000000E+00  0.00000000E+00
  0.00000000E+00  0.00000000E+00  0.00000000E+00
  0.00000000E+00  0.00000000E+00  0.00000000E+00
  0.00000000E+00  0.00000000E+00  0.00000000E+00
  0.00000000E+00  0.00000000E+00  0.00000000E+00
  0.00000000E+00  0.00000000E+00  0.00000000E+00
  0.00000000E+00  0.00000000E+00  0.00000000E+00
  0.00000000E+00  0.00000000E+00  0.00000000E+00
  0.00000000E+00  0.00000000E+00  0.00000000E+00
  0.00000000E+00  0.00000000E+00  0.00000000E+00
  0.00000000E+00  0.00000000E+00  0.00000000E+00
  0.00000000E+00  0.00000000E+00  0.00000000E+00
  0.00000000E+00  0.00000000E+00  0.00000000E+00
  0.00000000E+00  0.00000000E+00  0.00000000E+00
  0.00000000E+00  0.00000000E+00  0.00000000E+00
  0.00000000E+00  0.00000000E+00  0.00000000E+00
  0.00000000E+00  0.00000000E+00  0.00000000E+00
  0.00000000E+00  0.00000000E+00  0.00000000E+00
  0.00000000E+00  0.00000000E+00  0.00000000E+00
  0.00000000E+00  0.00000000E+00  0.00000000E+00
  0.00000000E+00  0.00000000E+00  0.00000000E+00
  0.00000000E+00  0.00000000E+00  0.00000000E+00
  0.00000000E+00  0.00000000E+00  0.00000000E+00
  0.00000000E+00  0.00000000E+00  0.00000000E+00
  0.00000000E+00  0.00000000E+00  0.00000000E+00
  0.00000000E+00  0.00000000E+00  0.00000000E+00
