       N       E                     dE             d eps       ncg     rms          rms(c)
DAV:   1     0.214492585124E+04    0.21449E+04   -0.66356E+04  8072   0.932E+02
DAV:   2     0.397635781114E+03   -0.17473E+04   -0.16349E+04  9536   0.246E+02
DAV:   3    -0.117823906848E+03   -0.51546E+03   -0.50138E+03 11720   0.139E+02
DAV:   4    -0.153859223895E+03   -0.36035E+02   -0.35291E+02 12064   0.499E+01
DAV:   5    -0.154624024876E+03   -0.76480E+00   -0.75737E+00 12064   0.892E+00    0.416E+01
DAV:   6    -0.148584943432E+03    0.60391E+01   -0.16768E+02 12888   0.629E+01    0.403E+01
DAV:   7    -0.147242077075E+03    0.13429E+01   -0.18842E+01 11816   0.402E+01    0.202E+01
DAV:   8    -0.147661551538E+03   -0.41947E+00   -0.55860E+00 12184   0.124E+01    0.112E+01
DAV:   9    -0.147701305063E+03   -0.39754E-01   -0.14707E+00 12976   0.904E+00    0.430E+00
DAV:  10    -0.147792126896E+03   -0.90822E-01   -0.67556E-01 10696   0.729E+00    0.231E+00
DAV:  11    -0.147842200093E+03   -0.50073E-01   -0.12321E-01  9240   0.310E+00    0.135E+00
DAV:  12    -0.147887426846E+03   -0.45227E-01   -0.37644E-02 11784   0.107E+00    0.745E-01
DAV:  13    -0.147940840836E+03   -0.53414E-01   -0.12289E-02 11616   0.619E-01    0.479E-01
DAV:  14    -0.147977652317E+03   -0.36811E-01   -0.38256E-03 11616   0.510E-01    0.192E-01
DAV:  15    -0.148002597226E+03   -0.24945E-01   -0.10086E-03 10472   0.222E-01    0.116E-01
DAV:  16    -0.148028843052E+03   -0.26246E-01   -0.57986E-04 11712   0.147E-01    0.794E-02
DAV:  17    -0.148052272344E+03   -0.23429E-01   -0.38518E-04 10392   0.615E-02    0.413E-02
DAV:  18    -0.148060432201E+03   -0.81599E-02   -0.12862E-04 10584   0.352E-02    0.304E-02
DAV:  19    -0.148064668096E+03   -0.42359E-02   -0.63126E-05 11352   0.378E-02    0.177E-02
DAV:  20    -0.148066543501E+03   -0.18754E-02   -0.47807E-05 10000   0.259E-02    0.126E-02
DAV:  21    -0.148067000868E+03   -0.45737E-03   -0.19855E-05 10384   0.180E-02    0.765E-03
DAV:  22    -0.148067138034E+03   -0.13717E-03   -0.10236E-05  8912   0.831E-03    0.549E-03
DAV:  23    -0.148067200254E+03   -0.62220E-04   -0.32232E-06  7680   0.751E-03    0.391E-03
DAV:  24    -0.148067340944E+03   -0.14069E-03   -0.29472E-06  7520   0.661E-03    0.384E-03
DAV:  25    -0.148067501903E+03   -0.16096E-03   -0.42995E-06  8128   0.683E-03    0.272E-03
DAV:  26    -0.148067577949E+03   -0.76046E-04   -0.14909E-06  6496   0.330E-03    0.231E-03
DAV:  27    -0.148067615258E+03   -0.37309E-04   -0.56499E-07  6280   0.238E-03    0.136E-03
DAV:  28    -0.148067628744E+03   -0.13486E-04   -0.36069E-07  5456   0.191E-03    0.101E-03
DAV:  29    -0.148067637051E+03   -0.83077E-05   -0.30006E-07  5760   0.182E-03    0.112E-03
DAV:  30    -0.148067639747E+03   -0.26955E-05   -0.15813E-07  5296   0.139E-03    0.690E-04
DAV:  31    -0.148067642129E+03   -0.23822E-05   -0.11447E-07  5272   0.959E-04    0.574E-04
DAV:  32    -0.148067644410E+03   -0.22811E-05   -0.94393E-08  5520   0.924E-04    0.279E-04
DAV:  33    -0.148067645818E+03   -0.14075E-05   -0.76499E-08  5216   0.817E-04    0.356E-04
DAV:  34    -0.148067646793E+03   -0.97552E-06   -0.47845E-08  5032   0.712E-04
   1 F= -.15426062E+03 E0= -.15426062E+03  d E =-.154261E+03  mag=    27.9999
       N       E                     dE             d eps       ncg     rms          rms(c)
DAV:   1    -0.148066883320E+03    0.76250E-03   -0.47094E-01  8072   0.140E+00    0.435E-01
DAV:   2    -0.148069503945E+03   -0.26206E-02   -0.27801E-02 11160   0.541E-01    0.221E-01
DAV:   3    -0.148069888871E+03   -0.38493E-03   -0.12807E-03 11088   0.258E-01    0.135E-01
DAV:   4    -0.148069712488E+03    0.17638E-03   -0.21383E-04 10560   0.109E-01    0.101E-01
DAV:   5    -0.148069493543E+03    0.21894E-03   -0.13836E-04 12920   0.489E-02    0.657E-02
DAV:   6    -0.148069414200E+03    0.79343E-04   -0.81598E-05 10440   0.243E-02    0.210E-02
DAV:   7    -0.148069527708E+03   -0.11351E-03   -0.12949E-05  9944   0.149E-02    0.132E-02
DAV:   8    -0.148069677552E+03   -0.14984E-03   -0.33714E-06  7520   0.835E-03    0.897E-03
DAV:   9    -0.148069808531E+03   -0.13098E-03   -0.26910E-06  7136   0.684E-03    0.512E-03
DAV:  10    -0.148069942437E+03   -0.13391E-03   -0.39010E-06  8072   0.526E-03    0.304E-03
DAV:  11    -0.148070011996E+03   -0.69559E-04   -0.85459E-07  6232   0.328E-03    0.197E-03
DAV:  12    -0.148070064584E+03   -0.52588E-04   -0.87437E-07  6216   0.289E-03    0.185E-03
DAV:  13    -0.148070108478E+03   -0.43894E-04   -0.10717E-06  6472   0.292E-03    0.154E-03
DAV:  14    -0.148070146448E+03   -0.37971E-04   -0.13033E-06  6624   0.274E-03    0.107E-03
DAV:  15    -0.148070159393E+03   -0.12944E-04   -0.50909E-07  5992   0.218E-03    0.941E-04
DAV:  16    -0.148070165113E+03   -0.57202E-05   -0.35113E-07  5632   0.177E-03    0.641E-04
DAV:  17    -0.148070168312E+03   -0.31993E-05   -0.30775E-07  5688   0.160E-03    0.542E-04
DAV:  18    -0.148070169032E+03   -0.72026E-06   -0.19467E-07  5352   0.138E-03
   2 F= -.15426860E+03 E0= -.15426860E+03  d E =-.797779E-02  mag=    28.0000
       N       E                     dE             d eps       ncg     rms          rms(c)
DAV:   1    -0.148033623284E+03    0.36545E-01   -0.42377E+00  7904   0.418E+00    0.130E+00
DAV:   2    -0.148059224401E+03   -0.25601E-01   -0.25310E-01 11240   0.162E+00    0.671E-01
DAV:   3    -0.148061891164E+03   -0.26668E-02   -0.11549E-02 11080   0.742E-01    0.400E-01
DAV:   4    -0.148060839845E+03    0.10513E-02   -0.19643E-03 10680   0.310E-01    0.300E-01
DAV:   5    -0.148059773515E+03    0.10663E-02   -0.11816E-03 12936   0.145E-01    0.193E-01
DAV:   6    -0.148059588362E+03    0.18515E-03   -0.71269E-04 10576   0.721E-02    0.614E-02
DAV:   7    -0.148060226025E+03   -0.63766E-03   -0.12244E-04 10360   0.526E-02    0.389E-02
DAV:   8    -0.148061006283E+03   -0.78026E-03   -0.37764E-05 10632   0.291E-02    0.249E-02
DAV:   9    -0.148061612353E+03   -0.60607E-03   -0.15254E-05 10560   0.197E-02    0.144E-02
DAV:  10    -0.148062312607E+03   -0.70025E-03   -0.20422E-05  9264   0.114E-02    0.727E-03
DAV:  11    -0.148062705325E+03   -0.39272E-03   -0.75360E-06  9480   0.766E-03    0.495E-03
DAV:  12    -0.148062974359E+03   -0.26903E-03   -0.37944E-06  7912   0.507E-03    0.386E-03
DAV:  13    -0.148063216486E+03   -0.24213E-03   -0.54956E-06  8304   0.522E-03    0.275E-03
DAV:  14    -0.148063338659E+03   -0.12217E-03   -0.34746E-06  7712   0.396E-03    0.184E-03
DAV:  15    -0.148063376605E+03   -0.37946E-04   -0.11881E-06  6432   0.306E-03    0.163E-03
DAV:  16    -0.148063384587E+03   -0.79821E-05   -0.57353E-07  6096   0.265E-03    0.109E-03
DAV:  17    -0.148063387068E+03   -0.24811E-05   -0.38474E-07  5616   0.193E-03    0.735E-04
DAV:  18    -0.148063388166E+03   -0.10982E-05   -0.24684E-07  5504   0.168E-03    0.557E-04
DAV:  19    -0.148063388758E+03   -0.59233E-06   -0.14379E-07  5208   0.122E-03
   3 F= -.15428987E+03 E0= -.15428987E+03  d E =-.292448E-01  mag=    28.0000
       N       E                     dE             d eps       ncg     rms          rms(c)
DAV:   1    -0.148065024139E+03   -0.16360E-02   -0.37098E-01  8040   0.123E+00    0.388E-01
DAV:   2    -0.148067035351E+03   -0.20112E-02   -0.21872E-02 11352   0.490E-01    0.197E-01
DAV:   3    -0.148067360020E+03   -0.32467E-03   -0.11374E-03 10840   0.252E-01    0.121E-01
DAV:   4    -0.148067219094E+03    0.14093E-03   -0.18119E-04 10264   0.101E-01    0.896E-02
DAV:   5    -0.148067039637E+03    0.17946E-03   -0.11095E-04 12440   0.382E-02    0.590E-02
DAV:   6    -0.148066972621E+03    0.67016E-04   -0.62192E-05 11160   0.228E-02    0.189E-02
DAV:   7    -0.148067066321E+03   -0.93700E-04   -0.10297E-05  9376   0.145E-02    0.116E-02
DAV:   8    -0.148067192031E+03   -0.12571E-03   -0.28298E-06  6968   0.785E-03    0.811E-03
DAV:   9    -0.148067304600E+03   -0.11257E-03   -0.25661E-06  6984   0.602E-03    0.454E-03
DAV:  10    -0.148067405058E+03   -0.10046E-03   -0.25958E-06  7016   0.454E-03    0.276E-03
DAV:  11    -0.148067473152E+03   -0.68094E-04   -0.11009E-06  6128   0.374E-03    0.200E-03
DAV:  12    -0.148067516831E+03   -0.43678E-04   -0.87569E-07  5920   0.321E-03    0.170E-03
DAV:  13    -0.148067549288E+03   -0.32457E-04   -0.81164E-07  5984   0.269E-03    0.132E-03
DAV:  14    -0.148067580136E+03   -0.30848E-04   -0.97790E-07  6192   0.257E-03    0.114E-03
DAV:  15    -0.148067595299E+03   -0.15163E-04   -0.63146E-07  5872   0.227E-03    0.824E-04
DAV:  16    -0.148067601545E+03   -0.62466E-05   -0.43654E-07  5432   0.190E-03    0.564E-04
DAV:  17    -0.148067604767E+03   -0.32222E-05   -0.34654E-07  5496   0.167E-03    0.485E-04
DAV:  18    -0.148067605618E+03   -0.85082E-06   -0.22161E-07  5416   0.145E-03
   4 F= -.15429088E+03 E0= -.15429088E+03  d E =-.302630E-01  mag=    28.0000
       N       E                     dE             d eps       ncg     rms          rms(c)
DAV:   1    -0.148065783807E+03    0.18210E-02   -0.56747E-02  8296   0.483E-01    0.151E-01
DAV:   2    -0.148066046814E+03   -0.26301E-03   -0.33525E-03 11328   0.190E-01    0.766E-02
DAV:   3    -0.148066126907E+03   -0.80093E-04   -0.16928E-04 10928   0.947E-02    0.470E-02
DAV:   4    -0.148066096069E+03    0.30839E-04   -0.27671E-05 10392   0.384E-02    0.349E-02
DAV:   5    -0.148066048161E+03    0.47908E-04   -0.16782E-05 11904   0.156E-02    0.228E-02
DAV:   6    -0.148066021186E+03    0.26974E-04   -0.95122E-06 10112   0.875E-03    0.725E-03
DAV:   7    -0.148066043515E+03   -0.22329E-04   -0.14146E-06  5800   0.623E-03    0.458E-03
DAV:   8    -0.148066075701E+03   -0.32185E-04   -0.79617E-07  5816   0.417E-03    0.373E-03
DAV:   9    -0.148066104158E+03   -0.28457E-04   -0.69572E-07  5752   0.299E-03    0.224E-03
DAV:  10    -0.148066123162E+03   -0.19004E-04   -0.49916E-07  5536   0.254E-03    0.176E-03
DAV:  11    -0.148066139808E+03   -0.16646E-04   -0.42355E-07  5592   0.226E-03    0.131E-03
DAV:  12    -0.148066151763E+03   -0.11955E-04   -0.35902E-07  5568   0.199E-03    0.937E-04
DAV:  13    -0.148066160927E+03   -0.91647E-05   -0.31324E-07  5552   0.164E-03    0.682E-04
DAV:  14    -0.148066167358E+03   -0.64305E-05   -0.24366E-07  5488   0.146E-03    0.526E-04
DAV:  15    -0.148066172054E+03   -0.46962E-05   -0.21521E-07  5488   0.126E-03    0.495E-04
DAV:  16    -0.148066174915E+03   -0.28613E-05   -0.18603E-07  5520   0.117E-03    0.334E-04
DAV:  17    -0.148066175770E+03   -0.85458E-06   -0.11518E-07  5192   0.101E-03
   5 F= -.15429127E+03 E0= -.15429127E+03  d E =-.306530E-01  mag=    28.0000
       N       E                     dE             d eps       ncg     rms          rms(c)
DAV:   1    -0.148065473855E+03    0.70106E-03   -0.11003E-01  8016   0.630E-01    0.167E-01
DAV:   2    -0.148066115479E+03   -0.64162E-03   -0.71536E-03 11384   0.264E-01    0.823E-02
DAV:   3    -0.148066140371E+03   -0.24892E-04   -0.16288E-04 11032   0.781E-02    0.557E-02
DAV:   4    -0.148066123964E+03    0.16407E-04   -0.40478E-05 10712   0.420E-02    0.426E-02
DAV:   5    -0.148066111214E+03    0.12750E-04   -0.26647E-05 12584   0.264E-02    0.261E-02
DAV:   6    -0.148066108508E+03    0.27064E-05   -0.14811E-05 10616   0.116E-02    0.734E-03
DAV:   7    -0.148066116018E+03   -0.75102E-05   -0.14593E-06  5840   0.477E-03    0.478E-03
DAV:   8    -0.148066123350E+03   -0.73322E-05   -0.71715E-07  5448   0.440E-03    0.415E-03
DAV:   9    -0.148066128301E+03   -0.49507E-05   -0.44430E-07  5032   0.312E-03    0.268E-03
DAV:  10    -0.148066133417E+03   -0.51169E-05   -0.40641E-07  5368   0.230E-03    0.190E-03
DAV:  11    -0.148066138116E+03   -0.46986E-05   -0.27735E-07  5280   0.220E-03    0.124E-03
DAV:  12    -0.148066142038E+03   -0.39225E-05   -0.24664E-07  5512   0.188E-03    0.928E-04
DAV:  13    -0.148066143650E+03   -0.16114E-05   -0.17054E-07  5152   0.151E-03    0.693E-04
DAV:  14    -0.148066144337E+03   -0.68727E-06   -0.69132E-08  5024   0.992E-04
   6 F= -.15429268E+03 E0= -.15429268E+03  d E =-.140056E-02  mag=    28.0000
       N       E                     dE             d eps       ncg     rms          rms(c)
DAV:   1    -0.148065896314E+03    0.24734E-03   -0.25005E-02  8200   0.300E-01    0.796E-02
DAV:   2    -0.148066035182E+03   -0.13887E-03   -0.16147E-03 11248   0.125E-01    0.392E-02
DAV:   3    -0.148066043645E+03   -0.84625E-05   -0.36986E-05 10792   0.378E-02    0.266E-02
DAV:   4    -0.148066039027E+03    0.46175E-05   -0.90321E-06  9072   0.203E-02    0.204E-02
DAV:   5    -0.148066035565E+03    0.34618E-05   -0.60077E-06  9208   0.128E-02    0.128E-02
DAV:   6    -0.148066034833E+03    0.73249E-06   -0.45504E-06  8176   0.638E-03
   7 F= -.15429277E+03 E0= -.15429277E+03  d E =-.149698E-02  mag=    28.0000
       N       E                     dE             d eps       ncg     rms          rms(c)
DAV:   1    -0.148068266585E+03   -0.22310E-02   -0.48565E-02  8144   0.463E-01    0.174E-01
DAV:   2    -0.148068390373E+03   -0.12379E-03   -0.19362E-03 10440   0.145E-01    0.827E-02
DAV:   3    -0.148068565794E+03   -0.17542E-03   -0.18578E-04 11312   0.593E-02    0.400E-02
DAV:   4    -0.148068475568E+03    0.90226E-04   -0.16358E-05 11568   0.268E-02    0.277E-02
DAV:   5    -0.148068375208E+03    0.10036E-03   -0.12597E-05 11136   0.145E-02    0.183E-02
DAV:   6    -0.148068317676E+03    0.57531E-04   -0.12818E-05 10816   0.177E-02    0.843E-03
DAV:   7    -0.148068362168E+03   -0.44492E-04   -0.18253E-06  5872   0.578E-03    0.625E-03
DAV:   8    -0.148068468333E+03   -0.10617E-03   -0.16465E-06  6480   0.390E-03    0.425E-03
DAV:   9    -0.148068545947E+03   -0.77614E-04   -0.11448E-06  6064   0.344E-03    0.253E-03
DAV:  10    -0.148068594813E+03   -0.48866E-04   -0.85207E-07  5720   0.358E-03    0.189E-03
DAV:  11    -0.148068643171E+03   -0.48359E-04   -0.11676E-06  6224   0.280E-03    0.150E-03
DAV:  12    -0.148068682113E+03   -0.38942E-04   -0.85476E-07  6096   0.253E-03    0.116E-03
DAV:  13    -0.148068709693E+03   -0.27580E-04   -0.74791E-07  5928   0.235E-03    0.835E-04
DAV:  14    -0.148068731965E+03   -0.22272E-04   -0.86489E-07  6160   0.223E-03    0.721E-04
DAV:  15    -0.148068742151E+03   -0.10186E-04   -0.53937E-07  5784   0.210E-03    0.542E-04
DAV:  16    -0.148068744459E+03   -0.23075E-05   -0.30981E-07  5336   0.168E-03    0.343E-04
DAV:  17    -0.148068745820E+03   -0.13609E-05   -0.22864E-07  5424   0.130E-03    0.311E-04
DAV:  18    -0.148068746139E+03   -0.31918E-06   -0.14461E-07  5208   0.118E-03
   8 F= -.15429544E+03 E0= -.15429544E+03  d E =-.266707E-02  mag=    28.0000
       N       E                     dE             d eps       ncg     rms          rms(c)
DAV:   1    -0.148069603257E+03   -0.85744E-03   -0.42909E-01  8048   0.138E+00    0.516E-01
DAV:   2    -0.148071732977E+03   -0.21297E-02   -0.17127E-02 10888   0.437E-01    0.248E-01
DAV:   3    -0.148072862114E+03   -0.11291E-02   -0.16223E-03 11448   0.180E-01    0.119E-01
DAV:   4    -0.148072414343E+03    0.44777E-03   -0.14392E-04 12368   0.800E-02    0.823E-02
DAV:   5    -0.148071950016E+03    0.46433E-03   -0.10426E-04 11480   0.408E-02    0.540E-02
DAV:   6    -0.148071753867E+03    0.19615E-03   -0.10916E-04 11168   0.490E-02    0.246E-02
DAV:   7    -0.148071967579E+03   -0.21371E-03   -0.18420E-05 10584   0.156E-02    0.184E-02
DAV:   8    -0.148072426276E+03   -0.45870E-03   -0.77579E-06  8640   0.716E-03    0.995E-03
DAV:   9    -0.148072856904E+03   -0.43063E-03   -0.63635E-06  8712   0.610E-03    0.437E-03
DAV:  10    -0.148073193549E+03   -0.33664E-03   -0.47014E-06  8296   0.570E-03    0.352E-03
DAV:  11    -0.148073342363E+03   -0.14881E-03   -0.13502E-06  6736   0.421E-03    0.318E-03
DAV:  12    -0.148073553480E+03   -0.21112E-03   -0.50838E-06  7976   0.399E-03    0.203E-03
DAV:  13    -0.148073651555E+03   -0.98075E-04   -0.15077E-06  6800   0.242E-03    0.123E-03
DAV:  14    -0.148073707836E+03   -0.56281E-04   -0.11805E-06  6504   0.264E-03    0.120E-03
DAV:  15    -0.148073725044E+03   -0.17208E-04   -0.53160E-07  6040   0.224E-03    0.711E-04
DAV:  16    -0.148073739839E+03   -0.14795E-04   -0.79092E-07  6048   0.195E-03    0.659E-04
DAV:  17    -0.148073742849E+03   -0.30105E-05   -0.40047E-07  5816   0.207E-03    0.350E-04
DAV:  18    -0.148073743329E+03   -0.47919E-06   -0.22002E-07  5296   0.135E-03
   9 F= -.15430031E+03 E0= -.15430031E+03  d E =-.753560E-02  mag=    28.0000
       N       E                     dE             d eps       ncg     rms          rms(c)
DAV:   1    -0.148053491358E+03    0.20251E-01   -0.17164E+00  7984   0.276E+00    0.103E+00
DAV:   2    -0.148063237871E+03   -0.97465E-02   -0.69014E-02 11072   0.895E-01    0.508E-01
DAV:   3    -0.148067361112E+03   -0.41232E-02   -0.63929E-03 11520   0.371E-01    0.242E-01
DAV:   4    -0.148066041158E+03    0.13200E-02   -0.57994E-04 12416   0.162E-01    0.166E-01
DAV:   5    -0.148064792919E+03    0.12482E-02   -0.41048E-04 11360   0.802E-02    0.107E-01
DAV:   6    -0.148064368991E+03    0.42393E-03   -0.43031E-04 10960   0.938E-02    0.483E-02
DAV:   7    -0.148065057532E+03   -0.68854E-03   -0.75773E-05 11064   0.329E-02    0.364E-02
DAV:   8    -0.148066438217E+03   -0.13807E-02   -0.29116E-05 10136   0.144E-02    0.194E-02
DAV:   9    -0.148067669324E+03   -0.12311E-02   -0.21469E-05 10016   0.107E-02    0.843E-03
DAV:  10    -0.148068628056E+03   -0.95873E-03   -0.14656E-05  8680   0.804E-03    0.638E-03
DAV:  11    -0.148069086802E+03   -0.45875E-03   -0.58559E-06  8880   0.686E-03    0.589E-03
DAV:  12    -0.148069656789E+03   -0.56999E-03   -0.12016E-05  8352   0.651E-03    0.354E-03
DAV:  13    -0.148069939669E+03   -0.28288E-03   -0.69382E-06  8792   0.499E-03    0.175E-03
DAV:  14    -0.148070059548E+03   -0.11988E-03   -0.33383E-06  7672   0.320E-03    0.118E-03
DAV:  15    -0.148070089340E+03   -0.29792E-04   -0.10775E-06  6496   0.226E-03    0.979E-04
DAV:  16    -0.148070093578E+03   -0.42382E-05   -0.31255E-07  5872   0.221E-03    0.847E-04
DAV:  17    -0.148070095519E+03   -0.19409E-05   -0.25141E-07  5504   0.129E-03    0.535E-04
DAV:  18    -0.148070096353E+03   -0.83419E-06   -0.14422E-07  5368   0.133E-03
  10 F= -.15429644E+03 E0= -.15429644E+03  d E =-.366867E-02  mag=    28.0000
       N       E                     dE             d eps       ncg     rms          rms(c)
DAV:   1    -0.148066127397E+03    0.39681E-02   -0.87334E-01  8128   0.197E+00    0.736E-01
DAV:   2    -0.148070784603E+03   -0.46572E-02   -0.35024E-02 11040   0.627E-01    0.353E-01
DAV:   3    -0.148072971748E+03   -0.21871E-02   -0.33581E-03 11040   0.266E-01    0.170E-01
DAV:   4    -0.148072196503E+03    0.77524E-03   -0.30955E-04 12080   0.121E-01    0.118E-01
DAV:   5    -0.148071461317E+03    0.73519E-03   -0.22467E-04 11336   0.660E-02    0.784E-02
DAV:   6    -0.148071198480E+03    0.26284E-03   -0.23570E-04 11288   0.763E-02    0.360E-02
DAV:   7    -0.148071573819E+03   -0.37534E-03   -0.39383E-05 11064   0.232E-02    0.260E-02
DAV:   8    -0.148072332479E+03   -0.75866E-03   -0.14427E-05  9544   0.992E-03    0.146E-02
DAV:   9    -0.148073032823E+03   -0.70034E-03   -0.11603E-05 10088   0.932E-03    0.670E-03
DAV:  10    -0.148073589916E+03   -0.55709E-03   -0.76590E-06  8704   0.711E-03    0.461E-03
DAV:  11    -0.148073914624E+03   -0.32471E-03   -0.41568E-06  8352   0.479E-03    0.428E-03
DAV:  12    -0.148074278731E+03   -0.36411E-03   -0.72357E-06  8344   0.458E-03    0.254E-03
DAV:  13    -0.148074459224E+03   -0.18049E-03   -0.39994E-06  8208   0.342E-03    0.127E-03
DAV:  14    -0.148074535217E+03   -0.75993E-04   -0.17721E-06  7080   0.245E-03    0.122E-03
DAV:  15    -0.148074550917E+03   -0.15701E-04   -0.40200E-07  6136   0.204E-03    0.101E-03
DAV:  16    -0.148074558728E+03   -0.78102E-05   -0.43165E-07  5968   0.167E-03    0.739E-04
DAV:  17    -0.148074561352E+03   -0.26240E-05   -0.30038E-07  5744   0.173E-03    0.497E-04
DAV:  18    -0.148074562109E+03   -0.75715E-06   -0.18930E-07  5352   0.126E-03
  11 F= -.15430106E+03 E0= -.15430106E+03  d E =-.828466E-02  mag=    28.0000
       N       E                     dE             d eps       ncg     rms          rms(c)
DAV:   1    -0.148076008033E+03   -0.14467E-02   -0.32775E-02  8280   0.347E-01    0.116E-01
DAV:   2    -0.148076167920E+03   -0.15989E-03   -0.22453E-03 11744   0.266E-01    0.680E-02
DAV:   3    -0.148076199891E+03   -0.31970E-04   -0.26360E-04 10328   0.136E-01    0.397E-02
DAV:   4    -0.148076195418E+03    0.44722E-05   -0.24583E-05  9656   0.402E-02    0.250E-02
DAV:   5    -0.148076191803E+03    0.36153E-05   -0.10944E-05 10648   0.129E-02    0.180E-02
DAV:   6    -0.148076190150E+03    0.16533E-05   -0.73863E-06  8536   0.127E-02    0.647E-03
DAV:   7    -0.148076192585E+03   -0.24352E-05   -0.84025E-07  5448   0.660E-03    0.253E-03
DAV:   8    -0.148076195519E+03   -0.29338E-05   -0.46522E-07  5080   0.264E-03    0.230E-03
DAV:   9    -0.148076198039E+03   -0.25206E-05   -0.19006E-07  5040   0.232E-03    0.184E-03
DAV:  10    -0.148076199947E+03   -0.19079E-05   -0.10337E-07  5008   0.142E-03    0.105E-03
DAV:  11    -0.148076201727E+03   -0.17796E-05   -0.75060E-08  5168   0.104E-03    0.836E-04
DAV:  12    -0.148076202902E+03   -0.11751E-05   -0.61312E-08  5128   0.906E-04    0.510E-04
DAV:  13    -0.148076203710E+03   -0.80769E-06   -0.41335E-08  5128   0.829E-04
  12 F= -.15430234E+03 E0= -.15430234E+03  d E =-.127927E-02  mag=    28.0000
       N       E                     dE             d eps       ncg     rms          rms(c)
DAV:   1    -0.148078502411E+03   -0.22995E-02   -0.15116E-01  7920   0.744E-01    0.251E-01
DAV:   2    -0.148079304870E+03   -0.80246E-03   -0.10377E-02 11584   0.571E-01    0.146E-01
DAV:   3    -0.148079386844E+03   -0.81975E-04   -0.12239E-03 10440   0.290E-01    0.852E-02
DAV:   4    -0.148079367091E+03    0.19753E-04   -0.11094E-04 10504   0.858E-02    0.538E-02
DAV:   5    -0.148079353159E+03    0.13933E-04   -0.49080E-05 11864   0.275E-02    0.387E-02
DAV:   6    -0.148079349777E+03    0.33817E-05   -0.32460E-05 10344   0.270E-02    0.137E-02
DAV:   7    -0.148079359307E+03   -0.95301E-05   -0.36891E-06  7432   0.129E-02    0.554E-03
DAV:   8    -0.148079369443E+03   -0.10136E-04   -0.16647E-06  6176   0.500E-03    0.474E-03
DAV:   9    -0.148079379310E+03   -0.98677E-05   -0.56894E-07  5384   0.421E-03    0.331E-03
DAV:  10    -0.148079385996E+03   -0.66857E-05   -0.42104E-07  5512   0.334E-03    0.181E-03
DAV:  11    -0.148079392867E+03   -0.68712E-05   -0.39612E-07  5568   0.213E-03    0.154E-03
DAV:  12    -0.148079396058E+03   -0.31905E-05   -0.21767E-07  5208   0.194E-03    0.974E-04
DAV:  13    -0.148079398733E+03   -0.26753E-05   -0.14151E-07  5272   0.139E-03    0.745E-04
DAV:  14    -0.148079401784E+03   -0.30514E-05   -0.13348E-07  5728   0.124E-03    0.600E-04
DAV:  15    -0.148079403068E+03   -0.12834E-05   -0.90048E-08  5128   0.995E-04    0.496E-04
DAV:  16    -0.148079403627E+03   -0.55946E-06   -0.54635E-08  5016   0.755E-04
  13 F= -.15430362E+03 E0= -.15430362E+03  d E =-.256620E-02  mag=    28.0000
       N       E                     dE             d eps       ncg     rms          rms(c)
DAV:   1    -0.148080067526E+03   -0.66446E-03   -0.15335E-02  8280   0.249E-01    0.771E-02
DAV:   2    -0.148080114960E+03   -0.47435E-04   -0.83758E-04 12208   0.156E-01    0.449E-02
DAV:   3    -0.148080145771E+03   -0.30810E-04   -0.11959E-04 11008   0.905E-02    0.264E-02
DAV:   4    -0.148080138373E+03    0.73978E-05   -0.10494E-05  8936   0.258E-02    0.169E-02
DAV:   5    -0.148080129421E+03    0.89517E-05   -0.33333E-06  7728   0.752E-03    0.126E-02
DAV:   6    -0.148080120108E+03    0.93127E-05   -0.52002E-06  8040   0.980E-03    0.536E-03
DAV:   7    -0.148080125263E+03   -0.51546E-05   -0.84480E-07  5176   0.497E-03    0.235E-03
DAV:   8    -0.148080133295E+03   -0.80324E-05   -0.30864E-07  5264   0.251E-03    0.204E-03
DAV:   9    -0.148080141441E+03   -0.81455E-05   -0.22667E-07  5344   0.202E-03    0.170E-03
DAV:  10    -0.148080146388E+03   -0.49474E-05   -0.15213E-07  5256   0.151E-03    0.924E-04
DAV:  11    -0.148080150043E+03   -0.36551E-05   -0.10969E-07  5320   0.117E-03    0.858E-04
DAV:  12    -0.148080154229E+03   -0.41860E-05   -0.11520E-07  5632   0.113E-03    0.575E-04
DAV:  13    -0.148080156819E+03   -0.25898E-05   -0.10049E-07  5224   0.110E-03    0.456E-04
DAV:  14    -0.148080158283E+03   -0.14642E-05   -0.75196E-08  5152   0.858E-04    0.337E-04
DAV:  15    -0.148080159167E+03   -0.88342E-06   -0.52794E-08  4968   0.681E-04
  14 F= -.15430450E+03 E0= -.15430450E+03  d E =-.879937E-03  mag=    28.0000
       N       E                     dE             d eps       ncg     rms          rms(c)
DAV:   1    -0.148081389580E+03   -0.12313E-02   -0.13808E-01  8040   0.745E-01    0.232E-01
DAV:   2    -0.148081992118E+03   -0.60254E-03   -0.75540E-03 12112   0.467E-01    0.134E-01
DAV:   3    -0.148082140381E+03   -0.14826E-03   -0.10870E-03 11024   0.269E-01    0.790E-02
DAV:   4    -0.148082095374E+03    0.45007E-04   -0.98302E-05 10912   0.770E-02    0.503E-02
DAV:   5    -0.148082049132E+03    0.46242E-04   -0.29951E-05 11848   0.208E-02    0.369E-02
DAV:   6    -0.148082012338E+03    0.36794E-04   -0.30100E-05 11200   0.262E-02    0.133E-02
DAV:   7    -0.148082040972E+03   -0.28634E-04   -0.44499E-06  7800   0.123E-02    0.718E-03
DAV:   8    -0.148082080300E+03   -0.39328E-04   -0.16479E-06  6256   0.529E-03    0.553E-03
DAV:   9    -0.148082121054E+03   -0.40755E-04   -0.11779E-06  6040   0.417E-03    0.393E-03
DAV:  10    -0.148082145783E+03   -0.24728E-04   -0.73800E-07  5648   0.378E-03    0.236E-03
DAV:  11    -0.148082170432E+03   -0.24649E-04   -0.78137E-07  5864   0.289E-03    0.212E-03
DAV:  12    -0.148082189521E+03   -0.19090E-04   -0.66316E-07  6032   0.276E-03    0.141E-03
DAV:  13    -0.148082200807E+03   -0.11285E-04   -0.46155E-07  5656   0.251E-03    0.110E-03
DAV:  14    -0.148082209320E+03   -0.85133E-05   -0.42599E-07  5744   0.200E-03    0.908E-04
DAV:  15    -0.148082214770E+03   -0.54501E-05   -0.33319E-07  5560   0.175E-03    0.683E-04
DAV:  16    -0.148082216640E+03   -0.18699E-05   -0.22119E-07  5272   0.147E-03    0.561E-04
DAV:  17    -0.148082217559E+03   -0.91904E-06   -0.15917E-07  5440   0.118E-03
  15 F= -.15430692E+03 E0= -.15430692E+03  d E =-.329853E-02  mag=    28.0000
       N       E                     dE             d eps       ncg     rms          rms(c)
DAV:   1    -0.148082087482E+03    0.12916E-03   -0.55287E-01  7912   0.149E+00    0.464E-01
DAV:   2    -0.148084728766E+03   -0.26413E-02   -0.30247E-02 12272   0.931E-01    0.267E-01
DAV:   3    -0.148085162982E+03   -0.43422E-03   -0.43447E-03 11032   0.533E-01    0.157E-01
DAV:   4    -0.148085028687E+03    0.13430E-03   -0.40074E-04 10944   0.153E-01    0.100E-01
DAV:   5    -0.148084902305E+03    0.12638E-03   -0.11869E-04 12352   0.408E-02    0.733E-02
DAV:   6    -0.148084827755E+03    0.74550E-04   -0.11572E-04 11168   0.500E-02    0.265E-02
DAV:   7    -0.148084910107E+03   -0.82352E-04   -0.19431E-05 11248   0.230E-02    0.149E-02
DAV:   8    -0.148085016449E+03   -0.10634E-03   -0.52700E-06  8600   0.835E-03    0.106E-02
DAV:   9    -0.148085130106E+03   -0.11366E-03   -0.29643E-06  7160   0.680E-03    0.630E-03
DAV:  10    -0.148085201359E+03   -0.71253E-04   -0.16392E-06  6440   0.565E-03    0.412E-03
DAV:  11    -0.148085274207E+03   -0.72848E-04   -0.23985E-06  7000   0.463E-03    0.313E-03
DAV:  12    -0.148085322597E+03   -0.48391E-04   -0.11057E-06  6232   0.387E-03    0.220E-03
DAV:  13    -0.148085355082E+03   -0.32485E-04   -0.88925E-07  6136   0.382E-03    0.189E-03
DAV:  14    -0.148085381723E+03   -0.26641E-04   -0.12671E-06  6528   0.303E-03    0.138E-03
DAV:  15    -0.148085390021E+03   -0.82979E-05   -0.51328E-07  5936   0.233E-03    0.103E-03
DAV:  16    -0.148085393046E+03   -0.30253E-05   -0.27439E-07  5208   0.176E-03    0.799E-04
DAV:  17    -0.148085395339E+03   -0.22926E-05   -0.25371E-07  5760   0.152E-03    0.667E-04
DAV:  18    -0.148085396321E+03   -0.98226E-06   -0.21060E-07  5584   0.144E-03
  16 F= -.15431076E+03 E0= -.15431076E+03  d E =-.713384E-02  mag=    28.0000
       N       E                     dE             d eps       ncg     rms          rms(c)
DAV:   1    -0.148074886593E+03    0.10509E-01   -0.22135E+00  7904   0.297E+00    0.931E-01
DAV:   2    -0.148085947178E+03   -0.11061E-01   -0.12104E-01 12456   0.185E+00    0.528E-01
DAV:   3    -0.148087391004E+03   -0.14438E-02   -0.17168E-02 10936   0.104E+00    0.313E-01
DAV:   4    -0.148086997754E+03    0.39325E-03   -0.16669E-03 10920   0.304E-01    0.201E-01
DAV:   5    -0.148086656986E+03    0.34077E-03   -0.48715E-04 12384   0.794E-02    0.145E-01
DAV:   6    -0.148086544675E+03    0.11231E-03   -0.43335E-04 11184   0.923E-02    0.522E-02
DAV:   7    -0.148086784019E+03   -0.23934E-03   -0.71233E-05 11232   0.415E-02    0.295E-02
DAV:   8    -0.148087075363E+03   -0.29134E-03   -0.21927E-05 11160   0.163E-02    0.206E-02
DAV:   9    -0.148087362060E+03   -0.28670E-03   -0.84380E-06  9456   0.106E-02    0.116E-02
DAV:  10    -0.148087570034E+03   -0.20797E-03   -0.42708E-06  8200   0.881E-03    0.710E-03
DAV:  11    -0.148087792438E+03   -0.22240E-03   -0.56423E-06  8528   0.723E-03    0.436E-03
DAV:  12    -0.148087922840E+03   -0.13040E-03   -0.26714E-06  7472   0.472E-03    0.335E-03
DAV:  13    -0.148088014593E+03   -0.91753E-04   -0.17907E-06  6784   0.404E-03    0.248E-03
DAV:  14    -0.148088071310E+03   -0.56716E-04   -0.19269E-06  6896   0.380E-03    0.173E-03
DAV:  15    -0.148088088137E+03   -0.16827E-04   -0.69535E-07  6144   0.270E-03    0.128E-03
DAV:  16    -0.148088094264E+03   -0.61277E-05   -0.42699E-07  5696   0.223E-03    0.100E-03
DAV:  17    -0.148088097291E+03   -0.30269E-05   -0.31554E-07  5616   0.190E-03    0.792E-04
DAV:  18    -0.148088099335E+03   -0.20441E-05   -0.35270E-07  5776   0.177E-03    0.581E-04
DAV:  19    -0.148088099378E+03   -0.42883E-07   -0.22304E-07  5464   0.158E-03
  17 F= -.15431449E+03 E0= -.15431449E+03  d E =-.108639E-01  mag=    28.0000
       N       E                     dE             d eps       ncg     rms          rms(c)
DAV:   1    -0.148089393967E+03   -0.12946E-02   -0.56102E-02  8304   0.460E-01    0.134E-01
DAV:   2    -0.148089581837E+03   -0.18787E-03   -0.27835E-03 12552   0.307E-01    0.880E-02
DAV:   3    -0.148089675702E+03   -0.93865E-04   -0.47853E-04 10872   0.178E-01    0.454E-02
DAV:   4    -0.148089671936E+03    0.37652E-05   -0.34596E-05 11200   0.386E-02    0.278E-02
DAV:   5    -0.148089670514E+03    0.14220E-05   -0.92427E-06 10336   0.131E-02    0.190E-02
DAV:   6    -0.148089672947E+03   -0.24326E-05   -0.81452E-06  9408   0.125E-02    0.689E-03
DAV:   7    -0.148089678482E+03   -0.55347E-05   -0.11731E-06  5632   0.506E-03    0.353E-03
DAV:   8    -0.148089684049E+03   -0.55673E-05   -0.32317E-07  5200   0.293E-03    0.270E-03
DAV:   9    -0.148089688783E+03   -0.47340E-05   -0.26739E-07  5152   0.224E-03    0.196E-03
DAV:  10    -0.148089692293E+03   -0.35105E-05   -0.18583E-07  5136   0.178E-03    0.117E-03
DAV:  11    -0.148089694602E+03   -0.23085E-05   -0.11549E-07  5168   0.134E-03    0.954E-04
DAV:  12    -0.148089697099E+03   -0.24972E-05   -0.10155E-07  5328   0.118E-03    0.614E-04
DAV:  13    -0.148089698482E+03   -0.13826E-05   -0.91491E-08  5144   0.105E-03    0.463E-04
DAV:  14    -0.148089699038E+03   -0.55577E-06   -0.45257E-08  5016   0.798E-04
  18 F= -.15431619E+03 E0= -.15431619E+03  d E =-.170135E-02  mag=    28.0000
       N       E                     dE             d eps       ncg     rms          rms(c)
DAV:   1    -0.148091652677E+03   -0.19542E-02   -0.50527E-01  7904   0.138E+00    0.401E-01
DAV:   2    -0.148093782522E+03   -0.21298E-02   -0.24882E-02 12448   0.913E-01    0.260E-01
DAV:   3    -0.148094267674E+03   -0.48515E-03   -0.42525E-03 10824   0.524E-01    0.136E-01
DAV:   4    -0.148094246041E+03    0.21633E-04   -0.31363E-04 11776   0.117E-01    0.830E-02
DAV:   5    -0.148094241722E+03    0.43195E-05   -0.85436E-05 12328   0.383E-02    0.561E-02
DAV:   6    -0.148094261215E+03   -0.19493E-04   -0.65116E-05 11240   0.344E-02    0.200E-02
DAV:   7    -0.148094289367E+03   -0.28152E-04   -0.91352E-06  9088   0.116E-02    0.116E-02
DAV:   8    -0.148094315422E+03   -0.26055E-04   -0.14564E-06  6136   0.584E-03    0.796E-03
DAV:   9    -0.148094341130E+03   -0.25707E-04   -0.17165E-06  6408   0.557E-03    0.492E-03
DAV:  10    -0.148094362072E+03   -0.20942E-04   -0.12481E-06  5872   0.479E-03    0.306E-03
DAV:  11    -0.148094374937E+03   -0.12865E-04   -0.87922E-07  5632   0.382E-03    0.251E-03
DAV:  12    -0.148094384484E+03   -0.95473E-05   -0.54351E-07  5496   0.310E-03    0.173E-03
DAV:  13    -0.148094390719E+03   -0.62348E-05   -0.41611E-07  5504   0.236E-03    0.120E-03
DAV:  14    -0.148094394608E+03   -0.38889E-05   -0.25461E-07  5384   0.175E-03    0.855E-04
DAV:  15    -0.148094396877E+03   -0.22695E-05   -0.16549E-07  5208   0.138E-03    0.638E-04
DAV:  16    -0.148094398399E+03   -0.15221E-05   -0.13248E-07  5432   0.116E-03    0.537E-04
DAV:  17    -0.148094399406E+03   -0.10068E-05   -0.11115E-07  5384   0.106E-03    0.390E-04
DAV:  18    -0.148094399783E+03   -0.37659E-06   -0.77849E-08  5008   0.911E-04
  19 F= -.15432117E+03 E0= -.15432117E+03  d E =-.668552E-02  mag=    28.0000
       N       E                     dE             d eps       ncg     rms          rms(c)
DAV:   1    -0.148092422813E+03    0.19766E-02   -0.20224E+00  7904   0.275E+00    0.803E-01
DAV:   2    -0.148101247242E+03   -0.88244E-02   -0.98590E-02 12712   0.179E+00    0.508E-01
DAV:   3    -0.148103003893E+03   -0.17567E-02   -0.16242E-02 10920   0.100E+00    0.274E-01
DAV:   4    -0.148102926591E+03    0.77302E-04   -0.11658E-03 11864   0.226E-01    0.166E-01
DAV:   5    -0.148102928541E+03   -0.19503E-05   -0.33289E-04 12224   0.771E-02    0.110E-01
DAV:   6    -0.148103015681E+03   -0.87140E-04   -0.28306E-04 11176   0.776E-02    0.369E-02
DAV:   7    -0.148103102180E+03   -0.86499E-04   -0.37659E-05 10232   0.289E-02    0.231E-02
DAV:   8    -0.148103179758E+03   -0.77577E-04   -0.11568E-05  9928   0.117E-02    0.159E-02
DAV:   9    -0.148103245624E+03   -0.65866E-04   -0.33819E-06  7648   0.784E-03    0.915E-03
DAV:  10    -0.148103306258E+03   -0.60634E-04   -0.27103E-06  7448   0.821E-03    0.533E-03
DAV:  11    -0.148103349171E+03   -0.42913E-04   -0.26237E-06  7080   0.584E-03    0.368E-03
DAV:  12    -0.148103372214E+03   -0.23042E-04   -0.84441E-07  5944   0.383E-03    0.273E-03
DAV:  13    -0.148103388448E+03   -0.16235E-04   -0.50161E-07  5696   0.309E-03    0.206E-03
DAV:  14    -0.148103402752E+03   -0.14303E-04   -0.61190E-07  6128   0.262E-03    0.133E-03
DAV:  15    -0.148103407714E+03   -0.49623E-05   -0.36604E-07  5408   0.216E-03    0.108E-03
DAV:  16    -0.148103410286E+03   -0.25716E-05   -0.21216E-07  5168   0.151E-03    0.616E-04
DAV:  17    -0.148103412901E+03   -0.26154E-05   -0.17728E-07  5584   0.135E-03    0.646E-04
DAV:  18    -0.148103414570E+03   -0.16688E-05   -0.17365E-07  5416   0.120E-03    0.369E-04
DAV:  19    -0.148103415167E+03   -0.59715E-06   -0.10850E-07  5152   0.106E-03
  20 F= -.15433062E+03 E0= -.15433062E+03  d E =-.161358E-01  mag=    28.0000
       N       E                     dE             d eps       ncg     rms          rms(c)
DAV:   1    -0.148075765957E+03    0.27649E-01   -0.80868E+00  7904   0.550E+00    0.161E+00
DAV:   2    -0.148112464579E+03   -0.36699E-01   -0.38541E-01 13008   0.341E+00    0.954E-01
DAV:   3    -0.148118668862E+03   -0.62043E-02   -0.57969E-02 10832   0.181E+00    0.534E-01
DAV:   4    -0.148118419602E+03    0.24926E-03   -0.46454E-03 11672   0.463E-01    0.327E-01
DAV:   5    -0.148118534520E+03   -0.11492E-03   -0.15132E-03 11976   0.142E-01    0.211E-01
DAV:   6    -0.148118956318E+03   -0.42180E-03   -0.10948E-03 10984   0.162E-01    0.722E-02
DAV:   7    -0.148119206323E+03   -0.25000E-03   -0.14813E-04 10848   0.758E-02    0.457E-02
DAV:   8    -0.148119431715E+03   -0.22539E-03   -0.56367E-05 10480   0.252E-02    0.309E-02
DAV:   9    -0.148119621332E+03   -0.18962E-03   -0.15137E-05 10048   0.153E-02    0.171E-02
DAV:  10    -0.148119794362E+03   -0.17303E-03   -0.93190E-06  9760   0.163E-02    0.901E-03
DAV:  11    -0.148119926028E+03   -0.13167E-03   -0.67439E-06  9088   0.986E-03    0.617E-03
DAV:  12    -0.148119983225E+03   -0.57197E-04   -0.16921E-06  6728   0.517E-03    0.486E-03
DAV:  13    -0.148120031251E+03   -0.48026E-04   -0.11083E-06  6272   0.431E-03    0.327E-03
DAV:  14    -0.148120066590E+03   -0.35340E-04   -0.16046E-06  6616   0.382E-03    0.178E-03
DAV:  15    -0.148120079894E+03   -0.13303E-04   -0.60100E-07  5904   0.289E-03    0.119E-03
DAV:  16    -0.148120085583E+03   -0.56892E-05   -0.34966E-07  5256   0.220E-03    0.118E-03
DAV:  17    -0.148120091732E+03   -0.61491E-05   -0.32926E-07  5808   0.169E-03    0.768E-04
DAV:  18    -0.148120097082E+03   -0.53503E-05   -0.36706E-07  5760   0.168E-03    0.701E-04
DAV:  19    -0.148120098787E+03   -0.17042E-05   -0.22957E-07  5464   0.156E-03    0.512E-04
DAV:  20    -0.148120099063E+03   -0.27692E-06   -0.10348E-07  5192   0.110E-03
  21 F= -.15434755E+03 E0= -.15434755E+03  d E =-.330633E-01  mag=    28.0000
       N       E                     dE             d eps       ncg     rms          rms(c)
DAV:   1    -0.147965798735E+03    0.15430E+00   -0.32122E+01  7904   0.110E+01    0.322E+00
DAV:   2    -0.148115839001E+03   -0.15004E+00   -0.14915E+00 13312   0.604E+00    0.172E+00
DAV:   3    -0.148143462246E+03   -0.27623E-01   -0.16960E-01 10840   0.275E+00    0.979E-01
DAV:   4    -0.148142901613E+03    0.56063E-03   -0.15769E-02 11512   0.820E-01    0.638E-01
DAV:   5    -0.148143718216E+03   -0.81660E-03   -0.63728E-03 11520   0.244E-01    0.393E-01
DAV:   6    -0.148145614495E+03   -0.18963E-02   -0.34384E-03 11104   0.254E-01    0.141E-01
DAV:   7    -0.148146396908E+03   -0.78241E-03   -0.53014E-04 11760   0.150E-01    0.949E-02
DAV:   8    -0.148147103814E+03   -0.70691E-03   -0.21350E-04 10584   0.518E-02    0.604E-02
DAV:   9    -0.148147707998E+03   -0.60418E-03   -0.74920E-05 11072   0.314E-02    0.342E-02
DAV:  10    -0.148148221059E+03   -0.51306E-03   -0.43750E-05 11280   0.343E-02    0.205E-02
DAV:  11    -0.148148610090E+03   -0.38903E-03   -0.30835E-05 10184   0.228E-02    0.153E-02
DAV:  12    -0.148148774836E+03   -0.16475E-03   -0.11574E-05  9024   0.122E-02    0.126E-02
DAV:  13    -0.148148931740E+03   -0.15690E-03   -0.67811E-06  8776   0.137E-02    0.864E-03
DAV:  14    -0.148149033620E+03   -0.10188E-03   -0.12263E-05  9320   0.134E-02    0.610E-03
DAV:  15    -0.148149064468E+03   -0.30847E-04   -0.52183E-06  7928   0.869E-03    0.538E-03
DAV:  16    -0.148149074281E+03   -0.98134E-05   -0.19440E-06  6488   0.652E-03    0.447E-03
DAV:  17    -0.148149071710E+03    0.25715E-05   -0.39876E-06  7432   0.850E-03    0.294E-03
DAV:  18    -0.148149066399E+03    0.53106E-05   -0.34328E-06  7048   0.700E-03    0.211E-03
DAV:  19    -0.148149070354E+03   -0.39551E-05   -0.86282E-07  6000   0.344E-03    0.147E-03
DAV:  20    -0.148149076602E+03   -0.62483E-05   -0.19809E-07  5240   0.214E-03    0.104E-03
DAV:  21    -0.148149082401E+03   -0.57992E-05   -0.15656E-07  5528   0.165E-03    0.718E-04
DAV:  22    -0.148149086208E+03   -0.38067E-05   -0.23009E-07  5416   0.131E-03    0.770E-04
DAV:  23    -0.148149088502E+03   -0.22940E-05   -0.76965E-08  5160   0.106E-03    0.434E-04
DAV:  24    -0.148149090349E+03   -0.18471E-05   -0.73044E-08  5400   0.807E-04    0.419E-04
DAV:  25    -0.148149091727E+03   -0.13776E-05   -0.53500E-08  5464   0.746E-04    0.207E-04
DAV:  26    -0.148149092219E+03   -0.49253E-06   -0.37589E-08  5016   0.622E-04
  22 F= -.15437559E+03 E0= -.15437559E+03  d E =-.611023E-01  mag=    28.0000
       N       E                     dE             d eps       ncg     rms          rms(c)
DAV:   1    -0.147346136992E+03    0.80295E+00   -0.12424E+02  7992   0.217E+01    0.623E+00
DAV:   2    -0.148010590553E+03   -0.66445E+00   -0.58876E+00 12400   0.918E+00    0.327E+00
DAV:   3    -0.148127649387E+03   -0.11706E+00   -0.37754E-01  9896   0.324E+00    0.173E+00
DAV:   4    -0.148126012655E+03    0.16367E-02   -0.40223E-02 11360   0.106E+00    0.128E+00
DAV:   5    -0.148129796946E+03   -0.37843E-02   -0.25345E-02 11616   0.547E-01    0.771E-01
DAV:   6    -0.148135707646E+03   -0.59107E-02   -0.86812E-03 11432   0.291E-01    0.231E-01
DAV:   7    -0.148138104751E+03   -0.23971E-02   -0.12920E-03 12392   0.188E-01    0.180E-01
DAV:   8    -0.148139805626E+03   -0.17009E-02   -0.60682E-04 10944   0.976E-02    0.110E-01
DAV:   9    -0.148141222260E+03   -0.14166E-02   -0.19980E-04 11592   0.504E-02    0.657E-02
DAV:  10    -0.148142690830E+03   -0.14686E-02   -0.16045E-04 11264   0.614E-02    0.413E-02
DAV:  11    -0.148143703338E+03   -0.10125E-02   -0.12022E-04 10624   0.503E-02    0.345E-02
DAV:  12    -0.148144129630E+03   -0.42629E-03   -0.41295E-05  9344   0.247E-02    0.288E-02
DAV:  13    -0.148144657930E+03   -0.52830E-03   -0.53702E-05 10968   0.347E-02    0.203E-02
DAV:  14    -0.148144925063E+03   -0.26713E-03   -0.90605E-05  9952   0.369E-02    0.151E-02
DAV:  15    -0.148144961716E+03   -0.36653E-04   -0.44199E-05  9488   0.220E-02    0.127E-02
DAV:  16    -0.148144969200E+03   -0.74833E-05   -0.11850E-05  7856   0.160E-02    0.968E-03
DAV:  17    -0.148144957805E+03    0.11394E-04   -0.23247E-05  8888   0.190E-02    0.712E-03
DAV:  18    -0.148144971136E+03   -0.13331E-04   -0.14337E-05  7416   0.140E-02    0.510E-03
DAV:  19    -0.148145002050E+03   -0.30913E-04   -0.47640E-06  6768   0.642E-03    0.285E-03
DAV:  20    -0.148145027790E+03   -0.25740E-04   -0.63190E-07  5736   0.329E-03    0.186E-03
DAV:  21    -0.148145047403E+03   -0.19613E-04   -0.60814E-07  5896   0.272E-03    0.166E-03
DAV:  22    -0.148145062931E+03   -0.15527E-04   -0.41066E-07  5832   0.232E-03    0.134E-03
DAV:  23    -0.148145071694E+03   -0.87640E-05   -0.37379E-07  5568   0.188E-03    0.950E-04
DAV:  24    -0.148145076463E+03   -0.47685E-05   -0.20692E-07  5264   0.146E-03    0.590E-04
DAV:  25    -0.148145080267E+03   -0.38037E-05   -0.16528E-07  5696   0.121E-03    0.462E-04
DAV:  26    -0.148145083895E+03   -0.36286E-05   -0.17612E-07  5464   0.114E-03    0.383E-04
DAV:  27    -0.148145085185E+03   -0.12902E-05   -0.12170E-07  5232   0.107E-03    0.246E-04
DAV:  28    -0.148145085421E+03   -0.23595E-06   -0.60514E-08  5200   0.770E-04
  23 F= -.15436825E+03 E0= -.15436825E+03  d E =-.537662E-01  mag=    28.0000
       N       E                     dE             d eps       ncg     rms          rms(c)
DAV:   1    -0.147823669475E+03    0.32142E+00   -0.57653E+01  7992   0.142E+01    0.404E+00
DAV:   2    -0.148102630119E+03   -0.27896E+00   -0.28196E+00 12168   0.721E+00    0.256E+00
DAV:   3    -0.148151888117E+03   -0.49258E-01   -0.29798E-01 10808   0.390E+00    0.123E+00
DAV:   4    -0.148152400365E+03   -0.51225E-03   -0.26787E-02 11504   0.848E-01    0.870E-01
DAV:   5    -0.148154028294E+03   -0.16279E-02   -0.97878E-03 11640   0.313E-01    0.552E-01
DAV:   6    -0.148157394653E+03   -0.33664E-02   -0.69913E-03 11776   0.380E-01    0.170E-01
DAV:   7    -0.148158466504E+03   -0.10719E-02   -0.91611E-04 10264   0.124E-01    0.118E-01
DAV:   8    -0.148159278088E+03   -0.81158E-03   -0.18549E-04 11800   0.505E-02    0.807E-02
DAV:   9    -0.148160021312E+03   -0.74322E-03   -0.88110E-05 11496   0.465E-02    0.493E-02
DAV:  10    -0.148160862180E+03   -0.84087E-03   -0.91245E-05 11864   0.481E-02    0.276E-02
DAV:  11    -0.148161329009E+03   -0.46683E-03   -0.47736E-05 10560   0.261E-02    0.243E-02
DAV:  12    -0.148161610388E+03   -0.28138E-03   -0.17082E-05  9192   0.189E-02    0.204E-02
DAV:  13    -0.148161966155E+03   -0.35577E-03   -0.40934E-05 10440   0.301E-02    0.126E-02
DAV:  14    -0.148162088871E+03   -0.12272E-03   -0.40061E-05  9776   0.228E-02    0.115E-02
DAV:  15    -0.148162106412E+03   -0.17541E-04   -0.93112E-06  7800   0.124E-02    0.880E-03
DAV:  16    -0.148162103239E+03    0.31730E-05   -0.78070E-06  7952   0.131E-02    0.607E-03
DAV:  17    -0.148162094525E+03    0.87137E-05   -0.99993E-06  8128   0.120E-02    0.523E-03
DAV:  18    -0.148162098930E+03   -0.44044E-05   -0.42721E-06  6976   0.820E-03    0.365E-03
DAV:  19    -0.148162114035E+03   -0.15105E-04   -0.15294E-06  6016   0.476E-03    0.222E-03
DAV:  20    -0.148162135225E+03   -0.21190E-04   -0.75923E-07  6200   0.377E-03    0.144E-03
DAV:  21    -0.148162144588E+03   -0.93627E-05   -0.52115E-07  5584   0.261E-03    0.117E-03
DAV:  22    -0.148162149468E+03   -0.48803E-05   -0.16456E-07  5320   0.175E-03    0.846E-04
DAV:  23    -0.148162154112E+03   -0.46439E-05   -0.16518E-07  5392   0.123E-03    0.576E-04
DAV:  24    -0.148162158309E+03   -0.41967E-05   -0.12491E-07  5472   0.111E-03    0.500E-04
DAV:  25    -0.148162160775E+03   -0.24662E-05   -0.11581E-07  5224   0.986E-04    0.302E-04
DAV:  26    -0.148162161716E+03   -0.94160E-06   -0.68062E-08  5056   0.884E-04
  24 F= -.15438776E+03 E0= -.15438776E+03  d E =-.732721E-01  mag=    28.0000
       N       E                     dE             d eps       ncg     rms          rms(c)
DAV:   1    -0.148104464135E+03    0.57697E-01   -0.10564E+01  7952   0.615E+00    0.172E+00
DAV:   2    -0.148150408687E+03   -0.45945E-01   -0.44355E-01 12520   0.280E+00    0.899E-01
DAV:   3    -0.148162867479E+03   -0.12459E-01   -0.35394E-02 10464   0.110E+00    0.499E-01
DAV:   4    -0.148162809834E+03    0.57645E-04   -0.32443E-03 11584   0.325E-01    0.353E-01
DAV:   5    -0.148163281389E+03   -0.47155E-03   -0.21173E-03 11416   0.137E-01    0.201E-01
DAV:   6    -0.148163886034E+03   -0.60465E-03   -0.82077E-04 11496   0.113E-01    0.714E-02
DAV:   7    -0.148164152851E+03   -0.26682E-03   -0.10023E-04 11816   0.572E-02    0.517E-02
DAV:   8    -0.148164434227E+03   -0.28138E-03   -0.47743E-05 11072   0.237E-02    0.322E-02
DAV:   9    -0.148164673344E+03   -0.23912E-03   -0.24868E-05 11224   0.199E-02    0.188E-02
DAV:  10    -0.148164882956E+03   -0.20961E-03   -0.14481E-05 10496   0.189E-02    0.127E-02
DAV:  11    -0.148165048057E+03   -0.16510E-03   -0.11659E-05  9264   0.144E-02    0.108E-02
DAV:  12    -0.148165127196E+03   -0.79139E-04   -0.54894E-06  7696   0.920E-03    0.911E-03
DAV:  13    -0.148165202624E+03   -0.75428E-04   -0.68577E-06  8352   0.127E-02    0.633E-03
DAV:  14    -0.148165225250E+03   -0.22625E-04   -0.11140E-05  8464   0.119E-02    0.467E-03
DAV:  15    -0.148165226421E+03   -0.11708E-05   -0.35628E-06  7208   0.746E-03    0.407E-03
DAV:  16    -0.148165228164E+03   -0.17432E-05   -0.15577E-06  6240   0.561E-03    0.334E-03
DAV:  17    -0.148165227565E+03    0.59914E-06   -0.20704E-06  6424   0.609E-03
  25 F= -.15438988E+03 E0= -.15438988E+03  d E =-.753961E-01  mag=    28.0000
       N       E                     dE             d eps       ncg     rms          rms(c)
DAV:   1    -0.148157819409E+03    0.74088E-02   -0.13472E+00  8096   0.218E+00    0.607E-01
DAV:   2    -0.148163046950E+03   -0.52275E-02   -0.58646E-02 12104   0.108E+00    0.354E-01
DAV:   3    -0.148165027002E+03   -0.19801E-02   -0.60968E-03 10400   0.505E-01    0.184E-01
DAV:   4    -0.148165013185E+03    0.13817E-04   -0.50623E-04 11448   0.129E-01    0.129E-01
DAV:   5    -0.148165066087E+03   -0.52901E-04   -0.26049E-04 11584   0.520E-02    0.773E-02
DAV:   6    -0.148165167277E+03   -0.10119E-03   -0.14991E-04 11360   0.586E-02    0.252E-02
DAV:   7    -0.148165229707E+03   -0.62430E-04   -0.16508E-05 10592   0.205E-02    0.179E-02
DAV:   8    -0.148165289698E+03   -0.59991E-04   -0.52466E-06  8448   0.811E-03    0.119E-02
DAV:   9    -0.148165345702E+03   -0.56003E-04   -0.29772E-06  6696   0.820E-03    0.725E-03
DAV:  10    -0.148165393890E+03   -0.48188E-04   -0.35987E-06  7744   0.771E-03    0.477E-03
DAV:  11    -0.148165423326E+03   -0.29436E-04   -0.15649E-06  6288   0.533E-03    0.403E-03
DAV:  12    -0.148165442062E+03   -0.18736E-04   -0.89034E-07  6056   0.440E-03    0.354E-03
DAV:  13    -0.148165457710E+03   -0.15648E-04   -0.11880E-06  6336   0.415E-03    0.264E-03
DAV:  14    -0.148165467384E+03   -0.96745E-05   -0.14869E-06  6384   0.460E-03    0.197E-03
DAV:  15    -0.148165468338E+03   -0.95427E-06   -0.98834E-07  6144   0.364E-03
  26 F= -.15439047E+03 E0= -.15439047E+03  d E =-.759880E-01  mag=    28.0000
       N       E                     dE             d eps       ncg     rms          rms(c)
DAV:   1    -0.148165568140E+03   -0.10076E-03   -0.83277E-01  8040   0.167E+00    0.487E-01
DAV:   2    -0.148168647976E+03   -0.30798E-02   -0.35648E-02 12272   0.825E-01    0.261E-01
DAV:   3    -0.148169986277E+03   -0.13383E-02   -0.31377E-03 10392   0.353E-01    0.140E-01
DAV:   4    -0.148170003935E+03   -0.17658E-04   -0.25854E-04 11240   0.968E-02    0.962E-02
DAV:   5    -0.148170088074E+03   -0.84139E-04   -0.14883E-04 11448   0.381E-02    0.563E-02
DAV:   6    -0.148170150337E+03   -0.62263E-04   -0.76456E-05 11008   0.392E-02    0.180E-02
DAV:   7    -0.148170158239E+03   -0.79016E-05   -0.66483E-06  8328   0.143E-02    0.124E-02
DAV:   8    -0.148170163153E+03   -0.49143E-05   -0.32097E-06  6856   0.666E-03    0.869E-03
DAV:   9    -0.148170166137E+03   -0.29843E-05   -0.15258E-06  5696   0.610E-03    0.542E-03
DAV:  10    -0.148170168099E+03   -0.19619E-05   -0.11065E-06  5528   0.537E-03    0.348E-03
DAV:  11    -0.148170169260E+03   -0.11610E-05   -0.13729E-06  5560   0.490E-03    0.310E-03
DAV:  12    -0.148170170220E+03   -0.95981E-06   -0.67113E-07  5608   0.399E-03
  27 F= -.15439513E+03 E0= -.15439513E+03  d E =-.465333E-02  mag=    28.0000
       N       E                     dE             d eps       ncg     rms          rms(c)
DAV:   1    -0.148141385037E+03    0.28784E-01   -0.67223E+00  7936   0.476E+00    0.137E+00
DAV:   2    -0.148169810284E+03   -0.28425E-01   -0.27438E-01 12176   0.210E+00    0.691E-01
DAV:   3    -0.148178020587E+03   -0.82103E-02   -0.18066E-02 10224   0.747E-01    0.377E-01
DAV:   4    -0.148178187664E+03   -0.16708E-03   -0.16768E-03 11520   0.222E-01    0.269E-01
DAV:   5    -0.148178761428E+03   -0.57376E-03   -0.11511E-03 11064   0.997E-02    0.152E-01
DAV:   6    -0.148179094449E+03   -0.33302E-03   -0.46649E-04 11248   0.757E-02    0.466E-02
DAV:   7    -0.148179136454E+03   -0.42004E-04   -0.44119E-05 11552   0.346E-02    0.351E-02
DAV:   8    -0.148179166090E+03   -0.29637E-04   -0.20439E-05 11064   0.157E-02    0.220E-02
DAV:   9    -0.148179191063E+03   -0.24972E-04   -0.85303E-06  8296   0.121E-02    0.128E-02
DAV:  10    -0.148179209629E+03   -0.18567E-04   -0.66839E-06  8976   0.124E-02    0.840E-03
DAV:  11    -0.148179221442E+03   -0.11813E-04   -0.39481E-06  7192   0.896E-03    0.730E-03
DAV:  12    -0.148179229161E+03   -0.77186E-05   -0.20841E-06  6296   0.628E-03    0.613E-03
DAV:  13    -0.148179235142E+03   -0.59812E-05   -0.27075E-06  6640   0.895E-03    0.417E-03
DAV:  14    -0.148179240774E+03   -0.56318E-05   -0.44994E-06  7208   0.781E-03    0.325E-03
DAV:  15    -0.148179245535E+03   -0.47610E-05   -0.15728E-06  6248   0.472E-03    0.257E-03
DAV:  16    -0.148179247664E+03   -0.21295E-05   -0.62826E-07  5592   0.386E-03    0.202E-03
DAV:  17    -0.148179248492E+03   -0.82796E-06   -0.11018E-06  5864   0.373E-03
  28 F= -.15440401E+03 E0= -.15440401E+03  d E =-.135330E-01  mag=    28.0000
       N       E                     dE             d eps       ncg     rms          rms(c)
DAV:   1    -0.148014001879E+03    0.16525E+00   -0.26562E+01  7968   0.938E+00    0.268E+00
DAV:   2    -0.148134967253E+03   -0.12097E+00   -0.10614E+00 11752   0.355E+00    0.135E+00
DAV:   3    -0.148164480557E+03   -0.29513E-01   -0.48959E-02  9928   0.105E+00    0.715E-01
DAV:   4    -0.148164715913E+03   -0.23536E-03   -0.54161E-03 12120   0.337E-01    0.532E-01
DAV:   5    -0.148166577149E+03   -0.18612E-02   -0.41473E-03 11080   0.209E-01    0.298E-01
DAV:   6    -0.148167542946E+03   -0.96580E-03   -0.14543E-03 11344   0.117E-01    0.753E-02
DAV:   7    -0.148167648162E+03   -0.10522E-03   -0.14538E-04 11904   0.545E-02    0.635E-02
DAV:   8    -0.148167734653E+03   -0.86492E-04   -0.66464E-05 10960   0.321E-02    0.368E-02
DAV:   9    -0.148167809933E+03   -0.75279E-04   -0.19087E-05 11624   0.153E-02    0.201E-02
DAV:  10    -0.148167871245E+03   -0.61312E-04   -0.10458E-05  9816   0.138E-02    0.110E-02
DAV:  11    -0.148167907800E+03   -0.36556E-04   -0.65016E-06  8408   0.117E-02    0.914E-03
DAV:  12    -0.148167923710E+03   -0.15910E-04   -0.25557E-06  6552   0.673E-03    0.764E-03
DAV:  13    -0.148167939943E+03   -0.16233E-04   -0.24847E-06  6720   0.847E-03    0.527E-03
DAV:  14    -0.148167952193E+03   -0.12250E-04   -0.51922E-06  7328   0.839E-03    0.379E-03
DAV:  15    -0.148167959289E+03   -0.70961E-05   -0.21548E-06  6616   0.531E-03    0.321E-03
DAV:  16    -0.148167962906E+03   -0.36173E-05   -0.71696E-07  5648   0.377E-03    0.257E-03
DAV:  17    -0.148167963485E+03   -0.57816E-06   -0.13242E-06  6152   0.554E-03
  29 F= -.15439205E+03 E0= -.15439205E+03  d E =-.157704E-02  mag=    28.0000
       N       E                     dE             d eps       ncg     rms          rms(c)
DAV:   1    -0.148083939935E+03    0.84023E-01   -0.16592E+01  8032   0.736E+00    0.209E+00
DAV:   2    -0.148160511746E+03   -0.76572E-01   -0.73962E-01 12000   0.332E+00    0.122E+00
DAV:   3    -0.148177986206E+03   -0.17474E-01   -0.53983E-02 10736   0.145E+00    0.614E-01
DAV:   4    -0.148178329116E+03   -0.34291E-03   -0.50591E-03 11552   0.343E-01    0.445E-01
DAV:   5    -0.148179462102E+03   -0.11330E-02   -0.25123E-03 11560   0.154E-01    0.263E-01
DAV:   6    -0.148180310120E+03   -0.84802E-03   -0.15897E-03 11040   0.173E-01    0.692E-02
DAV:   7    -0.148180374848E+03   -0.64728E-04   -0.15632E-04 10704   0.548E-02    0.507E-02
DAV:   8    -0.148180432717E+03   -0.57869E-04   -0.32228E-05 10848   0.190E-02    0.340E-02
DAV:   9    -0.148180488354E+03   -0.55637E-04   -0.11270E-05 11096   0.133E-02    0.181E-02
DAV:  10    -0.148180530320E+03   -0.41966E-04   -0.84148E-06  9648   0.107E-02    0.849E-03
DAV:  11    -0.148180552125E+03   -0.21805E-04   -0.26467E-06  6848   0.736E-03    0.760E-03
DAV:  12    -0.148180564736E+03   -0.12610E-04   -0.13078E-06  5968   0.560E-03    0.595E-03
DAV:  13    -0.148180579134E+03   -0.14398E-04   -0.17446E-06  6448   0.639E-03    0.383E-03
DAV:  14    -0.148180589098E+03   -0.99643E-05   -0.24507E-06  6944   0.602E-03    0.320E-03
DAV:  15    -0.148180593617E+03   -0.45186E-05   -0.88933E-07  5912   0.414E-03    0.244E-03
DAV:  16    -0.148180596115E+03   -0.24985E-05   -0.42654E-07  5664   0.359E-03    0.192E-03
DAV:  17    -0.148180597318E+03   -0.12028E-05   -0.15032E-06  5832   0.379E-03    0.147E-03
DAV:  18    -0.148180598590E+03   -0.12716E-05   -0.61128E-07  5680   0.290E-03    0.129E-03
DAV:  19    -0.148180599741E+03   -0.11510E-05   -0.23254E-07  5296   0.187E-03    0.948E-04
DAV:  20    -0.148180600220E+03   -0.47863E-06   -0.92232E-08  5280   0.157E-03
  30 F= -.15440525E+03 E0= -.15440525E+03  d E =-.147752E-01  mag=    28.0000
       N       E                     dE             d eps       ncg     rms          rms(c)
DAV:   1    -0.148187648651E+03   -0.70489E-02   -0.21965E-01  8080   0.912E-01    0.308E-01
DAV:   2    -0.148188692436E+03   -0.10438E-02   -0.12799E-02 11128   0.406E-01    0.140E-01
DAV:   3    -0.148189063030E+03   -0.37059E-03   -0.69981E-04 11216   0.142E-01    0.778E-02
DAV:   4    -0.148188976978E+03    0.86052E-04   -0.66858E-05 11472   0.430E-02    0.555E-02
DAV:   5    -0.148188864845E+03    0.11213E-03   -0.39846E-05 11296   0.173E-02    0.358E-02
DAV:   6    -0.148188832664E+03    0.32182E-04   -0.27248E-05 10832   0.149E-02    0.127E-02
DAV:   7    -0.148188883380E+03   -0.50717E-04   -0.27741E-06  6792   0.664E-03    0.810E-03
DAV:   8    -0.148188979368E+03   -0.95988E-04   -0.17109E-06  6408   0.516E-03    0.577E-03
DAV:   9    -0.148189057862E+03   -0.78494E-04   -0.17185E-06  6256   0.386E-03    0.315E-03
DAV:  10    -0.148189109458E+03   -0.51596E-04   -0.10548E-06  6000   0.395E-03    0.218E-03
DAV:  11    -0.148189151137E+03   -0.41679E-04   -0.10806E-06  6072   0.316E-03    0.182E-03
DAV:  12    -0.148189184014E+03   -0.32877E-04   -0.84392E-07  5952   0.285E-03    0.126E-03
DAV:  13    -0.148189202600E+03   -0.18587E-04   -0.55109E-07  5632   0.238E-03    0.877E-04
DAV:  14    -0.148189218707E+03   -0.16107E-04   -0.49948E-07  5768   0.188E-03    0.715E-04
DAV:  15    -0.148189230086E+03   -0.11379E-04   -0.39102E-07  5656   0.180E-03    0.618E-04
DAV:  16    -0.148189236593E+03   -0.65065E-05   -0.30500E-07  5440   0.153E-03    0.443E-04
DAV:  17    -0.148189243632E+03   -0.70397E-05   -0.36931E-07  5744   0.145E-03    0.527E-04
DAV:  18    -0.148189245723E+03   -0.20904E-05   -0.24665E-07  5696   0.153E-03    0.318E-04
DAV:  19    -0.148189246135E+03   -0.41260E-06   -0.14982E-07  5264   0.108E-03
  31 F= -.15441426E+03 E0= -.15441426E+03  d E =-.901245E-02  mag=    28.0000
       N       E                     dE             d eps       ncg     rms          rms(c)
DAV:   1    -0.148195734988E+03   -0.64893E-02   -0.19771E+00  7904   0.274E+00    0.929E-01
DAV:   2    -0.148206669915E+03   -0.10935E-01   -0.11363E-01 11144   0.118E+00    0.417E-01
DAV:   3    -0.148209072779E+03   -0.24029E-02   -0.57687E-03 11400   0.389E-01    0.233E-01
DAV:   4    -0.148208604382E+03    0.46840E-03   -0.56583E-04 11584   0.122E-01    0.166E-01
DAV:   5    -0.148208076483E+03    0.52790E-03   -0.36440E-04 11256   0.522E-02    0.105E-01
DAV:   6    -0.148208063864E+03    0.12619E-04   -0.23211E-04 11144   0.421E-02    0.372E-02
DAV:   7    -0.148208329041E+03   -0.26518E-03   -0.28155E-05 11264   0.197E-02    0.238E-02
DAV:   8    -0.148208805250E+03   -0.47621E-03   -0.96269E-06  9912   0.105E-02    0.141E-02
DAV:   9    -0.148209224669E+03   -0.41942E-03   -0.88926E-06  9112   0.672E-03    0.629E-03
DAV:  10    -0.148209481398E+03   -0.25673E-03   -0.35006E-06  8040   0.433E-03    0.347E-03
DAV:  11    -0.148209687542E+03   -0.20614E-03   -0.22452E-06  7184   0.356E-03    0.253E-03
DAV:  12    -0.148209851010E+03   -0.16347E-03   -0.21013E-06  7136   0.320E-03    0.180E-03
DAV:  13    -0.148209965857E+03   -0.11485E-03   -0.17378E-06  6968   0.297E-03    0.157E-03
DAV:  14    -0.148210038109E+03   -0.72252E-04   -0.13985E-06  6552   0.269E-03    0.138E-03
DAV:  15    -0.148210076628E+03   -0.38519E-04   -0.94387E-07  6272   0.237E-03    0.113E-03
DAV:  16    -0.148210100599E+03   -0.23971E-04   -0.10056E-06  6336   0.233E-03    0.862E-04
DAV:  17    -0.148210107034E+03   -0.64345E-05   -0.48994E-07  5904   0.214E-03    0.463E-04
DAV:  18    -0.148210108310E+03   -0.12766E-05   -0.26702E-07  5384   0.157E-03    0.324E-04
DAV:  19    -0.148210109126E+03   -0.81551E-06   -0.16439E-07  5280   0.120E-03
  32 F= -.15443621E+03 E0= -.15443621E+03  d E =-.309582E-01  mag=    28.0000
       N       E                     dE             d eps       ncg     rms          rms(c)
DAV:   1    -0.148170010250E+03    0.40098E-01   -0.79076E+00  7904   0.547E+00    0.188E+00
DAV:   2    -0.148216335157E+03   -0.46325E-01   -0.44903E-01 11224   0.224E+00    0.837E-01
DAV:   3    -0.148224690078E+03   -0.83549E-02   -0.20117E-02 11664   0.680E-01    0.469E-01
DAV:   4    -0.148223273913E+03    0.14162E-02   -0.21099E-03 11656   0.223E-01    0.330E-01
DAV:   5    -0.148221693504E+03    0.15804E-02   -0.15384E-03 10984   0.108E-01    0.205E-01
DAV:   6    -0.148221882508E+03   -0.18900E-03   -0.86500E-04 10832   0.771E-02    0.716E-02
DAV:   7    -0.148222764659E+03   -0.88215E-03   -0.10360E-04 11360   0.375E-02    0.468E-02
DAV:   8    -0.148224286573E+03   -0.15219E-02   -0.41768E-05 11064   0.221E-02    0.262E-02
DAV:   9    -0.148225399657E+03   -0.11131E-02   -0.27029E-05  9952   0.126E-02    0.119E-02
DAV:  10    -0.148226133096E+03   -0.73344E-03   -0.12096E-05 10048   0.757E-03    0.642E-03
DAV:  11    -0.148226700338E+03   -0.56724E-03   -0.66752E-06  8624   0.547E-03    0.442E-03
DAV:  12    -0.148227189296E+03   -0.48896E-03   -0.72275E-06  8712   0.471E-03    0.290E-03
DAV:  13    -0.148227512659E+03   -0.32336E-03   -0.51102E-06  8392   0.370E-03    0.212E-03
DAV:  14    -0.148227721671E+03   -0.20901E-03   -0.44910E-06  8064   0.337E-03    0.155E-03
DAV:  15    -0.148227810914E+03   -0.89242E-04   -0.25143E-06  7608   0.277E-03    0.119E-03
DAV:  16    -0.148227826892E+03   -0.15978E-04   -0.40294E-07  6184   0.194E-03    0.860E-04
DAV:  17    -0.148227831138E+03   -0.42462E-05   -0.22677E-07  5544   0.158E-03    0.537E-04
DAV:  18    -0.148227835075E+03   -0.39364E-05   -0.23478E-07  5800   0.124E-03    0.494E-04
DAV:  19    -0.148227837327E+03   -0.22529E-05   -0.18906E-07  5688   0.134E-03    0.390E-04
DAV:  20    -0.148227837874E+03   -0.54661E-06   -0.10911E-07  5464   0.106E-03
  33 F= -.15445602E+03 E0= -.15445602E+03  d E =-.507747E-01  mag=    28.0000
       N       E                     dE             d eps       ncg     rms          rms(c)
DAV:   1    -0.148229968348E+03   -0.21310E-02   -0.16951E+00  7936   0.241E+00    0.779E-01
DAV:   2    -0.148237785997E+03   -0.78176E-02   -0.80979E-02 11048   0.971E-01    0.357E-01
DAV:   3    -0.148240783615E+03   -0.29976E-02   -0.41677E-03 11352   0.308E-01    0.191E-01
DAV:   4    -0.148240669497E+03    0.11412E-03   -0.36950E-04 12056   0.943E-02    0.135E-01
DAV:   5    -0.148240597312E+03    0.72186E-04   -0.28377E-04 11080   0.469E-02    0.840E-02
DAV:   6    -0.148240664136E+03   -0.66824E-04   -0.14209E-04 11256   0.313E-02    0.263E-02
DAV:   7    -0.148240767613E+03   -0.10348E-03   -0.15263E-05 10728   0.143E-02    0.184E-02
DAV:   8    -0.148240908548E+03   -0.14094E-03   -0.52214E-06  8744   0.831E-03    0.110E-02
DAV:   9    -0.148241004114E+03   -0.95566E-04   -0.22496E-06  6824   0.499E-03    0.595E-03
DAV:  10    -0.148241105338E+03   -0.10122E-03   -0.33435E-06  7680   0.479E-03    0.301E-03
DAV:  11    -0.148241161392E+03   -0.56054E-04   -0.79345E-07  5992   0.340E-03    0.190E-03
DAV:  12    -0.148241204672E+03   -0.43280E-04   -0.74071E-07  6040   0.286E-03    0.160E-03
DAV:  13    -0.148241233667E+03   -0.28995E-04   -0.61502E-07  5824   0.259E-03    0.147E-03
DAV:  14    -0.148241262054E+03   -0.28388E-04   -0.86164E-07  6160   0.227E-03    0.102E-03
DAV:  15    -0.148241278542E+03   -0.16488E-04   -0.61477E-07  5936   0.210E-03    0.841E-04
DAV:  16    -0.148241284694E+03   -0.61519E-05   -0.39021E-07  5600   0.187E-03    0.463E-04
DAV:  17    -0.148241287025E+03   -0.23316E-05   -0.25341E-07  5288   0.148E-03    0.385E-04
DAV:  18    -0.148241288211E+03   -0.11854E-05   -0.15709E-07  5600   0.116E-03    0.198E-04
DAV:  19    -0.148241289183E+03   -0.97251E-06   -0.11216E-07  5248   0.911E-04
  34 F= -.15447037E+03 E0= -.15447037E+03  d E =-.143445E-01  mag=    28.0000
       N       E                     dE             d eps       ncg     rms          rms(c)
DAV:   1    -0.148157724133E+03    0.83564E-01   -0.14480E+01  7904   0.707E+00    0.232E+00
DAV:   2    -0.148232911592E+03   -0.75187E-01   -0.67900E-01 10952   0.264E+00    0.103E+00
DAV:   3    -0.148252226151E+03   -0.19315E-01   -0.29087E-02 11192   0.710E-01    0.566E-01
DAV:   4    -0.148251640093E+03    0.58606E-03   -0.27060E-03 12080   0.216E-01    0.397E-01
DAV:   5    -0.148251443563E+03    0.19653E-03   -0.21417E-03 10792   0.137E-01    0.246E-01
DAV:   6    -0.148252073210E+03   -0.62965E-03   -0.12068E-03 11112   0.929E-02    0.770E-02
DAV:   7    -0.148252594491E+03   -0.52128E-03   -0.13011E-04 10624   0.389E-02    0.531E-02
DAV:   8    -0.148253282398E+03   -0.68791E-03   -0.49647E-05 11296   0.234E-02    0.298E-02
DAV:   9    -0.148253694346E+03   -0.41195E-03   -0.13448E-05 11112   0.127E-02    0.153E-02
DAV:  10    -0.148254093812E+03   -0.39947E-03   -0.86351E-06  9656   0.806E-03    0.748E-03
DAV:  11    -0.148254452803E+03   -0.35899E-03   -0.59230E-06  8920   0.597E-03    0.383E-03
DAV:  12    -0.148254662895E+03   -0.21009E-03   -0.23117E-06  7304   0.413E-03    0.319E-03
DAV:  13    -0.148254822473E+03   -0.15958E-03   -0.24529E-06  7376   0.379E-03    0.273E-03
DAV:  14    -0.148254943392E+03   -0.12092E-03   -0.26962E-06  7608   0.346E-03    0.150E-03
DAV:  15    -0.148254993341E+03   -0.49949E-04   -0.10173E-06  6520   0.246E-03    0.118E-03
DAV:  16    -0.148255006643E+03   -0.13303E-04   -0.41010E-07  5880   0.232E-03    0.696E-04
DAV:  17    -0.148255012779E+03   -0.61361E-05   -0.29827E-07  5560   0.150E-03    0.518E-04
DAV:  18    -0.148255019130E+03   -0.63504E-05   -0.24718E-07  5792   0.150E-03    0.407E-04
DAV:  19    -0.148255023251E+03   -0.41209E-05   -0.23455E-07  5664   0.128E-03    0.319E-04
DAV:  20    -0.148255024830E+03   -0.15787E-05   -0.15841E-07  5456   0.123E-03    0.199E-04
DAV:  21    -0.148255025320E+03   -0.49085E-06   -0.94251E-08  5288   0.868E-04
  35 F= -.15448659E+03 E0= -.15448659E+03  d E =-.305672E-01  mag=    28.0000
       N       E                     dE             d eps       ncg     rms          rms(c)
DAV:   1    -0.148245332491E+03    0.96923E-02   -0.34146E+00  7904   0.287E+00    0.996E-01
DAV:   2    -0.148256721382E+03   -0.11389E-01   -0.77728E-02 10592   0.863E-01    0.476E-01
DAV:   3    -0.148264367029E+03   -0.76456E-02   -0.47656E-03  9632   0.242E-01    0.201E-01
DAV:   4    -0.148264658217E+03   -0.29119E-03   -0.39072E-04 11496   0.704E-02    0.134E-01
DAV:   5    -0.148265008890E+03   -0.35067E-03   -0.25011E-04 11272   0.549E-02    0.659E-02
DAV:   6    -0.148265126445E+03   -0.11756E-03   -0.48606E-05 11488   0.298E-02    0.188E-02
DAV:   7    -0.148265221297E+03   -0.94851E-04   -0.60970E-06  8440   0.101E-02    0.147E-02
DAV:   8    -0.148265303392E+03   -0.82095E-04   -0.42531E-06  8384   0.622E-03    0.827E-03
DAV:   9    -0.148265382337E+03   -0.78945E-04   -0.17598E-06  6400   0.493E-03    0.432E-03
DAV:  10    -0.148265426053E+03   -0.43717E-04   -0.12616E-06  6128   0.445E-03    0.259E-03
DAV:  11    -0.148265454884E+03   -0.28831E-04   -0.97238E-07  5920   0.374E-03    0.232E-03
DAV:  12    -0.148265471455E+03   -0.16571E-04   -0.62139E-07  5696   0.299E-03    0.168E-03
DAV:  13    -0.148265488400E+03   -0.16945E-04   -0.51215E-07  5760   0.243E-03    0.131E-03
DAV:  14    -0.148265505197E+03   -0.16797E-04   -0.73593E-07  5976   0.221E-03    0.758E-04
DAV:  15    -0.148265510620E+03   -0.54228E-05   -0.40306E-07  5816   0.206E-03    0.717E-04
DAV:  16    -0.148265511485E+03   -0.86557E-06   -0.19974E-07  5320   0.143E-03
  36 F= -.15449731E+03 E0= -.15449731E+03  d E =-.107190E-01  mag=    28.0000
       N       E                     dE             d eps       ncg     rms          rms(c)
DAV:   1    -0.148167674320E+03    0.97836E-01   -0.19318E+01  7920   0.687E+00    0.236E+00
DAV:   2    -0.148239077204E+03   -0.71403E-01   -0.49183E-01 10816   0.213E+00    0.118E+00
DAV:   3    -0.148271217041E+03   -0.32140E-01   -0.26404E-02 10608   0.699E-01    0.492E-01
DAV:   4    -0.148272699498E+03   -0.14825E-02   -0.28563E-03 11408   0.259E-01    0.329E-01
DAV:   5    -0.148274590849E+03   -0.18914E-02   -0.17495E-03 11304   0.152E-01    0.162E-01
DAV:   6    -0.148275273586E+03   -0.68274E-03   -0.36883E-04 11632   0.792E-02    0.490E-02
DAV:   7    -0.148275576185E+03   -0.30260E-03   -0.38158E-05 10280   0.255E-02    0.373E-02
DAV:   8    -0.148275849645E+03   -0.27346E-03   -0.22504E-05 11064   0.122E-02    0.207E-02
DAV:   9    -0.148276125662E+03   -0.27602E-03   -0.78567E-06 10032   0.871E-03    0.903E-03
DAV:  10    -0.148276318144E+03   -0.19248E-03   -0.36933E-06  8080   0.605E-03    0.462E-03
DAV:  11    -0.148276427874E+03   -0.10973E-03   -0.14477E-06  6472   0.450E-03    0.400E-03
DAV:  12    -0.148276511695E+03   -0.83822E-04   -0.15834E-06  6512   0.406E-03    0.335E-03
DAV:  13    -0.148276593951E+03   -0.82256E-04   -0.25041E-06  7512   0.411E-03    0.166E-03
DAV:  14    -0.148276626682E+03   -0.32731E-04   -0.88587E-07  6376   0.287E-03    0.127E-03
DAV:  15    -0.148276637242E+03   -0.10560E-04   -0.42157E-07  5808   0.239E-03    0.101E-03
DAV:  16    -0.148276642885E+03   -0.56430E-05   -0.30025E-07  5464   0.167E-03    0.823E-04
DAV:  17    -0.148276647932E+03   -0.50476E-05   -0.24779E-07  5808   0.153E-03    0.482E-04
DAV:  18    -0.148276651099E+03   -0.31664E-05   -0.22681E-07  5520   0.133E-03    0.463E-04
DAV:  19    -0.148276651823E+03   -0.72412E-06   -0.12402E-07  5512   0.121E-03
  37 F= -.15450888E+03 E0= -.15450888E+03  d E =-.222853E-01  mag=    28.0000
       N       E                     dE             d eps       ncg     rms          rms(c)
DAV:   1    -0.148278837363E+03   -0.21863E-02   -0.13051E+00  7904   0.227E+00    0.733E-01
DAV:   2    -0.148286088714E+03   -0.72514E-02   -0.74666E-02 11072   0.884E-01    0.344E-01
DAV:   3    -0.148287633835E+03   -0.15451E-02   -0.24457E-03 11408   0.206E-01    0.199E-01
DAV:   4    -0.148287364264E+03    0.26957E-03   -0.25080E-04 11808   0.554E-02    0.147E-01
DAV:   5    -0.148287032202E+03    0.33206E-03   -0.31947E-04 10792   0.496E-02    0.816E-02
DAV:   6    -0.148287093976E+03   -0.61775E-04   -0.13785E-04 11344   0.349E-02    0.267E-02
DAV:   7    -0.148287270768E+03   -0.17679E-03   -0.14550E-05 11552   0.143E-02    0.191E-02
DAV:   8    -0.148287500036E+03   -0.22927E-03   -0.54045E-06  9032   0.807E-03    0.106E-02
DAV:   9    -0.148287687424E+03   -0.18739E-03   -0.41187E-06  8192   0.534E-03    0.529E-03
DAV:  10    -0.148287842576E+03   -0.15515E-03   -0.23028E-06  6960   0.399E-03    0.261E-03
DAV:  11    -0.148287935551E+03   -0.92974E-04   -0.11348E-06  6384   0.384E-03    0.220E-03
DAV:  12    -0.148288005016E+03   -0.69465E-04   -0.11343E-06  6128   0.326E-03    0.186E-03
DAV:  13    -0.148288060721E+03   -0.55705E-04   -0.13842E-06  6584   0.302E-03    0.154E-03
DAV:  14    -0.148288104018E+03   -0.43296E-04   -0.10915E-06  6392   0.249E-03    0.102E-03
DAV:  15    -0.148288130956E+03   -0.26938E-04   -0.81139E-07  6152   0.236E-03    0.923E-04
DAV:  16    -0.148288145298E+03   -0.14342E-04   -0.74385E-07  6072   0.223E-03    0.545E-04
DAV:  17    -0.148288147864E+03   -0.25652E-05   -0.36491E-07  5568   0.201E-03    0.386E-04
DAV:  18    -0.148288148901E+03   -0.10379E-05   -0.20687E-07  5272   0.125E-03    0.182E-04
DAV:  19    -0.148288150023E+03   -0.11216E-05   -0.14495E-07  5624   0.112E-03    0.226E-04
DAV:  20    -0.148288150574E+03   -0.55126E-06   -0.10478E-07  5296   0.887E-04
  38 F= -.15451848E+03 E0= -.15451848E+03  d E =-.960132E-02  mag=    28.0000
       N       E                     dE             d eps       ncg     rms          rms(c)
DAV:   1    -0.148277117577E+03    0.11032E-01   -0.26258E+00  7904   0.322E+00    0.104E+00
DAV:   2    -0.148292058847E+03   -0.14941E-01   -0.15088E-01 11112   0.126E+00    0.490E-01
DAV:   3    -0.148294994201E+03   -0.29354E-02   -0.47894E-03 11264   0.286E-01    0.282E-01
DAV:   4    -0.148294538263E+03    0.45594E-03   -0.49641E-04 11872   0.792E-02    0.207E-01
DAV:   5    -0.148294018170E+03    0.52009E-03   -0.62953E-04 10776   0.689E-02    0.117E-01
DAV:   6    -0.148294136694E+03   -0.11852E-03   -0.27467E-04 11432   0.469E-02    0.380E-02
DAV:   7    -0.148294433676E+03   -0.29698E-03   -0.29307E-05 11512   0.195E-02    0.269E-02
DAV:   8    -0.148294817893E+03   -0.38422E-03   -0.10971E-05 11272   0.100E-02    0.143E-02
DAV:   9    -0.148295128640E+03   -0.31075E-03   -0.54343E-06  8664   0.569E-03    0.724E-03
DAV:  10    -0.148295397480E+03   -0.26884E-03   -0.51089E-06  8512   0.481E-03    0.291E-03
DAV:  11    -0.148295573617E+03   -0.17614E-03   -0.18625E-06  7128   0.370E-03    0.227E-03
DAV:  12    -0.148295690390E+03   -0.11677E-03   -0.14221E-06  6584   0.313E-03    0.217E-03
DAV:  13    -0.148295789646E+03   -0.99256E-04   -0.20705E-06  7120   0.313E-03    0.156E-03
DAV:  14    -0.148295838528E+03   -0.48882E-04   -0.81925E-07  6376   0.224E-03    0.119E-03
DAV:  15    -0.148295871271E+03   -0.32743E-04   -0.85984E-07  6208   0.243E-03    0.105E-03
DAV:  16    -0.148295884684E+03   -0.13414E-04   -0.65960E-07  6144   0.225E-03    0.538E-04
DAV:  17    -0.148295889816E+03   -0.51315E-05   -0.39921E-07  5688   0.180E-03    0.479E-04
DAV:  18    -0.148295891994E+03   -0.21786E-05   -0.25846E-07  5480   0.152E-03    0.269E-04
DAV:  19    -0.148295893019E+03   -0.10245E-05   -0.16439E-07  5512   0.118E-03    0.245E-04
DAV:  20    -0.148295893827E+03   -0.80833E-06   -0.12544E-07  5488   0.957E-04
  39 F= -.15452350E+03 E0= -.15452350E+03  d E =-.146265E-01  mag=    28.0000
       N       E                     dE             d eps       ncg     rms          rms(c)
DAV:   1    -0.148299430640E+03   -0.35376E-02   -0.64071E-01  7936   0.157E+00    0.450E-01
DAV:   2    -0.148302888800E+03   -0.34582E-02   -0.37272E-02 11416   0.628E-01    0.224E-01
DAV:   3    -0.148303560704E+03   -0.67190E-03   -0.10170E-03 11064   0.140E-01    0.136E-01
DAV:   4    -0.148303472615E+03    0.88089E-04   -0.12063E-04 11752   0.398E-02    0.104E-01
DAV:   5    -0.148303350461E+03    0.12215E-03   -0.17265E-04 10192   0.355E-02    0.542E-02
DAV:   6    -0.148303368413E+03   -0.17953E-04   -0.70108E-05 11544   0.245E-02    0.168E-02
DAV:   7    -0.148303418696E+03   -0.50283E-04   -0.54316E-06  8800   0.877E-03    0.124E-02
DAV:   8    -0.148303487294E+03   -0.68598E-04   -0.24127E-06  6520   0.590E-03    0.778E-03
DAV:   9    -0.148303539045E+03   -0.51750E-04   -0.21379E-06  6304   0.537E-03    0.448E-03
DAV:  10    -0.148303588989E+03   -0.49944E-04   -0.31327E-06  7504   0.530E-03    0.263E-03
DAV:  11    -0.148303609474E+03   -0.20485E-04   -0.56846E-07  5568   0.329E-03    0.160E-03
DAV:  12    -0.148303632163E+03   -0.22689E-04   -0.48739E-07  5728   0.224E-03    0.142E-03
DAV:  13    -0.148303653115E+03   -0.20952E-04   -0.47846E-07  5960   0.208E-03    0.113E-03
DAV:  14    -0.148303666611E+03   -0.13496E-04   -0.41921E-07  5776   0.191E-03    0.912E-04
DAV:  15    -0.148303673178E+03   -0.65674E-05   -0.32145E-07  5512   0.175E-03    0.654E-04
DAV:  16    -0.148303676889E+03   -0.37110E-05   -0.24577E-07  5576   0.139E-03    0.561E-04
DAV:  17    -0.148303679198E+03   -0.23082E-05   -0.19312E-07  5560   0.129E-03    0.378E-04
DAV:  18    -0.148303680019E+03   -0.82125E-06   -0.12662E-07  5280   0.108E-03
  40 F= -.15452977E+03 E0= -.15452977E+03  d E =-.626493E-02  mag=    28.0000
       N       E                     dE             d eps       ncg     rms          rms(c)
DAV:   1    -0.148279772041E+03    0.23907E-01   -0.57619E+00  7904   0.472E+00    0.134E+00
DAV:   2    -0.148313435160E+03   -0.33663E-01   -0.33904E-01 11576   0.189E+00    0.685E-01
DAV:   3    -0.148317706465E+03   -0.42713E-02   -0.79307E-03 11352   0.373E-01    0.401E-01
DAV:   4    -0.148317131007E+03    0.57546E-03   -0.97951E-04 11912   0.105E-01    0.305E-01
DAV:   5    -0.148316547404E+03    0.58360E-03   -0.15037E-03  9928   0.101E-01    0.157E-01
DAV:   6    -0.148316755263E+03   -0.20786E-03   -0.60909E-04 11392   0.696E-02    0.484E-02
DAV:   7    -0.148317025539E+03   -0.27028E-03   -0.47472E-05 11568   0.241E-02    0.353E-02
DAV:   8    -0.148317358199E+03   -0.33266E-03   -0.18629E-05 11192   0.136E-02    0.191E-02
DAV:   9    -0.148317625465E+03   -0.26727E-03   -0.99242E-06 10672   0.906E-03    0.933E-03
DAV:  10    -0.148317862329E+03   -0.23686E-03   -0.56323E-06  8672   0.672E-03    0.445E-03
DAV:  11    -0.148318004642E+03   -0.14231E-03   -0.16755E-06  6648   0.433E-03    0.374E-03
DAV:  12    -0.148318119110E+03   -0.11447E-03   -0.20302E-06  7040   0.372E-03    0.299E-03
DAV:  13    -0.148318219912E+03   -0.10080E-03   -0.23559E-06  7344   0.349E-03    0.208E-03
DAV:  14    -0.148318265802E+03   -0.45890E-04   -0.99454E-07  6416   0.274E-03    0.157E-03
DAV:  15    -0.148318282331E+03   -0.16529E-04   -0.53207E-07  5936   0.270E-03    0.115E-03
DAV:  16    -0.148318290493E+03   -0.81619E-05   -0.47538E-07  5744   0.189E-03    0.827E-04
DAV:  17    -0.148318295086E+03   -0.45935E-05   -0.31488E-07  5672   0.186E-03    0.628E-04
DAV:  18    -0.148318298372E+03   -0.32857E-05   -0.31733E-07  5728   0.149E-03    0.514E-04
DAV:  19    -0.148318299430E+03   -0.10580E-05   -0.22425E-07  5608   0.155E-03    0.400E-04
DAV:  20    -0.148318299462E+03   -0.32122E-07   -0.16201E-07  5176   0.110E-03
  41 F= -.15453980E+03 E0= -.15453980E+03  d E =-.162918E-01  mag=    28.0000
       N       E                     dE             d eps       ncg     rms          rms(c)
DAV:   1    -0.148317454270E+03    0.84516E-03   -0.37051E-01  8144   0.120E+00    0.343E-01
DAV:   2    -0.148319369981E+03   -0.19157E-02   -0.21248E-02 11320   0.473E-01    0.169E-01
DAV:   3    -0.148319811091E+03   -0.44111E-03   -0.53635E-04 11176   0.974E-02    0.102E-01
DAV:   4    -0.148319760071E+03    0.51020E-04   -0.62955E-05 11664   0.262E-02    0.777E-02
DAV:   5    -0.148319680124E+03    0.79947E-04   -0.98070E-05  9928   0.261E-02    0.404E-02
DAV:   6    -0.148319687736E+03   -0.76125E-05   -0.39322E-05 11520   0.184E-02    0.125E-02
DAV:   7    -0.148319720201E+03   -0.32465E-04   -0.22905E-06  6248   0.635E-03    0.939E-03
DAV:   8    -0.148319768162E+03   -0.47961E-04   -0.27297E-06  6784   0.580E-03    0.586E-03
DAV:   9    -0.148319798953E+03   -0.30791E-04   -0.14228E-06  5712   0.458E-03    0.306E-03
DAV:  10    -0.148319825361E+03   -0.26409E-04   -0.11953E-06  5736   0.423E-03    0.249E-03
DAV:  11    -0.148319843068E+03   -0.17706E-04   -0.78067E-07  5456   0.368E-03    0.164E-03
DAV:  12    -0.148319857499E+03   -0.14431E-04   -0.55661E-07  5664   0.265E-03    0.110E-03
DAV:  13    -0.148319868874E+03   -0.11375E-04   -0.41324E-07  5552   0.214E-03    0.935E-04
DAV:  14    -0.148319877631E+03   -0.87575E-05   -0.34365E-07  5568   0.170E-03    0.676E-04
DAV:  15    -0.148319882649E+03   -0.50179E-05   -0.26626E-07  5400   0.156E-03    0.555E-04
DAV:  16    -0.148319885407E+03   -0.27583E-05   -0.20890E-07  5416   0.131E-03    0.393E-04
DAV:  17    -0.148319886779E+03   -0.13714E-05   -0.15560E-07  5472   0.118E-03    0.338E-04
DAV:  18    -0.148319887225E+03   -0.44572E-06   -0.96899E-08  5264   0.922E-04
  42 F= -.15454021E+03 E0= -.15454021E+03  d E =-.167086E-01  mag=    28.0000
       N       E                     dE             d eps       ncg     rms          rms(c)
DAV:   1    -0.148318340905E+03    0.15459E-02   -0.14762E+00  7904   0.226E+00    0.688E-01
DAV:   2    -0.148326047728E+03   -0.77068E-02   -0.73611E-02 11416   0.820E-01    0.310E-01
DAV:   3    -0.148327683985E+03   -0.16363E-02   -0.22822E-03 11136   0.202E-01    0.174E-01
DAV:   4    -0.148327530700E+03    0.15329E-03   -0.25033E-04 12064   0.603E-02    0.124E-01
DAV:   5    -0.148327355936E+03    0.17476E-03   -0.24216E-04 10856   0.464E-02    0.691E-02
DAV:   6    -0.148327424326E+03   -0.68390E-04   -0.93941E-05 11248   0.276E-02    0.185E-02
DAV:   7    -0.148327571112E+03   -0.14679E-03   -0.78476E-06  9480   0.110E-02    0.143E-02
DAV:   8    -0.148327714633E+03   -0.14352E-03   -0.38460E-06  8048   0.751E-03    0.941E-03
DAV:   9    -0.148327805295E+03   -0.90662E-04   -0.16433E-06  6480   0.529E-03    0.555E-03
DAV:  10    -0.148327906600E+03   -0.10130E-03   -0.30873E-06  7408   0.445E-03    0.307E-03
DAV:  11    -0.148327992355E+03   -0.85756E-04   -0.15891E-06  6712   0.385E-03    0.177E-03
DAV:  12    -0.148328028159E+03   -0.35803E-04   -0.68065E-07  6064   0.326E-03    0.178E-03
DAV:  13    -0.148328053735E+03   -0.25577E-04   -0.61989E-07  5928   0.250E-03    0.143E-03
DAV:  14    -0.148328075007E+03   -0.21272E-04   -0.64776E-07  5960   0.220E-03    0.109E-03
DAV:  15    -0.148328087442E+03   -0.12434E-04   -0.49421E-07  5800   0.207E-03    0.652E-04
DAV:  16    -0.148328093386E+03   -0.59446E-05   -0.39748E-07  5640   0.183E-03    0.565E-04
DAV:  17    -0.148328095649E+03   -0.22628E-05   -0.25367E-07  5344   0.156E-03    0.348E-04
DAV:  18    -0.148328096832E+03   -0.11829E-05   -0.17581E-07  5504   0.120E-03    0.303E-04
DAV:  19    -0.148328097504E+03   -0.67214E-06   -0.12293E-07  5304   0.104E-03
  43 F= -.15454725E+03 E0= -.15454725E+03  d E =-.704209E-02  mag=    28.0000
       N       E                     dE             d eps       ncg     rms          rms(c)
DAV:   1    -0.148313278831E+03    0.14818E-01   -0.31075E+00  7904   0.328E+00    0.100E+00
DAV:   2    -0.148329729933E+03   -0.16451E-01   -0.15462E-01 11248   0.119E+00    0.452E-01
DAV:   3    -0.148332999814E+03   -0.32699E-02   -0.48831E-03 11288   0.281E-01    0.252E-01
DAV:   4    -0.148332715462E+03    0.28435E-03   -0.50874E-04 11960   0.820E-02    0.179E-01
DAV:   5    -0.148332451258E+03    0.26420E-03   -0.50698E-04 10896   0.646E-02    0.100E-01
DAV:   6    -0.148332600250E+03   -0.14899E-03   -0.19376E-04 11264   0.385E-02    0.273E-02
DAV:   7    -0.148332849495E+03   -0.24924E-03   -0.15902E-05 10968   0.158E-02    0.206E-02
DAV:   8    -0.148333091626E+03   -0.24213E-03   -0.69467E-06  9592   0.936E-03    0.133E-02
DAV:   9    -0.148333258784E+03   -0.16716E-03   -0.29034E-06  7504   0.550E-03    0.729E-03
DAV:  10    -0.148333453298E+03   -0.19451E-03   -0.46158E-06  8584   0.521E-03    0.381E-03
DAV:  11    -0.148333577657E+03   -0.12436E-03   -0.15748E-06  6808   0.352E-03    0.236E-03
DAV:  12    -0.148333646461E+03   -0.68804E-04   -0.96610E-07  6336   0.300E-03    0.231E-03
DAV:  13    -0.148333691976E+03   -0.45514E-04   -0.79485E-07  6032   0.284E-03    0.182E-03
DAV:  14    -0.148333734250E+03   -0.42274E-04   -0.15455E-06  6872   0.274E-03    0.123E-03
DAV:  15    -0.148333754558E+03   -0.20308E-04   -0.61472E-07  6016   0.224E-03    0.950E-04
DAV:  16    -0.148333761445E+03   -0.68871E-05   -0.37165E-07  5664   0.194E-03    0.623E-04
DAV:  17    -0.148333765233E+03   -0.37877E-05   -0.27081E-07  5608   0.153E-03    0.540E-04
DAV:  18    -0.148333767698E+03   -0.24656E-05   -0.21069E-07  5552   0.137E-03    0.379E-04
DAV:  19    -0.148333768849E+03   -0.11509E-05   -0.16777E-07  5488   0.120E-03    0.313E-04
DAV:  20    -0.148333768987E+03   -0.13764E-06   -0.13131E-07  5384   0.107E-03
  44 F= -.15455120E+03 E0= -.15455120E+03  d E =-.109855E-01  mag=    28.0000
       N       E                     dE             d eps       ncg     rms          rms(c)
DAV:   1    -0.148329891754E+03    0.38771E-02   -0.12783E+00  7904   0.206E+00    0.669E-01
DAV:   2    -0.148335683383E+03   -0.57916E-02   -0.49673E-02 11296   0.704E-01    0.309E-01
DAV:   3    -0.148338049865E+03   -0.23665E-02   -0.18259E-03 10312   0.161E-01    0.157E-01
DAV:   4    -0.148338054459E+03   -0.45939E-05   -0.20469E-04 11712   0.468E-02    0.114E-01
DAV:   5    -0.148338155246E+03   -0.10079E-03   -0.19676E-04 10752   0.423E-02    0.556E-02
DAV:   6    -0.148338209166E+03   -0.53920E-04   -0.67606E-05 11576   0.300E-02    0.190E-02
DAV:   7    -0.148338242604E+03   -0.33438E-04   -0.55469E-06  8912   0.111E-02    0.152E-02
DAV:   8    -0.148338273129E+03   -0.30525E-04   -0.21795E-06  6320   0.616E-03    0.942E-03
DAV:   9    -0.148338302937E+03   -0.29809E-04   -0.26717E-06  6952   0.505E-03    0.481E-03
DAV:  10    -0.148338322574E+03   -0.19637E-04   -0.10310E-06  5696   0.404E-03    0.251E-03
DAV:  11    -0.148338334498E+03   -0.11924E-04   -0.64715E-07  5528   0.340E-03    0.188E-03
DAV:  12    -0.148338344916E+03   -0.10418E-04   -0.47015E-07  5648   0.264E-03    0.104E-03
DAV:  13    -0.148338351521E+03   -0.66058E-05   -0.29118E-07  5352   0.205E-03    0.102E-03
DAV:  14    -0.148338358267E+03   -0.67460E-05   -0.23828E-07  5648   0.160E-03    0.683E-04
DAV:  15    -0.148338363273E+03   -0.50060E-05   -0.23613E-07  5616   0.138E-03    0.593E-04
DAV:  16    -0.148338365589E+03   -0.23156E-05   -0.17295E-07  5368   0.125E-03    0.389E-04
DAV:  17    -0.148338366331E+03   -0.74189E-06   -0.10577E-07  5360   0.102E-03
  45 F= -.15455584E+03 E0= -.15455584E+03  d E =-.464159E-02  mag=    28.0000
       N       E                     dE             d eps       ncg     rms          rms(c)
DAV:   1    -0.148331089337E+03    0.72763E-02   -0.13324E+00  7904   0.210E+00    0.683E-01
DAV:   2    -0.148337127402E+03   -0.60381E-02   -0.51751E-02 11224   0.718E-01    0.316E-01
DAV:   3    -0.148339575612E+03   -0.24482E-02   -0.19309E-03 10560   0.170E-01    0.162E-01
DAV:   4    -0.148339582787E+03   -0.71749E-05   -0.21652E-04 11720   0.504E-02    0.117E-01
DAV:   5    -0.148339687269E+03   -0.10448E-03   -0.21037E-04 11016   0.450E-02    0.577E-02
DAV:   6    -0.148339742902E+03   -0.55633E-04   -0.70008E-05 11560   0.317E-02    0.194E-02
DAV:   7    -0.148339778752E+03   -0.35850E-04   -0.61190E-06  9064   0.115E-02    0.156E-02
DAV:   8    -0.148339811580E+03   -0.32827E-04   -0.21303E-06  6272   0.603E-03    0.962E-03
DAV:   9    -0.148339843930E+03   -0.32350E-04   -0.29304E-06  7096   0.537E-03    0.498E-03
DAV:  10    -0.148339864400E+03   -0.20471E-04   -0.10034E-06  5728   0.410E-03    0.262E-03
DAV:  11    -0.148339877279E+03   -0.12879E-04   -0.64823E-07  5512   0.331E-03    0.197E-03
DAV:  12    -0.148339889018E+03   -0.11739E-04   -0.47970E-07  5640   0.269E-03    0.110E-03
DAV:  13    -0.148339896380E+03   -0.73619E-05   -0.31215E-07  5344   0.209E-03    0.107E-03
DAV:  14    -0.148339903735E+03   -0.73550E-05   -0.26131E-07  5744   0.168E-03    0.743E-04
DAV:  15    -0.148339909147E+03   -0.54119E-05   -0.27392E-07  5624   0.146E-03    0.594E-04
DAV:  16    -0.148339911480E+03   -0.23325E-05   -0.18592E-07  5432   0.133E-03    0.386E-04
DAV:  17    -0.148339912197E+03   -0.71790E-06   -0.11329E-07  5376   0.105E-03
  46 F= -.15455742E+03 E0= -.15455742E+03  d E =-.621798E-02  mag=    28.0000
       N       E                     dE             d eps       ncg     rms          rms(c)
DAV:   1    -0.148334511394E+03    0.54001E-02   -0.10726E+00  7904   0.198E+00    0.673E-01
DAV:   2    -0.148340391000E+03   -0.58796E-02   -0.52799E-02 11240   0.719E-01    0.295E-01
DAV:   3    -0.148342141430E+03   -0.17504E-02   -0.17543E-03 11200   0.173E-01    0.157E-01
DAV:   4    -0.148342134583E+03    0.68472E-05   -0.19195E-04 12304   0.490E-02    0.112E-01
DAV:   5    -0.148342206457E+03   -0.71873E-04   -0.18662E-04 10952   0.407E-02    0.634E-02
DAV:   6    -0.148342254697E+03   -0.48241E-04   -0.78036E-05 11640   0.282E-02    0.180E-02
DAV:   7    -0.148342265826E+03   -0.11129E-04   -0.56089E-06  8800   0.109E-02    0.133E-02
DAV:   8    -0.148342274074E+03   -0.82471E-05   -0.27461E-06  6720   0.625E-03    0.808E-03
DAV:   9    -0.148342277834E+03   -0.37609E-05   -0.18793E-06  5912   0.456E-03    0.407E-03
DAV:  10    -0.148342279477E+03   -0.16426E-05   -0.93086E-07  5368   0.419E-03    0.267E-03
DAV:  11    -0.148342280754E+03   -0.12769E-05   -0.61203E-07  5360   0.344E-03    0.172E-03
DAV:  12    -0.148342281770E+03   -0.10159E-05   -0.42084E-07  5592   0.277E-03    0.122E-03
DAV:  13    -0.148342282569E+03   -0.79958E-06   -0.17547E-07  5328   0.191E-03
  47 F= -.15455988E+03 E0= -.15455988E+03  d E =-.246762E-02  mag=    28.0000
       N       E                     dE             d eps       ncg     rms          rms(c)
DAV:   1    -0.148342119919E+03    0.16185E-03   -0.27744E-02  8160   0.319E-01    0.108E-01
DAV:   2    -0.148342228103E+03   -0.10818E-03   -0.13580E-03 11000   0.115E-01    0.471E-02
DAV:   3    -0.148342311596E+03   -0.83493E-04   -0.46145E-05 10352   0.271E-02    0.252E-02
DAV:   4    -0.148342312183E+03   -0.58685E-06   -0.42193E-06  8048   0.744E-03
  48 F= -.15455993E+03 E0= -.15455993E+03  d E =-.251180E-02  mag=    28.0000
       N       E                     dE             d eps       ncg     rms          rms(c)
DAV:   1    -0.148341714251E+03    0.59735E-03   -0.34190E-01  7904   0.115E+00    0.349E-01
DAV:   2    -0.148343561762E+03   -0.18475E-02   -0.20047E-02 11336   0.460E-01    0.167E-01
DAV:   3    -0.148344092275E+03   -0.53051E-03   -0.51633E-04 11416   0.116E-01    0.997E-02
DAV:   4    -0.148344064996E+03    0.27279E-04   -0.52179E-05 11864   0.312E-02    0.718E-02
DAV:   5    -0.148344034247E+03    0.30749E-04   -0.59128E-05  9568   0.194E-02    0.454E-02
DAV:   6    -0.148344041367E+03   -0.71191E-05   -0.45690E-05 11456   0.169E-02    0.120E-02
DAV:   7    -0.148344069406E+03   -0.28040E-04   -0.36365E-06  7760   0.767E-03    0.707E-03
DAV:   8    -0.148344098887E+03   -0.29480E-04   -0.12359E-06  5928   0.458E-03    0.544E-03
DAV:   9    -0.148344116426E+03   -0.17539E-04   -0.76042E-07  5472   0.378E-03    0.337E-03
DAV:  10    -0.148344134503E+03   -0.18077E-04   -0.75073E-07  5728   0.301E-03    0.236E-03
DAV:  11    -0.148344149282E+03   -0.14780E-04   -0.54013E-07  5688   0.310E-03    0.155E-03
DAV:  12    -0.148344162505E+03   -0.13223E-04   -0.53680E-07  5800   0.249E-03    0.122E-03
DAV:  13    -0.148344170209E+03   -0.77031E-05   -0.38351E-07  5584   0.208E-03    0.912E-04
DAV:  14    -0.148344175095E+03   -0.48869E-05   -0.25766E-07  5480   0.159E-03    0.735E-04
DAV:  15    -0.148344178608E+03   -0.35128E-05   -0.22296E-07  5536   0.144E-03    0.599E-04
DAV:  16    -0.148344180964E+03   -0.23558E-05   -0.32316E-07  5680   0.146E-03    0.592E-04
DAV:  17    -0.148344180513E+03    0.45089E-06   -0.18550E-07  5552   0.151E-03
  49 F= -.15456139E+03 E0= -.15456139E+03  d E =-.146513E-02  mag=    28.0000
       N       E                     dE             d eps       ncg     rms          rms(c)
DAV:   1    -0.148338914835E+03    0.52661E-02   -0.10114E+00  7904   0.197E+00    0.606E-01
DAV:   2    -0.148344776226E+03   -0.58614E-02   -0.59705E-02 11296   0.793E-01    0.286E-01
DAV:   3    -0.148346039575E+03   -0.12633E-02   -0.15404E-03 11472   0.202E-01    0.170E-01
DAV:   4    -0.148345962136E+03    0.77440E-04   -0.15644E-04 11840   0.548E-02    0.122E-01
DAV:   5    -0.148345882244E+03    0.79891E-04   -0.16586E-04  9600   0.323E-02    0.781E-02
DAV:   6    -0.148345899703E+03   -0.17458E-04   -0.13531E-04 11304   0.283E-02    0.204E-02
DAV:   7    -0.148345961681E+03   -0.61979E-04   -0.12776E-05 10656   0.129E-02    0.116E-02
DAV:   8    -0.148346021794E+03   -0.60113E-04   -0.21357E-06  6648   0.552E-03    0.805E-03
DAV:   9    -0.148346062135E+03   -0.40341E-04   -0.10281E-06  5800   0.483E-03    0.535E-03
DAV:  10    -0.148346109235E+03   -0.47100E-04   -0.21146E-06  6680   0.401E-03    0.294E-03
DAV:  11    -0.148346140723E+03   -0.31488E-04   -0.88176E-07  5936   0.410E-03    0.186E-03
DAV:  12    -0.148346161363E+03   -0.20640E-04   -0.69789E-07  5824   0.316E-03    0.162E-03
DAV:  13    -0.148346176206E+03   -0.14843E-04   -0.51233E-07  5664   0.253E-03    0.131E-03
DAV:  14    -0.148346191675E+03   -0.15469E-04   -0.60081E-07  5904   0.208E-03    0.102E-03
DAV:  15    -0.148346200385E+03   -0.87093E-05   -0.43790E-07  5936   0.207E-03    0.835E-04
DAV:  16    -0.148346205461E+03   -0.50762E-05   -0.50930E-07  5920   0.190E-03    0.728E-04
DAV:  17    -0.148346205975E+03   -0.51398E-06   -0.29413E-07  5592   0.187E-03
  50 F= -.15456272E+03 E0= -.15456272E+03  d E =-.279034E-02  mag=    28.0000
       N       E                     dE             d eps       ncg     rms          rms(c)
DAV:   1    -0.148345481435E+03    0.72403E-03   -0.15487E-01  8200   0.772E-01    0.236E-01
DAV:   2    -0.148346279226E+03   -0.79779E-03   -0.91395E-03 11256   0.310E-01    0.112E-01
DAV:   3    -0.148346555507E+03   -0.27628E-03   -0.23684E-04 11392   0.785E-02    0.666E-02
DAV:   4    -0.148346541910E+03    0.13597E-04   -0.23708E-05 11832   0.211E-02    0.477E-02
DAV:   5    -0.148346525362E+03    0.16548E-04   -0.25957E-05  9256   0.127E-02    0.303E-02
DAV:   6    -0.148346525618E+03   -0.25614E-06   -0.20860E-05 11400   0.113E-02    0.793E-03
DAV:   7    -0.148346540509E+03   -0.14891E-04   -0.14689E-06  6072   0.510E-03    0.463E-03
DAV:   8    -0.148346556635E+03   -0.16125E-04   -0.82128E-07  5536   0.393E-03    0.404E-03
DAV:   9    -0.148346565845E+03   -0.92103E-05   -0.53162E-07  5264   0.308E-03    0.231E-03
DAV:  10    -0.148346573035E+03   -0.71901E-05   -0.34148E-07  5400   0.235E-03    0.182E-03
DAV:  11    -0.148346580545E+03   -0.75095E-05   -0.24389E-07  5720   0.197E-03    0.116E-03
DAV:  12    -0.148346589610E+03   -0.90653E-05   -0.30373E-07  5632   0.171E-03    0.903E-04
DAV:  13    -0.148346593080E+03   -0.34698E-05   -0.18269E-07  5344   0.150E-03    0.577E-04
DAV:  14    -0.148346594931E+03   -0.18506E-05   -0.11245E-07  5232   0.103E-03    0.503E-04
DAV:  15    -0.148346596311E+03   -0.13810E-05   -0.73531E-08  5424   0.877E-04    0.338E-04
DAV:  16    -0.148346598533E+03   -0.22220E-05   -0.12084E-07  5704   0.904E-04    0.433E-04
DAV:  17    -0.148346599047E+03   -0.51333E-06   -0.11158E-07  5376   0.992E-04
  51 F= -.15456283E+03 E0= -.15456283E+03  d E =-.290677E-02  mag=    28.0000
       N       E                     dE             d eps       ncg     rms          rms(c)
DAV:   1    -0.148343710525E+03    0.28880E-02   -0.53549E-01  7904   0.149E+00    0.474E-01
DAV:   2    -0.148347081530E+03   -0.33710E-02   -0.31577E-02 11312   0.563E-01    0.223E-01
DAV:   3    -0.148347995102E+03   -0.91357E-03   -0.92141E-04 11312   0.124E-01    0.120E-01
DAV:   4    -0.148347898710E+03    0.96393E-04   -0.90373E-05 11960   0.316E-02    0.878E-02
DAV:   5    -0.148347755185E+03    0.14352E-03   -0.10431E-04 10456   0.272E-02    0.559E-02
DAV:   6    -0.148347726181E+03    0.29005E-04   -0.69878E-05 11432   0.214E-02    0.194E-02
DAV:   7    -0.148347791816E+03   -0.65635E-04   -0.79283E-06  9272   0.934E-03    0.128E-02
DAV:   8    -0.148347894056E+03   -0.10224E-03   -0.21311E-06  6664   0.528E-03    0.708E-03
DAV:   9    -0.148347976560E+03   -0.82504E-04   -0.20895E-06  6416   0.512E-03    0.384E-03
DAV:  10    -0.148348052569E+03   -0.76009E-04   -0.29285E-06  7200   0.506E-03    0.237E-03
DAV:  11    -0.148348083716E+03   -0.31147E-04   -0.66832E-07  5832   0.363E-03    0.195E-03
DAV:  12    -0.148348117351E+03   -0.33636E-04   -0.67936E-07  6024   0.255E-03    0.151E-03
DAV:  13    -0.148348149396E+03   -0.32045E-04   -0.78470E-07  6160   0.246E-03    0.129E-03
DAV:  14    -0.148348163989E+03   -0.14593E-04   -0.45994E-07  5792   0.219E-03    0.935E-04
DAV:  15    -0.148348173883E+03   -0.98932E-05   -0.39009E-07  5600   0.174E-03    0.733E-04
DAV:  16    -0.148348178920E+03   -0.50378E-05   -0.26473E-07  5536   0.161E-03    0.526E-04
DAV:  17    -0.148348184204E+03   -0.52831E-05   -0.33757E-07  5648   0.141E-03    0.509E-04
DAV:  18    -0.148348185923E+03   -0.17190E-05   -0.24661E-07  5704   0.160E-03    0.357E-04
DAV:  19    -0.148348186027E+03   -0.10424E-06   -0.15685E-07  5384   0.114E-03
  52 F= -.15456362E+03 E0= -.15456362E+03  d E =-.788821E-03  mag=    28.0000
       N       E                     dE             d eps       ncg     rms          rms(c)
DAV:   1    -0.148348192681E+03   -0.67585E-05   -0.40721E-05  8096   0.130E-02    0.419E-03
DAV:   2    -0.148348192380E+03    0.30097E-06   -0.19171E-06  6104   0.527E-03
  53 F= -.15456362E+03 E0= -.15456362E+03  d E =-.788168E-03  mag=    28.0000
       N       E                     dE             d eps       ncg     rms          rms(c)
DAV:   1    -0.148347322124E+03    0.87056E-03   -0.22505E-01  7928   0.958E-01    0.303E-01
DAV:   2    -0.148348686109E+03   -0.13640E-02   -0.14676E-02 11248   0.406E-01    0.148E-01
DAV:   3    -0.148349054707E+03   -0.36860E-03   -0.35554E-04 11600   0.957E-02    0.892E-02
DAV:   4    -0.148349028472E+03    0.26235E-04   -0.33814E-05 11976   0.238E-02    0.656E-02
DAV:   5    -0.148348994563E+03    0.33909E-04   -0.44002E-05  9792   0.168E-02    0.434E-02
DAV:   6    -0.148348995313E+03   -0.75039E-06   -0.35090E-05 11184   0.147E-02    0.113E-02
DAV:   7    -0.148349024955E+03   -0.29642E-04   -0.27722E-06  7064   0.649E-03    0.536E-03
DAV:   8    -0.148349051629E+03   -0.26674E-04   -0.95992E-07  5744   0.462E-03    0.449E-03
DAV:   9    -0.148349065875E+03   -0.14246E-04   -0.60469E-07  5344   0.327E-03    0.274E-03
DAV:  10    -0.148349079721E+03   -0.13846E-04   -0.44465E-07  5720   0.253E-03    0.207E-03
DAV:  11    -0.148349092831E+03   -0.13110E-04   -0.37867E-07  5608   0.233E-03    0.140E-03
DAV:  12    -0.148349106775E+03   -0.13944E-04   -0.49717E-07  6000   0.216E-03    0.109E-03
DAV:  13    -0.148349112529E+03   -0.57543E-05   -0.28672E-07  5480   0.193E-03    0.752E-04
DAV:  14    -0.148349115194E+03   -0.26641E-05   -0.17481E-07  5288   0.129E-03    0.605E-04
DAV:  15    -0.148349118232E+03   -0.30384E-05   -0.13311E-07  5632   0.114E-03    0.474E-04
DAV:  16    -0.148349121308E+03   -0.30760E-05   -0.17585E-07  5504   0.112E-03    0.464E-04
DAV:  17    -0.148349121968E+03   -0.65975E-06   -0.23963E-07  5608   0.126E-03
  54 F= -.15456415E+03 E0= -.15456415E+03  d E =-.529460E-03  mag=    28.0000
