CrCl3 2x2 + Co + H | In-Plane Embedded Interstitial | H_ads | U_all=3.29eV
   1.0000000000000000     
    12.1343889235999995    0.0000000000000000    0.0000000000000000
    -6.0613529830999999   10.5120826004999994    0.0000000000000000
     0.0000000000000000    0.0000000000000000   17.6887664794999999
   Cr   Cl   Co   H 
     8    24     1     1
Direct
  0.1461215165251604  0.3281555682618246  0.3328082717792496
  0.1623038423018857  0.8421085697825722  0.3316456193788954
  0.6605875937790204  0.3378595465337986  0.3388289309641697
  0.6586848992964860  0.8449042912364430  0.3391198842852715
  0.8213433857033419  0.1709002339880178  0.3315429792793598
  0.8378175240111287  0.6731906717492182  0.3330821541749991
  0.3233281884643403  0.1697539823321456  0.3389040333334964
  0.3252998443665028  0.6788109182358625  0.3391298316143095
  0.1752933886279578  0.5130153257176807  0.2628621158166062
  0.1754074798224131  0.0134191101930236  0.2578607277868752
  0.6513292700626706  0.5027445571889894  0.2682877246943409
  0.6581225455833658 -0.0001069151338576  0.2596883963558063
  0.3331109347888585  0.3442206263679390  0.2682983408850628
  0.3257797307193086  0.8345916071922813  0.2597685884912290
  0.8087683383854359  0.3295545410912062  0.2578748806299459
  0.8086906827472055  0.8289635910658864  0.2630102487128543
  0.9675447588661534  0.1711871628607514  0.2466660349343374
  0.0161973804136524  0.6964649509513035  0.2466281902160936
  0.4917518258218203  0.1837317258369355  0.2634880724419273
  0.4919527713991934  0.6734022715409832  0.2676114812015354
  0.9813668172159952  0.3226644923991666  0.4104912210099118
  0.0018886188367689  0.8334273967060521  0.4105406221348143
  0.4921037749195782  0.3316366766931487  0.4185759159990827
  0.4920591968093896  0.8390202952929021  0.4137802977428742
  0.3255593718621769  0.5218514936087896  0.4237779798509171
  0.3168944153538178  0.0069037870725875  0.4127913462449933
  0.8161353228254095  0.5009575549329088  0.4137281975749239
  0.8153185053010248  0.0093441527705812  0.4114999126046741
  0.1677748349795349  0.1778264804255810  0.4134607690616790
  0.1678669989368158  0.6860744416582457  0.4112227214160830
  0.6662433087523280  0.1808202943765641  0.4124061728666814
  0.6585188618831087  0.6879376452833220  0.4239382900890498
  0.4920664510775334  0.5090451980809605  0.3589015525240582
  0.4929378295606673  0.5294320817061619  0.4410185259038779

  0.00000000E+00  0.00000000E+00  0.00000000E+00
  0.00000000E+00  0.00000000E+00  0.00000000E+00
  0.00000000E+00  0.00000000E+00  0.00000000E+00
  0.00000000E+00  0.00000000E+00  0.00000000E+00
  0.00000000E+00  0.00000000E+00  0.00000000E+00
  0.00000000E+00  0.00000000E+00  0.00000000E+00
  0.00000000E+00  0.00000000E+00  0.00000000E+00
  0.00000000E+00  0.00000000E+00  0.00000000E+00
  0.00000000E+00  0.00000000E+00  0.00000000E+00
  0.00000000E+00  0.00000000E+00  0.00000000E+00
  0.00000000E+00  0.00000000E+00  0.00000000E+00
  0.00000000E+00  0.00000000E+00  0.00000000E+00
  0.00000000E+00  0.00000000E+00  0.00000000E+00
  0.00000000E+00  0.00000000E+00  0.00000000E+00
  0.00000000E+00  0.00000000E+00  0.00000000E+00
  0.00000000E+00  0.00000000E+00  0.00000000E+00
  0.00000000E+00  0.00000000E+00  0.00000000E+00
  0.00000000E+00  0.00000000E+00  0.00000000E+00
  0.00000000E+00  0.00000000E+00  0.00000000E+00
  0.00000000E+00  0.00000000E+00  0.00000000E+00
  0.00000000E+00  0.00000000E+00  0.00000000E+00
  0.00000000E+00  0.00000000E+00  0.00000000E+00
  0.00000000E+00  0.00000000E+00  0.00000000E+00
  0.00000000E+00  0.00000000E+00  0.00000000E+00
  0.00000000E+00  0.00000000E+00  0.00000000E+00
  0.00000000E+00  0.00000000E+00  0.00000000E+00
  0.00000000E+00  0.00000000E+00  0.00000000E+00
  0.00000000E+00  0.00000000E+00  0.00000000E+00
  0.00000000E+00  0.00000000E+00  0.00000000E+00
  0.00000000E+00  0.00000000E+00  0.00000000E+00
  0.00000000E+00  0.00000000E+00  0.00000000E+00
  0.00000000E+00  0.00000000E+00  0.00000000E+00
  0.00000000E+00  0.00000000E+00  0.00000000E+00
  0.00000000E+00  0.00000000E+00  0.00000000E+00
