Cr8Cl24Fe1
1.0
     12.0969954       0.0000000       0.0000000
     -6.0484977      10.4763053       0.0000000
      0.0000000       0.0000000      17.6700249
  Cr    Cl    Fe  
  8     24    1   
Direct
      0.1633872       0.8364510       0.3362862
      0.1574460       0.3296685       0.3398115
      0.6625905       0.8427329       0.3398151
      0.6702384       0.3374128       0.3398892
      0.8360897       0.6690263       0.3399119
      0.8301461       0.1700185       0.3363612
      0.3310113       0.6768007       0.3397811
      0.3231697       0.1637734       0.3397619
      0.1744790       0.0004706       0.2599373
      0.1792061       0.5032262       0.2672130
      0.6772583       0.0060640       0.2599880
      0.6727430       0.5032412       0.2688178
      0.3162811       0.8253499       0.2599318
      0.3205383       0.3269721       0.2686238
      0.8144590       0.8209134       0.2673092
      0.8190563       0.3230352       0.2600978
      0.9992599       0.6834514       0.2600563
      0.9941427       0.1811085       0.2600196
      0.4968618       0.6795360       0.2686363
      0.4967873       0.1855446       0.2672111
      0.9999884       0.8249876       0.4144572
      0.9937138       0.3219329       0.4144637
      0.4967544       0.8325853       0.4157618
      0.4966838       0.3169014       0.4276541
      0.3154118       0.9999599       0.4143363
      0.3106528       0.5031572       0.4275957
      0.8185381       0.0065022       0.4144643
      0.8258743       0.5031570       0.4159163
      0.1749504       0.6844685       0.4143862
      0.1674508       0.1738780       0.4157395
      0.6830753       0.6896117       0.4277563
      0.6781537       0.1814688       0.4144663
      0.4969312       0.5032576       0.4394378
