Cr8Cl24Fe1                              
   1.00000000000000     
    12.0969953537000006    0.0000000000000000    0.0000000000000000
    -6.0484976768000003   10.4763052858000005    0.0000000000000000
     0.0000000000000000    0.0000000000000000   17.6700248717999990
   Cr   Cl   Fe
     8    24     1
Direct
     0.1633871714431976    0.8364509594222440    0.3362861804690667
     0.1574460365868831    0.3296684666171714    0.3398115053357529
     0.6625905272317496    0.8427329099682055    0.3398150738701631
     0.6702383835487993    0.3374128424578018    0.3398891970059026
     0.8360897062493322    0.6690262682107218    0.3399119211294490
     0.8301461471683282    0.1700185419580436    0.3363611718499655
     0.3310112527777207    0.6768006502244077    0.3397811061564440
     0.3231696897126071    0.1637733647999227    0.3397619427715455
     0.1744790254707738    0.0004705739405040    0.2599373200186150
     0.1792060711605430    0.5032261805531704    0.2672129992420338
     0.6772583257058997    0.0060640282486233    0.2599879873497812
     0.6727429901593993    0.5032412149662733    0.2688178462943824
     0.3162810669324969    0.8253498853612129    0.2599317833842250
     0.3205383053015680    0.3269721344796039    0.2686238463168777
     0.8144590123030326    0.8209133704630460    0.2673092372458683
     0.8190563238134203    0.3230352457309564    0.2600977534337048
     0.9992598809344884    0.6834513630785537    0.2600563482040670
     0.9941426986249553    0.1811084517608137    0.2600195584146405
     0.4968618016190760    0.6795360329082882    0.2686363482774183
     0.4967872814952301    0.1855446392794633    0.2672110588650440
     0.9999884257133047    0.8249875817272141    0.4144572204984911
     0.9937138195694146    0.3219328508391399    0.4144636786425480
     0.4967544094893981    0.8325853031239916    0.4157618404880594
     0.4966837525261099    0.3169014210622976    0.4276541400539244
     0.3154117653981956    0.9999598754434871    0.4143363394487665
     0.3106528206219821    0.5031571758942377    0.4275957235226571
     0.8185381302765791    0.0065021667316500    0.4144643350968096
     0.8258743288506025    0.5031569661771229    0.4159163116463205
     0.1749504184964437    0.6844684526330198    0.4143862162518133
     0.1674507852674196    0.1738779950739655    0.4157395485632094
     0.6830753221696000    0.6896116802413985    0.4277563459765190
     0.6781536577265115    0.1814687902258214    0.4144663467519152
     0.4969311676549495    0.5032576283976269    0.4394378424240202
 
  0.00000000E+00  0.00000000E+00  0.00000000E+00
  0.00000000E+00  0.00000000E+00  0.00000000E+00
  0.00000000E+00  0.00000000E+00  0.00000000E+00
  0.00000000E+00  0.00000000E+00  0.00000000E+00
  0.00000000E+00  0.00000000E+00  0.00000000E+00
  0.00000000E+00  0.00000000E+00  0.00000000E+00
  0.00000000E+00  0.00000000E+00  0.00000000E+00
  0.00000000E+00  0.00000000E+00  0.00000000E+00
  0.00000000E+00  0.00000000E+00  0.00000000E+00
  0.00000000E+00  0.00000000E+00  0.00000000E+00
  0.00000000E+00  0.00000000E+00  0.00000000E+00
  0.00000000E+00  0.00000000E+00  0.00000000E+00
  0.00000000E+00  0.00000000E+00  0.00000000E+00
  0.00000000E+00  0.00000000E+00  0.00000000E+00
  0.00000000E+00  0.00000000E+00  0.00000000E+00
  0.00000000E+00  0.00000000E+00  0.00000000E+00
  0.00000000E+00  0.00000000E+00  0.00000000E+00
  0.00000000E+00  0.00000000E+00  0.00000000E+00
  0.00000000E+00  0.00000000E+00  0.00000000E+00
  0.00000000E+00  0.00000000E+00  0.00000000E+00
  0.00000000E+00  0.00000000E+00  0.00000000E+00
  0.00000000E+00  0.00000000E+00  0.00000000E+00
  0.00000000E+00  0.00000000E+00  0.00000000E+00
  0.00000000E+00  0.00000000E+00  0.00000000E+00
  0.00000000E+00  0.00000000E+00  0.00000000E+00
  0.00000000E+00  0.00000000E+00  0.00000000E+00
  0.00000000E+00  0.00000000E+00  0.00000000E+00
  0.00000000E+00  0.00000000E+00  0.00000000E+00
  0.00000000E+00  0.00000000E+00  0.00000000E+00
  0.00000000E+00  0.00000000E+00  0.00000000E+00
  0.00000000E+00  0.00000000E+00  0.00000000E+00
  0.00000000E+00  0.00000000E+00  0.00000000E+00
  0.00000000E+00  0.00000000E+00  0.00000000E+00
