       N       E                     dE             d eps       ncg     rms          rms(c)
DAV:   1     0.213205164344E+04    0.21321E+04   -0.64585E+04  3122   0.900E+02
DAV:   2     0.395263864219E+03   -0.17368E+04   -0.16233E+04  3794   0.239E+02
DAV:   3    -0.114744609733E+03   -0.51001E+03   -0.49797E+03  4410   0.134E+02
DAV:   4    -0.153079190780E+03   -0.38335E+02   -0.37903E+02  4424   0.550E+01
DAV:   5    -0.153900894915E+03   -0.82170E+00   -0.82025E+00  4634   0.879E+00    0.420E+01
DAV:   6    -0.153076206909E+03    0.82469E+00   -0.17023E+02  5012   0.669E+01    0.534E+01
DAV:   7    -0.149748286373E+03    0.33279E+01   -0.42531E+01  3948   0.745E+01    0.565E+01
DAV:   8    -0.147741820859E+03    0.20065E+01   -0.87068E+01  4886   0.272E+01    0.297E+01
DAV:   9    -0.141883226868E+03    0.58586E+01   -0.76130E+00  3794   0.317E+01    0.129E+01
DAV:  10    -0.143064292045E+03   -0.11811E+01   -0.57407E+00  4928   0.169E+01    0.117E+01
DAV:  11    -0.144059829282E+03   -0.99554E+00   -0.24503E+00  4256   0.786E+00    0.764E+00
DAV:  12    -0.144755239769E+03   -0.69541E+00   -0.76047E-01  4746   0.380E+00    0.411E+00
DAV:  13    -0.144899701056E+03   -0.14446E+00   -0.52877E-01  4480   0.377E+00    0.296E+00
DAV:  14    -0.145147430000E+03   -0.24773E+00   -0.19268E-01  4578   0.258E+00    0.187E+00
DAV:  15    -0.145273011232E+03   -0.12558E+00   -0.85139E-02  4662   0.172E+00    0.257E+00
DAV:  16    -0.145285241464E+03   -0.12230E-01   -0.51128E-02  4634   0.213E+00    0.758E-01
DAV:  17    -0.145405871169E+03   -0.12063E+00   -0.60177E-02  3640   0.460E-01    0.269E+00
DAV:  18    -0.145441862714E+03   -0.35992E-01   -0.24701E-02  4578   0.996E-01    0.453E-01
DAV:  19    -0.145477121813E+03   -0.35259E-01   -0.62393E-03  3570   0.212E-01    0.228E-01
DAV:  20    -0.145502126822E+03   -0.25005E-01   -0.74968E-04  4004   0.885E-02    0.162E-01
DAV:  21    -0.145527714575E+03   -0.25588E-01   -0.56331E-04  4676   0.102E-01    0.211E-01
DAV:  22    -0.145540826529E+03   -0.13112E-01   -0.24108E-04  4522   0.788E-02    0.181E-01
DAV:  23    -0.145550720796E+03   -0.98943E-02   -0.17067E-04  4732   0.852E-02    0.366E-02
DAV:  24    -0.145557102545E+03   -0.63817E-02   -0.13174E-04  4298   0.416E-02    0.257E-02
DAV:  25    -0.145560167981E+03   -0.30654E-02   -0.53565E-05  4564   0.381E-02    0.112E-01
DAV:  26    -0.145561317217E+03   -0.11492E-02   -0.28538E-05  4522   0.287E-02    0.498E-02
DAV:  27    -0.145561829699E+03   -0.51248E-03   -0.15721E-05  4578   0.227E-02    0.104E-02
DAV:  28    -0.145561999644E+03   -0.16994E-03   -0.52905E-06  3500   0.914E-03    0.116E-02
DAV:  29    -0.145562096046E+03   -0.96403E-04   -0.18046E-06  2786   0.475E-03    0.107E-02
DAV:  30    -0.145562192205E+03   -0.96159E-04   -0.25713E-06  2674   0.467E-03    0.865E-03
DAV:  31    -0.145562208214E+03   -0.16009E-04   -0.98509E-07  2590   0.369E-03    0.661E-03
DAV:  32    -0.145562209901E+03   -0.16870E-05   -0.37853E-07  2310   0.275E-03    0.143E-03
DAV:  33    -0.145562215971E+03   -0.60699E-05   -0.30476E-07  2114   0.173E-03    0.249E-03
DAV:  34    -0.145562225677E+03   -0.97062E-05   -0.15440E-07  2212   0.221E-03    0.767E-03
DAV:  35    -0.145562234297E+03   -0.86204E-05   -0.14367E-07  2240   0.258E-03    0.674E-04
DAV:  36    -0.145562244348E+03   -0.10050E-04   -0.11545E-07  2156   0.130E-03    0.103E-03
DAV:  37    -0.145562247625E+03   -0.32779E-05   -0.61094E-08  2170   0.108E-03    0.113E-03
DAV:  38    -0.145562253743E+03   -0.61172E-05   -0.50075E-08  2184   0.715E-04    0.120E-03
DAV:  39    -0.145562257237E+03   -0.34940E-05   -0.51090E-08  2128   0.100E-03    0.115E-03
DAV:  40    -0.145562257727E+03   -0.48993E-06   -0.32263E-08  2324   0.788E-04
   1 F= -.15166158E+03 E0= -.15164345E+03  d E =-.151662E+03  mag=    27.0000
       N       E                     dE             d eps       ncg     rms          rms(c)
DAV:   1    -0.145588823035E+03   -0.26566E-01   -0.11316E+01  3080   0.655E+00    0.235E+00
DAV:   2    -0.145673539047E+03   -0.84716E-01   -0.92985E-01  4564   0.407E+00    0.190E+00
DAV:   3    -0.145675549378E+03   -0.20103E-02   -0.83477E-02  4592   0.162E+00    0.294E+00
DAV:   4    -0.145669970674E+03    0.55787E-02   -0.18008E-02  4578   0.119E+00    0.106E+00
DAV:   5    -0.145668863080E+03    0.11076E-02   -0.32642E-03  4802   0.384E-01    0.656E-01
DAV:   6    -0.145668341830E+03    0.52125E-03   -0.61150E-03  4676   0.366E-01    0.652E-01
DAV:   7    -0.145667915131E+03    0.42670E-03   -0.33461E-03  4788   0.394E-01    0.213E-01
DAV:   8    -0.145668016203E+03   -0.10107E-03   -0.48519E-04  4900   0.154E-01    0.660E-02
DAV:   9    -0.145668160376E+03   -0.14417E-03   -0.54995E-05  4536   0.322E-02    0.104E-01
DAV:  10    -0.145668336601E+03   -0.17623E-03   -0.32101E-05  4466   0.397E-02    0.459E-02
DAV:  11    -0.145668527914E+03   -0.19131E-03   -0.18437E-05  4536   0.170E-02    0.389E-02
DAV:  12    -0.145668642243E+03   -0.11433E-03   -0.76077E-06  4130   0.135E-02    0.118E-02
DAV:  13    -0.145668779979E+03   -0.13774E-03   -0.35198E-06  3108   0.891E-03    0.148E-02
DAV:  14    -0.145668875345E+03   -0.95365E-04   -0.17072E-06  2646   0.719E-03    0.785E-03
DAV:  15    -0.145668954272E+03   -0.78927E-04   -0.13022E-06  2618   0.437E-03    0.202E-03
DAV:  16    -0.145669003136E+03   -0.48864E-04   -0.68863E-07  2324   0.267E-03    0.232E-03
DAV:  17    -0.145669061631E+03   -0.58495E-04   -0.10417E-06  2534   0.284E-03    0.522E-03
DAV:  18    -0.145669118269E+03   -0.56638E-04   -0.11988E-06  2660   0.313E-03    0.220E-03
DAV:  19    -0.145669148639E+03   -0.30370E-04   -0.70231E-07  2380   0.192E-03    0.158E-03
DAV:  20    -0.145669158217E+03   -0.95783E-05   -0.33162E-07  2212   0.165E-03    0.793E-04
DAV:  21    -0.145669167126E+03   -0.89090E-05   -0.32094E-07  2254   0.129E-03    0.460E-04
DAV:  22    -0.145669171536E+03   -0.44092E-05   -0.22944E-07  2254   0.134E-03    0.493E-04
DAV:  23    -0.145669172362E+03   -0.82691E-06   -0.13492E-07  2100   0.100E-03
   2 F= -.15175351E+03 E0= -.15173518E+03  d E =-.919297E-01  mag=    27.0000
       N       E                     dE             d eps       ncg     rms          rms(c)
DAV:   1    -0.145618770460E+03    0.50401E-01   -0.14161E+01  3080   0.732E+00    0.262E+00
DAV:   2    -0.145724409011E+03   -0.10564E+00   -0.11557E+00  4536   0.453E+00    0.215E+00
DAV:   3    -0.145727180560E+03   -0.27715E-02   -0.11098E-01  4606   0.181E+00    0.335E+00
DAV:   4    -0.145719910897E+03    0.72697E-02   -0.21684E-02  4550   0.136E+00    0.122E+00
DAV:   5    -0.145718480208E+03    0.14307E-02   -0.42333E-03  4816   0.438E-01    0.720E-01
DAV:   6    -0.145717890766E+03    0.58944E-03   -0.74116E-03  4690   0.415E-01    0.746E-01
DAV:   7    -0.145717257670E+03    0.63310E-03   -0.43888E-03  4830   0.435E-01    0.249E-01
DAV:   8    -0.145717385216E+03   -0.12755E-03   -0.63634E-04  4830   0.170E-01    0.764E-02
DAV:   9    -0.145717560132E+03   -0.17492E-03   -0.70346E-05  4536   0.372E-02    0.104E-01
DAV:  10    -0.145717776267E+03   -0.21613E-03   -0.32799E-05  4508   0.383E-02    0.488E-02
DAV:  11    -0.145718018843E+03   -0.24258E-03   -0.19838E-05  4550   0.159E-02    0.378E-02
DAV:  12    -0.145718161651E+03   -0.14281E-03   -0.90334E-06  4340   0.137E-02    0.147E-02
DAV:  13    -0.145718327302E+03   -0.16565E-03   -0.39939E-06  3262   0.989E-03    0.169E-02
DAV:  14    -0.145718440171E+03   -0.11287E-03   -0.21717E-06  2632   0.820E-03    0.115E-02
DAV:  15    -0.145718536354E+03   -0.96183E-04   -0.17135E-06  2730   0.508E-03    0.206E-03
DAV:  16    -0.145718590475E+03   -0.54121E-04   -0.86467E-07  2352   0.266E-03    0.269E-03
DAV:  17    -0.145718656567E+03   -0.66091E-04   -0.10134E-06  2534   0.290E-03    0.609E-03
DAV:  18    -0.145718727522E+03   -0.70955E-04   -0.14446E-06  2842   0.302E-03    0.135E-03
DAV:  19    -0.145718771316E+03   -0.43795E-04   -0.91541E-07  2548   0.189E-03    0.192E-03
DAV:  20    -0.145718783799E+03   -0.12483E-04   -0.29554E-07  2296   0.170E-03    0.629E-04
DAV:  21    -0.145718793978E+03   -0.10179E-04   -0.36407E-07  2254   0.131E-03    0.617E-04
DAV:  22    -0.145718796993E+03   -0.30156E-05   -0.20566E-07  2240   0.138E-03    0.324E-04
DAV:  23    -0.145718797834E+03   -0.84065E-06   -0.13848E-07  2058   0.909E-04
   3 F= -.15178615E+03 E0= -.15176769E+03  d E =-.124572E+00  mag=    27.0000
       N       E                     dE             d eps       ncg     rms          rms(c)
DAV:   1    -0.145717947243E+03    0.84975E-03   -0.26513E-02  3276   0.316E-01    0.120E-01
DAV:   2    -0.145718132739E+03   -0.18550E-03   -0.20769E-03  4522   0.189E-01    0.795E-02
DAV:   3    -0.145718135579E+03   -0.28402E-05   -0.67025E-05  4578   0.588E-02    0.697E-02
DAV:   4    -0.145718131808E+03    0.37710E-05   -0.23523E-05  4438   0.423E-02    0.713E-02
DAV:   5    -0.145718125901E+03    0.59066E-05   -0.85575E-06  3290   0.260E-02    0.333E-02
DAV:   6    -0.145718123342E+03    0.25592E-05   -0.17122E-05  4340   0.160E-02    0.231E-02
DAV:   7    -0.145718122963E+03    0.37860E-06   -0.59212E-06  2982   0.172E-02
   4 F= -.15178621E+03 E0= -.15176774E+03  d E =-.124636E+00  mag=    27.0000
       N       E                     dE             d eps       ncg     rms          rms(c)
DAV:   1    -0.145716319511E+03    0.18038E-02   -0.73491E-01  3080   0.169E+00    0.721E-01
DAV:   2    -0.145724194419E+03   -0.78749E-02   -0.44768E-02  4480   0.113E+00    0.202E+00
DAV:   3    -0.145721861400E+03    0.23330E-02   -0.15283E-02  4508   0.109E+00    0.649E-01
DAV:   4    -0.145722386680E+03   -0.52528E-03   -0.16365E-03  4662   0.328E-01    0.147E-01
DAV:   5    -0.145722062903E+03    0.32378E-03   -0.35342E-04  4844   0.113E-01    0.152E-01
DAV:   6    -0.145721618009E+03    0.44489E-03   -0.18030E-04  4620   0.870E-02    0.744E-02
DAV:   7    -0.145721136329E+03    0.48168E-03   -0.13421E-04  4438   0.459E-02    0.249E-02
DAV:   8    -0.145721322711E+03   -0.18638E-03   -0.24356E-05  4550   0.231E-02    0.205E-02
DAV:   9    -0.145721582708E+03   -0.26000E-03   -0.54666E-06  3514   0.127E-02    0.194E-02
DAV:  10    -0.145721924154E+03   -0.34145E-03   -0.62267E-06  3682   0.127E-02    0.215E-02
DAV:  11    -0.145722154799E+03   -0.23064E-03   -0.25637E-06  2940   0.864E-03    0.755E-03
DAV:  12    -0.145722367964E+03   -0.21317E-03   -0.24128E-06  2982   0.594E-03    0.505E-03
DAV:  13    -0.145722601904E+03   -0.23394E-03   -0.28303E-06  3066   0.488E-03    0.403E-03
DAV:  14    -0.145722793098E+03   -0.19119E-03   -0.21146E-06  2870   0.288E-03    0.250E-03
DAV:  15    -0.145722943197E+03   -0.15010E-03   -0.18345E-06  2786   0.248E-03    0.133E-03
DAV:  16    -0.145723043122E+03   -0.99926E-04   -0.14900E-06  2730   0.215E-03    0.161E-03
DAV:  17    -0.145723085750E+03   -0.42627E-04   -0.71741E-07  2492   0.199E-03    0.134E-03
DAV:  18    -0.145723098287E+03   -0.12537E-04   -0.33754E-07  2366   0.170E-03    0.955E-04
DAV:  19    -0.145723104093E+03   -0.58057E-05   -0.23158E-07  2254   0.137E-03    0.988E-04
DAV:  20    -0.145723106705E+03   -0.26119E-05   -0.14460E-07  2254   0.114E-03    0.599E-04
DAV:  21    -0.145723108568E+03   -0.18630E-05   -0.11458E-07  2170   0.887E-04    0.451E-04
DAV:  22    -0.145723109023E+03   -0.45562E-06   -0.60483E-08  2100   0.781E-04
   5 F= -.15178980E+03 E0= -.15177131E+03  d E =-.358535E-02  mag=    27.0000
       N       E                     dE             d eps       ncg     rms          rms(c)
DAV:   1    -0.145722970982E+03    0.13759E-03   -0.10504E-01  3080   0.638E-01    0.269E-01
DAV:   2    -0.145723948101E+03   -0.97712E-03   -0.61900E-03  4536   0.407E-01    0.793E-01
DAV:   3    -0.145723685004E+03    0.26310E-03   -0.21940E-03  4508   0.401E-01    0.292E-01
DAV:   4    -0.145723788320E+03   -0.10332E-03   -0.25590E-04  4564   0.131E-01    0.587E-02
DAV:   5    -0.145723720908E+03    0.67412E-04   -0.56077E-05  4816   0.455E-02    0.551E-02
DAV:   6    -0.145723615238E+03    0.10567E-03   -0.23723E-05  4550   0.304E-02    0.291E-02
DAV:   7    -0.145723470389E+03    0.14485E-03   -0.19851E-05  4466   0.178E-02    0.148E-02
DAV:   8    -0.145723499376E+03   -0.28988E-04   -0.29636E-06  2870   0.975E-03    0.127E-02
DAV:   9    -0.145723571890E+03   -0.72513E-04   -0.24443E-06  2884   0.970E-03    0.146E-02
DAV:  10    -0.145723652991E+03   -0.81101E-04   -0.15580E-06  2646   0.686E-03    0.636E-03
DAV:  11    -0.145723701632E+03   -0.48641E-04   -0.81598E-07  2366   0.378E-03    0.215E-03
DAV:  12    -0.145723726169E+03   -0.24537E-04   -0.47415E-07  2282   0.243E-03    0.322E-03
DAV:  13    -0.145723768063E+03   -0.41895E-04   -0.48161E-07  2352   0.188E-03    0.139E-03
DAV:  14    -0.145723843862E+03   -0.75799E-04   -0.12633E-06  2590   0.199E-03    0.206E-03
DAV:  15    -0.145723877545E+03   -0.33683E-04   -0.38716E-07  2450   0.176E-03    0.686E-04
DAV:  16    -0.145723895393E+03   -0.17847E-04   -0.26904E-07  2310   0.127E-03    0.839E-04
DAV:  17    -0.145723903761E+03   -0.83677E-05   -0.14408E-07  2268   0.110E-03    0.626E-04
DAV:  18    -0.145723915651E+03   -0.11890E-04   -0.18560E-07  2212   0.891E-04    0.528E-04
DAV:  19    -0.145723924333E+03   -0.86825E-05   -0.15093E-07  2324   0.101E-03    0.308E-04
DAV:  20    -0.145723930412E+03   -0.60791E-05   -0.17503E-07  2268   0.894E-04    0.315E-04
DAV:  21    -0.145723932887E+03   -0.24746E-05   -0.12069E-07  2268   0.970E-04    0.152E-04
DAV:  22    -0.145723933403E+03   -0.51557E-06   -0.67890E-08  2100   0.682E-04
   6 F= -.15179009E+03 E0= -.15177160E+03  d E =-.387687E-02  mag=    27.0000
       N       E                     dE             d eps       ncg     rms          rms(c)
DAV:   1    -0.145722980651E+03    0.95224E-03   -0.28143E-01  3108   0.106E+00    0.508E-01
DAV:   2    -0.145726960350E+03   -0.39797E-02   -0.25905E-02  4452   0.979E-01    0.176E+00
DAV:   3    -0.145724933720E+03    0.20266E-02   -0.88211E-03  4536   0.866E-01    0.386E-01
DAV:   4    -0.145725245347E+03   -0.31163E-03   -0.53252E-04  4550   0.166E-01    0.110E-01
DAV:   5    -0.145725183161E+03    0.62186E-04   -0.83861E-05  4634   0.381E-02    0.769E-02
DAV:   6    -0.145725099079E+03    0.84082E-04   -0.75752E-05  4494   0.463E-02    0.658E-02
DAV:   7    -0.145725069073E+03    0.30006E-04   -0.53177E-05  4536   0.421E-02    0.215E-02
DAV:   8    -0.145725084483E+03   -0.15410E-04   -0.16494E-05  4620   0.282E-02    0.131E-02
DAV:   9    -0.145725127032E+03   -0.42549E-04   -0.20353E-06  2618   0.710E-03    0.863E-03
DAV:  10    -0.145725183088E+03   -0.56056E-04   -0.10700E-06  2240   0.444E-03    0.411E-03
DAV:  11    -0.145725226777E+03   -0.43690E-04   -0.89403E-07  2310   0.420E-03    0.438E-03
DAV:  12    -0.145725257979E+03   -0.31201E-04   -0.55751E-07  2170   0.336E-03    0.423E-03
DAV:  13    -0.145725288729E+03   -0.30750E-04   -0.56331E-07  2198   0.292E-03    0.217E-03
DAV:  14    -0.145725313365E+03   -0.24636E-04   -0.43148E-07  2240   0.209E-03    0.110E-03
DAV:  15    -0.145725325821E+03   -0.12456E-04   -0.28168E-07  2086   0.148E-03    0.628E-04
DAV:  16    -0.145725346829E+03   -0.21008E-04   -0.34683E-07  2226   0.123E-03    0.181E-03
DAV:  17    -0.145725352138E+03   -0.53092E-05   -0.13407E-07  2058   0.128E-03    0.435E-04
DAV:  18    -0.145725365483E+03   -0.13345E-04   -0.24274E-07  2184   0.812E-04    0.443E-04
DAV:  19    -0.145725373555E+03   -0.80716E-05   -0.15094E-07  2142   0.104E-03    0.383E-04
DAV:  20    -0.145725376707E+03   -0.31520E-05   -0.10369E-07  2100   0.745E-04    0.204E-04
DAV:  21    -0.145725379764E+03   -0.30576E-05   -0.90796E-08  2072   0.741E-04    0.330E-04
DAV:  22    -0.145725381147E+03   -0.13824E-05   -0.63409E-08  2086   0.632E-04    0.126E-04
DAV:  23    -0.145725382006E+03   -0.85915E-06   -0.46847E-08  2002   0.528E-04
   7 F= -.15179128E+03 E0= -.15177270E+03  d E =-.118797E-02  mag=    27.0000
       N       E                     dE             d eps       ncg     rms          rms(c)
DAV:   1    -0.145725089528E+03    0.29162E-03   -0.66146E-02  3094   0.516E-01    0.247E-01
DAV:   2    -0.145726023694E+03   -0.93417E-03   -0.61949E-03  4410   0.480E-01    0.935E-01
DAV:   3    -0.145725468921E+03    0.55477E-03   -0.22664E-03  4508   0.426E-01    0.201E-01
DAV:   4    -0.145725606902E+03   -0.13798E-03   -0.13101E-04  4494   0.819E-02    0.585E-02
DAV:   5    -0.145725588601E+03    0.18301E-04   -0.20436E-05  4620   0.192E-02    0.369E-02
DAV:   6    -0.145725557310E+03    0.31291E-04   -0.17470E-05  4312   0.217E-02    0.319E-02
DAV:   7    -0.145725543393E+03    0.13917E-04   -0.12743E-05  4508   0.207E-02    0.117E-02
DAV:   8    -0.145725546975E+03   -0.35824E-05   -0.32236E-06  2744   0.140E-02    0.568E-03
DAV:   9    -0.145725563189E+03   -0.16213E-04   -0.10595E-06  2296   0.402E-03    0.456E-03
DAV:  10    -0.145725579791E+03   -0.16602E-04   -0.45677E-07  2072   0.278E-03    0.241E-03
DAV:  11    -0.145725592791E+03   -0.13000E-04   -0.25384E-07  2072   0.221E-03    0.265E-03
DAV:  12    -0.145725606035E+03   -0.13243E-04   -0.19084E-07  2058   0.190E-03    0.349E-03
DAV:  13    -0.145725618047E+03   -0.12013E-04   -0.19504E-07  2100   0.166E-03    0.921E-04
DAV:  14    -0.145725626901E+03   -0.88535E-05   -0.17152E-07  2044   0.120E-03    0.961E-04
DAV:  15    -0.145725630650E+03   -0.37490E-05   -0.95913E-08  2044   0.872E-04    0.581E-04
DAV:  16    -0.145725637269E+03   -0.66189E-05   -0.98090E-08  2058   0.672E-04    0.586E-04
DAV:  17    -0.145725639515E+03   -0.22467E-05   -0.44051E-08  2016   0.694E-04    0.260E-04
DAV:  18    -0.145725644728E+03   -0.52127E-05   -0.77098E-08  2044   0.477E-04    0.333E-04
DAV:  19    -0.145725647650E+03   -0.29222E-05   -0.47128E-08  2086   0.631E-04    0.278E-04
DAV:  20    -0.145725649185E+03   -0.15343E-05   -0.37599E-08  2030   0.436E-04    0.156E-04
DAV:  21    -0.145725650623E+03   -0.14385E-05   -0.32774E-08  2100   0.461E-04    0.189E-04
DAV:  22    -0.145725651307E+03   -0.68404E-06   -0.22952E-08  2002   0.360E-04
   8 F= -.15179142E+03 E0= -.15177280E+03  d E =-.132971E-02  mag=    27.0000
       N       E                     dE             d eps       ncg     rms          rms(c)
DAV:   1    -0.145724765241E+03    0.88538E-03   -0.13640E-01  3080   0.747E-01    0.349E-01
DAV:   2    -0.145726649628E+03   -0.18844E-02   -0.11806E-02  4466   0.662E-01    0.127E+00
DAV:   3    -0.145725729269E+03    0.92036E-03   -0.46053E-03  4578   0.604E-01    0.320E-01
DAV:   4    -0.145725883226E+03   -0.15396E-03   -0.30411E-04  4592   0.124E-01    0.801E-02
DAV:   5    -0.145725861917E+03    0.21308E-04   -0.47048E-05  4550   0.325E-02    0.530E-02
DAV:   6    -0.145725842010E+03    0.19907E-04   -0.37312E-05  4774   0.387E-02    0.387E-02
DAV:   7    -0.145725824697E+03    0.17313E-04   -0.38118E-05  4858   0.385E-02    0.389E-02
DAV:   8    -0.145725830652E+03   -0.59546E-05   -0.69551E-06  3458   0.183E-02    0.455E-03
DAV:   9    -0.145725852007E+03   -0.21356E-04   -0.11777E-06  2464   0.458E-03    0.632E-03
DAV:  10    -0.145725872730E+03   -0.20723E-04   -0.50749E-07  2282   0.357E-03    0.258E-03
DAV:  11    -0.145725889307E+03   -0.16577E-04   -0.38165E-07  2310   0.219E-03    0.188E-03
DAV:  12    -0.145725900366E+03   -0.11059E-04   -0.20764E-07  2282   0.166E-03    0.200E-03
DAV:  13    -0.145725910159E+03   -0.97928E-05   -0.13014E-07  2310   0.144E-03    0.123E-03
DAV:  14    -0.145725920737E+03   -0.10578E-04   -0.14937E-07  2254   0.124E-03    0.109E-03
DAV:  15    -0.145725928729E+03   -0.79929E-05   -0.12153E-07  2296   0.979E-04    0.802E-04
DAV:  16    -0.145725936935E+03   -0.82053E-05   -0.11672E-07  2226   0.941E-04    0.557E-04
DAV:  17    -0.145725940569E+03   -0.36339E-05   -0.75828E-08  2170   0.779E-04    0.283E-04
DAV:  18    -0.145725944723E+03   -0.41545E-05   -0.75086E-08  2142   0.563E-04    0.544E-04
DAV:  19    -0.145725947863E+03   -0.31396E-05   -0.53340E-08  2184   0.642E-04    0.279E-04
DAV:  20    -0.145725950588E+03   -0.27254E-05   -0.56883E-08  2212   0.501E-04    0.226E-04
DAV:  21    -0.145725952480E+03   -0.18918E-05   -0.46761E-08  2240   0.538E-04    0.123E-04
DAV:  22    -0.145725952814E+03   -0.33359E-06   -0.23020E-08  2100   0.432E-04
   9 F= -.15179187E+03 E0= -.15177319E+03  d E =-.453679E-03  mag=    27.0000
