Cr Cl Co
 1.0000000000000000
    12.0925489970493256    0.0000000000000000    0.0000000000000000
    -6.0462744985246628   10.4724546279527502    0.0000000000000000
     0.0000000000000000    0.0000000000000000   20.0000000000000000
 Cr  Cl  Co 
   8  24   1
Cartesian
  0.0087778378800823  3.4915993302640360 10.0285583105170808
  2.9969049959166263  1.7186272222798833 10.0113996893443371
  6.0462744985247481  3.4908182093175339  9.6639723496524770
  9.1057216649610613  1.7360822480525044 10.0113996893443371
 -3.0268496976191459  8.7190531322262803 10.0285583105170808
 -0.0000000000000855  6.9816364186352162 10.0170918901420656
  3.0180718597393188  8.7342567934150335 10.0285583105170808
  6.0361968346960380  7.0177451576205110 10.0113996893443371
 -0.8516792795623190  5.2309901908258976  8.6949437959345630
  4.8568326571594920  1.7900514122111721  8.5805946914950582
  1.9413618910767219  3.3726683767526162  8.7057877462256208
  0.8597168081806530  5.2433995193971077 11.3546043933086427
 -1.9456841614843854  3.3687697455660506 11.3505426791572877
  1.0676559078947470  1.8704542969079856 11.3668355320264673
  5.1680881670000023  5.3712884588171628  8.5805946914950582
 -1.0218004869911439  1.8523352728269002  8.7079577849400955
  8.1139026714144951  3.3111147569244102  8.5805946914950582
  7.0328449878426635  5.2795938309313746 11.3898394915487522
  4.0038641238778219  3.4508255048841230 11.3898394915487522
  7.1021143838535048  1.7420352921372533 11.3898394915487522
  2.1150696460896459 -0.0412624570798088  8.7079577849400955
  1.9419437461033866  7.1193836405620026  8.6949437959345630
 -1.0902644665410690  8.5945354245175984  8.6949437959345630
  3.8902822599028344  0.0006270388034764 11.3505426791572877
 -4.9602415147319565  8.6126103407613641 11.3668355320264673
 -1.9352157166259820  7.1062182723092775 11.3546043933086427
  8.2010515587027726 -0.0050654727648695  8.7057877462256208
 -4.0961389512548303  7.1048517239650018  8.7057877462256208
  4.9530053394261637  8.6613818122056596  8.7079577849400955
  9.9388601053618792 -0.0106100097166032 11.3668355320264673
  1.0754989084453268  8.5952914641991196 11.3546043933086427
  4.1016764001062151  7.1030578435832208 11.3505426791572877
  6.0462744985247481  3.4908182093175339 12.2457434167117221
Cartesian
  0.0000000000000000  0.0000000000000000  0.0000000000000000
  0.0000000000000000  0.0000000000000000  0.0000000000000000
  0.0000000000000000  0.0000000000000000  0.0000000000000000
  0.0000000000000000  0.0000000000000000  0.0000000000000000
  0.0000000000000000  0.0000000000000000  0.0000000000000000
  0.0000000000000000  0.0000000000000000  0.0000000000000000
  0.0000000000000000  0.0000000000000000  0.0000000000000000
  0.0000000000000000  0.0000000000000000  0.0000000000000000
  0.0000000000000000  0.0000000000000000  0.0000000000000000
  0.0000000000000000  0.0000000000000000  0.0000000000000000
  0.0000000000000000  0.0000000000000000  0.0000000000000000
  0.0000000000000000  0.0000000000000000  0.0000000000000000
  0.0000000000000000  0.0000000000000000  0.0000000000000000
  0.0000000000000000  0.0000000000000000  0.0000000000000000
  0.0000000000000000  0.0000000000000000  0.0000000000000000
  0.0000000000000000  0.0000000000000000  0.0000000000000000
  0.0000000000000000  0.0000000000000000  0.0000000000000000
  0.0000000000000000  0.0000000000000000  0.0000000000000000
  0.0000000000000000  0.0000000000000000  0.0000000000000000
  0.0000000000000000  0.0000000000000000  0.0000000000000000
  0.0000000000000000  0.0000000000000000  0.0000000000000000
  0.0000000000000000  0.0000000000000000  0.0000000000000000
  0.0000000000000000  0.0000000000000000  0.0000000000000000
  0.0000000000000000  0.0000000000000000  0.0000000000000000
  0.0000000000000000  0.0000000000000000  0.0000000000000000
  0.0000000000000000  0.0000000000000000  0.0000000000000000
  0.0000000000000000  0.0000000000000000  0.0000000000000000
  0.0000000000000000  0.0000000000000000  0.0000000000000000
  0.0000000000000000  0.0000000000000000  0.0000000000000000
  0.0000000000000000  0.0000000000000000  0.0000000000000000
  0.0000000000000000  0.0000000000000000  0.0000000000000000
  0.0000000000000000  0.0000000000000000  0.0000000000000000
  0.0000000000000000  0.0000000000000000  0.0000000000000000
