CrCl3 2x2 + Ni | Site S2 (Threefold Surface Hollow, z=+1.40A) | Clean | U_all=3.29eV
   1.00000000000000     
    12.0925489970493256    0.0000000000000000    0.0000000000000000
    -6.0462744985246628   10.4724546279527502    0.0000000000000000
     0.0000000000000000    0.0000000000000000   20.0000000000000000
   Cr   Cl   Ni
     8    24     1
Direct
     0.1628676516719336    0.3292243671175877    0.5002027908242178
     0.3292243671175877    0.1628676516719336    0.5002027908242178
     0.6707756328824123    0.3336432845543317    0.5002027908242178
     0.8333333333333286    0.1666666666666714    0.4987284242233629
     0.1666666666666714    0.8333333333333286    0.4987284242233629
     0.3336432845543317    0.6707756328824123    0.5002027908242178
     0.6663567154456683    0.8371323483280665    0.5002027908242178
     0.8371323483280665    0.6663567154456683    0.5002027908242178
     0.1784118356899459    0.5000000000000000    0.4342826853523722
     0.5000000000000000    0.1784118356899459    0.4342826853523722
     0.3249972059840308    0.3249972059840308    0.4346616062695375
     0.3215105928170413    0.5000000000000000    0.5741052149562081
     0.9984097221479210    0.3217368130535824    0.5676966223022377
     0.1739779101578663    0.1739779101578663    0.5688287910717935
     0.6750027940159693    0.5000000000000000    0.4346616062695375
     0.9970289344959882    0.1736669867746456    0.4307468471487536
     0.8263330132253546    0.3233619477213353    0.4307468471487536
     0.8260220898421338    0.5000000000000000    0.5688287910717935
     0.5000000000000000    0.3215105928170413    0.5741052149562081
     0.6782631869464176    0.1766729090943315    0.5676966223022377
     0.1736669867746456    0.9970289344959882    0.4307468471487536
     0.5000000000000000    0.6750027940159693    0.4346616062695375
     0.3233619477213353    0.8263330132253546    0.4307468471487536
     0.3217368130535824    0.9984097221479210    0.5676966223022377
     0.0015902778520790    0.8233270909056686    0.5676966223022377
     0.1766729090943315    0.6782631869464176    0.5676966223022377
     0.6766380522786647    0.0029710655040120    0.4307468471487536
     0.0029710655040120    0.6766380522786647    0.4307468471487536
     0.8215881643100541    0.8215881643100541    0.4342826853523722
     0.8233270909056686    0.0015902778520790    0.5676966223022377
     0.5000000000000000    0.8260220898421338    0.5688287910717935
     0.6784894071829587    0.6784894071829587    0.5741052149562081
     0.5000000000000000    0.5000000000000000    0.5700306969522551
 
  0.00000000E+00  0.00000000E+00  0.00000000E+00
  0.00000000E+00  0.00000000E+00  0.00000000E+00
  0.00000000E+00  0.00000000E+00  0.00000000E+00
  0.00000000E+00  0.00000000E+00  0.00000000E+00
  0.00000000E+00  0.00000000E+00  0.00000000E+00
  0.00000000E+00  0.00000000E+00  0.00000000E+00
  0.00000000E+00  0.00000000E+00  0.00000000E+00
  0.00000000E+00  0.00000000E+00  0.00000000E+00
  0.00000000E+00  0.00000000E+00  0.00000000E+00
  0.00000000E+00  0.00000000E+00  0.00000000E+00
  0.00000000E+00  0.00000000E+00  0.00000000E+00
  0.00000000E+00  0.00000000E+00  0.00000000E+00
  0.00000000E+00  0.00000000E+00  0.00000000E+00
  0.00000000E+00  0.00000000E+00  0.00000000E+00
  0.00000000E+00  0.00000000E+00  0.00000000E+00
  0.00000000E+00  0.00000000E+00  0.00000000E+00
  0.00000000E+00  0.00000000E+00  0.00000000E+00
  0.00000000E+00  0.00000000E+00  0.00000000E+00
  0.00000000E+00  0.00000000E+00  0.00000000E+00
  0.00000000E+00  0.00000000E+00  0.00000000E+00
  0.00000000E+00  0.00000000E+00  0.00000000E+00
  0.00000000E+00  0.00000000E+00  0.00000000E+00
  0.00000000E+00  0.00000000E+00  0.00000000E+00
  0.00000000E+00  0.00000000E+00  0.00000000E+00
  0.00000000E+00  0.00000000E+00  0.00000000E+00
  0.00000000E+00  0.00000000E+00  0.00000000E+00
  0.00000000E+00  0.00000000E+00  0.00000000E+00
  0.00000000E+00  0.00000000E+00  0.00000000E+00
  0.00000000E+00  0.00000000E+00  0.00000000E+00
  0.00000000E+00  0.00000000E+00  0.00000000E+00
  0.00000000E+00  0.00000000E+00  0.00000000E+00
  0.00000000E+00  0.00000000E+00  0.00000000E+00
  0.00000000E+00  0.00000000E+00  0.00000000E+00
