CrCl3 2x2 + H S3 top-Cr (D3, U=0) (a_2x2
    1.000000000000000     
    12.0925489970493256    0.0000000000000000    0.0000000000000000
    -6.0462744985246628   10.4724546279527502    0.0000000000000000
     0.0000000000000000    0.0000000000000000   20.0000000000000000
   Cr   Cl   H 
     8    24     1
Direct
     0.1641384948444695    0.3328740679095794    0.4985542350795895
     0.3312972102783345    0.1680767410805032    0.4989004438264012
     0.6666666666666714    0.3333333333333286    0.5099661675920188
     0.8319232589194968    0.1632204691978455    0.4989004438264012
     0.1687355730651241    0.8358615051555304    0.4985542350795895
     0.3333333333333286    0.6666666666666714    0.4996405709690183
     0.6671259320904205    0.8312644269348758    0.4985542350795895
     0.8367795308021548    0.6687027897216655    0.4989004438264012
     0.1773057212359834    0.5011225782602468    0.4330918655857863
     0.5036260378561128    0.1829428327024550    0.4381282973499678
     0.3174461461332845    0.3201737912903429    0.4310905313561221
     0.3186551436502176    0.4986110977310368    0.5659633132038788
     0.9975245958106145    0.3179832988382124    0.5663607557216159
     0.1736170876591120    0.1765723605292411    0.5643776503536557
     0.6793167948463420    0.4963739621438871    0.4381282973499678
     0.9986201990322561    0.1801175489278347    0.4310630828126909
     0.8170571672975447    0.3206832051536578    0.4381282973499678
     0.8378499361017270    0.5104693939973421    0.5660106427630184
     0.4895306060026576    0.3273805421043846    0.5660106427630184
     0.6726194578956156    0.1621500638982732    0.5660106427630184
     0.1814973498955787    0.0013798009677441    0.4310630828126909
     0.4988774217397534    0.6761831429757368    0.4330918655857863
     0.3238168570242630    0.8226942787640165    0.4330918655857863
     0.3204587030275978    0.0024754041893856    0.5663607557216159
     0.0029552728701291    0.8263829123408880    0.5643776503536557
     0.1799559540808192    0.6813448563497823    0.5659633132038788
     0.6798262087096572    0.9972723548429417    0.4310905313561221
     0.0027276451570584    0.6825538538667153    0.4310905313561221
     0.8198824510721653    0.8185026501044214    0.4310630828126909
     0.8234276394707589    0.9970447271298709    0.5643776503536557
     0.5013889022689630    0.8200440459191808    0.5659633132038788
     0.6820167011617877    0.6795412969724021    0.5663607557216159
     0.6666666666666714    0.3333333333333286    0.5872708072807832
 
  0.00000000E+00  0.00000000E+00  0.00000000E+00
  0.00000000E+00  0.00000000E+00  0.00000000E+00
  0.00000000E+00  0.00000000E+00  0.00000000E+00
  0.00000000E+00  0.00000000E+00  0.00000000E+00
  0.00000000E+00  0.00000000E+00  0.00000000E+00
  0.00000000E+00  0.00000000E+00  0.00000000E+00
  0.00000000E+00  0.00000000E+00  0.00000000E+00
  0.00000000E+00  0.00000000E+00  0.00000000E+00
  0.00000000E+00  0.00000000E+00  0.00000000E+00
  0.00000000E+00  0.00000000E+00  0.00000000E+00
  0.00000000E+00  0.00000000E+00  0.00000000E+00
  0.00000000E+00  0.00000000E+00  0.00000000E+00
  0.00000000E+00  0.00000000E+00  0.00000000E+00
  0.00000000E+00  0.00000000E+00  0.00000000E+00
  0.00000000E+00  0.00000000E+00  0.00000000E+00
  0.00000000E+00  0.00000000E+00  0.00000000E+00
  0.00000000E+00  0.00000000E+00  0.00000000E+00
  0.00000000E+00  0.00000000E+00  0.00000000E+00
  0.00000000E+00  0.00000000E+00  0.00000000E+00
  0.00000000E+00  0.00000000E+00  0.00000000E+00
  0.00000000E+00  0.00000000E+00  0.00000000E+00
  0.00000000E+00  0.00000000E+00  0.00000000E+00
  0.00000000E+00  0.00000000E+00  0.00000000E+00
  0.00000000E+00  0.00000000E+00  0.00000000E+00
  0.00000000E+00  0.00000000E+00  0.00000000E+00
  0.00000000E+00  0.00000000E+00  0.00000000E+00
  0.00000000E+00  0.00000000E+00  0.00000000E+00
  0.00000000E+00  0.00000000E+00  0.00000000E+00
  0.00000000E+00  0.00000000E+00  0.00000000E+00
  0.00000000E+00  0.00000000E+00  0.00000000E+00
  0.00000000E+00  0.00000000E+00  0.00000000E+00
  0.00000000E+00  0.00000000E+00  0.00000000E+00
  0.00000000E+00  0.00000000E+00  0.00000000E+00
