       N       E                     dE             d eps       ncg     rms          rms(c)
DAV:   1     0.207120707113E+04    0.20712E+04   -0.61668E+04  2960   0.918E+02
DAV:   2     0.408180261699E+03   -0.16630E+04   -0.15419E+04  3472   0.248E+02
DAV:   3    -0.127102812605E+03   -0.53528E+03   -0.51863E+03  4216   0.139E+02
DAV:   4    -0.173826615057E+03   -0.46724E+02   -0.46007E+02  4496   0.582E+01
DAV:   5    -0.174585338268E+03   -0.75872E+00   -0.74428E+00  4488   0.101E+01    0.423E+01
DAV:   6    -0.165785407222E+03    0.87999E+01   -0.14848E+02  4216   0.649E+01    0.432E+01
DAV:   7    -0.157681507951E+03    0.81039E+01   -0.30885E+01  4144   0.671E+01    0.206E+01
DAV:   8    -0.158080292651E+03   -0.39878E+00   -0.78348E+00  4280   0.115E+01    0.102E+01
DAV:   9    -0.157868462878E+03    0.21183E+00   -0.25121E+00  4512   0.160E+01    0.749E+00
DAV:  10    -0.157617552290E+03    0.25091E+00   -0.93586E-01  4208   0.806E+00    0.248E+00
DAV:  11    -0.157687986692E+03   -0.70434E-01   -0.15088E-01  4264   0.284E+00    0.104E+00
DAV:  12    -0.157766662299E+03   -0.78676E-01   -0.27278E-02  4128   0.886E-01    0.511E-01
DAV:  13    -0.157797207268E+03   -0.30545E-01   -0.73663E-03  4048   0.564E-01    0.360E-01
DAV:  14    -0.157810994921E+03   -0.13788E-01   -0.12101E-03  4176   0.178E-01    0.179E-01
DAV:  15    -0.157816192884E+03   -0.51980E-02   -0.74875E-04  4256   0.163E-01    0.903E-02
DAV:  16    -0.157818261225E+03   -0.20683E-02   -0.29339E-04  4224   0.998E-02    0.590E-02
DAV:  17    -0.157819952317E+03   -0.16911E-02   -0.14950E-04  3992   0.413E-02    0.418E-02
DAV:  18    -0.157821583282E+03   -0.16310E-02   -0.12944E-04  3880   0.358E-02    0.313E-02
DAV:  19    -0.157822719762E+03   -0.11365E-02   -0.13371E-04  3576   0.289E-02    0.207E-02
DAV:  20    -0.157823202093E+03   -0.48233E-03   -0.52174E-05  3672   0.163E-02    0.139E-02
DAV:  21    -0.157823545515E+03   -0.34342E-03   -0.23599E-05  3624   0.133E-02    0.755E-03
DAV:  22    -0.157823706931E+03   -0.16142E-03   -0.10420E-05  3344   0.964E-03    0.365E-03
DAV:  23    -0.157823771893E+03   -0.64963E-04   -0.10349E-06  2040   0.426E-03    0.273E-03
DAV:  24    -0.157823835485E+03   -0.63591E-04   -0.13219E-06  2136   0.317E-03    0.186E-03
DAV:  25    -0.157823874421E+03   -0.38936E-04   -0.68278E-07  1856   0.238E-03    0.162E-03
DAV:  26    -0.157823885701E+03   -0.11280E-04   -0.32556E-07  1664   0.190E-03    0.112E-03
DAV:  27    -0.157823901993E+03   -0.16292E-04   -0.70492E-07  2008   0.177E-03    0.991E-04
DAV:  28    -0.157823909940E+03   -0.79470E-05   -0.56035E-07  1968   0.192E-03    0.117E-03
DAV:  29    -0.157823914243E+03   -0.43024E-05   -0.18782E-07  1680   0.140E-03    0.533E-04
DAV:  30    -0.157823918209E+03   -0.39669E-05   -0.11239E-07  1640   0.842E-04    0.450E-04
DAV:  31    -0.157823921567E+03   -0.33572E-05   -0.55334E-08  1624   0.762E-04    0.344E-04
DAV:  32    -0.157823925253E+03   -0.36858E-05   -0.52650E-08  1616   0.611E-04    0.306E-04
DAV:  33    -0.157823926987E+03   -0.17342E-05   -0.30228E-08  1624   0.562E-04    0.281E-04
DAV:  34    -0.157823928866E+03   -0.18789E-05   -0.31601E-08  1584   0.380E-04    0.195E-04
DAV:  35    -0.157823930411E+03   -0.15456E-05   -0.28818E-08  1616   0.387E-04    0.219E-04
DAV:  36    -0.157823930963E+03   -0.55150E-06   -0.17366E-08  1584   0.366E-04
   1 F= -.16144224E+03 E0= -.16144224E+03  d E =-.161442E+03  mag=    23.0001
       N       E                     dE             d eps       ncg     rms          rms(c)
DAV:   1    -0.157839857268E+03   -0.15927E-01   -0.10077E+01  2880   0.613E+00    0.174E+00
DAV:   2    -0.157923177230E+03   -0.83320E-01   -0.83722E-01  4160   0.452E+00    0.178E+00
DAV:   3    -0.157910069137E+03    0.13108E-01   -0.67909E-02  4240   0.252E+00    0.709E-01
DAV:   4    -0.157908060244E+03    0.20089E-02   -0.64412E-03  4216   0.750E-01    0.566E-01
DAV:   5    -0.157907134456E+03    0.92579E-03   -0.54463E-03  4040   0.233E-01    0.331E-01
DAV:   6    -0.157907394146E+03   -0.25969E-03   -0.14202E-03  4200   0.230E-01    0.108E-01
DAV:   7    -0.157907492991E+03   -0.98845E-04   -0.15944E-04  4088   0.613E-02    0.532E-02
DAV:   8    -0.157907526957E+03   -0.33966E-04   -0.28243E-05  3992   0.313E-02    0.484E-02
DAV:   9    -0.157907537095E+03   -0.10138E-04   -0.18313E-05  3872   0.196E-02    0.308E-02
DAV:  10    -0.157907550598E+03   -0.13502E-04   -0.19983E-05  3992   0.189E-02    0.776E-03
DAV:  11    -0.157907560599E+03   -0.10001E-04   -0.21602E-06  2184   0.524E-03    0.309E-03
DAV:  12    -0.157907565244E+03   -0.46447E-05   -0.53125E-07  1648   0.441E-03    0.271E-03
DAV:  13    -0.157907569324E+03   -0.40805E-05   -0.47420E-07  1656   0.258E-03    0.162E-03
DAV:  14    -0.157907574894E+03   -0.55698E-05   -0.29259E-07  1672   0.206E-03    0.106E-03
DAV:  15    -0.157907579820E+03   -0.49261E-05   -0.18438E-07  1672   0.160E-03    0.633E-04
DAV:  16    -0.157907583521E+03   -0.37016E-05   -0.14174E-07  1664   0.120E-03    0.532E-04
DAV:  17    -0.157907585802E+03   -0.22806E-05   -0.97591E-08  1664   0.114E-03    0.497E-04
DAV:  18    -0.157907587541E+03   -0.17389E-05   -0.82703E-08  1648   0.849E-04    0.413E-04
DAV:  19    -0.157907589409E+03   -0.18685E-05   -0.75120E-08  1656   0.701E-04    0.342E-04
DAV:  20    -0.157907590821E+03   -0.14118E-05   -0.67378E-08  1648   0.626E-04    0.253E-04
DAV:  21    -0.157907591250E+03   -0.42895E-06   -0.33945E-08  1680   0.550E-04
   2 F= -.16153077E+03 E0= -.16153077E+03  d E =-.885329E-01  mag=    23.0000
       N       E                     dE             d eps       ncg     rms          rms(c)
DAV:   1    -0.157848963399E+03    0.58627E-01   -0.12989E+01  2880   0.701E+00    0.196E+00
DAV:   2    -0.157955593141E+03   -0.10663E+00   -0.10720E+00  4112   0.516E+00    0.199E+00
DAV:   3    -0.157940394863E+03    0.15198E-01   -0.83728E-02  4248   0.280E+00    0.795E-01
DAV:   4    -0.157937699853E+03    0.26950E-02   -0.79860E-03  4256   0.861E-01    0.628E-01
DAV:   5    -0.157936527765E+03    0.11721E-02   -0.65058E-03  4024   0.250E-01    0.377E-01
DAV:   6    -0.157936847847E+03   -0.32008E-03   -0.17492E-03  4280   0.243E-01    0.114E-01
DAV:   7    -0.157936977991E+03   -0.13014E-03   -0.20271E-04  4088   0.685E-02    0.582E-02
DAV:   8    -0.157937018967E+03   -0.40976E-04   -0.45980E-05  4096   0.451E-02    0.549E-02
DAV:   9    -0.157937026217E+03   -0.72497E-05   -0.21179E-05  3888   0.208E-02    0.338E-02
DAV:  10    -0.157937037266E+03   -0.11049E-04   -0.22131E-05  4040   0.206E-02    0.910E-03
DAV:  11    -0.157937046134E+03   -0.88676E-05   -0.27130E-06  2280   0.551E-03    0.371E-03
DAV:  12    -0.157937049468E+03   -0.33335E-05   -0.59916E-07  1664   0.430E-03    0.298E-03
DAV:  13    -0.157937053123E+03   -0.36556E-05   -0.53683E-07  1656   0.296E-03    0.167E-03
DAV:  14    -0.157937058207E+03   -0.50837E-05   -0.34927E-07  1688   0.235E-03    0.118E-03
DAV:  15    -0.157937062684E+03   -0.44774E-05   -0.23626E-07  1696   0.195E-03    0.808E-04
DAV:  16    -0.157937065643E+03   -0.29589E-05   -0.15223E-07  1640   0.124E-03    0.610E-04
DAV:  17    -0.157937067785E+03   -0.21421E-05   -0.10206E-07  1640   0.123E-03    0.542E-04
DAV:  18    -0.157937070265E+03   -0.24798E-05   -0.12387E-07  1704   0.933E-04    0.566E-04
DAV:  19    -0.157937072085E+03   -0.18198E-05   -0.92315E-08  1648   0.862E-04    0.281E-04
DAV:  20    -0.157937073085E+03   -0.99969E-06   -0.62400E-08  1648   0.654E-04
   3 F= -.16156485E+03 E0= -.16156485E+03  d E =-.122614E+00  mag=    23.0000
       N       E                     dE             d eps       ncg     rms          rms(c)
DAV:   1    -0.157889959837E+03    0.47112E-01   -0.12257E+01  2880   0.694E+00    0.191E+00
DAV:   2    -0.157978455998E+03   -0.88496E-01   -0.88803E-01  4080   0.384E+00    0.131E+00
DAV:   3    -0.157976648549E+03    0.18074E-02   -0.64763E-02  4176   0.239E+00    0.889E-01
DAV:   4    -0.157972194141E+03    0.44544E-02   -0.10004E-02  4200   0.108E+00    0.535E-01
DAV:   5    -0.157970837650E+03    0.13565E-02   -0.42186E-03  3784   0.185E-01    0.362E-01
DAV:   6    -0.157970387323E+03    0.45033E-03   -0.18339E-03  4264   0.259E-01    0.111E-01
DAV:   7    -0.157970585536E+03   -0.19821E-03   -0.23311E-04  4136   0.586E-02    0.557E-02
DAV:   8    -0.157970914708E+03   -0.32917E-03   -0.50041E-05  4176   0.356E-02    0.458E-02
DAV:   9    -0.157971358341E+03   -0.44363E-03   -0.20632E-05  3984   0.243E-02    0.275E-02
DAV:  10    -0.157971715348E+03   -0.35701E-03   -0.14323E-05  3960   0.105E-02    0.134E-02
DAV:  11    -0.157972037726E+03   -0.32238E-03   -0.48505E-06  3200   0.585E-03    0.550E-03
DAV:  12    -0.157972334386E+03   -0.29666E-03   -0.28733E-06  2704   0.460E-03    0.336E-03
DAV:  13    -0.157972491790E+03   -0.15740E-03   -0.10108E-06  2072   0.379E-03    0.256E-03
DAV:  14    -0.157972700143E+03   -0.20835E-03   -0.27153E-06  2640   0.332E-03    0.202E-03
DAV:  15    -0.157972939489E+03   -0.23935E-03   -0.38418E-06  2880   0.314E-03    0.134E-03
DAV:  16    -0.157973021488E+03   -0.81999E-04   -0.75661E-07  2168   0.160E-03    0.116E-03
DAV:  17    -0.157973046801E+03   -0.25313E-04   -0.29240E-07  1744   0.163E-03    0.853E-04
DAV:  18    -0.157973090298E+03   -0.43498E-04   -0.10703E-06  2112   0.162E-03    0.709E-04
DAV:  19    -0.157973108768E+03   -0.18470E-04   -0.46991E-07  1976   0.147E-03    0.561E-04
DAV:  20    -0.157973111948E+03   -0.31801E-05   -0.19776E-07  1680   0.139E-03    0.301E-04
DAV:  21    -0.157973113065E+03   -0.11169E-05   -0.11855E-07  1672   0.916E-04    0.331E-04
DAV:  22    -0.157973113606E+03   -0.54047E-06   -0.62943E-08  1632   0.770E-04
   4 F= -.16160478E+03 E0= -.16160478E+03  d E =-.399272E-01  mag=    23.0000
       N       E                     dE             d eps       ncg     rms          rms(c)
DAV:   1    -0.157973164916E+03   -0.51851E-04   -0.36900E-03  3008   0.121E-01    0.335E-02
DAV:   2    -0.157973186023E+03   -0.21107E-04   -0.25623E-04  4072   0.647E-02    0.214E-02
DAV:   3    -0.157973189410E+03   -0.33876E-05   -0.18823E-05  4048   0.400E-02    0.153E-02
DAV:   4    -0.157973187589E+03    0.18211E-05   -0.24433E-06  2424   0.195E-02    0.903E-03
DAV:   5    -0.157973185953E+03    0.16365E-05   -0.15936E-06  1808   0.377E-03    0.610E-03
DAV:   6    -0.157973184065E+03    0.18881E-05   -0.10198E-06  1824   0.619E-03    0.218E-03
DAV:   7    -0.157973184071E+03   -0.63956E-08   -0.61457E-07  1680   0.326E-03
   5 F= -.16160479E+03 E0= -.16160479E+03  d E =-.399340E-01  mag=    23.0000
       N       E                     dE             d eps       ncg     rms          rms(c)
DAV:   1    -0.157953853263E+03    0.19331E-01   -0.54646E+00  2880   0.484E+00    0.138E+00
DAV:   2    -0.157994842126E+03   -0.40989E-01   -0.37501E-01  4080   0.214E+00    0.862E-01
DAV:   3    -0.157997073911E+03   -0.22318E-02   -0.15397E-02  4240   0.105E+00    0.506E-01
DAV:   4    -0.157995955919E+03    0.11180E-02   -0.27266E-03  4192   0.461E-01    0.316E-01
DAV:   5    -0.157995484939E+03    0.47098E-03   -0.95520E-04  4336   0.182E-01    0.247E-01
DAV:   6    -0.157995092679E+03    0.39226E-03   -0.14674E-03  4096   0.161E-01    0.868E-02
DAV:   7    -0.157995292659E+03   -0.19998E-03   -0.21513E-04  4072   0.720E-02    0.322E-02
DAV:   8    -0.157995515382E+03   -0.22272E-03   -0.21379E-05  4360   0.286E-02    0.204E-02
DAV:   9    -0.157995714592E+03   -0.19921E-03   -0.57157E-06  3112   0.139E-02    0.128E-02
DAV:  10    -0.157995972181E+03   -0.25759E-03   -0.73801E-06  3624   0.902E-03    0.599E-03
DAV:  11    -0.157996181168E+03   -0.20899E-03   -0.25303E-06  2520   0.743E-03    0.315E-03
DAV:  12    -0.157996288291E+03   -0.10712E-03   -0.12473E-06  1944   0.402E-03    0.242E-03
DAV:  13    -0.157996375256E+03   -0.86965E-04   -0.80549E-07  1928   0.276E-03    0.211E-03
DAV:  14    -0.157996518173E+03   -0.14292E-03   -0.20663E-06  2512   0.290E-03    0.151E-03
DAV:  15    -0.157996645704E+03   -0.12753E-03   -0.16402E-06  2496   0.254E-03    0.971E-04
DAV:  16    -0.157996718274E+03   -0.72569E-04   -0.10171E-06  2152   0.247E-03    0.133E-03
DAV:  17    -0.157996748518E+03   -0.30244E-04   -0.53967E-07  1832   0.204E-03    0.811E-04
DAV:  18    -0.157996759353E+03   -0.10836E-04   -0.32442E-07  1672   0.167E-03    0.758E-04
DAV:  19    -0.157996769790E+03   -0.10437E-04   -0.32878E-07  1776   0.139E-03    0.588E-04
DAV:  20    -0.157996776288E+03   -0.64978E-05   -0.29118E-07  1768   0.149E-03    0.482E-04
DAV:  21    -0.157996777796E+03   -0.15081E-05   -0.17780E-07  1648   0.130E-03    0.375E-04
DAV:  22    -0.157996778291E+03   -0.49517E-06   -0.98502E-08  1672   0.881E-04
   6 F= -.16163132E+03 E0= -.16163132E+03  d E =-.265317E-01  mag=    23.0000
       N       E                     dE             d eps       ncg     rms          rms(c)
DAV:   1    -0.157916078860E+03    0.80699E-01   -0.11613E+01  2880   0.707E+00    0.204E+00
DAV:   2    -0.158005484797E+03   -0.89406E-01   -0.81834E-01  4072   0.325E+00    0.136E+00
DAV:   3    -0.158009610986E+03   -0.41262E-02   -0.35615E-02  4248   0.163E+00    0.744E-01
DAV:   4    -0.158007165460E+03    0.24455E-02   -0.61999E-03  4192   0.698E-01    0.467E-01
DAV:   5    -0.158006222307E+03    0.94315E-03   -0.20456E-03  4344   0.276E-01    0.363E-01
DAV:   6    -0.158005481968E+03    0.74034E-03   -0.32687E-03  4120   0.232E-01    0.129E-01
DAV:   7    -0.158005852117E+03   -0.37015E-03   -0.48649E-04  4080   0.108E-01    0.481E-02
DAV:   8    -0.158006235492E+03   -0.38338E-03   -0.42913E-05  4360   0.425E-02    0.296E-02
DAV:   9    -0.158006581015E+03   -0.34552E-03   -0.12777E-05  4040   0.193E-02    0.192E-02
DAV:  10    -0.158007031989E+03   -0.45097E-03   -0.12079E-05  3832   0.122E-02    0.899E-03
DAV:  11    -0.158007384640E+03   -0.35265E-03   -0.51742E-06  3376   0.955E-03    0.419E-03
DAV:  12    -0.158007562911E+03   -0.17827E-03   -0.11453E-06  2144   0.380E-03    0.338E-03
DAV:  13    -0.158007753368E+03   -0.19046E-03   -0.18638E-06  2384   0.362E-03    0.287E-03
DAV:  14    -0.158008026827E+03   -0.27346E-03   -0.37560E-06  2928   0.391E-03    0.173E-03
DAV:  15    -0.158008200557E+03   -0.17373E-03   -0.20700E-06  2552   0.251E-03    0.137E-03
DAV:  16    -0.158008298303E+03   -0.97747E-04   -0.11513E-06  2216   0.206E-03    0.121E-03
DAV:  17    -0.158008336870E+03   -0.38566E-04   -0.50217E-07  1832   0.201E-03    0.100E-03
DAV:  18    -0.158008361640E+03   -0.24770E-04   -0.52224E-07  1936   0.178E-03    0.756E-04
DAV:  19    -0.158008376101E+03   -0.14461E-04   -0.42880E-07  1736   0.175E-03    0.631E-04
DAV:  20    -0.158008383068E+03   -0.69670E-05   -0.35268E-07  1728   0.148E-03    0.515E-04
DAV:  21    -0.158008386005E+03   -0.29366E-05   -0.25457E-07  1672   0.144E-03    0.359E-04
DAV:  22    -0.158008386470E+03   -0.46530E-06   -0.12277E-07  1656   0.108E-03
   7 F= -.16164697E+03 E0= -.16164697E+03  d E =-.421830E-01  mag=    23.0000
       N       E                     dE             d eps       ncg     rms          rms(c)
DAV:   1    -0.157967328563E+03    0.41057E-01   -0.76906E+00  2880   0.577E+00    0.187E+00
DAV:   2    -0.158021566238E+03   -0.54238E-01   -0.54398E-01  4088   0.254E+00    0.939E-01
DAV:   3    -0.158025415976E+03   -0.38497E-02   -0.21477E-02  4152   0.107E+00    0.653E-01
DAV:   4    -0.158023893327E+03    0.15226E-02   -0.33437E-03  4168   0.529E-01    0.417E-01
DAV:   5    -0.158023108990E+03    0.78434E-03   -0.13106E-03  4280   0.199E-01    0.330E-01
DAV:   6    -0.158022622486E+03    0.48650E-03   -0.19290E-03  4152   0.192E-01    0.132E-01
DAV:   7    -0.158022863340E+03   -0.24085E-03   -0.28662E-04  4160   0.799E-02    0.458E-02
DAV:   8    -0.158023247668E+03   -0.38433E-03   -0.49477E-05  4272   0.317E-02    0.286E-02
DAV:   9    -0.158023606132E+03   -0.35846E-03   -0.14517E-05  4120   0.165E-02    0.124E-02
DAV:  10    -0.158023938586E+03   -0.33245E-03   -0.10140E-05  3936   0.103E-02    0.653E-03
DAV:  11    -0.158024175900E+03   -0.23731E-03   -0.18542E-06  2440   0.531E-03    0.423E-03
DAV:  12    -0.158024356009E+03   -0.18011E-03   -0.15188E-06  2288   0.431E-03    0.310E-03
DAV:  13    -0.158024609940E+03   -0.25393E-03   -0.36022E-06  2872   0.377E-03    0.253E-03
DAV:  14    -0.158024779751E+03   -0.16981E-03   -0.15810E-06  2392   0.290E-03    0.206E-03
DAV:  15    -0.158024904361E+03   -0.12461E-03   -0.17498E-06  2376   0.311E-03    0.129E-03
DAV:  16    -0.158024966373E+03   -0.62012E-04   -0.88065E-07  2056   0.229E-03    0.142E-03
DAV:  17    -0.158024991737E+03   -0.25363E-04   -0.44856E-07  1744   0.210E-03    0.922E-04
DAV:  18    -0.158025013931E+03   -0.22195E-04   -0.52088E-07  1856   0.171E-03    0.711E-04
DAV:  19    -0.158025029329E+03   -0.15398E-04   -0.43394E-07  1864   0.179E-03    0.837E-04
DAV:  20    -0.158025038323E+03   -0.89944E-05   -0.49528E-07  1872   0.159E-03    0.566E-04
DAV:  21    -0.158025040102E+03   -0.17792E-05   -0.21433E-07  1680   0.149E-03    0.312E-04
DAV:  22    -0.158025040978E+03   -0.87525E-06   -0.12506E-07  1616   0.866E-04
   8 F= -.16166569E+03 E0= -.16166569E+03  d E =-.187190E-01  mag=    23.0000
       N       E                     dE             d eps       ncg     rms          rms(c)
DAV:   1    -0.158021548312E+03    0.34918E-02   -0.51200E-01  2880   0.149E+00    0.471E-01
DAV:   2    -0.158024938093E+03   -0.33898E-02   -0.36032E-02  4056   0.645E-01    0.224E-01
DAV:   3    -0.158025319092E+03   -0.38100E-03   -0.13475E-03  4128   0.257E-01    0.164E-01
DAV:   4    -0.158025207275E+03    0.11182E-03   -0.20249E-04  4152   0.129E-01    0.105E-01
DAV:   5    -0.158025120517E+03    0.86758E-04   -0.87777E-05  4200   0.465E-02    0.835E-02
DAV:   6    -0.158025046449E+03    0.74068E-04   -0.12240E-04  4152   0.484E-02    0.334E-02
DAV:   7    -0.158025067964E+03   -0.21515E-04   -0.18160E-05  4168   0.205E-02    0.121E-02
DAV:   8    -0.158025117434E+03   -0.49470E-04   -0.20876E-06  2256   0.864E-03    0.825E-03
DAV:   9    -0.158025174855E+03   -0.57421E-04   -0.19230E-06  1880   0.583E-03    0.377E-03
DAV:  10    -0.158025222585E+03   -0.47730E-04   -0.17344E-06  2016   0.432E-03    0.250E-03
DAV:  11    -0.158025247248E+03   -0.24663E-04   -0.69601E-07  1728   0.371E-03    0.181E-03
DAV:  12    -0.158025274335E+03   -0.27086E-04   -0.45528E-07  1688   0.264E-03    0.148E-03
DAV:  13    -0.158025297694E+03   -0.23360E-04   -0.36116E-07  1752   0.247E-03    0.115E-03
DAV:  14    -0.158025318564E+03   -0.20869E-04   -0.35227E-07  1720   0.147E-03    0.796E-04
DAV:  15    -0.158025331968E+03   -0.13405E-04   -0.18359E-07  1672   0.153E-03    0.711E-04
DAV:  16    -0.158025348934E+03   -0.16966E-04   -0.25060E-07  1688   0.110E-03    0.521E-04
DAV:  17    -0.158025358496E+03   -0.95627E-05   -0.15777E-07  1664   0.129E-03    0.533E-04
DAV:  18    -0.158025372053E+03   -0.13557E-04   -0.30004E-07  1896   0.994E-04    0.385E-04
DAV:  19    -0.158025379289E+03   -0.72364E-05   -0.19746E-07  1704   0.120E-03    0.510E-04
DAV:  20    -0.158025380621E+03   -0.13313E-05   -0.10855E-07  1672   0.939E-04    0.198E-04
DAV:  21    -0.158025382413E+03   -0.17921E-05   -0.10016E-07  1624   0.684E-04    0.271E-04
DAV:  22    -0.158025382951E+03   -0.53857E-06   -0.53137E-08  1664   0.678E-04
   9 F= -.16166654E+03 E0= -.16166654E+03  d E =-.195653E-01  mag=    23.0000
       N       E                     dE             d eps       ncg     rms          rms(c)
DAV:   1    -0.158017631282E+03    0.77511E-02   -0.18506E+00  2880   0.285E+00    0.903E-01
DAV:   2    -0.158031332403E+03   -0.13701E-01   -0.12906E-01  4112   0.139E+00    0.505E-01
DAV:   3    -0.158031934283E+03   -0.60188E-03   -0.65624E-03  4280   0.716E-01    0.340E-01
DAV:   4    -0.158031377301E+03    0.55698E-03   -0.10402E-03  4288   0.326E-01    0.205E-01
DAV:   5    -0.158031061844E+03    0.31546E-03   -0.41884E-04  4288   0.910E-02    0.150E-01
DAV:   6    -0.158030821289E+03    0.24055E-03   -0.35697E-04  4184   0.695E-02    0.570E-02
DAV:   7    -0.158030879058E+03   -0.57769E-04   -0.53669E-05  4160   0.367E-02    0.201E-02
DAV:   8    -0.158030996627E+03   -0.11757E-03   -0.10294E-05  3968   0.205E-02    0.143E-02
DAV:   9    -0.158031123753E+03   -0.12713E-03   -0.24639E-06  2360   0.917E-03    0.845E-03
DAV:  10    -0.158031283213E+03   -0.15946E-03   -0.53535E-06  3160   0.722E-03    0.489E-03
DAV:  11    -0.158031388309E+03   -0.10510E-03   -0.94317E-07  1928   0.408E-03    0.307E-03
DAV:  12    -0.158031486385E+03   -0.98076E-04   -0.10805E-06  2216   0.354E-03    0.216E-03
DAV:  13    -0.158031552436E+03   -0.66051E-04   -0.76288E-07  1832   0.275E-03    0.155E-03
DAV:  14    -0.158031588838E+03   -0.36402E-04   -0.45811E-07  1664   0.229E-03    0.137E-03
DAV:  15    -0.158031649994E+03   -0.61156E-04   -0.78817E-07  2032   0.196E-03    0.117E-03
DAV:  16    -0.158031707272E+03   -0.57279E-04   -0.87982E-07  2064   0.213E-03    0.111E-03
DAV:  17    -0.158031742279E+03   -0.35007E-04   -0.58075E-07  1848   0.204E-03    0.881E-04
DAV:  18    -0.158031764450E+03   -0.22171E-04   -0.53831E-07  1928   0.184E-03    0.773E-04
DAV:  19    -0.158031776792E+03   -0.12342E-04   -0.44393E-07  1752   0.167E-03    0.604E-04
DAV:  20    -0.158031780846E+03   -0.40538E-05   -0.25897E-07  1672   0.147E-03    0.463E-04
DAV:  21    -0.158031782462E+03   -0.16164E-05   -0.17104E-07  1632   0.109E-03    0.317E-04
DAV:  22    -0.158031783044E+03   -0.58155E-06   -0.96417E-08  1672   0.904E-04
  10 F= -.16167257E+03 E0= -.16167257E+03  d E =-.603201E-02  mag=    23.0000
       N       E                     dE             d eps       ncg     rms          rms(c)
DAV:   1    -0.158023394674E+03    0.83878E-02   -0.13537E+00  2880   0.244E+00    0.772E-01
DAV:   2    -0.158033377337E+03   -0.99827E-02   -0.94362E-02  4080   0.118E+00    0.430E-01
DAV:   3    -0.158033832097E+03   -0.45476E-03   -0.47743E-03  4280   0.612E-01    0.291E-01
DAV:   4    -0.158033416817E+03    0.41528E-03   -0.75654E-04  4280   0.279E-01    0.175E-01
DAV:   5    -0.158033166997E+03    0.24982E-03   -0.30589E-04  4264   0.773E-02    0.128E-01
DAV:   6    -0.158032974266E+03    0.19273E-03   -0.26141E-04  4200   0.592E-02    0.485E-02
DAV:   7    -0.158033018081E+03   -0.43815E-04   -0.39151E-05  4144   0.312E-02    0.172E-02
DAV:   8    -0.158033111180E+03   -0.93099E-04   -0.68612E-06  3344   0.175E-02    0.125E-02
DAV:   9    -0.158033213403E+03   -0.10222E-03   -0.22910E-06  2344   0.840E-03    0.734E-03
DAV:  10    -0.158033332533E+03   -0.11913E-03   -0.28934E-06  2368   0.599E-03    0.397E-03
DAV:  11    -0.158033423088E+03   -0.90555E-04   -0.13343E-06  1888   0.428E-03    0.292E-03
DAV:  12    -0.158033498676E+03   -0.75589E-04   -0.10853E-06  2008   0.354E-03    0.168E-03
DAV:  13    -0.158033558535E+03   -0.59859E-04   -0.78146E-07  1824   0.303E-03    0.154E-03
DAV:  14    -0.158033583584E+03   -0.25048E-04   -0.41467E-07  1680   0.250E-03    0.108E-03
DAV:  15    -0.158033640341E+03   -0.56757E-04   -0.89067E-07  2032   0.178E-03    0.114E-03
DAV:  16    -0.158033685229E+03   -0.44888E-04   -0.54268E-07  1920   0.200E-03    0.103E-03
DAV:  17    -0.158033709057E+03   -0.23828E-04   -0.46687E-07  1728   0.178E-03    0.711E-04
DAV:  18    -0.158033728934E+03   -0.19877E-04   -0.51298E-07  1920   0.168E-03    0.847E-04
DAV:  19    -0.158033734213E+03   -0.52791E-05   -0.25416E-07  1672   0.164E-03    0.313E-04
DAV:  20    -0.158033739799E+03   -0.55860E-05   -0.24385E-07  1624   0.104E-03    0.548E-04
DAV:  21    -0.158033741937E+03   -0.21378E-05   -0.13535E-07  1648   0.120E-03    0.234E-04
DAV:  22    -0.158033743000E+03   -0.10623E-05   -0.10591E-07  1584   0.691E-04    0.334E-04
DAV:  23    -0.158033743407E+03   -0.40703E-06   -0.56025E-08  1672   0.746E-04
  11 F= -.16167419E+03 E0= -.16167419E+03  d E =-.765949E-02  mag=    23.0000
       N       E                     dE             d eps       ncg     rms          rms(c)
DAV:   1    -0.158026455356E+03    0.72876E-02   -0.16554E+00  2880   0.270E+00    0.815E-01
DAV:   2    -0.158038944980E+03   -0.12490E-01   -0.12700E-01  4104   0.135E+00    0.437E-01
DAV:   3    -0.158039756955E+03   -0.81197E-03   -0.50424E-03  4240   0.613E-01    0.306E-01
DAV:   4    -0.158039356763E+03    0.40019E-03   -0.78439E-04  4344   0.283E-01    0.197E-01
DAV:   5    -0.158039148706E+03    0.20806E-03   -0.28469E-04  4304   0.718E-02    0.148E-01
DAV:   6    -0.158038994376E+03    0.15433E-03   -0.29681E-04  4056   0.582E-02    0.713E-02
DAV:   7    -0.158039020933E+03   -0.26557E-04   -0.54928E-05  4168   0.376E-02    0.197E-02
DAV:   8    -0.158039090917E+03   -0.69984E-04   -0.12355E-05  3960   0.152E-02    0.974E-03
DAV:   9    -0.158039185321E+03   -0.94404E-04   -0.21108E-06  2248   0.816E-03    0.798E-03
DAV:  10    -0.158039246290E+03   -0.60968E-04   -0.12973E-06  1728   0.616E-03    0.525E-03
DAV:  11    -0.158039313194E+03   -0.66905E-04   -0.19571E-06  2144   0.389E-03    0.332E-03
DAV:  12    -0.158039369443E+03   -0.56248E-04   -0.82426E-07  1760   0.356E-03    0.220E-03
DAV:  13    -0.158039421685E+03   -0.52242E-04   -0.71056E-07  1880   0.267E-03    0.126E-03
DAV:  14    -0.158039466058E+03   -0.44373E-04   -0.59466E-07  1840   0.230E-03    0.116E-03
DAV:  15    -0.158039483873E+03   -0.17815E-04   -0.32891E-07  1704   0.217E-03    0.855E-04
DAV:  16    -0.158039505976E+03   -0.22103E-04   -0.32791E-07  1736   0.141E-03    0.778E-04
DAV:  17    -0.158039532709E+03   -0.26733E-04   -0.37065E-07  1800   0.161E-03    0.859E-04
DAV:  18    -0.158039551437E+03   -0.18728E-04   -0.38516E-07  1824   0.146E-03    0.440E-04
DAV:  19    -0.158039567217E+03   -0.15780E-04   -0.51200E-07  1952   0.154E-03    0.830E-04
DAV:  20    -0.158039568625E+03   -0.14081E-05   -0.18410E-07  1672   0.148E-03    0.182E-04
DAV:  21    -0.158039570705E+03   -0.20801E-05   -0.13779E-07  1640   0.723E-04    0.479E-04
DAV:  22    -0.158039571609E+03   -0.90359E-06   -0.69861E-08  1648   0.880E-04
  12 F= -.16167905E+03 E0= -.16167905E+03  d E =-.485762E-02  mag=    23.0000
       N       E                     dE             d eps       ncg     rms          rms(c)
DAV:   1    -0.158025798933E+03    0.13772E-01   -0.21242E+00  2880   0.306E+00    0.924E-01
DAV:   2    -0.158041879112E+03   -0.16080E-01   -0.16280E-01  4072   0.152E+00    0.497E-01
DAV:   3    -0.158042877424E+03   -0.99831E-03   -0.64325E-03  4232   0.692E-01    0.347E-01
DAV:   4    -0.158042366163E+03    0.51126E-03   -0.10054E-03  4328   0.319E-01    0.222E-01
DAV:   5    -0.158042111589E+03    0.25457E-03   -0.35994E-04  4312   0.824E-02    0.168E-01
DAV:   6    -0.158041927922E+03    0.18367E-03   -0.38426E-04  4072   0.670E-02    0.817E-02
DAV:   7    -0.158041962822E+03   -0.34900E-04   -0.72322E-05  4168   0.431E-02    0.225E-02
DAV:   8    -0.158042048379E+03   -0.85558E-04   -0.15940E-05  4000   0.177E-02    0.109E-02
DAV:   9    -0.158042160651E+03   -0.11227E-03   -0.28406E-06  2440   0.941E-03    0.903E-03
DAV:  10    -0.158042231560E+03   -0.70908E-04   -0.15440E-06  1824   0.669E-03    0.593E-03
DAV:  11    -0.158042312545E+03   -0.80986E-04   -0.25970E-06  2232   0.427E-03    0.377E-03
DAV:  12    -0.158042379256E+03   -0.66711E-04   -0.73657E-07  1800   0.342E-03    0.241E-03
DAV:  13    -0.158042443817E+03   -0.64560E-04   -0.73588E-07  1952   0.269E-03    0.138E-03
DAV:  14    -0.158042497844E+03   -0.54027E-04   -0.65817E-07  1824   0.229E-03    0.116E-03
DAV:  15    -0.158042518164E+03   -0.20320E-04   -0.33265E-07  1696   0.223E-03    0.916E-04
DAV:  16    -0.158042544554E+03   -0.26390E-04   -0.35562E-07  1800   0.147E-03    0.862E-04
DAV:  17    -0.158042581012E+03   -0.36459E-04   -0.49287E-07  1880   0.178E-03    0.998E-04
DAV:  18    -0.158042602984E+03   -0.21972E-04   -0.47999E-07  1832   0.170E-03    0.514E-04
DAV:  19    -0.158042620353E+03   -0.17369E-04   -0.63609E-07  1944   0.165E-03    0.840E-04
DAV:  20    -0.158042621800E+03   -0.14476E-05   -0.18021E-07  1680   0.148E-03    0.213E-04
DAV:  21    -0.158042623972E+03   -0.21714E-05   -0.12511E-07  1656   0.705E-04    0.465E-04
DAV:  22    -0.158042625459E+03   -0.14873E-05   -0.72684E-08  1640   0.869E-04    0.116E-04
DAV:  23    -0.158042626166E+03   -0.70736E-06   -0.56379E-08  1648   0.516E-04
  13 F= -.16168098E+03 E0= -.16168098E+03  d E =-.678079E-02  mag=    23.0000
       N       E                     dE             d eps       ncg     rms          rms(c)
DAV:   1    -0.158031466468E+03    0.11159E-01   -0.19250E+00  2880   0.292E+00    0.878E-01
DAV:   2    -0.158046454708E+03   -0.14988E-01   -0.13742E-01  4048   0.140E+00    0.513E-01
DAV:   3    -0.158047741029E+03   -0.12863E-02   -0.53653E-03  4208   0.641E-01    0.304E-01
DAV:   4    -0.158047342525E+03    0.39850E-03   -0.90376E-04  4184   0.296E-01    0.194E-01
DAV:   5    -0.158047257267E+03    0.85257E-04   -0.40560E-04  4360   0.106E-01    0.141E-01
DAV:   6    -0.158047344665E+03   -0.87398E-04   -0.45413E-04  4128   0.745E-02    0.496E-02
DAV:   7    -0.158047379983E+03   -0.35318E-04   -0.59511E-05  4088   0.372E-02    0.184E-02
DAV:   8    -0.158047392870E+03   -0.12886E-04   -0.65027E-06  3104   0.213E-02    0.127E-02
DAV:   9    -0.158047402848E+03   -0.99788E-05   -0.11027E-06  1880   0.760E-03    0.908E-03
DAV:  10    -0.158047414768E+03   -0.11920E-04   -0.55422E-07  1616   0.440E-03    0.481E-03
DAV:  11    -0.158047430668E+03   -0.15900E-04   -0.15008E-06  1872   0.399E-03    0.203E-03
DAV:  12    -0.158047435911E+03   -0.52427E-05   -0.75515E-07  1672   0.333E-03    0.120E-03
DAV:  13    -0.158047440825E+03   -0.49148E-05   -0.31356E-07  1640   0.229E-03    0.112E-03
DAV:  14    -0.158047443853E+03   -0.30273E-05   -0.11381E-07  1656   0.174E-03    0.714E-04
DAV:  15    -0.158047447592E+03   -0.37393E-05   -0.67514E-08  1608   0.992E-04    0.650E-04
DAV:  16    -0.158047452679E+03   -0.50869E-05   -0.64233E-08  1616   0.795E-04    0.354E-04
DAV:  17    -0.158047457830E+03   -0.51510E-05   -0.85938E-08  1688   0.760E-04    0.376E-04
DAV:  18    -0.158047459729E+03   -0.18990E-05   -0.43213E-08  1648   0.685E-04    0.202E-04
DAV:  19    -0.158047461895E+03   -0.21663E-05   -0.45527E-08  1624   0.448E-04    0.216E-04
DAV:  20    -0.158047464264E+03   -0.23685E-05   -0.43800E-08  1616   0.528E-04    0.169E-04
DAV:  21    -0.158047465494E+03   -0.12307E-05   -0.40863E-08  1656   0.481E-04    0.168E-04
DAV:  22    -0.158047466064E+03   -0.56964E-06   -0.28403E-08  1600   0.458E-04
  14 F= -.16168488E+03 E0= -.16168488E+03  d E =-.390830E-02  mag=    23.0000
       N       E                     dE             d eps       ncg     rms          rms(c)
DAV:   1    -0.158041411450E+03    0.60540E-02   -0.90063E-01  2880   0.199E+00    0.600E-01
DAV:   2    -0.158048287978E+03   -0.68765E-02   -0.63870E-02  4056   0.945E-01    0.343E-01
DAV:   3    -0.158048963824E+03   -0.67585E-03   -0.24178E-03  4224   0.426E-01    0.206E-01
DAV:   4    -0.158048785095E+03    0.17873E-03   -0.40655E-04  4200   0.198E-01    0.132E-01
DAV:   5    -0.158048746995E+03    0.38101E-04   -0.19155E-04  4336   0.714E-02    0.959E-02
DAV:   6    -0.158048801015E+03   -0.54020E-04   -0.20515E-04  4136   0.512E-02    0.332E-02
DAV:   7    -0.158048820179E+03   -0.19164E-04   -0.26584E-05  4072   0.256E-02    0.124E-02
DAV:   8    -0.158048827735E+03   -0.75561E-05   -0.24986E-06  2480   0.141E-02    0.887E-03
DAV:   9    -0.158048833527E+03   -0.57918E-05   -0.72722E-07  1680   0.537E-03    0.625E-03
DAV:  10    -0.158048840006E+03   -0.64791E-05   -0.30345E-07  1624   0.301E-03    0.345E-03
DAV:  11    -0.158048848831E+03   -0.88250E-05   -0.60774E-07  1680   0.277E-03    0.147E-03
DAV:  12    -0.158048852833E+03   -0.40018E-05   -0.40456E-07  1664   0.242E-03    0.104E-03
DAV:  13    -0.158048855898E+03   -0.30651E-05   -0.19483E-07  1608   0.212E-03    0.746E-04
DAV:  14    -0.158048858070E+03   -0.21718E-05   -0.86625E-08  1656   0.123E-03    0.538E-04
DAV:  15    -0.158048860155E+03   -0.20856E-05   -0.41800E-08  1584   0.828E-04    0.446E-04
DAV:  16    -0.158048862708E+03   -0.25523E-05   -0.36940E-08  1616   0.598E-04    0.256E-04
DAV:  17    -0.158048864925E+03   -0.22172E-05   -0.37621E-08  1648   0.510E-04    0.257E-04
DAV:  18    -0.158048866275E+03   -0.13501E-05   -0.25707E-08  1624   0.474E-04    0.161E-04
DAV:  19    -0.158048867557E+03   -0.12822E-05   -0.26044E-08  1600   0.383E-04    0.160E-04
DAV:  20    -0.158048868774E+03   -0.12169E-05   -0.25770E-08  1608   0.420E-04    0.161E-04
DAV:  21    -0.158048869145E+03   -0.37110E-06   -0.16107E-08  1664   0.382E-04
  15 F= -.16168564E+03 E0= -.16168564E+03  d E =-.466278E-02  mag=    23.0000
       N       E                     dE             d eps       ncg     rms          rms(c)
DAV:   1    -0.158038826404E+03    0.10042E-01   -0.18350E+00  2880   0.282E+00    0.859E-01
DAV:   2    -0.158052830376E+03   -0.14004E-01   -0.13989E-01  4072   0.134E+00    0.410E-01
DAV:   3    -0.158053468724E+03   -0.63835E-03   -0.29490E-03  4072   0.338E-01    0.270E-01
DAV:   4    -0.158053303883E+03    0.16484E-03   -0.43824E-04  4264   0.154E-01    0.190E-01
DAV:   5    -0.158053201400E+03    0.10248E-03   -0.25869E-04  4240   0.858E-02    0.148E-01
DAV:   6    -0.158053186578E+03    0.14822E-04   -0.33544E-04  4176   0.105E-01    0.743E-02
DAV:   7    -0.158053202992E+03   -0.16413E-04   -0.74745E-05  4240   0.540E-02    0.193E-02
DAV:   8    -0.158053213957E+03   -0.10966E-04   -0.10363E-05  3976   0.161E-02    0.804E-03
DAV:   9    -0.158053218676E+03   -0.47194E-05   -0.15139E-06  2024   0.803E-03    0.635E-03
DAV:  10    -0.158053220810E+03   -0.21340E-05   -0.72081E-07  1640   0.499E-03    0.355E-03
DAV:  11    -0.158053223450E+03   -0.26400E-05   -0.96672E-07  1656   0.298E-03    0.230E-03
DAV:  12    -0.158053225619E+03   -0.21690E-05   -0.41700E-07  1640   0.341E-03    0.137E-03
DAV:  13    -0.158053227443E+03   -0.18238E-05   -0.19559E-07  1648   0.185E-03    0.760E-04
DAV:  14    -0.158053228630E+03   -0.11870E-05   -0.10514E-07  1656   0.183E-03    0.613E-04
DAV:  15    -0.158053229313E+03   -0.68276E-06   -0.52560E-08  1648   0.757E-04
  16 F= -.16168890E+03 E0= -.16168890E+03  d E =-.325908E-02  mag=    23.0000
       N       E                     dE             d eps       ncg     rms          rms(c)
DAV:   1    -0.158045690219E+03    0.75384E-02   -0.11774E+00  2880   0.226E+00    0.687E-01
DAV:   2    -0.158054638618E+03   -0.89484E-02   -0.89720E-02  4056   0.108E+00    0.326E-01
DAV:   3    -0.158055078925E+03   -0.44031E-03   -0.18748E-03  4024   0.267E-01    0.216E-01
DAV:   4    -0.158054972508E+03    0.10642E-03   -0.27455E-04  4248   0.120E-01    0.152E-01
DAV:   5    -0.158054906507E+03    0.66001E-04   -0.16919E-04  4216   0.679E-02    0.118E-01
DAV:   6    -0.158054900674E+03    0.58325E-05   -0.21141E-04  4152   0.851E-02    0.595E-02
DAV:   7    -0.158054911862E+03   -0.11188E-04   -0.47649E-05  4192   0.441E-02    0.157E-02
DAV:   8    -0.158054919686E+03   -0.78239E-05   -0.64441E-06  3344   0.133E-02    0.646E-03
DAV:   9    -0.158054923696E+03   -0.40107E-05   -0.12045E-06  1768   0.701E-03    0.512E-03
DAV:  10    -0.158054925660E+03   -0.19633E-05   -0.53567E-07  1664   0.430E-03    0.287E-03
DAV:  11    -0.158054927989E+03   -0.23297E-05   -0.59308E-07  1624   0.240E-03    0.193E-03
DAV:  12    -0.158054929962E+03   -0.19725E-05   -0.26198E-07  1640   0.268E-03    0.123E-03
DAV:  13    -0.158054931821E+03   -0.18588E-05   -0.15584E-07  1640   0.153E-03    0.690E-04
DAV:  14    -0.158054932955E+03   -0.11345E-05   -0.83891E-08  1672   0.160E-03    0.522E-04
DAV:  15    -0.158054933532E+03   -0.57624E-06   -0.42258E-08  1656   0.659E-04
  17 F= -.16168970E+03 E0= -.16168970E+03  d E =-.406652E-02  mag=    23.0000
       N       E                     dE             d eps       ncg     rms          rms(c)
DAV:   1    -0.158052978604E+03    0.19544E-02   -0.45646E-01  2880   0.142E+00    0.425E-01
DAV:   2    -0.158056153952E+03   -0.31753E-02   -0.31857E-02  4064   0.612E-01    0.200E-01
DAV:   3    -0.158056544532E+03   -0.39058E-03   -0.67480E-04  4064   0.125E-01    0.127E-01
DAV:   4    -0.158056485611E+03    0.58921E-04   -0.78488E-05  4280   0.515E-02    0.949E-02
DAV:   5    -0.158056428462E+03    0.57149E-04   -0.75228E-05  4160   0.466E-02    0.706E-02
DAV:   6    -0.158056383536E+03    0.44926E-04   -0.10223E-04  4224   0.613E-02    0.321E-02
DAV:   7    -0.158056395565E+03   -0.12029E-04   -0.20300E-05  4232   0.275E-02    0.959E-03
DAV:   8    -0.158056433601E+03   -0.38036E-04   -0.18005E-06  2184   0.801E-03    0.668E-03
DAV:   9    -0.158056470217E+03   -0.36616E-04   -0.13414E-06  1816   0.618E-03    0.360E-03
DAV:  10    -0.158056498489E+03   -0.28272E-04   -0.12796E-06  1928   0.498E-03    0.182E-03
DAV:  11    -0.158056517166E+03   -0.18677E-04   -0.90165E-07  1680   0.347E-03    0.193E-03
DAV:  12    -0.158056528906E+03   -0.11740E-04   -0.37511E-07  1664   0.267E-03    0.122E-03
DAV:  13    -0.158056548594E+03   -0.19688E-04   -0.26777E-07  1672   0.189E-03    0.915E-04
DAV:  14    -0.158056569582E+03   -0.20988E-04   -0.30974E-07  1768   0.182E-03    0.950E-04
DAV:  15    -0.158056579509E+03   -0.99276E-05   -0.21245E-07  1656   0.134E-03    0.639E-04
DAV:  16    -0.158056585914E+03   -0.64046E-05   -0.12329E-07  1632   0.103E-03    0.579E-04
DAV:  17    -0.158056593467E+03   -0.75528E-05   -0.11889E-07  1688   0.833E-04    0.354E-04
DAV:  18    -0.158056605493E+03   -0.12026E-04   -0.21526E-07  1808   0.935E-04    0.429E-04
DAV:  19    -0.158056609858E+03   -0.43651E-05   -0.13123E-07  1704   0.106E-03    0.328E-04
DAV:  20    -0.158056611582E+03   -0.17239E-05   -0.90896E-08  1616   0.747E-04    0.259E-04
DAV:  21    -0.158056612676E+03   -0.10938E-05   -0.59366E-08  1640   0.689E-04    0.209E-04
DAV:  22    -0.158056613626E+03   -0.95000E-06   -0.61564E-08  1656   0.532E-04
  18 F= -.16169098E+03 E0= -.16169098E+03  d E =-.127459E-02  mag=    23.0000
       N       E                     dE             d eps       ncg     rms          rms(c)
DAV:   1    -0.158054876626E+03    0.17360E-02   -0.30919E-01  2880   0.117E+00    0.350E-01
DAV:   2    -0.158057002458E+03   -0.21258E-02   -0.21609E-02  4032   0.504E-01    0.164E-01
DAV:   3    -0.158057288661E+03   -0.28620E-03   -0.45822E-04  4064   0.103E-01    0.104E-01
DAV:   4    -0.158057247878E+03    0.40783E-04   -0.53602E-05  4288   0.429E-02    0.781E-02
DAV:   5    -0.158057205178E+03    0.42700E-04   -0.50985E-05  4144   0.387E-02    0.581E-02
DAV:   6    -0.158057168706E+03    0.36471E-04   -0.69620E-05  4224   0.501E-02    0.262E-02
DAV:   7    -0.158057176787E+03   -0.80806E-05   -0.13689E-05  4232   0.223E-02    0.783E-03
DAV:   8    -0.158057204753E+03   -0.27967E-04   -0.11225E-06  1896   0.662E-03    0.567E-03
DAV:   9    -0.158057231172E+03   -0.26419E-04   -0.97816E-07  1832   0.511E-03    0.321E-03
DAV:  10    -0.158057252321E+03   -0.21148E-04   -0.91390E-07  1808   0.423E-03    0.158E-03
DAV:  11    -0.158057265660E+03   -0.13339E-04   -0.63175E-07  1640   0.291E-03    0.165E-03
DAV:  12    -0.158057273756E+03   -0.80958E-05   -0.25865E-07  1656   0.221E-03    0.104E-03
DAV:  13    -0.158057287016E+03   -0.13260E-04   -0.17081E-07  1648   0.159E-03    0.839E-04
DAV:  14    -0.158057304035E+03   -0.17019E-04   -0.22549E-07  1696   0.150E-03    0.782E-04
DAV:  15    -0.158057312757E+03   -0.87217E-05   -0.16274E-07  1664   0.119E-03    0.574E-04
DAV:  16    -0.158057317687E+03   -0.49307E-05   -0.95677E-08  1632   0.923E-04    0.511E-04
DAV:  17    -0.158057322286E+03   -0.45988E-05   -0.75880E-08  1680   0.711E-04    0.319E-04
DAV:  18    -0.158057332246E+03   -0.99600E-05   -0.17020E-07  1720   0.770E-04    0.388E-04
DAV:  19    -0.158057336214E+03   -0.39682E-05   -0.10388E-07  1688   0.917E-04    0.321E-04
DAV:  20    -0.158057337391E+03   -0.11766E-05   -0.65452E-08  1664   0.670E-04    0.235E-04
DAV:  21    -0.158057338265E+03   -0.87430E-06   -0.43717E-08  1600   0.576E-04
  19 F= -.16169137E+03 E0= -.16169137E+03  d E =-.166234E-02  mag=    23.0000
       N       E                     dE             d eps       ncg     rms          rms(c)
DAV:   1    -0.158054445817E+03    0.28916E-02   -0.56299E-01  2880   0.156E+00    0.472E-01
DAV:   2    -0.158058345810E+03   -0.39000E-02   -0.41135E-02  4056   0.704E-01    0.227E-01
DAV:   3    -0.158058645381E+03   -0.29957E-03   -0.92766E-04  4064   0.198E-01    0.156E-01
DAV:   4    -0.158058600909E+03    0.44471E-04   -0.11443E-04  4312   0.801E-02    0.111E-01
DAV:   5    -0.158058574439E+03    0.26470E-04   -0.70092E-05  4168   0.412E-02    0.873E-02
DAV:   6    -0.158058581007E+03   -0.65672E-05   -0.10485E-04  4208   0.524E-02    0.425E-02
DAV:   7    -0.158058588863E+03   -0.78562E-05   -0.22539E-05  4144   0.318E-02    0.123E-02
DAV:   8    -0.158058594980E+03   -0.61168E-05   -0.25671E-06  2440   0.905E-03    0.560E-03
DAV:   9    -0.158058599624E+03   -0.46442E-05   -0.12172E-06  1672   0.694E-03    0.430E-03
DAV:  10    -0.158058602121E+03   -0.24974E-05   -0.48547E-07  1648   0.368E-03    0.203E-03
DAV:  11    -0.158058604647E+03   -0.25260E-05   -0.34291E-07  1640   0.216E-03    0.144E-03
DAV:  12    -0.158058607041E+03   -0.23939E-05   -0.17541E-07  1632   0.182E-03    0.111E-03
DAV:  13    -0.158058610128E+03   -0.30871E-05   -0.14555E-07  1600   0.136E-03    0.673E-04
DAV:  14    -0.158058611485E+03   -0.13570E-05   -0.79353E-08  1672   0.144E-03    0.553E-04
DAV:  15    -0.158058611855E+03   -0.36921E-06   -0.37087E-08  1656   0.661E-04
  20 F= -.16169264E+03 E0= -.16169264E+03  d E =-.127151E-02  mag=    23.0000
