 running   24 mpi-ranks, with    1 threads/rank, on    1 nodes
 distrk:  each k-point on   24 cores,    1 groups
 distr:  one band on    4 cores,    6 groups
 vasp.6.5.1 10Mar25 (build Feb 13 2026 23:13:13) complex                        
  
 POSCAR found type information on POSCAR CrClH 
 POSCAR found :  3 types and      73 ions
 scaLAPACK will be used
 LDA part: xc-table for (Slater+PW92), standard interpolation
 POSCAR, INCAR and KPOINTS ok, starting setup
 FFT: planning ... GRIDC
 FFT: planning ... GRID_SOFT
 FFT: planning ... GRID
 WAVECAR not read
 entering main loop
       N       E                     dE             d eps       ncg     rms          rms(c)
DAV:   1     0.465225938742E+04    0.46523E+04   -0.13873E+05  6648   0.918E+02
DAV:   2     0.918462696359E+03   -0.37338E+04   -0.34718E+04  7788   0.247E+02
DAV:   3    -0.281706765148E+03   -0.12002E+04   -0.11597E+04  9420   0.139E+02
DAV:   4    -0.388270679495E+03   -0.10656E+03   -0.10490E+03 10116   0.588E+01
DAV:   5    -0.390144533018E+03   -0.18739E+01   -0.18299E+01 10020   0.107E+01    0.619E+01
DAV:   6    -0.371140164511E+03    0.19004E+02   -0.36351E+02  9600   0.641E+01    0.658E+01
DAV:   7    -0.351654316992E+03    0.19486E+02   -0.63900E+01  9372   0.624E+01    0.308E+01
DAV:   8    -0.353011381286E+03   -0.13571E+01   -0.16422E+01  9612   0.115E+01    0.160E+01
DAV:   9    -0.352337154779E+03    0.67423E+00   -0.49313E+00  9312   0.106E+01    0.853E+00
DAV:  10    -0.352149131397E+03    0.18802E+00   -0.12852E+00  9336   0.452E+00    0.380E+00
DAV:  11    -0.352259983415E+03   -0.11085E+00   -0.37810E-01  9060   0.197E+00    0.180E+00
DAV:  12    -0.352368425677E+03   -0.10844E+00   -0.13247E-01  9384   0.140E+00    0.918E-01
DAV:  13    -0.352419481038E+03   -0.51055E-01   -0.37992E-02  9360   0.583E-01    0.610E-01
DAV:  14    -0.352469190613E+03   -0.49710E-01   -0.12216E-02  9420   0.452E-01    0.356E-01
DAV:  15    -0.352501957674E+03   -0.32767E-01   -0.29556E-03  8904   0.171E-01    0.193E-01
DAV:  16    -0.352517148716E+03   -0.15191E-01   -0.81230E-04  9276   0.108E-01    0.133E-01
DAV:  17    -0.352528818303E+03   -0.11670E-01   -0.40093E-04  9348   0.608E-02    0.805E-02
DAV:  18    -0.352543573121E+03   -0.14755E-01   -0.72854E-04  7920   0.726E-02    0.685E-02
DAV:  19    -0.352545924955E+03   -0.23518E-02   -0.11265E-04  9228   0.284E-02    0.458E-02
DAV:  20    -0.352550526067E+03   -0.46011E-02   -0.21435E-04  8196   0.288E-02    0.246E-02
DAV:  21    -0.352553371986E+03   -0.28459E-02   -0.23339E-04  7536   0.206E-02    0.281E-02
DAV:  22    -0.352554024665E+03   -0.65268E-03   -0.67025E-05  8064   0.122E-02    0.194E-02
DAV:  23    -0.352554214891E+03   -0.19023E-03   -0.30315E-05  8940   0.104E-02    0.764E-03
DAV:  24    -0.352554385088E+03   -0.17020E-03   -0.36212E-06  6540   0.445E-03    0.642E-03
DAV:  25    -0.352554665617E+03   -0.28053E-03   -0.61816E-06  6948   0.552E-03    0.362E-03
DAV:  26    -0.352554767666E+03   -0.10205E-03   -0.32514E-06  6276   0.324E-03    0.240E-03
DAV:  27    -0.352554812014E+03   -0.44348E-04   -0.52693E-07  4260   0.215E-03    0.192E-03
DAV:  28    -0.352554862106E+03   -0.50093E-04   -0.66663E-07  4416   0.136E-03    0.153E-03
DAV:  29    -0.352554911343E+03   -0.49236E-04   -0.15060E-06  5244   0.162E-03    0.137E-03
DAV:  30    -0.352554921728E+03   -0.10385E-04   -0.30634E-07  4368   0.107E-03    0.982E-04
DAV:  31    -0.352554930495E+03   -0.87673E-05   -0.23652E-07  3972   0.828E-04    0.828E-04
DAV:  32    -0.352554941944E+03   -0.11448E-04   -0.42935E-07  4428   0.930E-04    0.105E-03
DAV:  33    -0.352554949426E+03   -0.74827E-05   -0.16791E-07  3804   0.915E-04    0.786E-04
DAV:  34    -0.352554954689E+03   -0.52629E-05   -0.11943E-07  3756   0.580E-04    0.544E-04
DAV:  35    -0.352554959621E+03   -0.49317E-05   -0.59883E-08  3708   0.543E-04    0.325E-04
DAV:  36    -0.352554964668E+03   -0.50466E-05   -0.79415E-08  3864   0.404E-04    0.483E-04
DAV:  37    -0.352554966321E+03   -0.16538E-05   -0.21186E-08  3804   0.380E-04    0.269E-04
DAV:  38    -0.352554967776E+03   -0.14551E-05   -0.14371E-08  3804   0.224E-04    0.193E-04
DAV:  39    -0.352554969036E+03   -0.12595E-05   -0.12453E-08  3708   0.250E-04    0.189E-04
DAV:  40    -0.352554969344E+03   -0.30826E-06   -0.33668E-09  3804   0.212E-04
   1 F= -.36575708E+03 E0= -.36575708E+03  d E =-.365757E+03  mag=    53.0001
 curvature:   0.00 expect dE= 0.000E+00 dE for cont linesearch  0.000E+00
 trial: gam= 0.00000 g(F)=  0.109E-01 g(S)=  0.000E+00 ort = 0.000E+00 (trialstep = 0.100E+01)
 search vector abs. value=  0.109E-01
 bond charge predicted
       N       E                     dE             d eps       ncg     rms          rms(c)
DAV:   1    -0.352547782756E+03    0.71863E-02   -0.10037E+00  6564   0.137E+00    0.701E-01
DAV:   2    -0.352554302489E+03   -0.65197E-02   -0.74235E-02  8928   0.711E-01    0.413E-01
DAV:   3    -0.352554509857E+03   -0.20737E-03   -0.23296E-03  9144   0.211E-01    0.247E-01
DAV:   4    -0.352554345860E+03    0.16400E-03   -0.24749E-04  9780   0.650E-02    0.200E-01
DAV:   5    -0.352554142359E+03    0.20350E-03   -0.35513E-04  8616   0.323E-02    0.121E-01
DAV:   6    -0.352554120078E+03    0.22281E-04   -0.12946E-04  9420   0.383E-02    0.389E-02
DAV:   7    -0.352554146251E+03   -0.26172E-04   -0.18497E-05  9540   0.136E-02    0.189E-02
DAV:   8    -0.352554201986E+03   -0.55735E-04   -0.24739E-06  5268   0.804E-03    0.165E-02
DAV:   9    -0.352554291649E+03   -0.89663E-04   -0.30383E-06  5784   0.729E-03    0.103E-02
DAV:  10    -0.352554368731E+03   -0.77083E-04   -0.49536E-06  6504   0.480E-03    0.378E-03
DAV:  11    -0.352554396179E+03   -0.27448E-04   -0.57729E-07  3840   0.180E-03    0.243E-03
DAV:  12    -0.352554458083E+03   -0.61904E-04   -0.53521E-07  4500   0.173E-03    0.171E-03
DAV:  13    -0.352554482421E+03   -0.24338E-04   -0.28385E-07  3912   0.141E-03    0.969E-04
DAV:  14    -0.352554496669E+03   -0.14248E-04   -0.18069E-07  3756   0.986E-04    0.811E-04
DAV:  15    -0.352554513937E+03   -0.17269E-04   -0.16670E-07  4008   0.828E-04    0.705E-04
DAV:  16    -0.352554551878E+03   -0.37940E-04   -0.50370E-07  4476   0.912E-04    0.869E-04
DAV:  17    -0.352554568518E+03   -0.16640E-04   -0.30507E-07  4176   0.105E-03    0.697E-04
DAV:  18    -0.352554573766E+03   -0.52484E-05   -0.18091E-07  3804   0.832E-04    0.543E-04
DAV:  19    -0.352554576328E+03   -0.25612E-05   -0.10674E-07  3816   0.624E-04    0.331E-04
DAV:  20    -0.352554579550E+03   -0.32221E-05   -0.10367E-07  3888   0.521E-04    0.468E-04
DAV:  21    -0.352554580658E+03   -0.11085E-05   -0.58167E-08  3828   0.516E-04    0.124E-04
DAV:  22    -0.352554581243E+03   -0.58456E-06   -0.38585E-08  3732   0.336E-04
   2 F= -.36576560E+03 E0= -.36576560E+03  d E =-.852351E-02  mag=    53.0000
 trial-energy change:   -0.008524  1 .order   -0.008461   -0.010873   -0.006050
 step:   2.0806(harm=  2.2540)  dis= 0.00775  next Energy=  -365.768949 (dE=-0.119E-01)
 bond charge predicted
       N       E                     dE             d eps       ncg     rms          rms(c)
DAV:   1    -0.352540790530E+03    0.13790E-01   -0.11718E+00  6588   0.148E+00    0.757E-01
DAV:   2    -0.352548431792E+03   -0.76413E-02   -0.86818E-02  8940   0.768E-01    0.446E-01
DAV:   3    -0.352548658347E+03   -0.22655E-03   -0.27227E-03  9096   0.228E-01    0.268E-01
DAV:   4    -0.352548471746E+03    0.18660E-03   -0.28933E-04  9780   0.705E-02    0.217E-01
DAV:   5    -0.352548241087E+03    0.23066E-03   -0.41605E-04  8580   0.349E-02    0.131E-01
DAV:   6    -0.352548219046E+03    0.22041E-04   -0.15152E-04  9408   0.416E-02    0.420E-02
DAV:   7    -0.352548249224E+03   -0.30178E-04   -0.21702E-05  9588   0.148E-02    0.205E-02
DAV:   8    -0.352548311567E+03   -0.62343E-04   -0.30358E-06  5700   0.868E-03    0.179E-02
DAV:   9    -0.352548411691E+03   -0.10012E-03   -0.38341E-06  6300   0.789E-03    0.113E-02
DAV:  10    -0.352548495117E+03   -0.83426E-04   -0.47257E-06  6420   0.494E-03    0.409E-03
DAV:  11    -0.352548533616E+03   -0.38498E-04   -0.77818E-07  3936   0.210E-03    0.262E-03
DAV:  12    -0.352548595289E+03   -0.61674E-04   -0.63667E-07  4512   0.194E-03    0.172E-03
DAV:  13    -0.352548621973E+03   -0.26683E-04   -0.35088E-07  3900   0.148E-03    0.973E-04
DAV:  14    -0.352548638670E+03   -0.16697E-04   -0.21498E-07  3780   0.109E-03    0.834E-04
DAV:  15    -0.352548664562E+03   -0.25893E-04   -0.26523E-07  4248   0.922E-04    0.824E-04
DAV:  16    -0.352548707857E+03   -0.43294E-04   -0.73522E-07  4764   0.109E-03    0.918E-04
DAV:  17    -0.352548722098E+03   -0.14241E-04   -0.29484E-07  4152   0.107E-03    0.609E-04
DAV:  18    -0.352548726355E+03   -0.42570E-05   -0.15332E-07  3804   0.773E-04    0.537E-04
DAV:  19    -0.352548729510E+03   -0.31556E-05   -0.10252E-07  3840   0.590E-04    0.297E-04
DAV:  20    -0.352548732362E+03   -0.28519E-05   -0.90923E-08  3912   0.509E-04    0.429E-04
DAV:  21    -0.352548733302E+03   -0.94017E-06   -0.50792E-08  3828   0.477E-04
   3 F= -.36576937E+03 E0= -.36576937E+03  d E =-.122877E-01  mag=    53.0000
 curvature:  -1.11 expect dE=-0.415E-02 dE for cont linesearch -0.615E-04
 ZBRENT: extrapolating
 opt :   2.2401  next Energy=  -365.769428 (dE=-0.123E-01)
 bond charge predicted
       N       E                     dE             d eps       ncg     rms          rms(c)
DAV:   1    -0.352547205996E+03    0.15264E-02   -0.25516E-02  6672   0.218E-01    0.111E-01
DAV:   2    -0.352547351822E+03   -0.14583E-03   -0.19064E-03  9060   0.115E-01    0.668E-02
DAV:   3    -0.352547377941E+03   -0.26120E-04   -0.59122E-05  9084   0.337E-02    0.392E-02
DAV:   4    -0.352547371166E+03    0.67750E-05   -0.49618E-06  6984   0.104E-02    0.326E-02
DAV:   5    -0.352547360376E+03    0.10790E-04   -0.15275E-05  7788   0.626E-03    0.193E-02
DAV:   6    -0.352547358692E+03    0.16842E-05   -0.21693E-06  4716   0.637E-03    0.721E-03
DAV:   7    -0.352547360764E+03   -0.20724E-05   -0.92057E-07  3780   0.321E-03    0.460E-03
DAV:   8    -0.352547362834E+03   -0.20699E-05   -0.72020E-07  3720   0.262E-03    0.282E-03
DAV:   9    -0.352547367281E+03   -0.44471E-05   -0.45440E-07  3708   0.200E-03    0.290E-03
DAV:  10    -0.352547372125E+03   -0.48440E-05   -0.16243E-07  3792   0.131E-03    0.164E-03
DAV:  11    -0.352547376460E+03   -0.43346E-05   -0.88210E-08  3768   0.718E-04    0.120E-03
DAV:  12    -0.352547380872E+03   -0.44117E-05   -0.90093E-08  3804   0.700E-04    0.656E-04
DAV:  13    -0.352547382394E+03   -0.15228E-05   -0.40643E-08  3852   0.615E-04    0.413E-04
DAV:  14    -0.352547383353E+03   -0.95811E-06   -0.15121E-08  3756   0.402E-04
   4 F= -.36576943E+03 E0= -.36576943E+03  d E =-.123548E-01  mag=    53.0000
 curvature:  -1.11 expect dE=-0.478E-02 dE for cont linesearch -0.131E-07
 trial: gam= 0.39567 g(F)=  0.429E-02 g(S)=  0.000E+00 ort =-0.113E-04 (trialstep = 0.125E+01)
 search vector abs. value=  0.598E-02
 bond charge predicted
       N       E                     dE             d eps       ncg     rms          rms(c)
DAV:   1    -0.352538793892E+03    0.85885E-02   -0.83951E-01  6672   0.125E+00    0.518E-01
DAV:   2    -0.352543403337E+03   -0.46094E-02   -0.53068E-02  9084   0.499E-01    0.258E-01
DAV:   3    -0.352543896377E+03   -0.49304E-03   -0.13418E-03  9024   0.113E-01    0.162E-01
DAV:   4    -0.352543738129E+03    0.15825E-03   -0.12626E-04  9480   0.334E-02    0.123E-01
DAV:   5    -0.352543505125E+03    0.23300E-03   -0.12199E-04  8508   0.192E-02    0.820E-02
DAV:   6    -0.352543321601E+03    0.18352E-03   -0.13215E-04  8616   0.205E-02    0.287E-02
DAV:   7    -0.352543383653E+03   -0.62052E-04   -0.21497E-05  9276   0.114E-02    0.155E-02
DAV:   8    -0.352543522493E+03   -0.13884E-03   -0.20896E-06  5424   0.665E-03    0.102E-02
DAV:   9    -0.352543667842E+03   -0.14535E-03   -0.53975E-06  7536   0.553E-03    0.417E-03
DAV:  10    -0.352543777084E+03   -0.10924E-03   -0.91800E-07  4512   0.257E-03    0.235E-03
DAV:  11    -0.352543855365E+03   -0.78281E-04   -0.84532E-07  4608   0.231E-03    0.232E-03
DAV:  12    -0.352543944012E+03   -0.88647E-04   -0.88609E-07  4428   0.221E-03    0.157E-03
DAV:  13    -0.352544016747E+03   -0.72735E-04   -0.96468E-07  4656   0.172E-03    0.125E-03
DAV:  14    -0.352544060751E+03   -0.44004E-04   -0.46268E-07  4164   0.137E-03    0.902E-04
DAV:  15    -0.352544133429E+03   -0.72678E-04   -0.13873E-06  5112   0.122E-03    0.702E-04
DAV:  16    -0.352544157442E+03   -0.24013E-04   -0.24543E-07  4236   0.880E-04    0.586E-04
DAV:  17    -0.352544173710E+03   -0.16267E-04   -0.26560E-07  4152   0.785E-04    0.380E-04
DAV:  18    -0.352544180554E+03   -0.68444E-05   -0.15687E-07  3900   0.798E-04    0.356E-04
DAV:  19    -0.352544185571E+03   -0.50169E-05   -0.14238E-07  3804   0.598E-04    0.256E-04
DAV:  20    -0.352544188729E+03   -0.31579E-05   -0.11542E-07  4020   0.621E-04    0.316E-04
DAV:  21    -0.352544189509E+03   -0.78030E-06   -0.63412E-08  3828   0.498E-04
   5 F= -.36577345E+03 E0= -.36577345E+03  d E =-.401484E-02  mag=    53.0000
 trial-energy change:   -0.004015  1 .order   -0.003978   -0.005350   -0.002607
 step:   2.2837(harm=  2.4344)  dis= 0.00466  next Energy=  -365.774551 (dE=-0.512E-02)
 bond charge predicted
       N       E                     dE             d eps       ncg     rms          rms(c)
DAV:   1    -0.352535732103E+03    0.84566E-02   -0.57808E-01  6696   0.103E+00    0.430E-01
DAV:   2    -0.352538852170E+03   -0.31201E-02   -0.36563E-02  9024   0.414E-01    0.214E-01
DAV:   3    -0.352539216608E+03   -0.36444E-03   -0.92190E-04  9096   0.933E-02    0.134E-01
DAV:   4    -0.352539096508E+03    0.12010E-03   -0.87077E-05  9516   0.275E-02    0.102E-01
DAV:   5    -0.352538914981E+03    0.18153E-03   -0.84765E-05  8484   0.160E-02    0.677E-02
DAV:   6    -0.352538773557E+03    0.14142E-03   -0.90646E-05  8640   0.169E-02    0.237E-02
DAV:   7    -0.352538821568E+03   -0.48011E-04   -0.14567E-05  9300   0.943E-03    0.128E-02
DAV:   8    -0.352538929891E+03   -0.10832E-03   -0.12693E-06  4800   0.544E-03    0.863E-03
DAV:   9    -0.352539042085E+03   -0.11219E-03   -0.37336E-06  6396   0.472E-03    0.399E-03
DAV:  10    -0.352539128428E+03   -0.86343E-04   -0.11971E-06  4368   0.277E-03    0.216E-03
DAV:  11    -0.352539187743E+03   -0.59315E-04   -0.90399E-07  4500   0.242E-03    0.209E-03
DAV:  12    -0.352539250686E+03   -0.62943E-04   -0.66755E-07  4200   0.217E-03    0.139E-03
DAV:  13    -0.352539304462E+03   -0.53776E-04   -0.64535E-07  4320   0.159E-03    0.117E-03
DAV:  14    -0.352539347703E+03   -0.43241E-04   -0.54129E-07  4284   0.139E-03    0.103E-03
DAV:  15    -0.352539391242E+03   -0.43539E-04   -0.74374E-07  4392   0.119E-03    0.799E-04
DAV:  16    -0.352539421010E+03   -0.29769E-04   -0.50167E-07  4332   0.119E-03    0.880E-04
DAV:  17    -0.352539434939E+03   -0.13928E-04   -0.37925E-07  4020   0.109E-03    0.579E-04
DAV:  18    -0.352539442258E+03   -0.73191E-05   -0.26529E-07  3924   0.934E-04    0.581E-04
DAV:  19    -0.352539445367E+03   -0.31095E-05   -0.15991E-07  3732   0.764E-04    0.342E-04
DAV:  20    -0.352539447656E+03   -0.22887E-05   -0.11928E-07  3876   0.587E-04    0.357E-04
DAV:  21    -0.352539448980E+03   -0.13234E-05   -0.81048E-08  3756   0.560E-04    0.297E-04
DAV:  22    -0.352539449302E+03   -0.32202E-06   -0.40746E-08  3864   0.399E-04
   6 F= -.36577468E+03 E0= -.36577468E+03  d E =-.525143E-02  mag=    53.0000
 curvature:  -1.67 expect dE=-0.393E-02 dE for cont linesearch -0.193E-04
 trial: gam= 0.48480 g(F)=  0.235E-02 g(S)=  0.000E+00 ort = 0.263E-03 (trialstep = 0.146E+01)
 search vector abs. value=  0.401E-02
 bond charge predicted
       N       E                     dE             d eps       ncg     rms          rms(c)
DAV:   1    -0.352534860236E+03    0.45887E-02   -0.71475E-01  6600   0.114E+00    0.481E-01
DAV:   2    -0.352538980318E+03   -0.41201E-02   -0.49742E-02  8928   0.515E-01    0.271E-01
DAV:   3    -0.352539103033E+03   -0.12272E-03   -0.11361E-03  9048   0.136E-01    0.173E-01
DAV:   4    -0.352539010015E+03    0.93018E-04   -0.11312E-04  9648   0.392E-02    0.138E-01
DAV:   5    -0.352538858836E+03    0.15118E-03   -0.14534E-04  7380   0.189E-02    0.892E-02
DAV:   6    -0.352538804677E+03    0.54159E-04   -0.10402E-04  9396   0.244E-02    0.279E-02
DAV:   7    -0.352538829215E+03   -0.24538E-04   -0.73886E-06  8520   0.917E-03    0.130E-02
DAV:   8    -0.352538869725E+03   -0.40510E-04   -0.20867E-06  4860   0.530E-03    0.105E-02
DAV:   9    -0.352538925241E+03   -0.55517E-04   -0.10360E-06  4476   0.459E-03    0.574E-03
DAV:  10    -0.352538977280E+03   -0.52039E-04   -0.22453E-06  5028   0.265E-03    0.251E-03
DAV:  11    -0.352539002401E+03   -0.25122E-04   -0.54316E-07  3900   0.188E-03    0.175E-03
DAV:  12    -0.352539031639E+03   -0.29238E-04   -0.37128E-07  3912   0.155E-03    0.116E-03
DAV:  13    -0.352539057257E+03   -0.25618E-04   -0.26596E-07  3924   0.130E-03    0.109E-03
DAV:  14    -0.352539088674E+03   -0.31417E-04   -0.37138E-07  4344   0.109E-03    0.692E-04
DAV:  15    -0.352539102600E+03   -0.13926E-04   -0.20309E-07  3816   0.101E-03    0.635E-04
DAV:  16    -0.352539119139E+03   -0.16539E-04   -0.24547E-07  3960   0.763E-04    0.576E-04
DAV:  17    -0.352539133260E+03   -0.14121E-04   -0.22778E-07  4152   0.827E-04    0.566E-04
DAV:  18    -0.352539145860E+03   -0.12600E-04   -0.32833E-07  4284   0.803E-04    0.587E-04
DAV:  19    -0.352539149486E+03   -0.36262E-05   -0.16565E-07  3804   0.853E-04    0.363E-04
DAV:  20    -0.352539150540E+03   -0.10540E-05   -0.91674E-08  3792   0.499E-04    0.284E-04
DAV:  21    -0.352539151470E+03   -0.92928E-06   -0.52519E-08  3696   0.464E-04
   7 F= -.36577741E+03 E0= -.36577741E+03  d E =-.272988E-02  mag=    53.0000
 trial-energy change:   -0.002730  1 .order   -0.002761   -0.003604   -0.001918
 step:   3.7906(harm=  3.1113)  dis= 0.00906  next Energy=  -365.778825 (dE=-0.414E-02)
 bond charge predicted
       N       E                     dE             d eps       ncg     rms          rms(c)
DAV:   1    -0.352524039358E+03    0.15111E-01   -0.18410E+00  6600   0.182E+00    0.770E-01
DAV:   2    -0.352534869398E+03   -0.10830E-01   -0.12834E-01  8940   0.828E-01    0.437E-01
DAV:   3    -0.352535044612E+03   -0.17521E-03   -0.29182E-03  9000   0.217E-01    0.277E-01
DAV:   4    -0.352534833614E+03    0.21100E-03   -0.29184E-04  9672   0.625E-02    0.221E-01
DAV:   5    -0.352534508177E+03    0.32544E-03   -0.37449E-04  7560   0.305E-02    0.143E-01
DAV:   6    -0.352534426275E+03    0.81902E-04   -0.26056E-04  9384   0.383E-02    0.447E-02
DAV:   7    -0.352534480250E+03   -0.53975E-04   -0.19822E-05  9552   0.148E-02    0.203E-02
DAV:   8    -0.352534562824E+03   -0.82574E-04   -0.73507E-06  8292   0.847E-03    0.157E-02
DAV:   9    -0.352534679898E+03   -0.11707E-03   -0.32892E-06  5676   0.719E-03    0.902E-03
DAV:  10    -0.352534780723E+03   -0.10083E-03   -0.71141E-06  6996   0.447E-03    0.380E-03
DAV:  11    -0.352534847942E+03   -0.67219E-04   -0.61946E-07  4164   0.190E-03    0.204E-03
DAV:  12    -0.352534904936E+03   -0.56994E-04   -0.42379E-07  4380   0.173E-03    0.179E-03
DAV:  13    -0.352534950410E+03   -0.45473E-04   -0.38980E-07  4104   0.130E-03    0.108E-03
DAV:  14    -0.352535005203E+03   -0.54793E-04   -0.65406E-07  4476   0.121E-03    0.112E-03
DAV:  15    -0.352535048975E+03   -0.43773E-04   -0.53576E-07  4440   0.126E-03    0.989E-04
DAV:  16    -0.352535086993E+03   -0.38017E-04   -0.78364E-07  4596   0.121E-03    0.891E-04
DAV:  17    -0.352535110679E+03   -0.23686E-04   -0.48818E-07  4416   0.111E-03    0.839E-04
DAV:  18    -0.352535121918E+03   -0.11239E-04   -0.36543E-07  4128   0.105E-03    0.580E-04
DAV:  19    -0.352535125150E+03   -0.32325E-05   -0.21286E-07  3828   0.895E-04    0.469E-04
DAV:  20    -0.352535126715E+03   -0.15645E-05   -0.14014E-07  3768   0.662E-04    0.402E-04
DAV:  21    -0.352535127227E+03   -0.51249E-06   -0.69309E-08  3816   0.557E-04
   8 F= -.36577824E+03 E0= -.36577824E+03  d E =-.355536E-02  mag=    53.0000
 curvature:  -2.10 expect dE=-0.313E-02 dE for cont linesearch -0.157E-03
 ZBRENT: interpolating
 opt :   3.1048  next Energy=  -365.778428 (dE=-0.374E-02)
 bond charge predicted
       N       E                     dE             d eps       ncg     rms          rms(c)
DAV:   1    -0.352535788411E+03   -0.66170E-03   -0.15878E-01  6696   0.535E-01    0.230E-01
DAV:   2    -0.352536678349E+03   -0.88994E-03   -0.10978E-02  8952   0.241E-01    0.127E-01
DAV:   3    -0.352536731778E+03   -0.53430E-04   -0.25345E-04  8976   0.642E-02    0.822E-02
DAV:   4    -0.352536708248E+03    0.23530E-04   -0.25005E-05  9648   0.187E-02    0.653E-02
DAV:   5    -0.352536665289E+03    0.42960E-04   -0.31775E-05  7188   0.880E-03    0.425E-02
DAV:   6    -0.352536649202E+03    0.16087E-04   -0.23123E-05  9384   0.117E-02    0.134E-02
DAV:   7    -0.352536655293E+03   -0.60915E-05   -0.93650E-07  4140   0.429E-03    0.715E-03
DAV:   8    -0.352536669321E+03   -0.14028E-04   -0.84204E-07  4020   0.331E-03    0.521E-03
DAV:   9    -0.352536685967E+03   -0.16646E-04   -0.52775E-07  3732   0.256E-03    0.312E-03
DAV:  10    -0.352536699088E+03   -0.13122E-04   -0.44099E-07  4044   0.158E-03    0.189E-03
DAV:  11    -0.352536707637E+03   -0.85490E-05   -0.20009E-07  3792   0.118E-03    0.154E-03
DAV:  12    -0.352536721513E+03   -0.13875E-04   -0.19824E-07  3852   0.980E-04    0.104E-03
DAV:  13    -0.352536732502E+03   -0.10989E-04   -0.15142E-07  3900   0.921E-04    0.685E-04
DAV:  14    -0.352536736628E+03   -0.41260E-05   -0.84610E-08  3864   0.700E-04    0.450E-04
DAV:  15    -0.352536741111E+03   -0.44834E-05   -0.65443E-08  3696   0.478E-04    0.343E-04
DAV:  16    -0.352536747956E+03   -0.68448E-05   -0.81744E-08  3828   0.472E-04    0.336E-04
DAV:  17    -0.352536752793E+03   -0.48370E-05   -0.82861E-08  3912   0.491E-04    0.375E-04
DAV:  18    -0.352536753303E+03   -0.50972E-06   -0.31111E-08  3924   0.438E-04
   9 F= -.36577844E+03 E0= -.36577844E+03  d E =-.375858E-02  mag=    53.0000
 curvature:  -2.51 expect dE=-0.214E-02 dE for cont linesearch -0.512E-08
 trial: gam= 0.45231 g(F)=  0.853E-03 g(S)=  0.000E+00 ort = 0.286E-05 (trialstep = 0.179E+01)
 search vector abs. value=  0.168E-02
 bond charge predicted
       N       E                     dE             d eps       ncg     rms          rms(c)
DAV:   1    -0.352532682519E+03    0.40703E-02   -0.34904E-01  6540   0.815E-01    0.381E-01
DAV:   2    -0.352534482249E+03   -0.17997E-02   -0.22003E-02  8568   0.325E-01    0.184E-01
DAV:   3    -0.352534970206E+03   -0.48796E-03   -0.95327E-04  8688   0.947E-02    0.112E-01
DAV:   4    -0.352534775826E+03    0.19438E-03   -0.67206E-05  9636   0.319E-02    0.846E-02
DAV:   5    -0.352534506799E+03    0.26903E-03   -0.53602E-05  8712   0.140E-02    0.601E-02
DAV:   6    -0.352534169125E+03    0.33767E-03   -0.89206E-05  8724   0.190E-02    0.229E-02
DAV:   7    -0.352534245164E+03   -0.76039E-04   -0.16201E-05  9096   0.906E-03    0.150E-02
DAV:   8    -0.352534414457E+03   -0.16929E-03   -0.16406E-06  5040   0.409E-03    0.102E-02
DAV:   9    -0.352534686576E+03   -0.27212E-03   -0.67774E-06  7548   0.496E-03    0.350E-03
DAV:  10    -0.352534848602E+03   -0.16203E-03   -0.12618E-06  4872   0.230E-03    0.237E-03
DAV:  11    -0.352534973071E+03   -0.12447E-03   -0.99344E-07  4680   0.211E-03    0.245E-03
DAV:  12    -0.352535067943E+03   -0.94872E-04   -0.69713E-07  4476   0.180E-03    0.152E-03
DAV:  13    -0.352535192745E+03   -0.12480E-03   -0.15335E-06  5268   0.157E-03    0.127E-03
DAV:  14    -0.352535245252E+03   -0.52507E-04   -0.28162E-07  4128   0.115E-03    0.946E-04
DAV:  15    -0.352535347017E+03   -0.10177E-03   -0.13064E-06  4884   0.122E-03    0.733E-04
DAV:  16    -0.352535410319E+03   -0.63302E-04   -0.11822E-06  5316   0.130E-03    0.586E-04
DAV:  17    -0.352535422799E+03   -0.12480E-04   -0.22961E-07  4092   0.995E-04    0.377E-04
DAV:  18    -0.352535431645E+03   -0.88458E-05   -0.22984E-07  4128   0.731E-04    0.399E-04
DAV:  19    -0.352535434011E+03   -0.23663E-05   -0.10494E-07  3792   0.762E-04    0.205E-04
DAV:  20    -0.352535435256E+03   -0.12448E-05   -0.73961E-08  3732   0.441E-04    0.192E-04
DAV:  21    -0.352535435863E+03   -0.60679E-06   -0.37496E-08  3756   0.467E-04
  10 F= -.36577919E+03 E0= -.36577919E+03  d E =-.750600E-03  mag=    53.0000
 trial-energy change:   -0.000751  1 .order   -0.000761   -0.001525    0.000002
 step:   1.7824(harm=  1.7825)  dis= 0.00258  next Energy=  -365.779194 (dE=-0.751E-03)
 bond charge predicted
       N       E                     dE             d eps       ncg     rms          rms(c)
DAV:   1    -0.352535439194E+03   -0.39378E-05   -0.69765E-07  3960   0.126E-03    0.481E-04
DAV:   2    -0.352535439267E+03   -0.72832E-07   -0.10602E-07  3840   0.878E-04
  11 F= -.36577919E+03 E0= -.36577919E+03  d E =-.750920E-03  mag=    53.0000
 curvature:  -1.75 expect dE=-0.906E-03 dE for cont linesearch -0.108E-06
 trial: gam= 0.58569 g(F)=  0.519E-03 g(S)=  0.000E+00 ort = 0.102E-04 (trialstep = 0.178E+01)
 search vector abs. value=  0.111E-02
 bond charge predicted
       N       E                     dE             d eps       ncg     rms          rms(c)
DAV:   1    -0.352533367750E+03    0.20714E-02   -0.11063E-01  6528   0.418E-01    0.183E-01
DAV:   2    -0.352534186465E+03   -0.81871E-03   -0.75500E-03  8340   0.186E-01    0.909E-02
DAV:   3    -0.352534383740E+03   -0.19728E-03   -0.29265E-04  8568   0.563E-02    0.565E-02
DAV:   4    -0.352534371450E+03    0.12291E-04   -0.20953E-05  9504   0.178E-02    0.430E-02
DAV:   5    -0.352534360928E+03    0.10522E-04   -0.15540E-05  8112   0.705E-03    0.298E-02
DAV:   6    -0.352534362873E+03   -0.19447E-05   -0.19265E-05  8568   0.910E-03    0.962E-03
DAV:   7    -0.352534378088E+03   -0.15215E-04   -0.17145E-06  5040   0.491E-03    0.477E-03
DAV:   8    -0.352534396819E+03   -0.18732E-04   -0.86568E-07  4380   0.206E-03    0.310E-03
DAV:   9    -0.352534411922E+03   -0.15102E-04   -0.38584E-07  3840   0.155E-03    0.221E-03
DAV:  10    -0.352534424791E+03   -0.12869E-04   -0.25028E-07  3744   0.136E-03    0.157E-03
DAV:  11    -0.352534434378E+03   -0.95866E-05   -0.18170E-07  3996   0.109E-03    0.106E-03
DAV:  12    -0.352534447889E+03   -0.13511E-04   -0.20099E-07  3732   0.919E-04    0.748E-04
DAV:  13    -0.352534456204E+03   -0.83152E-05   -0.12737E-07  3864   0.815E-04    0.434E-04
DAV:  14    -0.352534462231E+03   -0.60266E-05   -0.90968E-08  3624   0.592E-04    0.397E-04
DAV:  15    -0.352534464966E+03   -0.27353E-05   -0.45936E-08  3816   0.503E-04    0.238E-04
DAV:  16    -0.352534469834E+03   -0.48681E-05   -0.59440E-08  3720   0.361E-04    0.313E-04
DAV:  17    -0.352534473310E+03   -0.34760E-05   -0.45924E-08  3732   0.436E-04    0.235E-04
DAV:  18    -0.352534474299E+03   -0.98916E-06   -0.25658E-08  3828   0.331E-04
  12 F= -.36578007E+03 E0= -.36578007E+03  d E =-.879166E-03  mag=    53.0000
 ZBRENT: can't locate minimum, use default step
 trial-energy change:   -0.000879  1 .order   -0.000877   -0.000937   -0.000817
 step:   7.1382(harm= 13.8679)  dis= 0.00697  next Energy=  -365.782836 (dE=-0.364E-02)
 bond charge predicted
       N       E                     dE             d eps       ncg     rms          rms(c)
DAV:   1    -0.352521050273E+03    0.13423E-01   -0.99508E-01  6480   0.125E+00    0.550E-01
DAV:   2    -0.352528982088E+03   -0.79318E-02   -0.67661E-02  8376   0.554E-01    0.272E-01
DAV:   3    -0.352530385236E+03   -0.14031E-02   -0.26223E-03  8664   0.170E-01    0.170E-01
DAV:   4    -0.352530335743E+03    0.49493E-04   -0.19197E-04  9552   0.550E-02    0.129E-01
DAV:   5    -0.352530303097E+03    0.32646E-04   -0.12711E-04  8340   0.199E-02    0.910E-02
DAV:   6    -0.352530349111E+03   -0.46014E-04   -0.17182E-04  8652   0.271E-02    0.301E-02
DAV:   7    -0.352530422904E+03   -0.73793E-04   -0.21288E-05  9084   0.152E-02    0.131E-02
DAV:   8    -0.352530501636E+03   -0.78732E-04   -0.40494E-06  6492   0.440E-03    0.857E-03
DAV:   9    -0.352530583063E+03   -0.81427E-04   -0.12201E-06  5064   0.310E-03    0.560E-03
DAV:  10    -0.352530667054E+03   -0.83991E-04   -0.25152E-06  5844   0.301E-03    0.301E-03
DAV:  11    -0.352530717177E+03   -0.50123E-04   -0.67981E-07  4104   0.211E-03    0.151E-03
DAV:  12    -0.352530752476E+03   -0.35299E-04   -0.37791E-07  3900   0.174E-03    0.122E-03
DAV:  13    -0.352530782709E+03   -0.30233E-04   -0.28242E-07  3936   0.124E-03    0.916E-04
DAV:  14    -0.352530817761E+03   -0.35052E-04   -0.34670E-07  4296   0.101E-03    0.743E-04
DAV:  15    -0.352530837722E+03   -0.19962E-04   -0.22961E-07  3900   0.886E-04    0.587E-04
DAV:  16    -0.352530858746E+03   -0.21024E-04   -0.27372E-07  3972   0.804E-04    0.619E-04
DAV:  17    -0.352530869563E+03   -0.10817E-04   -0.17930E-07  3864   0.847E-04    0.452E-04
DAV:  18    -0.352530881328E+03   -0.11765E-04   -0.27865E-07  4188   0.717E-04    0.545E-04
DAV:  19    -0.352530884160E+03   -0.28321E-05   -0.13101E-07  3804   0.805E-04    0.298E-04
DAV:  20    -0.352530885155E+03   -0.99495E-06   -0.69993E-08  3864   0.433E-04
  13 F= -.36578201E+03 E0= -.36578201E+03  d E =-.281632E-02  mag=    53.0000
 curvature: -10.07 expect dE=-0.971E-02 dE for cont linesearch -0.599E-03
 ZBRENT: increasing intervall
 opt :  17.8454  next Energy=  -365.782604 (dE=-0.341E-02)
 bond charge predicted
       N       E                     dE             d eps       ncg     rms          rms(c)
DAV:   1    -0.352482607609E+03    0.48277E-01   -0.39637E+00  6480   0.251E+00    0.110E+00
DAV:   2    -0.352514119504E+03   -0.31512E-01   -0.26666E-01  8340   0.110E+00    0.540E-01
DAV:   3    -0.352519030092E+03   -0.49106E-02   -0.10343E-02  8700   0.341E-01    0.339E-01
DAV:   4    -0.352518888598E+03    0.14149E-03   -0.77502E-04  9588   0.113E-01    0.255E-01
DAV:   5    -0.352518831184E+03    0.57414E-04   -0.44127E-04  8268   0.368E-02    0.186E-01
DAV:   6    -0.352518989649E+03   -0.15847E-03   -0.67040E-04  8580   0.534E-02    0.639E-02
DAV:   7    -0.352519187390E+03   -0.19774E-03   -0.91725E-05  9084   0.315E-02    0.256E-02
DAV:   8    -0.352519387019E+03   -0.19963E-03   -0.17318E-05  8136   0.962E-03    0.167E-02
DAV:   9    -0.352519577706E+03   -0.19069E-03   -0.42707E-06  7008   0.586E-03    0.117E-02
DAV:  10    -0.352519784775E+03   -0.20707E-03   -0.64360E-06  7332   0.455E-03    0.590E-03
DAV:  11    -0.352519913758E+03   -0.12898E-03   -0.12131E-06  4992   0.263E-03    0.268E-03
DAV:  12    -0.352520010737E+03   -0.96979E-04   -0.71617E-07  4512   0.233E-03    0.200E-03
DAV:  13    -0.352520099427E+03   -0.88691E-04   -0.92937E-07  4536   0.167E-03    0.145E-03
DAV:  14    -0.352520163620E+03   -0.64193E-04   -0.57926E-07  4212   0.138E-03    0.115E-03
DAV:  15    -0.352520225568E+03   -0.61948E-04   -0.68855E-07  4488   0.120E-03    0.781E-04
DAV:  16    -0.352520279296E+03   -0.53728E-04   -0.77451E-07  4584   0.128E-03    0.795E-04
DAV:  17    -0.352520307969E+03   -0.28673E-04   -0.50404E-07  4284   0.122E-03    0.700E-04
DAV:  18    -0.352520320255E+03   -0.12285E-04   -0.37532E-07  4056   0.113E-03    0.549E-04
DAV:  19    -0.352520324506E+03   -0.42513E-05   -0.22914E-07  3804   0.923E-04    0.391E-04
DAV:  20    -0.352520327048E+03   -0.25418E-05   -0.13735E-07  3744   0.696E-04    0.312E-04
DAV:  21    -0.352520328325E+03   -0.12773E-05   -0.72437E-08  3816   0.550E-04    0.179E-04
DAV:  22    -0.352520329598E+03   -0.12733E-05   -0.48839E-08  3720   0.391E-04    0.195E-04
DAV:  23    -0.352520330326E+03   -0.72786E-06   -0.24224E-08  3744   0.356E-04
  14 F= -.36578248E+03 E0= -.36578248E+03  d E =-.328790E-02  mag=    53.0000
 curvature:  -9.98 expect dE=-0.524E-01 dE for cont linesearch -0.316E-03
 ZBRENT: bracketing found
 ZBRENT: interpolating
 opt :  13.3287  next Energy=  -365.782905 (dE=-0.371E-02)
 bond charge predicted
       N       E                     dE             d eps       ncg     rms          rms(c)
DAV:   1    -0.352518831526E+03    0.14981E-02   -0.70550E-01  6540   0.106E+00    0.457E-01
DAV:   2    -0.352524158883E+03   -0.53274E-02   -0.46773E-02  8376   0.466E-01    0.228E-01
DAV:   3    -0.352525063803E+03   -0.90492E-03   -0.16354E-03  8616   0.130E-01    0.139E-01
DAV:   4    -0.352524997688E+03    0.66114E-04   -0.12045E-04  9576   0.393E-02    0.106E-01
DAV:   5    -0.352524946327E+03    0.51362E-04   -0.11360E-04  8460   0.195E-02    0.703E-02
DAV:   6    -0.352524974390E+03   -0.28063E-04   -0.10154E-04  8916   0.217E-02    0.223E-02
DAV:   7    -0.352525031429E+03   -0.57040E-04   -0.10361E-05  8916   0.115E-02    0.104E-02
DAV:   8    -0.352525091209E+03   -0.59780E-04   -0.20802E-06  5508   0.335E-03    0.701E-03
DAV:   9    -0.352525150376E+03   -0.59166E-04   -0.99687E-07  4608   0.260E-03    0.446E-03
DAV:  10    -0.352525207305E+03   -0.56930E-04   -0.15592E-06  5040   0.254E-03    0.268E-03
DAV:  11    -0.352525237150E+03   -0.29844E-04   -0.61839E-07  4080   0.213E-03    0.139E-03
DAV:  12    -0.352525268557E+03   -0.31407E-04   -0.46367E-07  4044   0.164E-03    0.114E-03
DAV:  13    -0.352525287745E+03   -0.19188E-04   -0.26537E-07  3864   0.136E-03    0.834E-04
DAV:  14    -0.352525311008E+03   -0.23263E-04   -0.29219E-07  4248   0.913E-04    0.652E-04
DAV:  15    -0.352525324725E+03   -0.13717E-04   -0.17067E-07  3840   0.843E-04    0.531E-04
DAV:  16    -0.352525340411E+03   -0.15686E-04   -0.23007E-07  4080   0.685E-04    0.530E-04
DAV:  17    -0.352525349243E+03   -0.88322E-05   -0.13762E-07  3852   0.722E-04    0.358E-04
DAV:  18    -0.352525359152E+03   -0.99084E-05   -0.24165E-07  4296   0.621E-04    0.489E-04
DAV:  19    -0.352525360992E+03   -0.18399E-05   -0.85833E-08  3828   0.703E-04    0.198E-04
DAV:  20    -0.352525362057E+03   -0.10653E-05   -0.52881E-08  3696   0.338E-04    0.258E-04
DAV:  21    -0.352525362909E+03   -0.85211E-06   -0.26928E-08  3780   0.386E-04
  15 F= -.36578287E+03 E0= -.36578287E+03  d E =-.367318E-02  mag=    53.0000
 curvature: -13.35 expect dE=-0.387E-01 dE for cont linesearch -0.737E-06
 trial: gam= 5.55969 g(F)=  0.290E-02 g(S)=  0.000E+00 ort = 0.781E-05 (trialstep = 0.122E+00)
 search vector abs. value=  0.372E-01
 bond charge predicted
       N       E                     dE             d eps       ncg     rms          rms(c)
DAV:   1    -0.352525171511E+03    0.19055E-03   -0.14273E-02  6576   0.145E-01    0.620E-02
DAV:   2    -0.352525252729E+03   -0.81218E-04   -0.87206E-04  8304   0.574E-02    0.278E-02
DAV:   3    -0.352525299794E+03   -0.47065E-04   -0.36023E-05  8268   0.179E-02    0.174E-02
DAV:   4    -0.352525296447E+03    0.33470E-05   -0.16881E-06  5496   0.557E-03    0.131E-02
DAV:   5    -0.352525292998E+03    0.34485E-05   -0.22836E-06  5076   0.275E-03    0.959E-03
DAV:   6    -0.352525289084E+03    0.39147E-05   -0.37602E-06  6324   0.316E-03    0.344E-03
DAV:   7    -0.352525292116E+03   -0.30321E-05   -0.40606E-07  3864   0.162E-03    0.175E-03
DAV:   8    -0.352525297486E+03   -0.53702E-05   -0.14480E-07  3600   0.136E-03    0.144E-03
DAV:   9    -0.352525301404E+03   -0.39180E-05   -0.10054E-07  3816   0.843E-04    0.734E-04
DAV:  10    -0.352525305383E+03   -0.39795E-05   -0.84971E-08  3648   0.725E-04    0.626E-04
DAV:  11    -0.352525308320E+03   -0.29362E-05   -0.56274E-08  3756   0.582E-04    0.356E-04
DAV:  12    -0.352525311003E+03   -0.26838E-05   -0.34450E-08  3708   0.465E-04    0.359E-04
DAV:  13    -0.352525313337E+03   -0.23338E-05   -0.20815E-08  3636   0.373E-04    0.212E-04
DAV:  14    -0.352525314922E+03   -0.15853E-05   -0.12527E-08  3732   0.270E-04    0.208E-04
DAV:  15    -0.352525316201E+03   -0.12782E-05   -0.72437E-09  3672   0.236E-04    0.145E-04
DAV:  16    -0.352525317028E+03   -0.82769E-06   -0.25416E-09  3732   0.199E-04
  16 F= -.36578322E+03 E0= -.36578322E+03  d E =-.351788E-03  mag=    53.0000
 ZBRENT: can't locate minimum, use default step
 trial-energy change:   -0.000352  1 .order   -0.000354   -0.000359   -0.000348
 step:   0.4871(harm=  4.2603)  dis= 0.00202  next Energy=  -365.789141 (dE=-0.627E-02)
 bond charge predicted
       N       E                     dE             d eps       ncg     rms          rms(c)
DAV:   1    -0.352523800256E+03    0.15159E-02   -0.12843E-01  6516   0.435E-01    0.186E-01
DAV:   2    -0.352524709528E+03   -0.90927E-03   -0.78314E-03  8220   0.172E-01    0.835E-02
DAV:   3    -0.352525005908E+03   -0.29638E-03   -0.32083E-04  8328   0.538E-02    0.521E-02
DAV:   4    -0.352524991966E+03    0.13942E-04   -0.20948E-05  9528   0.169E-02    0.379E-02
DAV:   5    -0.352524974410E+03    0.17556E-04   -0.12038E-05  8028   0.655E-03    0.276E-02
DAV:   6    -0.352524968471E+03    0.59398E-05   -0.20833E-05  7968   0.793E-03    0.883E-03
DAV:   7    -0.352524987412E+03   -0.18941E-04   -0.23657E-06  5520   0.402E-03    0.447E-03
DAV:   8    -0.352525012712E+03   -0.25301E-04   -0.56554E-07  4320   0.222E-03    0.336E-03
DAV:   9    -0.352525031729E+03   -0.19017E-04   -0.40432E-07  3804   0.189E-03    0.201E-03
DAV:  10    -0.352525057979E+03   -0.26250E-04   -0.62448E-07  4296   0.159E-03    0.138E-03
DAV:  11    -0.352525070203E+03   -0.12224E-04   -0.31236E-07  3816   0.147E-03    0.844E-04
DAV:  12    -0.352525078420E+03   -0.82170E-05   -0.15001E-07  3708   0.968E-04    0.727E-04
DAV:  13    -0.352525088974E+03   -0.10554E-04   -0.10610E-07  3684   0.744E-04    0.521E-04
DAV:  14    -0.352525103504E+03   -0.14530E-04   -0.17057E-07  4032   0.635E-04    0.687E-04
DAV:  15    -0.352525108502E+03   -0.49981E-05   -0.81051E-08  3828   0.648E-04    0.319E-04
DAV:  16    -0.352525111264E+03   -0.27622E-05   -0.48598E-08  3708   0.409E-04    0.348E-04
DAV:  17    -0.352525115072E+03   -0.38075E-05   -0.40455E-08  3672   0.403E-04    0.224E-04
DAV:  18    -0.352525120146E+03   -0.50743E-05   -0.70058E-08  3792   0.380E-04    0.333E-04
DAV:  19    -0.352525122148E+03   -0.20016E-05   -0.42867E-08  3756   0.438E-04    0.191E-04
DAV:  20    -0.352525122595E+03   -0.44708E-06   -0.19898E-08  3828   0.295E-04
  17 F= -.36578422E+03 E0= -.36578422E+03  d E =-.134971E-02  mag=    53.0000
 curvature:  -4.54 expect dE=-0.109E-01 dE for cont linesearch -0.820E-03
 ZBRENT: increasing intervall
 opt :   1.2178  next Energy=  -365.785915 (dE=-0.305E-02)
 bond charge predicted
       N       E                     dE             d eps       ncg     rms          rms(c)
DAV:   1    -0.352519182901E+03    0.59392E-02   -0.51311E-01  6480   0.870E-01    0.371E-01
DAV:   2    -0.352523101311E+03   -0.39184E-02   -0.31198E-02  8244   0.343E-01    0.167E-01
DAV:   3    -0.352524091550E+03   -0.99024E-03   -0.12600E-03  8352   0.107E-01    0.104E-01
DAV:   4    -0.352524057486E+03    0.34064E-04   -0.84209E-05  9588   0.339E-02    0.754E-02
DAV:   5    -0.352524021506E+03    0.35980E-04   -0.46422E-05  8256   0.127E-02    0.553E-02
DAV:   6    -0.352524023901E+03   -0.23942E-05   -0.80070E-05  8124   0.158E-02    0.178E-02
DAV:   7    -0.352524074969E+03   -0.51068E-04   -0.10582E-05  8472   0.815E-03    0.878E-03
DAV:   8    -0.352524135135E+03   -0.60167E-04   -0.13261E-06  5028   0.345E-03    0.592E-03
DAV:   9    -0.352524188313E+03   -0.53178E-04   -0.10268E-06  4548   0.295E-03    0.349E-03
DAV:  10    -0.352524266985E+03   -0.78672E-04   -0.27795E-06  6240   0.283E-03    0.152E-03
DAV:  11    -0.352524293175E+03   -0.26190E-04   -0.37570E-07  3852   0.162E-03    0.137E-03
DAV:  12    -0.352524308838E+03   -0.15664E-04   -0.13380E-07  3744   0.102E-03    0.991E-04
DAV:  13    -0.352524332526E+03   -0.23687E-04   -0.13352E-07  4032   0.827E-04    0.783E-04
DAV:  14    -0.352524362885E+03   -0.30359E-04   -0.22847E-07  4116   0.772E-04    0.682E-04
DAV:  15    -0.352524381662E+03   -0.18776E-04   -0.17523E-07  3864   0.786E-04    0.588E-04
DAV:  16    -0.352524391819E+03   -0.10157E-04   -0.11841E-07  3732   0.670E-04    0.433E-04
DAV:  17    -0.352524402401E+03   -0.10582E-04   -0.12947E-07  3900   0.580E-04    0.403E-04
DAV:  18    -0.352524421089E+03   -0.18688E-04   -0.35719E-07  4368   0.772E-04    0.665E-04
DAV:  19    -0.352524423154E+03   -0.20646E-05   -0.12471E-07  3816   0.878E-04    0.297E-04
DAV:  20    -0.352524424280E+03   -0.11267E-05   -0.74315E-08  3696   0.382E-04    0.329E-04
DAV:  21    -0.352524424761E+03   -0.48046E-06   -0.27228E-08  3876   0.456E-04
  18 F= -.36578590E+03 E0= -.36578590E+03  d E =-.303364E-02  mag=    53.0000
 curvature:  -9.39 expect dE=-0.185E-01 dE for cont linesearch -0.102E-02
 ZBRENT: increasing intervall
 opt :   2.6792  next Energy=  -365.787994 (dE=-0.513E-02)
 bond charge predicted
       N       E                     dE             d eps       ncg     rms          rms(c)
DAV:   1    -0.352501114714E+03    0.23310E-01   -0.20463E+00  6480   0.174E+00    0.741E-01
DAV:   2    -0.352517338958E+03   -0.16224E-01   -0.12365E-01  8244   0.681E-01    0.334E-01
DAV:   3    -0.352520762057E+03   -0.34231E-02   -0.49024E-03  8388   0.209E-01    0.208E-01
DAV:   4    -0.352520676580E+03    0.85476E-04   -0.33864E-04  9600   0.680E-02    0.150E-01
DAV:   5    -0.352520606627E+03    0.69954E-04   -0.17249E-04  8244   0.242E-02    0.111E-01
DAV:   6    -0.352520656360E+03   -0.49734E-04   -0.30583E-04  8256   0.320E-02    0.367E-02
DAV:   7    -0.352520790754E+03   -0.13439E-03   -0.42880E-05  8916   0.166E-02    0.167E-02
DAV:   8    -0.352520940475E+03   -0.14972E-03   -0.62587E-06  7620   0.709E-03    0.104E-02
DAV:   9    -0.352521077928E+03   -0.13745E-03   -0.23195E-06  5940   0.448E-03    0.603E-03
DAV:  10    -0.352521274128E+03   -0.19620E-03   -0.63126E-06  7548   0.451E-03    0.264E-03
DAV:  11    -0.352521335161E+03   -0.61034E-04   -0.63826E-07  4260   0.220E-03    0.204E-03
DAV:  12    -0.352521394547E+03   -0.59386E-04   -0.37847E-07  4128   0.146E-03    0.154E-03
DAV:  13    -0.352521460099E+03   -0.65552E-04   -0.46405E-07  4392   0.119E-03    0.121E-03
DAV:  14    -0.352521524947E+03   -0.64847E-04   -0.55622E-07  4332   0.124E-03    0.106E-03
DAV:  15    -0.352521562758E+03   -0.37811E-04   -0.38074E-07  3996   0.110E-03    0.815E-04
DAV:  16    -0.352521600873E+03   -0.38115E-04   -0.44289E-07  4380   0.106E-03    0.866E-04
DAV:  17    -0.352521633599E+03   -0.32726E-04   -0.50060E-07  4260   0.112E-03    0.820E-04
DAV:  18    -0.352521657907E+03   -0.24308E-04   -0.70915E-07  4608   0.116E-03    0.731E-04
DAV:  19    -0.352521661951E+03   -0.40440E-05   -0.22587E-07  3804   0.105E-03    0.411E-04
DAV:  20    -0.352521663942E+03   -0.19908E-05   -0.13267E-07  3816   0.589E-04    0.401E-04
DAV:  21    -0.352521665881E+03   -0.19387E-05   -0.75678E-08  3768   0.581E-04    0.251E-04
DAV:  22    -0.352521667411E+03   -0.15302E-05   -0.60339E-08  3696   0.386E-04    0.231E-04
DAV:  23    -0.352521668017E+03   -0.60574E-06   -0.26494E-08  3780   0.387E-04
  19 F= -.36578790E+03 E0= -.36578790E+03  d E =-.503018E-02  mag=    53.0000
 curvature: -19.22 expect dE=-0.439E-01 dE for cont linesearch -0.253E-03
 ZBRENT: increasing intervall
 opt :   5.6020  next Energy=  -365.786104 (dE=-0.324E-02)
 bond charge predicted
       N       E                     dE             d eps       ncg     rms          rms(c)
DAV:   1    -0.352436451992E+03    0.85215E-01   -0.80696E+00  6480   0.347E+00    0.148E+00
DAV:   2    -0.352495817201E+03   -0.59365E-01   -0.47616E-01  8220   0.134E+00    0.672E-01
DAV:   3    -0.352507641062E+03   -0.11824E-01   -0.18394E-02  8220   0.389E-01    0.409E-01
DAV:   4    -0.352507388776E+03    0.25229E-03   -0.13833E-03  9660   0.131E-01    0.298E-01
DAV:   5    -0.352507225647E+03    0.16313E-03   -0.61144E-04  8436   0.466E-02    0.225E-01
DAV:   6    -0.352507429553E+03   -0.20391E-03   -0.10637E-03  8496   0.671E-02    0.782E-02
DAV:   7    -0.352507792927E+03   -0.36337E-03   -0.16747E-04  9000   0.343E-02    0.308E-02
DAV:   8    -0.352508150784E+03   -0.35786E-03   -0.24360E-05  8772   0.150E-02    0.193E-02
DAV:   9    -0.352508453038E+03   -0.30225E-03   -0.87576E-06  8784   0.895E-03    0.119E-02
DAV:  10    -0.352508835555E+03   -0.38252E-03   -0.94291E-06  8340   0.624E-03    0.531E-03
DAV:  11    -0.352509033676E+03   -0.19812E-03   -0.19857E-06  5820   0.345E-03    0.355E-03
DAV:  12    -0.352509206355E+03   -0.17268E-03   -0.12414E-06  5004   0.264E-03    0.246E-03
DAV:  13    -0.352509339501E+03   -0.13315E-03   -0.10827E-06  4824   0.171E-03    0.162E-03
DAV:  14    -0.352509470440E+03   -0.13094E-03   -0.11360E-06  4848   0.162E-03    0.163E-03
DAV:  15    -0.352509563206E+03   -0.92765E-04   -0.74946E-07  4524   0.136E-03    0.119E-03
DAV:  16    -0.352509660699E+03   -0.97493E-04   -0.11812E-06  5040   0.149E-03    0.915E-04
DAV:  17    -0.352509739468E+03   -0.78770E-04   -0.11832E-06  4848   0.145E-03    0.972E-04
DAV:  18    -0.352509770025E+03   -0.30556E-04   -0.52681E-07  4440   0.123E-03    0.594E-04
DAV:  19    -0.352509782940E+03   -0.12916E-04   -0.36655E-07  4104   0.109E-03    0.703E-04
DAV:  20    -0.352509786506E+03   -0.35656E-05   -0.17995E-07  3864   0.939E-04    0.324E-04
DAV:  21    -0.352509790114E+03   -0.36077E-05   -0.13261E-07  3756   0.637E-04    0.431E-04
DAV:  22    -0.352509792521E+03   -0.24075E-05   -0.85462E-08  3744   0.607E-04    0.230E-04
DAV:  23    -0.352509793982E+03   -0.14605E-05   -0.57327E-08  3756   0.442E-04    0.262E-04
DAV:  24    -0.352509794523E+03   -0.54130E-06   -0.25712E-08  3780   0.385E-04
  20 F= -.36578550E+03 E0= -.36578550E+03  d E =-.263250E-02  mag=    53.0000
 curvature: 136.38 expect dE= 0.106E+01 dE for cont linesearch  0.219E-01
 ZBRENT: bracketing found
 ZBRENT: interpolating
 opt :   3.3299  next Energy=  -365.788125 (dE=-0.526E-02)
 bond charge predicted
       N       E                     dE             d eps       ncg     rms          rms(c)
DAV:   1    -0.352473614181E+03    0.36180E-01   -0.49035E+00  6480   0.270E+00    0.113E+00
DAV:   2    -0.352511208860E+03   -0.37595E-01   -0.28444E-01  8292   0.104E+00    0.494E-01
DAV:   3    -0.352518430818E+03   -0.72220E-02   -0.96759E-03  7992   0.240E-01    0.298E-01
DAV:   4    -0.352518172071E+03    0.25875E-03   -0.64878E-04  9480   0.673E-02    0.227E-01
DAV:   5    -0.352517910803E+03    0.26127E-03   -0.63048E-04  8604   0.524E-02    0.154E-01
DAV:   6    -0.352518097169E+03   -0.18637E-03   -0.55078E-04  8904   0.461E-02    0.460E-02
DAV:   7    -0.352518374442E+03   -0.27727E-03   -0.52935E-05  9000   0.223E-02    0.239E-02
DAV:   8    -0.352518676330E+03   -0.30189E-03   -0.12120E-05  9000   0.994E-03    0.137E-02
DAV:   9    -0.352518936537E+03   -0.26021E-03   -0.50876E-06  7104   0.618E-03    0.664E-03
DAV:  10    -0.352519189133E+03   -0.25260E-03   -0.60533E-06  7296   0.398E-03    0.284E-03
DAV:  11    -0.352519320526E+03   -0.13139E-03   -0.78257E-07  4752   0.221E-03    0.256E-03
DAV:  12    -0.352519401784E+03   -0.81258E-04   -0.50677E-07  4320   0.175E-03    0.181E-03
DAV:  13    -0.352519502800E+03   -0.10102E-03   -0.92579E-07  4620   0.146E-03    0.151E-03
DAV:  14    -0.352519612061E+03   -0.10926E-03   -0.11273E-06  4884   0.144E-03    0.107E-03
DAV:  15    -0.352519694146E+03   -0.82086E-04   -0.92690E-07  4728   0.129E-03    0.731E-04
DAV:  16    -0.352519727382E+03   -0.33235E-04   -0.35580E-07  4092   0.119E-03    0.655E-04
DAV:  17    -0.352519765483E+03   -0.38102E-04   -0.65013E-07  4572   0.103E-03    0.611E-04
DAV:  18    -0.352519789151E+03   -0.23668E-04   -0.48504E-07  4380   0.118E-03    0.608E-04
DAV:  19    -0.352519796143E+03   -0.69919E-05   -0.25428E-07  3924   0.960E-04    0.401E-04
DAV:  20    -0.352519799376E+03   -0.32330E-05   -0.16254E-07  3780   0.730E-04    0.306E-04
DAV:  21    -0.352519801500E+03   -0.21242E-05   -0.92970E-08  3876   0.608E-04    0.240E-04
DAV:  22    -0.352519802940E+03   -0.14399E-05   -0.60888E-08  3852   0.463E-04    0.183E-04
DAV:  23    -0.352519803992E+03   -0.10521E-05   -0.41820E-08  3768   0.404E-04    0.184E-04
DAV:  24    -0.352519804186E+03   -0.19398E-06   -0.16147E-08  3876   0.319E-04
  21 F= -.36578815E+03 E0= -.36578815E+03  d E =-.527911E-02  mag=    53.0000
 curvature:  -1.42 expect dE=-0.416E-02 dE for cont linesearch -0.129E-06
 trial: gam= 0.71099 g(F)=  0.293E-02 g(S)=  0.000E+00 ort = 0.581E-04 (trialstep = 0.763E+00)
 search vector abs. value=  0.218E-01
 bond charge predicted
       N       E                     dE             d eps       ncg     rms          rms(c)
DAV:   1    -0.352519041171E+03    0.76282E-03   -0.33390E-01  6504   0.726E-01    0.323E-01
DAV:   2    -0.352521373128E+03   -0.23320E-02   -0.20684E-02  8352   0.318E-01    0.167E-01
DAV:   3    -0.352522100582E+03   -0.72745E-03   -0.89244E-04  8532   0.104E-01    0.983E-02
DAV:   4    -0.352522011750E+03    0.88832E-04   -0.61652E-05  9696   0.335E-02    0.724E-02
DAV:   5    -0.352521893806E+03    0.11794E-03   -0.47686E-05  8304   0.126E-02    0.505E-02
DAV:   6    -0.352521793301E+03    0.10050E-03   -0.54912E-05  9012   0.154E-02    0.165E-02
DAV:   7    -0.352521855132E+03   -0.61830E-04   -0.69357E-06  8004   0.862E-03    0.917E-03
DAV:   8    -0.352521925636E+03   -0.70504E-04   -0.14445E-06  5160   0.342E-03    0.631E-03
DAV:   9    -0.352522013652E+03   -0.88016E-04   -0.10038E-06  4620   0.281E-03    0.398E-03
DAV:  10    -0.352522109604E+03   -0.95953E-04   -0.19031E-06  5328   0.237E-03    0.216E-03
DAV:  11    -0.352522159492E+03   -0.49888E-04   -0.53417E-07  4176   0.185E-03    0.139E-03
DAV:  12    -0.352522193027E+03   -0.33535E-04   -0.32534E-07  3828   0.138E-03    0.105E-03
DAV:  13    -0.352522231834E+03   -0.38807E-04   -0.32132E-07  4068   0.118E-03    0.100E-03
DAV:  14    -0.352522285229E+03   -0.53395E-04   -0.60982E-07  4656   0.109E-03    0.797E-04
DAV:  15    -0.352522314485E+03   -0.29256E-04   -0.34900E-07  4056   0.109E-03    0.762E-04
DAV:  16    -0.352522330681E+03   -0.16196E-04   -0.26131E-07  3852   0.952E-04    0.589E-04
DAV:  17    -0.352522348821E+03   -0.18140E-04   -0.31956E-07  4080   0.838E-04    0.616E-04
DAV:  18    -0.352522366182E+03   -0.17362E-04   -0.42349E-07  4416   0.966E-04    0.680E-04
DAV:  19    -0.352522370488E+03   -0.43057E-05   -0.24046E-07  3888   0.983E-04    0.355E-04
DAV:  20    -0.352522371313E+03   -0.82477E-06   -0.12653E-07  3792   0.644E-04
  22 F= -.36579009E+03 E0= -.36579009E+03  d E =-.194688E-02  mag=    53.0000
 trial-energy change:   -0.001947  1 .order   -0.001964   -0.002270   -0.001659
 step:   2.8363(harm=  2.8363)  dis= 0.00856  next Energy=  -365.792363 (dE=-0.422E-02)
 bond charge predicted
       N       E                     dE             d eps       ncg     rms          rms(c)
DAV:   1    -0.352501764534E+03    0.20606E-01   -0.24549E+00  6480   0.197E+00    0.872E-01
DAV:   2    -0.352520896311E+03   -0.19132E-01   -0.15267E-01  8328   0.863E-01    0.462E-01
DAV:   3    -0.352524970301E+03   -0.40740E-02   -0.64870E-03  8724   0.279E-01    0.268E-01
DAV:   4    -0.352524582892E+03    0.38741E-03   -0.46076E-04  9696   0.913E-02    0.196E-01
DAV:   5    -0.352524138255E+03    0.44464E-03   -0.33158E-04  8412   0.335E-02    0.138E-01
DAV:   6    -0.352523850818E+03    0.28744E-03   -0.37885E-04  9036   0.418E-02    0.459E-02
DAV:   7    -0.352524114807E+03   -0.26399E-03   -0.54880E-05  9096   0.247E-02    0.245E-02
DAV:   8    -0.352524397164E+03   -0.28236E-03   -0.11236E-05  8244   0.948E-03    0.159E-02
DAV:   9    -0.352524750224E+03   -0.35306E-03   -0.43901E-06  7056   0.636E-03    0.110E-02
DAV:  10    -0.352525155118E+03   -0.40489E-03   -0.71286E-06  7416   0.448E-03    0.503E-03
DAV:  11    -0.352525378504E+03   -0.22339E-03   -0.13061E-06  5268   0.254E-03    0.302E-03
DAV:  12    -0.352525530771E+03   -0.15227E-03   -0.90011E-07  4596   0.224E-03    0.248E-03
DAV:  13    -0.352525705955E+03   -0.17518E-03   -0.17716E-06  5412   0.202E-03    0.159E-03
DAV:  14    -0.352525874449E+03   -0.16849E-03   -0.13863E-06  5160   0.149E-03    0.145E-03
DAV:  15    -0.352525981894E+03   -0.10745E-03   -0.78225E-07  4680   0.125E-03    0.113E-03
DAV:  16    -0.352526111634E+03   -0.12974E-03   -0.19038E-06  5448   0.158E-03    0.883E-04
DAV:  17    -0.352526194342E+03   -0.82708E-04   -0.15598E-06  5304   0.139E-03    0.493E-04
DAV:  18    -0.352526211349E+03   -0.17007E-04   -0.33468E-07  4380   0.104E-03    0.499E-04
DAV:  19    -0.352526215327E+03   -0.39779E-05   -0.16638E-07  3780   0.832E-04    0.219E-04
DAV:  20    -0.352526217630E+03   -0.23029E-05   -0.10922E-07  3852   0.620E-04    0.290E-04
DAV:  21    -0.352526218603E+03   -0.97312E-06   -0.58259E-08  3756   0.531E-04
  23 F= -.36579224E+03 E0= -.36579224E+03  d E =-.409066E-02  mag=    53.0000
 curvature: -10.40 expect dE=-0.182E-01 dE for cont linesearch -0.240E-05
 trial: gam= 0.53077 g(F)=  0.175E-02 g(S)=  0.000E+00 ort =-0.710E-04 (trialstep = 0.118E+01)
 search vector abs. value=  0.782E-02
 bond charge predicted
       N       E                     dE             d eps       ncg     rms          rms(c)
DAV:   1    -0.352525863482E+03    0.35415E-03   -0.37756E-01  6612   0.799E-01    0.351E-01
DAV:   2    -0.352528362445E+03   -0.24990E-02   -0.23348E-02  8412   0.320E-01    0.157E-01
DAV:   3    -0.352528866745E+03   -0.50430E-03   -0.86094E-04  8544   0.869E-02    0.103E-01
DAV:   4    -0.352528831755E+03    0.34990E-04   -0.65241E-05  9624   0.294E-02    0.780E-02
DAV:   5    -0.352528798513E+03    0.33241E-04   -0.34955E-05  8892   0.122E-02    0.581E-02
DAV:   6    -0.352528792367E+03    0.61463E-05   -0.60985E-05  7860   0.129E-02    0.217E-02
DAV:   7    -0.352528811750E+03   -0.19384E-04   -0.10661E-05  8340   0.721E-03    0.854E-03
DAV:   8    -0.352528840339E+03   -0.28589E-04   -0.79813E-07  4500   0.308E-03    0.603E-03
DAV:   9    -0.352528862295E+03   -0.21956E-04   -0.74425E-07  4176   0.304E-03    0.338E-03
DAV:  10    -0.352528892308E+03   -0.30013E-04   -0.19042E-06  4932   0.263E-03    0.205E-03
DAV:  11    -0.352528900836E+03   -0.85280E-05   -0.57052E-07  3828   0.225E-03    0.166E-03
DAV:  12    -0.352528906703E+03   -0.58677E-05   -0.16794E-07  3804   0.118E-03    0.121E-03
DAV:  13    -0.352528915157E+03   -0.84534E-05   -0.94177E-08  3768   0.849E-04    0.591E-04
DAV:  14    -0.352528926130E+03   -0.10973E-04   -0.12142E-07  3936   0.656E-04    0.675E-04
DAV:  15    -0.352528932475E+03   -0.63453E-05   -0.67057E-08  3804   0.626E-04    0.403E-04
DAV:  16    -0.352528936720E+03   -0.42453E-05   -0.50101E-08  3708   0.416E-04    0.312E-04
DAV:  17    -0.352528942077E+03   -0.53566E-05   -0.53459E-08  3816   0.428E-04    0.269E-04
DAV:  18    -0.352528947085E+03   -0.50082E-05   -0.72073E-08  3984   0.428E-04    0.314E-04
DAV:  19    -0.352528948817E+03   -0.17318E-05   -0.40923E-08  3792   0.441E-04    0.185E-04
DAV:  20    -0.352528949453E+03   -0.63605E-06   -0.21089E-08  3816   0.298E-04
  24 F= -.36579386E+03 E0= -.36579386E+03  d E =-.162520E-02  mag=    53.0000
 trial-energy change:   -0.001625  1 .order   -0.001629   -0.002018   -0.001240
 step:   3.0558(harm=  3.0558)  dis= 0.00697  next Energy=  -365.794855 (dE=-0.262E-02)
 bond charge predicted
       N       E                     dE             d eps       ncg     rms          rms(c)
DAV:   1    -0.352523888578E+03    0.50602E-02   -0.95858E-01  6480   0.127E+00    0.559E-01
DAV:   2    -0.352530444942E+03   -0.65564E-02   -0.59373E-02  8388   0.511E-01    0.251E-01
DAV:   3    -0.352531531702E+03   -0.10868E-02   -0.20028E-03  8520   0.137E-01    0.164E-01
DAV:   4    -0.352531457960E+03    0.73742E-04   -0.16470E-04  9600   0.463E-02    0.125E-01
DAV:   5    -0.352531386490E+03    0.71470E-04   -0.87923E-05  8868   0.192E-02    0.928E-02
DAV:   6    -0.352531378354E+03    0.81368E-05   -0.15382E-04  7920   0.206E-02    0.347E-02
DAV:   7    -0.352531417296E+03   -0.38942E-04   -0.26999E-05  9252   0.116E-02    0.135E-02
DAV:   8    -0.352531472347E+03   -0.55052E-04   -0.20163E-06  5160   0.474E-03    0.902E-03
DAV:   9    -0.352531518847E+03   -0.46500E-04   -0.16731E-06  4740   0.449E-03    0.494E-03
DAV:  10    -0.352531577378E+03   -0.58530E-04   -0.52823E-06  6768   0.395E-03    0.262E-03
DAV:  11    -0.352531591371E+03   -0.13994E-04   -0.49505E-07  3876   0.205E-03    0.250E-03
DAV:  12    -0.352531603283E+03   -0.11911E-04   -0.15719E-07  3804   0.112E-03    0.171E-03
DAV:  13    -0.352531623191E+03   -0.19909E-04   -0.17166E-07  3948   0.100E-03    0.921E-04
DAV:  14    -0.352531642817E+03   -0.19625E-04   -0.19383E-07  3984   0.956E-04    0.813E-04
DAV:  15    -0.352531655743E+03   -0.12926E-04   -0.13166E-07  3768   0.802E-04    0.573E-04
DAV:  16    -0.352531664735E+03   -0.89921E-05   -0.94420E-08  3828   0.590E-04    0.448E-04
DAV:  17    -0.352531673753E+03   -0.90179E-05   -0.98230E-08  3828   0.562E-04    0.443E-04
DAV:  18    -0.352531686301E+03   -0.12548E-04   -0.18429E-07  4152   0.621E-04    0.460E-04
DAV:  19    -0.352531691194E+03   -0.48931E-05   -0.11501E-07  3840   0.685E-04    0.337E-04
DAV:  20    -0.352531692707E+03   -0.15133E-05   -0.66949E-08  3816   0.487E-04    0.227E-04
DAV:  21    -0.352531693805E+03   -0.10979E-05   -0.39665E-08  3732   0.398E-04    0.190E-04
DAV:  22    -0.352531694940E+03   -0.11353E-05   -0.35190E-08  3732   0.323E-04    0.201E-04
DAV:  23    -0.352531695304E+03   -0.36371E-06   -0.15955E-08  3780   0.316E-04
  25 F= -.36579483E+03 E0= -.36579483E+03  d E =-.259386E-02  mag=    53.0000
 curvature:  -6.97 expect dE=-0.116E-01 dE for cont linesearch -0.249E-06
 trial: gam= 0.89440 g(F)=  0.166E-02 g(S)=  0.000E+00 ort =-0.167E-04 (trialstep = 0.154E+01)
 search vector abs. value=  0.789E-02
 bond charge predicted
       N       E                     dE             d eps       ncg     rms          rms(c)
DAV:   1    -0.352527575569E+03    0.41194E-02   -0.84498E-01  6564   0.122E+00    0.503E-01
DAV:   2    -0.352532603750E+03   -0.50282E-02   -0.53164E-02  8460   0.496E-01    0.250E-01
DAV:   3    -0.352533558653E+03   -0.95490E-03   -0.19495E-03  8748   0.134E-01    0.154E-01
DAV:   4    -0.352533330275E+03    0.22838E-03   -0.12694E-04  9696   0.395E-02    0.120E-01
DAV:   5    -0.352533030965E+03    0.29931E-03   -0.93402E-05  8700   0.175E-02    0.856E-02
DAV:   6    -0.352532713848E+03    0.31712E-03   -0.14373E-04  8880   0.231E-02    0.304E-02
DAV:   7    -0.352532815934E+03   -0.10209E-03   -0.20926E-05  9264   0.134E-02    0.139E-02
DAV:   8    -0.352533019071E+03   -0.20314E-03   -0.29944E-06  6084   0.577E-03    0.900E-03
DAV:   9    -0.352533231961E+03   -0.21289E-03   -0.27124E-06  6000   0.389E-03    0.465E-03
DAV:  10    -0.352533443745E+03   -0.21178E-03   -0.28374E-06  5952   0.280E-03    0.247E-03
DAV:  11    -0.352533583958E+03   -0.14021E-03   -0.84630E-07  4632   0.211E-03    0.194E-03
DAV:  12    -0.352533699183E+03   -0.11522E-03   -0.80293E-07  4524   0.188E-03    0.177E-03
DAV:  13    -0.352533780482E+03   -0.81299E-04   -0.66720E-07  4320   0.169E-03    0.142E-03
DAV:  14    -0.352533920616E+03   -0.14013E-03   -0.22142E-06  5712   0.162E-03    0.828E-04
DAV:  15    -0.352533999111E+03   -0.78495E-04   -0.57796E-07  4692   0.107E-03    0.105E-03
DAV:  16    -0.352534061853E+03   -0.62741E-04   -0.94449E-07  4764   0.123E-03    0.685E-04
DAV:  17    -0.352534088056E+03   -0.26203E-04   -0.53564E-07  4512   0.120E-03    0.675E-04
DAV:  18    -0.352534096866E+03   -0.88103E-05   -0.35391E-07  4056   0.109E-03    0.256E-04
DAV:  19    -0.352534098741E+03   -0.18748E-05   -0.18748E-07  3828   0.881E-04    0.344E-04
DAV:  20    -0.352534099321E+03   -0.57954E-06   -0.10203E-07  3696   0.614E-04
  26 F= -.36579660E+03 E0= -.36579660E+03  d E =-.177206E-02  mag=    53.0000
 trial-energy change:   -0.001772  1 .order   -0.001753   -0.002538   -0.000969
 step:   2.3966(harm=  2.4914)  dis= 0.00657  next Energy=  -365.796876 (dE=-0.204E-02)
 bond charge predicted
       N       E                     dE             d eps       ncg     rms          rms(c)
DAV:   1    -0.352532753683E+03    0.13451E-02   -0.26123E-01  6672   0.680E-01    0.279E-01
DAV:   2    -0.352534203419E+03   -0.14497E-02   -0.16433E-02  8364   0.276E-01    0.140E-01
DAV:   3    -0.352534560020E+03   -0.35660E-03   -0.59458E-04  8700   0.743E-02    0.852E-02
DAV:   4    -0.352534467624E+03    0.92396E-04   -0.38900E-05  9708   0.216E-02    0.667E-02
DAV:   5    -0.352534329735E+03    0.13789E-03   -0.30528E-05  8544   0.994E-03    0.470E-02
DAV:   6    -0.352534177056E+03    0.15268E-03   -0.43920E-05  8964   0.128E-02    0.166E-02
DAV:   7    -0.352534216721E+03   -0.39666E-04   -0.56365E-06  7452   0.729E-03    0.795E-03
DAV:   8    -0.352534308278E+03   -0.91557E-04   -0.12701E-06  4872   0.358E-03    0.532E-03
DAV:   9    -0.352534394863E+03   -0.86585E-04   -0.11143E-06  4464   0.254E-03    0.306E-03
DAV:  10    -0.352534476756E+03   -0.81892E-04   -0.12476E-06  4740   0.215E-03    0.215E-03
DAV:  11    -0.352534527377E+03   -0.50621E-04   -0.60561E-07  3996   0.189E-03    0.129E-03
DAV:  12    -0.352534581943E+03   -0.54566E-04   -0.56551E-07  4248   0.156E-03    0.127E-03
DAV:  13    -0.352534631556E+03   -0.49613E-04   -0.51113E-07  4380   0.154E-03    0.108E-03
DAV:  14    -0.352534679722E+03   -0.48167E-04   -0.68779E-07  4368   0.124E-03    0.898E-04
DAV:  15    -0.352534725923E+03   -0.46201E-04   -0.79076E-07  4656   0.125E-03    0.939E-04
DAV:  16    -0.352534749830E+03   -0.23907E-04   -0.48516E-07  4296   0.114E-03    0.638E-04
DAV:  17    -0.352534761396E+03   -0.11566E-04   -0.35877E-07  4032   0.103E-03    0.638E-04
DAV:  18    -0.352534766785E+03   -0.53888E-05   -0.26108E-07  3936   0.920E-04    0.456E-04
DAV:  19    -0.352534768117E+03   -0.13325E-05   -0.14471E-07  3780   0.755E-04    0.320E-04
DAV:  20    -0.352534768524E+03   -0.40636E-06   -0.78417E-08  3768   0.530E-04
  27 F= -.36579691E+03 E0= -.36579691E+03  d E =-.208228E-02  mag=    53.0000
 curvature:  -5.90 expect dE=-0.423E-02 dE for cont linesearch -0.327E-05
 trial: gam= 0.38123 g(F)=  0.716E-03 g(S)=  0.000E+00 ort = 0.661E-04 (trialstep = 0.171E+01)
 search vector abs. value=  0.191E-02
 bond charge predicted
       N       E                     dE             d eps       ncg     rms          rms(c)
DAV:   1    -0.352533402672E+03    0.13654E-02   -0.37437E-01  6612   0.814E-01    0.341E-01
DAV:   2    -0.352535588837E+03   -0.21862E-02   -0.24275E-02  8832   0.334E-01    0.163E-01
DAV:   3    -0.352535747797E+03   -0.15896E-03   -0.57028E-04  8904   0.778E-02    0.107E-01
DAV:   4    -0.352535706810E+03    0.40988E-04   -0.57058E-05  9468   0.240E-02    0.809E-02
DAV:   5    -0.352535656815E+03    0.49995E-04   -0.51079E-05  7476   0.120E-02    0.531E-02
DAV:   6    -0.352535643442E+03    0.13374E-04   -0.51468E-05  8796   0.123E-02    0.173E-02
DAV:   7    -0.352535656580E+03   -0.13139E-04   -0.53358E-06  6780   0.638E-03    0.852E-03
DAV:   8    -0.352535677288E+03   -0.20707E-04   -0.77925E-07  4176   0.400E-03    0.526E-03
DAV:   9    -0.352535697508E+03   -0.20221E-04   -0.77702E-07  4536   0.314E-03    0.296E-03
DAV:  10    -0.352535716717E+03   -0.19208E-04   -0.83421E-07  3960   0.216E-03    0.187E-03
DAV:  11    -0.352535726972E+03   -0.10255E-04   -0.44208E-07  3768   0.186E-03    0.127E-03
DAV:  12    -0.352535737028E+03   -0.10057E-04   -0.23907E-07  3744   0.133E-03    0.926E-04
DAV:  13    -0.352535750377E+03   -0.13349E-04   -0.19196E-07  3996   0.101E-03    0.818E-04
DAV:  14    -0.352535757768E+03   -0.73905E-05   -0.12144E-07  3792   0.801E-04    0.538E-04
DAV:  15    -0.352535761895E+03   -0.41268E-05   -0.75874E-08  3768   0.569E-04    0.468E-04
DAV:  16    -0.352535766893E+03   -0.49986E-05   -0.60547E-08  3720   0.449E-04    0.318E-04
DAV:  17    -0.352535773131E+03   -0.62380E-05   -0.79917E-08  3912   0.448E-04    0.301E-04
DAV:  18    -0.352535776837E+03   -0.37057E-05   -0.61134E-08  3732   0.488E-04    0.372E-04
DAV:  19    -0.352535778244E+03   -0.14069E-05   -0.38288E-08  3792   0.386E-04    0.175E-04
DAV:  20    -0.352535779246E+03   -0.10019E-05   -0.23913E-08  3756   0.325E-04    0.262E-04
DAV:  21    -0.352535780211E+03   -0.96541E-06   -0.23669E-08  3768   0.279E-04
  28 F= -.36579781E+03 E0= -.36579780E+03  d E =-.894607E-03  mag=    53.0000
 trial-energy change:   -0.000895  1 .order   -0.000886   -0.001268   -0.000503
 step:   2.7222(harm=  2.8363)  dis= 0.00642  next Energy=  -365.797958 (dE=-0.105E-02)
 bond charge predicted
       N       E                     dE             d eps       ncg     rms          rms(c)
DAV:   1    -0.352535190987E+03    0.58826E-03   -0.13060E-01  6648   0.481E-01    0.201E-01
DAV:   2    -0.352535920583E+03   -0.72960E-03   -0.84735E-03  8832   0.197E-01    0.967E-02
DAV:   3    -0.352536002891E+03   -0.82308E-04   -0.19895E-04  8808   0.462E-02    0.630E-02
DAV:   4    -0.352535987166E+03    0.15725E-04   -0.19871E-05  9444   0.143E-02    0.478E-02
DAV:   5    -0.352535964833E+03    0.22334E-04   -0.18040E-05  7284   0.710E-03    0.313E-02
DAV:   6    -0.352535958165E+03    0.66678E-05   -0.17835E-05  8892   0.733E-03    0.103E-02
DAV:   7    -0.352535963967E+03   -0.58025E-05   -0.14052E-06  4296   0.387E-03    0.594E-03
DAV:   8    -0.352535973732E+03   -0.97650E-05   -0.57382E-07  4092   0.323E-03    0.343E-03
DAV:   9    -0.352535983733E+03   -0.10000E-04   -0.49889E-07  3864   0.199E-03    0.187E-03
DAV:  10    -0.352535991233E+03   -0.75006E-05   -0.31249E-07  3864   0.158E-03    0.145E-03
DAV:  11    -0.352535996379E+03   -0.51455E-05   -0.15802E-07  3756   0.103E-03    0.102E-03
DAV:  12    -0.352536002065E+03   -0.56860E-05   -0.93578E-08  3756   0.828E-04    0.744E-04
DAV:  13    -0.352536008052E+03   -0.59874E-05   -0.80782E-08  3828   0.623E-04    0.556E-04
DAV:  14    -0.352536011366E+03   -0.33139E-05   -0.47322E-08  3780   0.525E-04    0.379E-04
DAV:  15    -0.352536013165E+03   -0.17984E-05   -0.26622E-08  3780   0.350E-04    0.300E-04
DAV:  16    -0.352536016241E+03   -0.30760E-05   -0.26471E-08  3684   0.317E-04    0.208E-04
DAV:  17    -0.352536019445E+03   -0.32049E-05   -0.40142E-08  3792   0.323E-04    0.265E-04
DAV:  18    -0.352536020221E+03   -0.77520E-06   -0.14684E-08  3852   0.338E-04
  29 F= -.36579798E+03 E0= -.36579797E+03  d E =-.106244E-02  mag=    53.0000
 curvature:  -3.62 expect dE=-0.181E-02 dE for cont linesearch -0.191E-05
 trial: gam= 0.70469 g(F)=  0.500E-03 g(S)=  0.000E+00 ort = 0.317E-04 (trialstep = 0.191E+01)
 search vector abs. value=  0.149E-02
 bond charge predicted
       N       E                     dE             d eps       ncg     rms          rms(c)
DAV:   1    -0.352534516850E+03    0.15026E-02   -0.43296E-01  6564   0.868E-01    0.326E-01
DAV:   2    -0.352536976656E+03   -0.24598E-02   -0.28484E-02  8904   0.354E-01    0.156E-01
DAV:   3    -0.352537216741E+03   -0.24008E-03   -0.44841E-04  8544   0.552E-02    0.102E-01
DAV:   4    -0.352537160663E+03    0.56078E-04   -0.55571E-05  9240   0.151E-02    0.787E-02
DAV:   5    -0.352537053264E+03    0.10740E-03   -0.66560E-05  8664   0.170E-02    0.485E-02
DAV:   6    -0.352537008212E+03    0.45052E-04   -0.45840E-05  9240   0.133E-02    0.160E-02
DAV:   7    -0.352537028195E+03   -0.19983E-04   -0.31778E-06  6024   0.684E-03    0.854E-03
DAV:   8    -0.352537072250E+03   -0.44054E-04   -0.11893E-06  4572   0.381E-03    0.460E-03
DAV:   9    -0.352537111915E+03   -0.39666E-04   -0.10616E-06  4140   0.238E-03    0.227E-03
DAV:  10    -0.352537142982E+03   -0.31067E-04   -0.65268E-07  4020   0.226E-03    0.196E-03
DAV:  11    -0.352537161723E+03   -0.18740E-04   -0.40737E-07  3828   0.161E-03    0.116E-03
DAV:  12    -0.352537189382E+03   -0.27659E-04   -0.36006E-07  4116   0.140E-03    0.132E-03
DAV:  13    -0.352537210037E+03   -0.20654E-04   -0.28714E-07  3876   0.114E-03    0.637E-04
DAV:  14    -0.352537227837E+03   -0.17801E-04   -0.26683E-07  4020   0.881E-04    0.806E-04
DAV:  15    -0.352537235750E+03   -0.79127E-05   -0.13704E-07  3828   0.811E-04    0.411E-04
DAV:  16    -0.352537245923E+03   -0.10173E-04   -0.14814E-07  3828   0.546E-04    0.467E-04
DAV:  17    -0.352537260210E+03   -0.14287E-04   -0.20889E-07  4104   0.738E-04    0.580E-04
DAV:  18    -0.352537265922E+03   -0.57122E-05   -0.15249E-07  3816   0.734E-04    0.319E-04
DAV:  19    -0.352537268760E+03   -0.28380E-05   -0.11159E-07  3852   0.593E-04    0.479E-04
DAV:  20    -0.352537270020E+03   -0.12596E-05   -0.67507E-08  3768   0.501E-04    0.129E-04
DAV:  21    -0.352537270866E+03   -0.84631E-06   -0.48366E-08  3804   0.384E-04
  30 F= -.36579878E+03 E0= -.36579877E+03  d E =-.804013E-03  mag=    53.0001
 trial-energy change:   -0.000804  1 .order   -0.000809   -0.001000   -0.000618
 step:   6.0464(harm=  5.0167)  dis= 0.01355  next Energy=  -365.799397 (dE=-0.142E-02)
 reached required accuracy - stopping structural energy minimisation
