33
Lattice="12.209290919353347 0.0111018667517055 0.0 -6.095031104946047 10.579185038081226 0.0 0.0 0.0 17.6887664795" Properties=species:S:1:pos:R:3:momenta:R:3 pbc="T T T"
Cr      -0.20091768       3.57710151       5.96201730       0.00000000       0.00000000       0.00000000
Cr      -3.18982746       8.90183794       5.96774550       0.00000000       0.00000000       0.00000000
Cr       5.99454331       3.59919012       5.96776672       0.00000000       0.00000000       0.00000000
Cr       2.91568395       8.97557191       5.97357876       0.00000000       0.00000000       0.00000000
Cr       9.00811763       1.85926579       5.96772214       0.00000000       0.00000000       0.00000000
Cr       6.01863644       7.18359238       5.97421544       0.00000000       0.00000000       0.00000000
Cr       2.90235625       1.78636288       5.96132757       0.00000000       0.00000000       0.00000000
Cr      -0.17554032       7.16156995       5.96793115       0.00000000       0.00000000       0.00000000
Cl      -1.07219518       5.39152697       4.66869442       0.00000000       0.00000000       0.00000000
Cl       2.02598774       0.01033595       4.56453757       0.00000000       0.00000000       0.00000000
Cl       4.97003854       5.31354226       4.58092999       0.00000000       0.00000000       0.00000000
Cl       8.11256349       0.14113111       4.59132258       0.00000000       0.00000000       0.00000000
Cl       1.89194975       3.61372099       4.59715417       0.00000000       0.00000000       0.00000000
Cl      -1.21240178       8.77234646       4.60819338       0.00000000       0.00000000       0.00000000
Cl       7.90686649       3.50760030       4.60823713       0.00000000       0.00000000       0.00000000
Cl       4.88717117       8.80583975       4.64777356       0.00000000       0.00000000       0.00000000
Cl      10.90739145       1.94037512       4.56304656       0.00000000       0.00000000       0.00000000
Cl       7.97783576       7.27866601       4.59222315       0.00000000       0.00000000       0.00000000
Cl       4.90967936       1.93767446       4.66907590       0.00000000       0.00000000       0.00000000
Cl       1.82080822       7.13015145       4.58044157       0.00000000       0.00000000       0.00000000
Cl      10.04755266       3.49332279       7.34420565       0.00000000       0.00000000       0.00000000
Cl       7.11872157       8.83076833       7.37088753       0.00000000       0.00000000       0.00000000
Cl       3.99768228       3.62893656       7.35446382       0.00000000       0.00000000       0.00000000
Cl       0.90910650       8.82349117       7.26653784       0.00000000       0.00000000       0.00000000
Cl       0.85023661       5.44921722       7.35530477       0.00000000       0.00000000       0.00000000
Cl       3.79977714       0.04230972       7.34261658       0.00000000       0.00000000       0.00000000
Cl       6.89092882       5.36944938       7.26607639       0.00000000       0.00000000       0.00000000
Cl       9.88726977       0.17297716       7.37163890       0.00000000       0.00000000       0.00000000
Cl       0.93227277       1.95478181       7.28770251       0.00000000       0.00000000       0.00000000
Cl      -2.08894182       7.25425865       7.32694324       0.00000000       0.00000000       0.00000000
Cl       7.02988422       1.98876728       7.32670538       0.00000000       0.00000000       0.00000000
Cl       3.93015535       7.14567252       7.33825595       0.00000000       0.00000000       0.00000000
Fe       2.90936091       5.38034250       5.96801025       0.00000000       0.00000000       0.00000000
