CrCl3 2x2 Clean Substrate (D3, U=0) (a_2
    1.000000000000000     
    12.0925489970493256    0.0000000000000000    0.0000000000000000
    -6.0462744985246628   10.4724546279527502    0.0000000000000000
     0.0000000000000000    0.0000000000000000   20.0000000000000000
   Cr   Cl
     8    24
Direct
     0.1666666666666714    0.3333333333333286    0.5000000000000000
     0.3333333333333286    0.1666666666666714    0.5000000000000000
     0.6666666666666714    0.3333333333333286    0.5000000000000000
     0.8333333333333286    0.1666666666666714    0.5000000000000000
     0.1666666666666714    0.8333333333333286    0.5000000000000000
     0.3333333333333286    0.6666666666666714    0.5000000000000000
     0.6666666666666714    0.8333333333333286    0.5000000000000000
     0.8333333333333286    0.6666666666666714    0.5000000000000000
     0.1790379327868337    0.5000000000000000    0.4332347329612576
     0.5000000000000000    0.1790379327868337    0.4332347329612576
     0.3209620672131663    0.3209620672131663    0.4332347329612576
     0.3209620672131663    0.5000000000000000    0.5667652670387424
     0.0000000000000000    0.3209620672131663    0.5667652670387424
     0.1790379327868337    0.1790379327868337    0.5667652670387424
     0.6790379327868337    0.5000000000000000    0.4332347329612576
     0.0000000000000000    0.1790379327868337    0.4332347329612576
     0.8209620672131663    0.3209620672131663    0.4332347329612576
     0.8209620672131663    0.5000000000000000    0.5667652670387424
     0.5000000000000000    0.3209620672131663    0.5667652670387424
     0.6790379327868337    0.1790379327868337    0.5667652670387424
     0.1790379327868337    0.0000000000000000    0.4332347329612576
     0.5000000000000000    0.6790379327868337    0.4332347329612576
     0.3209620672131663    0.8209620672131663    0.4332347329612576
     0.3209620672131663    0.0000000000000000    0.5667652670387424
     0.0000000000000000    0.8209620672131663    0.5667652670387424
     0.1790379327868337    0.6790379327868337    0.5667652670387424
     0.6790379327868337    0.0000000000000000    0.4332347329612576
     0.0000000000000000    0.6790379327868337    0.4332347329612576
     0.8209620672131663    0.8209620672131663    0.4332347329612576
     0.8209620672131663    0.0000000000000000    0.5667652670387424
     0.5000000000000000    0.8209620672131663    0.5667652670387424
     0.6790379327868337    0.6790379327868337    0.5667652670387424
 
  0.00000000E+00  0.00000000E+00  0.00000000E+00
  0.00000000E+00  0.00000000E+00  0.00000000E+00
  0.00000000E+00  0.00000000E+00  0.00000000E+00
  0.00000000E+00  0.00000000E+00  0.00000000E+00
  0.00000000E+00  0.00000000E+00  0.00000000E+00
  0.00000000E+00  0.00000000E+00  0.00000000E+00
  0.00000000E+00  0.00000000E+00  0.00000000E+00
  0.00000000E+00  0.00000000E+00  0.00000000E+00
  0.00000000E+00  0.00000000E+00  0.00000000E+00
  0.00000000E+00  0.00000000E+00  0.00000000E+00
  0.00000000E+00  0.00000000E+00  0.00000000E+00
  0.00000000E+00  0.00000000E+00  0.00000000E+00
  0.00000000E+00  0.00000000E+00  0.00000000E+00
  0.00000000E+00  0.00000000E+00  0.00000000E+00
  0.00000000E+00  0.00000000E+00  0.00000000E+00
  0.00000000E+00  0.00000000E+00  0.00000000E+00
  0.00000000E+00  0.00000000E+00  0.00000000E+00
  0.00000000E+00  0.00000000E+00  0.00000000E+00
  0.00000000E+00  0.00000000E+00  0.00000000E+00
  0.00000000E+00  0.00000000E+00  0.00000000E+00
  0.00000000E+00  0.00000000E+00  0.00000000E+00
  0.00000000E+00  0.00000000E+00  0.00000000E+00
  0.00000000E+00  0.00000000E+00  0.00000000E+00
  0.00000000E+00  0.00000000E+00  0.00000000E+00
  0.00000000E+00  0.00000000E+00  0.00000000E+00
  0.00000000E+00  0.00000000E+00  0.00000000E+00
  0.00000000E+00  0.00000000E+00  0.00000000E+00
  0.00000000E+00  0.00000000E+00  0.00000000E+00
  0.00000000E+00  0.00000000E+00  0.00000000E+00
  0.00000000E+00  0.00000000E+00  0.00000000E+00
  0.00000000E+00  0.00000000E+00  0.00000000E+00
  0.00000000E+00  0.00000000E+00  0.00000000E+00
