 running   16 mpi-ranks, with    1 threads/rank, on    1 nodes
 distrk:  each k-point on   16 cores,    1 groups
 distr:  one band on    4 cores,    4 groups
 vasp.6.5.1 10Mar25 (build Jan 13 2026 20:43:53) complex                         
 POSCAR found type information on POSCAR CrCl
 POSCAR found :  2 types and       8 ions
 scaLAPACK will be used
 -----------------------------------------------------------------------------
|                                                                             |
|               ----> ADVICE to this user running VASP <----                  |
|                                                                             |
|     You have a (more or less) 'small supercell' and for smaller cells       |
|     it is recommended to use the reciprocal-space projection scheme!        |
|     The real-space optimization is not efficient for small cells and it     |
|     is also less accurate ...                                               |
|     Therefore, set LREAL=.FALSE. in the INCAR file.                         |
|                                                                             |
 -----------------------------------------------------------------------------

 LDA part: xc-table for (Slater+PW92), standard interpolation
 POSCAR, INCAR and KPOINTS ok, starting setup
 FFT: planning ... GRIDC
 FFT: planning ... GRID_SOFT
 FFT: planning ... GRID
 WAVECAR not read
 entering main loop
       N       E                     dE             d eps       ncg     rms          rms(c)
DAV:   1     0.514484870299E+03    0.51448E+03   -0.15298E+04   720   0.905E+02
DAV:   2     0.862930272407E+02   -0.42819E+03   -0.40833E+03   928   0.245E+02
DAV:   3    -0.354671261192E+02   -0.12176E+03   -0.11877E+03  1032   0.130E+02
DAV:   4    -0.430071579999E+02   -0.75400E+01   -0.74446E+01  1012   0.460E+01
DAV:   5    -0.432439020068E+02   -0.23674E+00   -0.23591E+00  1012   0.785E+00    0.204E+01
DAV:   6    -0.406646196082E+02    0.25793E+01   -0.37201E+01  1060   0.619E+01    0.211E+01
DAV:   7    -0.390104694566E+02    0.16542E+01   -0.59401E+00  1072   0.548E+01    0.978E+00
DAV:   8    -0.391083862237E+02   -0.97917E-01   -0.11688E+00   900   0.507E+00    0.448E+00
DAV:   9    -0.390528900105E+02    0.55496E-01   -0.25853E-01  1076   0.804E+00    0.127E+00
DAV:  10    -0.390528082349E+02    0.81776E-04   -0.52672E-02  1060   0.254E+00    0.546E-01
DAV:  11    -0.390565153640E+02   -0.37071E-02   -0.34202E-03  1072   0.716E-01    0.227E-01
DAV:  12    -0.390618971741E+02   -0.53818E-02   -0.10142E-03   960   0.211E-01    0.126E-01
DAV:  13    -0.390647187665E+02   -0.28216E-02   -0.13521E-04  1040   0.932E-02    0.529E-02
DAV:  14    -0.390669654157E+02   -0.22466E-02   -0.46554E-05  1000   0.423E-02    0.372E-02
DAV:  15    -0.390689999952E+02   -0.20346E-02   -0.43565E-05   956   0.400E-02    0.147E-02
DAV:  16    -0.390704713610E+02   -0.14714E-02   -0.38976E-05   988   0.445E-02    0.170E-02
DAV:  17    -0.390707970890E+02   -0.32573E-03   -0.36517E-06   736   0.965E-03    0.122E-02
DAV:  18    -0.390714778404E+02   -0.68075E-03   -0.20186E-05   808   0.205E-02    0.700E-03
DAV:  19    -0.390715814941E+02   -0.10365E-03   -0.38084E-06   740   0.921E-03    0.349E-03
DAV:  20    -0.390715920927E+02   -0.10599E-04   -0.76331E-07   548   0.475E-03    0.169E-03
DAV:  21    -0.390716222115E+02   -0.30119E-04   -0.64048E-07   540   0.375E-03    0.143E-03
DAV:  22    -0.390716371950E+02   -0.14983E-04   -0.32137E-07   512   0.269E-03    0.685E-04
DAV:  23    -0.390716456057E+02   -0.84108E-05   -0.22750E-07   512   0.227E-03    0.740E-04
DAV:  24    -0.390716512158E+02   -0.56100E-05   -0.21333E-07   524   0.250E-03    0.701E-04
DAV:  25    -0.390716539048E+02   -0.26891E-05   -0.79596E-08   472   0.201E-03    0.368E-04
DAV:  26    -0.390716566261E+02   -0.27212E-05   -0.52203E-08   448   0.961E-04    0.375E-04
DAV:  27    -0.390716593588E+02   -0.27327E-05   -0.51267E-08   472   0.102E-03    0.291E-04
DAV:  28    -0.390716602702E+02   -0.91146E-06   -0.27377E-08   436   0.794E-04
   1 F= -.39071660E+02 E0= -.39071660E+02  d E =-.390717E+02  mag=     6.0000
 curvature:   0.00 expect dE= 0.000E+00 dE for cont linesearch  0.000E+00
 trial: gam= 0.00000 g(F)=  0.189E-04 g(S)=  0.000E+00 ort = 0.000E+00 (trialstep = 0.100E+01)
 search vector abs. value=  0.189E-04
 reached required accuracy - stopping structural energy minimisation
Warning: ieee_inexact is signaling
FORTRAN STOP
Warning: ieee_inexact is signaling
FORTRAN STOP
Warning: ieee_inexact is signaling
FORTRAN STOP
Warning: ieee_inexact is signaling
FORTRAN STOP
Warning: ieee_inexact is signaling
FORTRAN STOP
Warning: ieee_inexact is signaling
FORTRAN STOP
Warning: ieee_inexact is signaling
FORTRAN STOP
Warning: ieee_inexact is signaling
FORTRAN STOP
Warning: ieee_inexact is signaling
FORTRAN STOP
Warning: ieee_inexact is signaling
FORTRAN STOP
Warning: ieee_inexact is signaling
FORTRAN STOP
Warning: ieee_inexact is signaling
FORTRAN STOP
Warning: ieee_inexact is signaling
FORTRAN STOP
Warning: ieee_inexact is signaling
FORTRAN STOP
Warning: ieee_inexact is signaling
FORTRAN STOP
Warning: ieee_inexact is signaling
FORTRAN STOP
