CrCl3 1x1 + H S1 top-Cl (D3, U=0) (a=6.0
    1.000000000000000     
     6.0462744985246628    0.0000000000000000    0.0000000000000000
    -3.0231372492623314    5.2362273139763751    0.0000000000000000
     0.0000000000000000    0.0000000000000000   20.0000000000000000
   Cr   Cl   H 
     2     6     1
Direct
     0.3270033602207058    0.6852976314683721    0.4949102093498240
     0.6852976314683721    0.3270033602207058    0.4949102093498240
     0.3575237609832732    0.0155099604496423    0.4302322476914756
     0.0155099604496423    0.3575237609832732    0.4302322476914756
     0.6387153001307744    0.6387153001307744    0.4347871280155923
     0.6439464444542493    0.9966739059256692    0.5696034580704719
     0.9966739059256692    0.6439464444542493    0.5696034580704719
     0.3358683596331621    0.3358683596331621    0.5724642911412910
     0.3587614735977661    0.3587614735977661    0.6350429438795011
 
  0.00000000E+00  0.00000000E+00  0.00000000E+00
  0.00000000E+00  0.00000000E+00  0.00000000E+00
  0.00000000E+00  0.00000000E+00  0.00000000E+00
  0.00000000E+00  0.00000000E+00  0.00000000E+00
  0.00000000E+00  0.00000000E+00  0.00000000E+00
  0.00000000E+00  0.00000000E+00  0.00000000E+00
  0.00000000E+00  0.00000000E+00  0.00000000E+00
  0.00000000E+00  0.00000000E+00  0.00000000E+00
  0.00000000E+00  0.00000000E+00  0.00000000E+00
