 running   16 mpi-ranks, with    1 threads/rank, on    1 nodes
 distrk:  each k-point on   16 cores,    1 groups
 distr:  one band on    4 cores,    4 groups
 vasp.6.5.1 10Mar25 (build Jan 13 2026 20:43:53) complex                         
 POSCAR found type information on POSCAR CrClH 
 POSCAR found :  3 types and       9 ions
 scaLAPACK will be used
 LDA part: xc-table for (Slater+PW92), standard interpolation
 POSCAR, INCAR and KPOINTS ok, starting setup
 FFT: planning ... GRIDC
 FFT: planning ... GRID_SOFT
 FFT: planning ... GRID
 WAVECAR not read
 entering main loop
       N       E                     dE             d eps       ncg     rms          rms(c)
DAV:   1     0.533067309825E+03    0.53307E+03   -0.15618E+04  1296   0.923E+02
DAV:   2     0.869606896374E+02   -0.44611E+03   -0.42760E+03  1712   0.250E+02
DAV:   3    -0.356101441982E+02   -0.12257E+03   -0.12050E+03  1792   0.134E+02
DAV:   4    -0.431750158516E+02   -0.75649E+01   -0.74216E+01  1904   0.473E+01
DAV:   5    -0.433862873608E+02   -0.21127E+00   -0.20892E+00  1876   0.725E+00    0.212E+01
DAV:   6    -0.414940970482E+02    0.18922E+01   -0.36061E+01  1968   0.564E+01    0.180E+01
DAV:   7    -0.400180082749E+02    0.14761E+01   -0.80701E+00  2000   0.576E+01    0.100E+01
DAV:   8    -0.399521134406E+02    0.65895E-01   -0.12887E+00  1808   0.563E+00    0.690E+00
DAV:   9    -0.400269240504E+02   -0.74811E-01   -0.46281E-01  1904   0.718E+00    0.629E+00
DAV:  10    -0.398809847473E+02    0.14594E+00   -0.82161E-02  1520   0.173E+00    0.765E+00
DAV:  11    -0.401789066385E+02   -0.29792E+00   -0.17099E-01  1828   0.322E+00    0.441E+00
DAV:  12    -0.399164301836E+02    0.26248E+00   -0.24258E-01  1540   0.185E+00    0.194E+00
DAV:  13    -0.399053148583E+02    0.11115E-01   -0.39546E-02  1820   0.106E+00    0.991E-01
DAV:  14    -0.399840811569E+02   -0.78766E-01   -0.89932E-03  1700   0.524E-01    0.566E-01
DAV:  15    -0.400516597157E+02   -0.67579E-01   -0.41569E-03  1660   0.292E-01    0.372E-01
DAV:  16    -0.401350807399E+02   -0.83421E-01   -0.10276E-02  1484   0.386E-01    0.275E-01
DAV:  17    -0.401902840719E+02   -0.55203E-01   -0.79081E-03  1460   0.274E-01    0.168E-01
DAV:  18    -0.402437657438E+02   -0.53482E-01   -0.85283E-03  1436   0.278E-01    0.122E-01
DAV:  19    -0.402657453205E+02   -0.21980E-01   -0.19544E-03  1480   0.146E-01    0.842E-02
DAV:  20    -0.402866906344E+02   -0.20945E-01   -0.24317E-03  1484   0.143E-01    0.437E-02
DAV:  21    -0.402905797973E+02   -0.38892E-02   -0.51273E-04  1680   0.714E-02    0.194E-02
DAV:  22    -0.402910588516E+02   -0.47905E-03   -0.44887E-05  1588   0.253E-02    0.148E-02
DAV:  23    -0.402914703318E+02   -0.41148E-03   -0.42473E-05  1452   0.194E-02    0.107E-02
DAV:  24    -0.402917469420E+02   -0.27661E-03   -0.27570E-05  1436   0.144E-02    0.690E-03
DAV:  25    -0.402918555229E+02   -0.10858E-03   -0.63134E-06  1420   0.796E-03    0.761E-03
DAV:  26    -0.402920272583E+02   -0.17174E-03   -0.18418E-05  1488   0.101E-02    0.823E-03
DAV:  27    -0.402921226497E+02   -0.95391E-04   -0.90711E-06  1544   0.862E-03    0.208E-03
DAV:  28    -0.402921489770E+02   -0.26327E-04   -0.12579E-06  1168   0.389E-03    0.131E-03
DAV:  29    -0.402921711107E+02   -0.22134E-04   -0.14418E-06  1100   0.372E-03    0.939E-04
DAV:  30    -0.402921823937E+02   -0.11283E-04   -0.60147E-07  1080   0.315E-03    0.620E-04
DAV:  31    -0.402921910086E+02   -0.86149E-05   -0.51985E-07  1008   0.270E-03    0.628E-04
DAV:  32    -0.402921973965E+02   -0.63879E-05   -0.50844E-07  1040   0.262E-03    0.316E-04
DAV:  33    -0.402922017622E+02   -0.43657E-05   -0.49629E-07  1000   0.241E-03    0.324E-04
DAV:  34    -0.402922028922E+02   -0.11300E-05   -0.13647E-07   964   0.213E-03    0.204E-04
DAV:  35    -0.402922037650E+02   -0.87281E-06   -0.99619E-08   944   0.125E-03
   1 F= -.41253044E+02 E0= -.41252537E+02  d E =-.412530E+02  mag=     7.0000
 curvature:   0.00 expect dE= 0.000E+00 dE for cont linesearch  0.000E+00
 trial: gam= 0.00000 g(F)=  0.425E+00 g(S)=  0.000E+00 ort = 0.000E+00 (trialstep = 0.100E+01)
 search vector abs. value=  0.425E+00
 bond charge predicted
       N       E                     dE             d eps       ncg     rms          rms(c)
DAV:   1    -0.401478207948E+02    0.14438E+00   -0.37396E+01  1296   0.258E+01    0.470E+00
DAV:   2    -0.405105639849E+02   -0.36274E+00   -0.19481E+00  1880   0.100E+01    0.318E+00
DAV:   3    -0.405662518579E+02   -0.55688E-01   -0.71797E-02  1832   0.233E+00    0.104E+00
DAV:   4    -0.405473110496E+02    0.18941E-01   -0.11135E-02  1760   0.593E-01    0.676E-01
DAV:   5    -0.405314236307E+02    0.15887E-01   -0.10196E-02  1892   0.511E-01    0.306E-01
DAV:   6    -0.405341956041E+02   -0.27720E-02   -0.17324E-03  1768   0.374E-01    0.146E-01
DAV:   7    -0.405412673343E+02   -0.70717E-02   -0.28708E-04  1836   0.124E-01    0.956E-02
DAV:   8    -0.405489052412E+02   -0.76379E-02   -0.16848E-04  1536   0.593E-02    0.563E-02
DAV:   9    -0.405594514355E+02   -0.10546E-01   -0.18886E-04  1524   0.536E-02    0.346E-02
DAV:  10    -0.405692237677E+02   -0.97723E-02   -0.15788E-04  1508   0.526E-02    0.209E-02
DAV:  11    -0.405741635138E+02   -0.49397E-02   -0.52460E-05  1568   0.258E-02    0.171E-02
DAV:  12    -0.405778431691E+02   -0.36797E-02   -0.36147E-05  1372   0.205E-02    0.133E-02
DAV:  13    -0.405827303231E+02   -0.48872E-02   -0.12955E-04  1424   0.326E-02    0.787E-03
DAV:  14    -0.405843583888E+02   -0.16281E-02   -0.68740E-05  1628   0.252E-02    0.357E-03
DAV:  15    -0.405845400506E+02   -0.18166E-03   -0.60046E-06  1540   0.913E-03    0.196E-03
DAV:  16    -0.405846213101E+02   -0.81260E-04   -0.26929E-06  1344   0.476E-03    0.102E-03
DAV:  17    -0.405846315800E+02   -0.10270E-04   -0.47109E-07  1016   0.285E-03    0.678E-04
DAV:  18    -0.405846341551E+02   -0.25751E-05   -0.27454E-07   936   0.275E-03    0.474E-04
DAV:  19    -0.405846351111E+02   -0.95604E-06   -0.16131E-07   980   0.238E-03
   2 F= -.41549609E+02 E0= -.41549478E+02  d E =-.296565E+00  mag=     7.0000
 trial-energy change:   -0.296565  1 .order   -0.299669   -0.425432   -0.173906
 step:   1.7976(harm=  1.6914)  dis= 0.09549  next Energy=   -41.617384 (dE=-0.364E+00)
 bond charge predicted
       N       E                     dE             d eps       ncg     rms          rms(c)
DAV:   1    -0.403777056600E+02    0.20693E+00   -0.23616E+01  1296   0.204E+01    0.375E+00
DAV:   2    -0.405991974467E+02   -0.22149E+00   -0.11823E+00  1868   0.782E+00    0.248E+00
DAV:   3    -0.406375466734E+02   -0.38349E-01   -0.47132E-02  1808   0.178E+00    0.852E-01
DAV:   4    -0.406252636675E+02    0.12283E-01   -0.67505E-03  1744   0.463E-01    0.558E-01
DAV:   5    -0.406134202761E+02    0.11843E-01   -0.65715E-03  1800   0.412E-01    0.244E-01
DAV:   6    -0.406149948997E+02   -0.15746E-02   -0.12204E-03  1876   0.298E-01    0.116E-01
DAV:   7    -0.406200236836E+02   -0.50288E-02   -0.19546E-04  1848   0.976E-02    0.776E-02
DAV:   8    -0.406255658170E+02   -0.55421E-02   -0.11200E-04  1496   0.479E-02    0.449E-02
DAV:   9    -0.406324746197E+02   -0.69088E-02   -0.12435E-04  1452   0.423E-02    0.262E-02
DAV:  10    -0.406383080171E+02   -0.58334E-02   -0.88454E-05  1608   0.419E-02    0.162E-02
DAV:  11    -0.406412485582E+02   -0.29405E-02   -0.25409E-05  1488   0.190E-02    0.132E-02
DAV:  12    -0.406439086667E+02   -0.26601E-02   -0.26693E-05  1392   0.171E-02    0.103E-02
DAV:  13    -0.406473997699E+02   -0.34911E-02   -0.94091E-05  1424   0.270E-02    0.603E-03
DAV:  14    -0.406484361497E+02   -0.10364E-02   -0.43649E-05  1632   0.199E-02    0.283E-03
DAV:  15    -0.406485731352E+02   -0.13699E-03   -0.41056E-06  1436   0.732E-03    0.151E-03
DAV:  16    -0.406486252945E+02   -0.52159E-04   -0.18828E-06  1152   0.426E-03    0.791E-04
DAV:  17    -0.406486312160E+02   -0.59215E-05   -0.41970E-07  1000   0.297E-03    0.587E-04
DAV:  18    -0.406486322391E+02   -0.10232E-05   -0.18636E-07   964   0.250E-03    0.409E-04
DAV:  19    -0.406486330330E+02   -0.79388E-06   -0.14362E-07   916   0.193E-03
   3 F= -.41616581E+02 E0= -.41616525E+02  d E =-.363537E+00  mag=     7.0000
 curvature:  -0.83 expect dE=-0.170E+00 dE for cont linesearch -0.161E-04
 trial: gam= 0.49093 g(F)=  0.206E+00 g(S)=  0.000E+00 ort =-0.288E-02 (trialstep = 0.116E+01)
 search vector abs. value=  0.306E+00
 bond charge predicted
       N       E                     dE             d eps       ncg     rms          rms(c)
DAV:   1    -0.404749788881E+02    0.17365E+00   -0.36999E+01  1296   0.249E+01    0.473E+00
DAV:   2    -0.407786644955E+02   -0.30369E+00   -0.29247E+00  1836   0.122E+01    0.277E+00
DAV:   3    -0.407794016775E+02   -0.73718E-03   -0.56930E-02  1864   0.201E+00    0.162E+00
DAV:   4    -0.407750457676E+02    0.43559E-02   -0.89929E-03  1580   0.454E-01    0.127E+00
DAV:   5    -0.407717416636E+02    0.33041E-02   -0.18911E-02  1524   0.664E-01    0.481E-01
DAV:   6    -0.407726637421E+02   -0.92208E-03   -0.41776E-03  1812   0.489E-01    0.147E-01
DAV:   7    -0.407730198937E+02   -0.35615E-03   -0.14124E-04  1752   0.807E-02    0.118E-01
DAV:   8    -0.407735263572E+02   -0.50646E-03   -0.31643E-05  1744   0.333E-02    0.955E-02
DAV:   9    -0.407739978172E+02   -0.47146E-03   -0.42425E-05  1520   0.297E-02    0.435E-02
DAV:  10    -0.407743107439E+02   -0.31293E-03   -0.24106E-05  1972   0.306E-02    0.727E-03
DAV:  11    -0.407744108899E+02   -0.10015E-03   -0.10008E-06  1080   0.662E-03    0.525E-03
DAV:  12    -0.407745692307E+02   -0.15834E-03   -0.20831E-06  1164   0.751E-03    0.333E-03
DAV:  13    -0.407747073703E+02   -0.13814E-03   -0.18830E-06  1136   0.583E-03    0.238E-03
DAV:  14    -0.407747703051E+02   -0.62935E-04   -0.74858E-07  1040   0.521E-03    0.266E-03
DAV:  15    -0.407748376613E+02   -0.67356E-04   -0.12954E-06  1048   0.463E-03    0.224E-03
DAV:  16    -0.407748989717E+02   -0.61310E-04   -0.15680E-06  1072   0.531E-03    0.139E-03
DAV:  17    -0.407749263578E+02   -0.27386E-04   -0.10429E-06  1040   0.448E-03    0.891E-04
DAV:  18    -0.407749302030E+02   -0.38452E-05   -0.33718E-07  1016   0.371E-03    0.860E-04
DAV:  19    -0.407749321704E+02   -0.19674E-05   -0.22351E-07   904   0.245E-03    0.509E-04
DAV:  20    -0.407749334661E+02   -0.12957E-05   -0.15835E-07   860   0.233E-03    0.609E-04
DAV:  21    -0.407749345375E+02   -0.10714E-05   -0.87976E-08   876   0.171E-03    0.269E-04
DAV:  22    -0.407749356008E+02   -0.10633E-05   -0.56744E-08   936   0.133E-03    0.334E-04
DAV:  23    -0.407749365344E+02   -0.93361E-06   -0.45171E-08   976   0.102E-03
   4 F= -.41747572E+02 E0= -.41747216E+02  d E =-.130991E+00  mag=     7.0000
 trial-energy change:   -0.130991  1 .order   -0.125131   -0.237193   -0.013069
 step:   1.2176(harm=  1.2271)  dis= 0.07536  next Energy=   -41.747900 (dE=-0.131E+00)
 bond charge predicted
       N       E                     dE             d eps       ncg     rms          rms(c)
DAV:   1    -0.407743920467E+02    0.54355E-03   -0.93932E-02  1296   0.124E+00    0.231E-01
DAV:   2    -0.407750521728E+02   -0.66013E-03   -0.64460E-03  1808   0.571E-01    0.107E-01
DAV:   3    -0.407750618392E+02   -0.96664E-05   -0.13962E-04  1872   0.997E-02    0.747E-02
DAV:   4    -0.407750518752E+02    0.99641E-05   -0.20260E-05  1768   0.232E-02    0.564E-02
DAV:   5    -0.407750475148E+02    0.43604E-05   -0.33598E-05  1516   0.274E-02    0.237E-02
DAV:   6    -0.407750514494E+02   -0.39347E-05   -0.82705E-06  1708   0.216E-02    0.623E-03
DAV:   7    -0.407750531338E+02   -0.16844E-05   -0.25057E-07   976   0.444E-03    0.467E-03
DAV:   8    -0.407750554708E+02   -0.23370E-05   -0.13177E-07   976   0.324E-03    0.406E-03
DAV:   9    -0.407750579018E+02   -0.24310E-05   -0.10745E-07   960   0.271E-03    0.199E-03
DAV:  10    -0.407750598514E+02   -0.19496E-05   -0.10658E-07   968   0.239E-03    0.847E-04
