CrCl3 2x2 Clean Substrate (no_vdw, U=0) 
    1.000000000000000     
    12.0925489970493256    0.0000000000000000    0.0000000000000000
    -6.0462744985246628   10.4724546279527502    0.0000000000000000
     0.0000000000000000    0.0000000000000000   20.0000000000000000
   Cr   Cl
     8    24
Direct
     0.1666666666666714    0.3333333333333286    0.5000000000000000
     0.3333333333333286    0.1666666666666714    0.5000000000000000
     0.6666666666666714    0.3333333333333286    0.5000000000000000
     0.8333333333333286    0.1666666666666714    0.5000000000000000
     0.1666666666666714    0.8333333333333286    0.5000000000000000
     0.3333333333333286    0.6666666666666714    0.5000000000000000
     0.6666666666666714    0.8333333333333286    0.5000000000000000
     0.8333333333333286    0.6666666666666714    0.5000000000000000
     0.1796500984318072    0.5000000000000000    0.4332138067400706
     0.5000000000000000    0.1796500984318072    0.4332138067400706
     0.3203499015681928    0.3203499015681928    0.4332138067400706
     0.3203499015681928    0.5000000000000000    0.5667861932599294
     0.0000000000000000    0.3203499015681928    0.5667861932599294
     0.1796500984318072    0.1796500984318072    0.5667861932599294
     0.6796500984318072    0.5000000000000000    0.4332138067400706
     0.0000000000000000    0.1796500984318072    0.4332138067400706
     0.8203499015681928    0.3203499015681928    0.4332138067400706
     0.8203499015681928    0.5000000000000000    0.5667861932599294
     0.5000000000000000    0.3203499015681928    0.5667861932599294
     0.6796500984318072    0.1796500984318072    0.5667861932599294
     0.1796500984318072    0.0000000000000000    0.4332138067400706
     0.5000000000000000    0.6796500984318072    0.4332138067400706
     0.3203499015681928    0.8203499015681928    0.4332138067400706
     0.3203499015681928    0.0000000000000000    0.5667861932599294
     0.0000000000000000    0.8203499015681928    0.5667861932599294
     0.1796500984318072    0.6796500984318072    0.5667861932599294
     0.6796500984318072    0.0000000000000000    0.4332138067400706
     0.0000000000000000    0.6796500984318072    0.4332138067400706
     0.8203499015681928    0.8203499015681928    0.4332138067400706
     0.8203499015681928    0.0000000000000000    0.5667861932599294
     0.5000000000000000    0.8203499015681928    0.5667861932599294
     0.6796500984318072    0.6796500984318072    0.5667861932599294
 
  0.00000000E+00  0.00000000E+00  0.00000000E+00
  0.00000000E+00  0.00000000E+00  0.00000000E+00
  0.00000000E+00  0.00000000E+00  0.00000000E+00
  0.00000000E+00  0.00000000E+00  0.00000000E+00
  0.00000000E+00  0.00000000E+00  0.00000000E+00
  0.00000000E+00  0.00000000E+00  0.00000000E+00
  0.00000000E+00  0.00000000E+00  0.00000000E+00
  0.00000000E+00  0.00000000E+00  0.00000000E+00
  0.00000000E+00  0.00000000E+00  0.00000000E+00
  0.00000000E+00  0.00000000E+00  0.00000000E+00
  0.00000000E+00  0.00000000E+00  0.00000000E+00
  0.00000000E+00  0.00000000E+00  0.00000000E+00
  0.00000000E+00  0.00000000E+00  0.00000000E+00
  0.00000000E+00  0.00000000E+00  0.00000000E+00
  0.00000000E+00  0.00000000E+00  0.00000000E+00
  0.00000000E+00  0.00000000E+00  0.00000000E+00
  0.00000000E+00  0.00000000E+00  0.00000000E+00
  0.00000000E+00  0.00000000E+00  0.00000000E+00
  0.00000000E+00  0.00000000E+00  0.00000000E+00
  0.00000000E+00  0.00000000E+00  0.00000000E+00
  0.00000000E+00  0.00000000E+00  0.00000000E+00
  0.00000000E+00  0.00000000E+00  0.00000000E+00
  0.00000000E+00  0.00000000E+00  0.00000000E+00
  0.00000000E+00  0.00000000E+00  0.00000000E+00
  0.00000000E+00  0.00000000E+00  0.00000000E+00
  0.00000000E+00  0.00000000E+00  0.00000000E+00
  0.00000000E+00  0.00000000E+00  0.00000000E+00
  0.00000000E+00  0.00000000E+00  0.00000000E+00
  0.00000000E+00  0.00000000E+00  0.00000000E+00
  0.00000000E+00  0.00000000E+00  0.00000000E+00
  0.00000000E+00  0.00000000E+00  0.00000000E+00
  0.00000000E+00  0.00000000E+00  0.00000000E+00
