Cr8Cl24                                 
   1.0000000000000000     
    12.1343889235999995    0.0000000000000000    0.0000000000000000
    -6.0613529830999999   10.5120826004999994    0.0000000000000000
     0.0000000000000000    0.0000000000000000   17.6887664794999999
   Cr   Cl   Co   H 
     8    24     1     1
Direct
  0.1512523267359763  0.3359351478750636  0.3369409598834427
  0.1585508870318124  0.8413683670921105  0.3336233634317358
  0.6640169764335373  0.3394346061492983  0.3369422177607730
  0.6606052784101026  0.8487861533638144  0.3369286693950874
  0.8253438275788272  0.1747048906283954  0.3336250993953561
  0.8326296654205572  0.6766528703012797  0.3369232672499243
  0.3198379669612830  0.1673016070511030  0.3369351838225164
  0.3233563549936865  0.6801378771659616  0.3369569823567501
  0.1695996116465721  0.5080810803637288  0.2652539003704108
  0.1690730627750672  0.0055653108648549  0.2573456398170754
  0.6553637883292800  0.5080388215451217  0.2684227537781822
  0.6716149138625396  0.0105003221042876  0.2573774776606851
  0.3284690850224765  0.3445829246081757  0.2684300541540624
  0.3122555962703317  0.8307583624638984  0.2573566857532487
  0.8147445210226010  0.3284047350150078  0.2573614789731305
  0.8142815905231359  0.8303739648519867  0.2651636782860093
  0.9895080680282274  0.1851553647029471  0.2573482140871204
  0.9943883364072906  0.6876157602681782  0.2573765094641584
  0.4919734804782744  0.1856583551825122  0.2652324300887446
  0.4919222918644613  0.6715656147725978  0.2683846747871801
  0.9877208078223376  0.3271317908774192  0.4116981402126423
  0.9961129403636955  0.8313647002575756  0.4117048163228113
  0.4919798423660114  0.3314559903011566  0.4170798778348416
  0.4919773602663047  0.8362972864431863  0.4097422137489028
  0.3153793837518935  0.5082214949231344  0.4171295973540094
  0.3110057480190685  0.0037465817232958  0.4116902314842851
  0.8200363476326485  0.5080426694794915  0.4097947021563652
  0.8153502395845278  0.0122498062925550  0.4117028841587344
  0.1638817375927800  0.1799483251422956  0.4098522889693272
  0.1686672267078081  0.6889807574360085  0.4117301015649942
  0.6729153127734944  0.1847722346408464  0.4117180504869510
  0.6685395125694873  0.6847579863507334  0.4170569200001260
  0.4918694651085408  0.5081032453564520  0.3576920410962351
  0.4919466556453824  0.5081193224055200  0.4407189260941589

  0.00000000E+00  0.00000000E+00  0.00000000E+00
  0.00000000E+00  0.00000000E+00  0.00000000E+00
  0.00000000E+00  0.00000000E+00  0.00000000E+00
  0.00000000E+00  0.00000000E+00  0.00000000E+00
  0.00000000E+00  0.00000000E+00  0.00000000E+00
  0.00000000E+00  0.00000000E+00  0.00000000E+00
  0.00000000E+00  0.00000000E+00  0.00000000E+00
  0.00000000E+00  0.00000000E+00  0.00000000E+00
  0.00000000E+00  0.00000000E+00  0.00000000E+00
  0.00000000E+00  0.00000000E+00  0.00000000E+00
  0.00000000E+00  0.00000000E+00  0.00000000E+00
  0.00000000E+00  0.00000000E+00  0.00000000E+00
  0.00000000E+00  0.00000000E+00  0.00000000E+00
  0.00000000E+00  0.00000000E+00  0.00000000E+00
  0.00000000E+00  0.00000000E+00  0.00000000E+00
  0.00000000E+00  0.00000000E+00  0.00000000E+00
  0.00000000E+00  0.00000000E+00  0.00000000E+00
  0.00000000E+00  0.00000000E+00  0.00000000E+00
  0.00000000E+00  0.00000000E+00  0.00000000E+00
  0.00000000E+00  0.00000000E+00  0.00000000E+00
  0.00000000E+00  0.00000000E+00  0.00000000E+00
  0.00000000E+00  0.00000000E+00  0.00000000E+00
  0.00000000E+00  0.00000000E+00  0.00000000E+00
  0.00000000E+00  0.00000000E+00  0.00000000E+00
  0.00000000E+00  0.00000000E+00  0.00000000E+00
  0.00000000E+00  0.00000000E+00  0.00000000E+00
  0.00000000E+00  0.00000000E+00  0.00000000E+00
  0.00000000E+00  0.00000000E+00  0.00000000E+00
  0.00000000E+00  0.00000000E+00  0.00000000E+00
  0.00000000E+00  0.00000000E+00  0.00000000E+00
  0.00000000E+00  0.00000000E+00  0.00000000E+00
  0.00000000E+00  0.00000000E+00  0.00000000E+00
  0.00000000E+00  0.00000000E+00  0.00000000E+00
  0.00000000E+00  0.00000000E+00  0.00000000E+00
