CrCl3 2x2 + Co S2 hollow (no_vdw, U=0) (
   1.0000000000000000     
    12.0925489970493256    0.0000000000000000    0.0000000000000000
    -6.0462744985246628   10.4724546279527502    0.0000000000000000
     0.0000000000000000    0.0000000000000000   20.0000000000000000
   Cr   Cl   Co
     8    24     1
Direct
  0.1630144783870514  0.3285046875264017  0.4990853250908195
  0.3285046875264017  0.1630144783870514  0.4990853250908195
  0.6714953124735984  0.3345097908606355  0.4990853250908195
  0.8333333333333286  0.1666666666666714  0.4983958860454278
  0.1666666666666714  0.8333333333333286  0.4983958860454278
  0.3345097908606355  0.6714953124735984  0.4990853250908195
  0.6654902091393645  0.8369855216129486  0.4990853250908195
  0.8369855216129486  0.6654902091393645  0.4990853250908195
  0.1812061435088976  0.5000000000000000  0.4345977270279411
  0.5000000000000000  0.1812061435088976  0.4345977270279411
  0.3206388825236969  0.3206388825236969  0.4335324155164879
  0.3212647260527176  0.5000000000000000  0.5733595876149692
 -0.0008700771180434  0.3188956672356369  0.5664960441766612
  0.1754269684015297  0.1754269684015297  0.5670791422853062
  0.6793611174763030  0.5000000000000000  0.4335324155164879
 -0.0035650988809117  0.1752437278506987  0.4312047859516098
  0.8247562721493014  0.3211911732683896  0.4312047859516098
  0.8245730315984702  0.5000000000000000  0.5670791422853062
  0.5000000000000000  0.3212647260527176  0.5733595876149692
  0.6811043327643632  0.1802342556463197  0.5664960441766612
  0.1752437278506987 -0.0035650988809117  0.4312047859516098
  0.5000000000000000  0.6793611174763030  0.4335324155164879
  0.3211911732683896  0.8247562721493014  0.4312047859516098
  0.3188956672356369 -0.0008700771180434  0.5664960441766612
  0.0008700771180434  0.8197657443536803  0.5664960441766612
  0.1802342556463197  0.6811043327643632  0.5664960441766612
  0.6788088267316104  0.0035650988809117  0.4312047859516098
  0.0035650988809116  0.6788088267316104  0.4312047859516098
  0.8187938564911024  0.8187938564911024  0.4345977270279411
  0.8197657443536803  0.0008700771180434  0.5664960441766612
  0.5000000000000000  0.8245730315984702  0.5670791422853062
  0.6787352739472823  0.6787352739472823  0.5733595876149692
  0.5000000000000000  0.5000000000000000  0.5917846792604877

  0.00000000E+00  0.00000000E+00  0.00000000E+00
  0.00000000E+00  0.00000000E+00  0.00000000E+00
  0.00000000E+00  0.00000000E+00  0.00000000E+00
  0.00000000E+00  0.00000000E+00  0.00000000E+00
  0.00000000E+00  0.00000000E+00  0.00000000E+00
  0.00000000E+00  0.00000000E+00  0.00000000E+00
  0.00000000E+00  0.00000000E+00  0.00000000E+00
  0.00000000E+00  0.00000000E+00  0.00000000E+00
  0.00000000E+00  0.00000000E+00  0.00000000E+00
  0.00000000E+00  0.00000000E+00  0.00000000E+00
  0.00000000E+00  0.00000000E+00  0.00000000E+00
  0.00000000E+00  0.00000000E+00  0.00000000E+00
  0.00000000E+00  0.00000000E+00  0.00000000E+00
  0.00000000E+00  0.00000000E+00  0.00000000E+00
  0.00000000E+00  0.00000000E+00  0.00000000E+00
  0.00000000E+00  0.00000000E+00  0.00000000E+00
  0.00000000E+00  0.00000000E+00  0.00000000E+00
  0.00000000E+00  0.00000000E+00  0.00000000E+00
  0.00000000E+00  0.00000000E+00  0.00000000E+00
  0.00000000E+00  0.00000000E+00  0.00000000E+00
  0.00000000E+00  0.00000000E+00  0.00000000E+00
  0.00000000E+00  0.00000000E+00  0.00000000E+00
  0.00000000E+00  0.00000000E+00  0.00000000E+00
  0.00000000E+00  0.00000000E+00  0.00000000E+00
  0.00000000E+00  0.00000000E+00  0.00000000E+00
  0.00000000E+00  0.00000000E+00  0.00000000E+00
  0.00000000E+00  0.00000000E+00  0.00000000E+00
  0.00000000E+00  0.00000000E+00  0.00000000E+00
  0.00000000E+00  0.00000000E+00  0.00000000E+00
  0.00000000E+00  0.00000000E+00  0.00000000E+00
  0.00000000E+00  0.00000000E+00  0.00000000E+00
  0.00000000E+00  0.00000000E+00  0.00000000E+00
  0.00000000E+00  0.00000000E+00  0.00000000E+00
