       N       E                     dE             d eps       ncg     rms          rms(c)
DAV:   1     0.211749896834E+04    0.21175E+04   -0.64584E+04  3096   0.910E+02
DAV:   2     0.405233396638E+03   -0.17123E+04   -0.15876E+04  3632   0.246E+02
DAV:   3    -0.131371470089E+03   -0.53660E+03   -0.51978E+03  4424   0.138E+02
DAV:   4    -0.174523278388E+03   -0.43152E+02   -0.42417E+02  4672   0.552E+01
DAV:   5    -0.175270479654E+03   -0.74720E+00   -0.74073E+00  4672   0.940E+00    0.409E+01
DAV:   6    -0.173649087284E+03    0.16214E+01   -0.18622E+02  4448   0.613E+01    0.677E+01
DAV:   7    -0.178245871257E+03   -0.45968E+01   -0.32661E+01  4912   0.568E+01    0.451E+01
DAV:   8    -0.164289512759E+03    0.13956E+02   -0.21503E+01  4640   0.258E+01    0.256E+01
DAV:   9    -0.160190256516E+03    0.40993E+01   -0.24081E+01  4536   0.592E+01    0.563E+01
DAV:  10    -0.157945270902E+03    0.22450E+01   -0.23087E+01  4920   0.161E+01    0.129E+01
DAV:  11    -0.159227324708E+03   -0.12821E+01   -0.21742E+00  4864   0.654E+00    0.105E+01
DAV:  12    -0.159799898016E+03   -0.57257E+00   -0.61023E-01  3920   0.289E+00    0.964E+00
DAV:  13    -0.160010915987E+03   -0.21102E+00   -0.18516E-01  3976   0.142E+00    0.883E+00
DAV:  14    -0.160044754914E+03   -0.33839E-01   -0.10682E-01  4856   0.144E+00    0.779E+00
DAV:  15    -0.160000825291E+03    0.43930E-01   -0.47781E-02  4992   0.104E+00    0.685E+00
DAV:  16    -0.159970391290E+03    0.30434E-01   -0.42840E-02  4736   0.791E-01    0.589E+00
DAV:  17    -0.159970250944E+03    0.14035E-03   -0.18590E-02  4696   0.475E-01    0.540E+00
DAV:  18    -0.159988513283E+03   -0.18262E-01   -0.33787E-03  4728   0.235E-01    0.523E+00
DAV:  19    -0.160107329113E+03   -0.11882E+00   -0.31175E-01  4792   0.178E+00    0.310E+00
DAV:  20    -0.160167652529E+03   -0.60323E-01   -0.22418E-02  4448   0.558E-01    0.272E+00
DAV:  21    -0.160174926078E+03   -0.72735E-02   -0.24282E-03  4056   0.151E-01    0.264E+00
DAV:  22    -0.160177360558E+03   -0.24345E-02   -0.66824E-03  4952   0.175E-01    0.266E+00
DAV:  23    -0.160340073556E+03   -0.16271E+00   -0.85765E-02  4440   0.139E+00    0.153E+00
DAV:  24    -0.160400157964E+03   -0.60084E-01   -0.12074E-02  4480   0.391E-01    0.122E+00
DAV:  25    -0.160480135924E+03   -0.79978E-01   -0.95977E-03  4424   0.523E-01    0.105E+00
DAV:  26    -0.160584720254E+03   -0.10458E+00   -0.32941E-02  4520   0.895E-01    0.468E-01
DAV:  27    -0.160622804549E+03   -0.38084E-01   -0.87734E-03  4376   0.382E-01    0.323E-01
DAV:  28    -0.160636423713E+03   -0.13619E-01   -0.81804E-04  4424   0.135E-01    0.297E-01
DAV:  29    -0.160654789185E+03   -0.18365E-01   -0.55490E-04  4496   0.145E-01    0.296E-01
DAV:  30    -0.160687506060E+03   -0.32717E-01   -0.11661E-03  4056   0.103E-01    0.260E-01
DAV:  31    -0.160698338365E+03   -0.10832E-01   -0.14731E-03  4688   0.147E-01    0.165E-01
DAV:  32    -0.160701790843E+03   -0.34525E-02   -0.24111E-04  4280   0.664E-02    0.129E-01
DAV:  33    -0.160704483102E+03   -0.26923E-02   -0.10221E-04  4448   0.462E-02    0.864E-02
DAV:  34    -0.160707365191E+03   -0.28821E-02   -0.10547E-04  4016   0.313E-02    0.855E-02
DAV:  35    -0.160708645753E+03   -0.12806E-02   -0.54525E-05  4248   0.282E-02    0.576E-02
DAV:  36    -0.160709881602E+03   -0.12358E-02   -0.48914E-05  4272   0.382E-02    0.382E-02
DAV:  37    -0.160710718358E+03   -0.83676E-03   -0.44349E-05  4032   0.261E-02    0.208E-02
DAV:  38    -0.160711072022E+03   -0.35366E-03   -0.20592E-05  4176   0.219E-02    0.265E-02
DAV:  39    -0.160711195091E+03   -0.12307E-03   -0.89319E-06  3096   0.121E-02    0.748E-03
DAV:  40    -0.160711237717E+03   -0.42625E-04   -0.15837E-06  2384   0.577E-03    0.444E-03
DAV:  41    -0.160711279329E+03   -0.41613E-04   -0.11995E-06  2424   0.328E-03    0.290E-03
DAV:  42    -0.160711303767E+03   -0.24438E-04   -0.63840E-07  2240   0.230E-03    0.276E-03
DAV:  43    -0.160711312494E+03   -0.87270E-05   -0.26571E-07  2064   0.208E-03    0.340E-03
DAV:  44    -0.160711316181E+03   -0.36876E-05   -0.13085E-07  1960   0.139E-03    0.231E-03
DAV:  45    -0.160711319419E+03   -0.32376E-05   -0.11246E-07  2024   0.997E-04    0.179E-03
DAV:  46    -0.160711323820E+03   -0.44010E-05   -0.98186E-08  2040   0.152E-03    0.925E-04
DAV:  47    -0.160711326522E+03   -0.27018E-05   -0.10223E-07  2040   0.734E-04    0.822E-04
DAV:  48    -0.160711328337E+03   -0.18155E-05   -0.51774E-08  2000   0.798E-04    0.494E-04
DAV:  49    -0.160711329011E+03   -0.67421E-06   -0.33677E-08  1944   0.659E-04
   1 F= -.16071133E+03 E0= -.16069278E+03  d E =-.160711E+03  mag=    22.9999
       N       E                     dE             d eps       ncg     rms          rms(c)
DAV:   1    -0.160615009427E+03    0.96319E-01   -0.30839E+01  3096   0.106E+01    0.368E+00
DAV:   2    -0.160892091843E+03   -0.27708E+00   -0.22077E+00  4280   0.549E+00    0.344E+00
DAV:   3    -0.160983171347E+03   -0.91080E-01   -0.40041E-01  5016   0.308E+00    0.501E+00
DAV:   4    -0.160911221019E+03    0.71950E-01   -0.66303E-01  4512   0.274E+00    0.176E+00
DAV:   5    -0.160900353948E+03    0.10867E-01   -0.27711E-02  4736   0.700E-01    0.844E-01
DAV:   6    -0.160886559983E+03    0.13794E-01   -0.24071E-02  4440   0.554E-01    0.758E-01
DAV:   7    -0.160886235970E+03    0.32401E-03   -0.65806E-03  4472   0.361E-01    0.238E-01
DAV:   8    -0.160891124493E+03   -0.48885E-02   -0.71065E-04  4368   0.112E-01    0.200E-01
DAV:   9    -0.160896391813E+03   -0.52673E-02   -0.16226E-04  4464   0.615E-02    0.170E-01
DAV:  10    -0.160901970977E+03   -0.55792E-02   -0.24052E-04  4440   0.612E-02    0.636E-02
DAV:  11    -0.160907473033E+03   -0.55021E-02   -0.12107E-04  4272   0.326E-02    0.276E-02
DAV:  12    -0.160910594499E+03   -0.31215E-02   -0.36493E-05  3784   0.156E-02    0.127E-02
DAV:  13    -0.160912500625E+03   -0.19061E-02   -0.15297E-05  3352   0.737E-03    0.101E-02
DAV:  14    -0.160915814262E+03   -0.33136E-02   -0.59659E-05  3112   0.123E-02    0.120E-02
DAV:  15    -0.160917936988E+03   -0.21227E-02   -0.59630E-05  3264   0.119E-02    0.635E-03
DAV:  16    -0.160918399853E+03   -0.46286E-03   -0.98728E-06  3704   0.567E-03    0.375E-03
DAV:  17    -0.160918589572E+03   -0.18972E-03   -0.30628E-06  2824   0.286E-03    0.151E-03
DAV:  18    -0.160918657627E+03   -0.68056E-04   -0.11069E-06  2488   0.207E-03    0.143E-03
DAV:  19    -0.160918694841E+03   -0.37214E-04   -0.98629E-07  2392   0.202E-03    0.808E-04
DAV:  20    -0.160918707726E+03   -0.12886E-04   -0.58703E-07  2304   0.188E-03    0.562E-04
DAV:  21    -0.160918710769E+03   -0.30421E-05   -0.29539E-07  2072   0.161E-03    0.382E-04
DAV:  22    -0.160918712297E+03   -0.15284E-05   -0.16099E-07  1952   0.111E-03    0.322E-04
DAV:  23    -0.160918714151E+03   -0.18542E-05   -0.11298E-07  2000   0.864E-04    0.254E-04
DAV:  24    -0.160918715288E+03   -0.11370E-05   -0.74039E-08  1960   0.701E-04    0.210E-04
DAV:  25    -0.160918716164E+03   -0.87608E-06   -0.48779E-08  1912   0.528E-04
   2 F= -.16091872E+03 E0= -.16090195E+03  d E =-.207387E+00  mag=    23.0000
       N       E                     dE             d eps       ncg     rms          rms(c)
DAV:   1    -0.160876522682E+03    0.42193E-01   -0.68892E+00  3080   0.501E+00    0.174E+00
DAV:   2    -0.160932418329E+03   -0.55896E-01   -0.44785E-01  4208   0.235E+00    0.138E+00
DAV:   3    -0.160952177244E+03   -0.19759E-01   -0.81991E-02  5024   0.137E+00    0.216E+00
DAV:   4    -0.160937807465E+03    0.14370E-01   -0.94846E-02  4608   0.118E+00    0.749E-01
DAV:   5    -0.160935657249E+03    0.21502E-02   -0.49169E-03  4720   0.293E-01    0.397E-01
DAV:   6    -0.160931694551E+03    0.39627E-02   -0.48248E-03  4416   0.248E-01    0.335E-01
DAV:   7    -0.160932044016E+03   -0.34947E-03   -0.15903E-03  4328   0.169E-01    0.714E-02
DAV:   8    -0.160933234316E+03   -0.11903E-02   -0.17589E-04  4432   0.571E-02    0.902E-02
DAV:   9    -0.160934746894E+03   -0.15126E-02   -0.46868E-05  4400   0.284E-02    0.594E-02
DAV:  10    -0.160936265496E+03   -0.15186E-02   -0.39924E-05  4168   0.213E-02    0.243E-02
DAV:  11    -0.160937622265E+03   -0.13568E-02   -0.19779E-05  4104   0.131E-02    0.124E-02
DAV:  12    -0.160938373364E+03   -0.75110E-03   -0.68468E-06  3344   0.811E-03    0.609E-03
DAV:  13    -0.160939259009E+03   -0.88565E-03   -0.95511E-06  3112   0.556E-03    0.477E-03
DAV:  14    -0.160940155723E+03   -0.89671E-03   -0.12785E-05  3200   0.514E-03    0.360E-03
DAV:  15    -0.160940837040E+03   -0.68132E-03   -0.16505E-05  3128   0.535E-03    0.176E-03
DAV:  16    -0.160940993264E+03   -0.15622E-03   -0.34234E-06  3136   0.291E-03    0.148E-03
DAV:  17    -0.160941028192E+03   -0.34928E-04   -0.43088E-07  2280   0.156E-03    0.102E-03
DAV:  18    -0.160941051669E+03   -0.23477E-04   -0.56030E-07  2272   0.146E-03    0.492E-04
DAV:  19    -0.160941061935E+03   -0.10266E-04   -0.40872E-07  2240   0.164E-03    0.577E-04
DAV:  20    -0.160941063221E+03   -0.12869E-05   -0.17070E-07  1960   0.134E-03    0.302E-04
DAV:  21    -0.160941064008E+03   -0.78613E-06   -0.94414E-08  1896   0.802E-04
   3 F= -.16094106E+03 E0= -.16092528E+03  d E =-.229735E+00  mag=    23.0000
       N       E                     dE             d eps       ncg     rms          rms(c)
DAV:   1    -0.160931819275E+03    0.92439E-02   -0.73855E+00  3040   0.542E+00    0.173E+00
DAV:   2    -0.160987060438E+03   -0.55241E-01   -0.58793E-01  4288   0.284E+00    0.142E+00
DAV:   3    -0.161012499923E+03   -0.25439E-01   -0.22020E-01  4368   0.185E+00    0.290E+00
DAV:   4    -0.160983137409E+03    0.29363E-01   -0.82824E-02  4512   0.136E+00    0.593E-01
DAV:   5    -0.160983651284E+03   -0.51387E-03   -0.48919E-03  4416   0.220E-01    0.569E-01
DAV:   6    -0.160982075232E+03    0.15761E-02   -0.31324E-03  4528   0.197E-01    0.307E-01
DAV:   7    -0.160981813433E+03    0.26180E-03   -0.11287E-03  4584   0.116E-01    0.110E-01
DAV:   8    -0.160982299221E+03   -0.48579E-03   -0.22687E-04  4416   0.549E-02    0.104E-01
DAV:   9    -0.160982770885E+03   -0.47166E-03   -0.15355E-04  4304   0.550E-02    0.373E-02
DAV:  10    -0.160983354782E+03   -0.58390E-03   -0.23227E-05  4216   0.209E-02    0.223E-02
DAV:  11    -0.160983963521E+03   -0.60874E-03   -0.21230E-05  4240   0.127E-02    0.797E-03
DAV:  12    -0.160984299824E+03   -0.33630E-03   -0.43179E-06  3160   0.550E-03    0.445E-03
DAV:  13    -0.160984569745E+03   -0.26992E-03   -0.20735E-06  2552   0.409E-03    0.419E-03
DAV:  14    -0.160984884549E+03   -0.31480E-03   -0.35383E-06  2968   0.367E-03    0.259E-03
DAV:  15    -0.160985151254E+03   -0.26670E-03   -0.29908E-06  2816   0.287E-03    0.201E-03
DAV:  16    -0.160985424341E+03   -0.27309E-03   -0.54384E-06  3000   0.325E-03    0.172E-03
DAV:  17    -0.160985508909E+03   -0.84568E-04   -0.10483E-06  2496   0.198E-03    0.902E-04
DAV:  18    -0.160985563545E+03   -0.54636E-04   -0.12606E-06  2400   0.190E-03    0.666E-04
DAV:  19    -0.160985583583E+03   -0.20038E-04   -0.47201E-07  2224   0.165E-03    0.694E-04
DAV:  20    -0.160985594759E+03   -0.11175E-04   -0.51751E-07  2208   0.149E-03    0.507E-04
DAV:  21    -0.160985595979E+03   -0.12202E-05   -0.21369E-07  1920   0.147E-03    0.312E-04
DAV:  22    -0.160985596497E+03   -0.51786E-06   -0.12551E-07  1848   0.797E-04
   4 F= -.16098560E+03 E0= -.16097053E+03  d E =-.445325E-01  mag=    23.0000
       N       E                     dE             d eps       ncg     rms          rms(c)
DAV:   1    -0.160957368858E+03    0.28227E-01   -0.56476E+00  3040   0.473E+00    0.152E+00
DAV:   2    -0.160998931966E+03   -0.41563E-01   -0.44409E-01  4280   0.246E+00    0.129E+00
DAV:   3    -0.161021143823E+03   -0.22212E-01   -0.19940E-01  4408   0.172E+00    0.272E+00
DAV:   4    -0.160995346897E+03    0.25797E-01   -0.92697E-02  4488   0.126E+00    0.506E-01
DAV:   5    -0.160995961791E+03   -0.61489E-03   -0.40400E-03  4432   0.197E-01    0.489E-01
DAV:   6    -0.160994751743E+03    0.12100E-02   -0.24076E-03  4520   0.168E-01    0.270E-01
DAV:   7    -0.160994477405E+03    0.27434E-03   -0.88924E-04  4544   0.101E-01    0.962E-02
DAV:   8    -0.160994864881E+03   -0.38748E-03   -0.17105E-04  4400   0.456E-02    0.878E-02
DAV:   9    -0.160995245920E+03   -0.38104E-03   -0.11887E-04  4320   0.464E-02    0.314E-02
DAV:  10    -0.160995729584E+03   -0.48366E-03   -0.17574E-05  4136   0.184E-02    0.183E-02
DAV:  11    -0.160996233179E+03   -0.50360E-03   -0.15676E-05  4208   0.109E-02    0.660E-03
DAV:  12    -0.160996508564E+03   -0.27538E-03   -0.31329E-06  2896   0.484E-03    0.391E-03
DAV:  13    -0.160996732971E+03   -0.22441E-03   -0.19145E-06  2472   0.406E-03    0.359E-03
DAV:  14    -0.160996964742E+03   -0.23177E-03   -0.25958E-06  2824   0.330E-03    0.240E-03
DAV:  15    -0.160997165563E+03   -0.20082E-03   -0.19365E-06  2616   0.258E-03    0.197E-03
DAV:  16    -0.160997408899E+03   -0.24334E-03   -0.47836E-06  2920   0.296E-03    0.148E-03
DAV:  17    -0.160997499290E+03   -0.90391E-04   -0.12203E-06  2504   0.190E-03    0.125E-03
DAV:  18    -0.160997540287E+03   -0.40997E-04   -0.67525E-07  2264   0.184E-03    0.984E-04
DAV:  19    -0.160997564051E+03   -0.23764E-04   -0.62163E-07  2216   0.169E-03    0.575E-04
DAV:  20    -0.160997577399E+03   -0.13348E-04   -0.68328E-07  2248   0.176E-03    0.836E-04
DAV:  21    -0.160997578471E+03   -0.10719E-05   -0.23344E-07  1936   0.155E-03    0.312E-04
DAV:  22    -0.160997579144E+03   -0.67302E-06   -0.14570E-07  1848   0.845E-04
   5 F= -.16099758E+03 E0= -.16098299E+03  d E =-.565151E-01  mag=    23.0000
       N       E                     dE             d eps       ncg     rms          rms(c)
DAV:   1    -0.160987567484E+03    0.10011E-01   -0.32274E+00  3072   0.354E+00    0.115E+00
DAV:   2    -0.161011260237E+03   -0.23693E-01   -0.24840E-01  4248   0.169E+00    0.791E-01
DAV:   3    -0.161022631016E+03   -0.11371E-01   -0.77322E-02  4880   0.106E+00    0.182E+00
DAV:   4    -0.161010539221E+03    0.12092E-01   -0.36084E-02  4528   0.753E-01    0.363E-01
DAV:   5    -0.161010626353E+03   -0.87132E-04   -0.15034E-03  4280   0.918E-02    0.281E-01
DAV:   6    -0.161010070187E+03    0.55617E-03   -0.21820E-03  4432   0.152E-01    0.313E-01
DAV:   7    -0.161009623839E+03    0.44635E-03   -0.98199E-04  5096   0.118E-01    0.696E-02
DAV:   8    -0.161009852245E+03   -0.22841E-03   -0.14840E-04  4632   0.340E-02    0.313E-02
DAV:   9    -0.161010253927E+03   -0.40168E-03   -0.31015E-05  4280   0.240E-02    0.230E-02
DAV:  10    -0.161010684730E+03   -0.43080E-03   -0.10186E-05  3920   0.125E-02    0.108E-02
DAV:  11    -0.161011010436E+03   -0.32571E-03   -0.33899E-06  3024   0.510E-03    0.491E-03
DAV:  12    -0.161011322325E+03   -0.31189E-03   -0.28716E-06  2920   0.436E-03    0.302E-03
DAV:  13    -0.161011500623E+03   -0.17830E-03   -0.99516E-07  2368   0.331E-03    0.255E-03
DAV:  14    -0.161011711589E+03   -0.21097E-03   -0.22262E-06  2648   0.347E-03    0.214E-03
DAV:  15    -0.161011919593E+03   -0.20800E-03   -0.22812E-06  2880   0.272E-03    0.187E-03
DAV:  16    -0.161012120773E+03   -0.20118E-03   -0.34023E-06  2944   0.265E-03    0.120E-03
DAV:  17    -0.161012206143E+03   -0.85370E-04   -0.14555E-06  2688   0.185E-03    0.994E-04
DAV:  18    -0.161012232539E+03   -0.26396E-04   -0.49469E-07  2320   0.170E-03    0.561E-04
DAV:  19    -0.161012236096E+03   -0.35573E-05   -0.17618E-07  1960   0.136E-03    0.487E-04
DAV:  20    -0.161012239174E+03   -0.30779E-05   -0.12990E-07  1992   0.841E-04    0.310E-04
DAV:  21    -0.161012241740E+03   -0.25659E-05   -0.11752E-07  1976   0.866E-04    0.358E-04
DAV:  22    -0.161012241980E+03   -0.23996E-06   -0.55437E-08  1952   0.735E-04
   6 F= -.16101224E+03 E0= -.16099761E+03  d E =-.146628E-01  mag=    23.0000
       N       E                     dE             d eps       ncg     rms          rms(c)
DAV:   1    -0.160999128611E+03    0.13113E-01   -0.22191E+00  3080   0.294E+00    0.958E-01
DAV:   2    -0.161015235679E+03   -0.16107E-01   -0.17030E-01  4184   0.140E+00    0.652E-01
DAV:   3    -0.161022997556E+03   -0.77619E-02   -0.52352E-02  4880   0.868E-01    0.149E+00
DAV:   4    -0.161014780906E+03    0.82167E-02   -0.24926E-02  4520   0.621E-01    0.300E-01
DAV:   5    -0.161014840218E+03   -0.59313E-04   -0.10208E-03  4312   0.762E-02    0.233E-01
DAV:   6    -0.161014408272E+03    0.43195E-03   -0.14806E-03  4408   0.126E-01    0.258E-01
DAV:   7    -0.161014082622E+03    0.32565E-03   -0.66326E-04  5096   0.963E-02    0.585E-02
DAV:   8    -0.161014246800E+03   -0.16418E-03   -0.10607E-04  4688   0.290E-02    0.268E-02
DAV:   9    -0.161014543969E+03   -0.29717E-03   -0.24109E-05  3928   0.208E-02    0.199E-02
DAV:  10    -0.161014864417E+03   -0.32045E-03   -0.76135E-06  3440   0.114E-02    0.877E-03
DAV:  11    -0.161015116573E+03   -0.25216E-03   -0.29355E-06  2880   0.467E-03    0.409E-03
DAV:  12    -0.161015335797E+03   -0.21922E-03   -0.18545E-06  2624   0.380E-03    0.274E-03
DAV:  13    -0.161015474587E+03   -0.13879E-03   -0.10173E-06  2312   0.335E-03    0.220E-03
DAV:  14    -0.161015641236E+03   -0.16665E-03   -0.20757E-06  2640   0.312E-03    0.175E-03
DAV:  15    -0.161015780476E+03   -0.13924E-03   -0.12814E-06  2488   0.228E-03    0.160E-03
DAV:  16    -0.161015923403E+03   -0.14293E-03   -0.22886E-06  2712   0.247E-03    0.126E-03
DAV:  17    -0.161016012966E+03   -0.89564E-04   -0.17606E-06  2616   0.221E-03    0.986E-04
DAV:  18    -0.161016035270E+03   -0.22304E-04   -0.44636E-07  2272   0.179E-03    0.673E-04
DAV:  19    -0.161016036263E+03   -0.99304E-06   -0.13870E-07  1968   0.128E-03
   7 F= -.16101604E+03 E0= -.16100135E+03  d E =-.184571E-01  mag=    23.0000
       N       E                     dE             d eps       ncg     rms          rms(c)
DAV:   1    -0.161007665738E+03    0.83695E-02   -0.15394E+00  3040   0.251E+00    0.858E-01
DAV:   2    -0.161019275097E+03   -0.11609E-01   -0.97390E-02  4200   0.103E+00    0.411E-01
DAV:   3    -0.161021407419E+03   -0.21323E-02   -0.50977E-03  4472   0.307E-01    0.415E-01
DAV:   4    -0.161021007509E+03    0.39991E-03   -0.27837E-03  4800   0.229E-01    0.225E-01
DAV:   5    -0.161020870112E+03    0.13740E-03   -0.61686E-04  4960   0.971E-02    0.183E-01
DAV:   6    -0.161020708298E+03    0.16181E-03   -0.43326E-04  4296   0.570E-02    0.102E-01
DAV:   7    -0.161020736201E+03   -0.27903E-04   -0.14183E-04  4384   0.389E-02    0.322E-02
DAV:   8    -0.161020810076E+03   -0.73875E-04   -0.20315E-05  4392   0.162E-02    0.185E-02
DAV:   9    -0.161020893405E+03   -0.83329E-04   -0.43320E-06  3032   0.116E-02    0.856E-03
DAV:  10    -0.161020972803E+03   -0.79398E-04   -0.57998E-06  3520   0.719E-03    0.405E-03
DAV:  11    -0.161021018895E+03   -0.46092E-04   -0.69682E-07  2184   0.349E-03    0.282E-03
DAV:  12    -0.161021061912E+03   -0.43017E-04   -0.71652E-07  2184   0.293E-03    0.193E-03
DAV:  13    -0.161021106177E+03   -0.44265E-04   -0.65931E-07  2200   0.254E-03    0.145E-03
DAV:  14    -0.161021137272E+03   -0.31094E-04   -0.50459E-07  2088   0.205E-03    0.119E-03
DAV:  15    -0.161021166986E+03   -0.29714E-04   -0.56543E-07  2224   0.208E-03    0.114E-03
DAV:  16    -0.161021187365E+03   -0.20379E-04   -0.52197E-07  2200   0.175E-03    0.877E-04
DAV:  17    -0.161021200437E+03   -0.13072E-04   -0.47260E-07  2144   0.164E-03    0.933E-04
DAV:  18    -0.161021203159E+03   -0.27216E-05   -0.21371E-07  1936   0.139E-03    0.471E-04
DAV:  19    -0.161021205171E+03   -0.20122E-05   -0.14456E-07  1888   0.911E-04    0.487E-04
DAV:  20    -0.161021206493E+03   -0.13225E-05   -0.87699E-08  1880   0.872E-04    0.274E-04
DAV:  21    -0.161021207573E+03   -0.10798E-05   -0.74809E-08  1928   0.546E-04    0.229E-04
DAV:  22    -0.161021208399E+03   -0.82634E-06   -0.56590E-08  1864   0.586E-04
   8 F= -.16102121E+03 E0= -.16100637E+03  d E =-.517214E-02  mag=    23.0000
       N       E                     dE             d eps       ncg     rms          rms(c)
DAV:   1    -0.161018497444E+03    0.27101E-02   -0.38701E-01  3056   0.126E+00    0.429E-01
DAV:   2    -0.161021329099E+03   -0.28317E-02   -0.24567E-02  4136   0.523E-01    0.209E-01
DAV:   3    -0.161021984599E+03   -0.65550E-03   -0.16443E-03  4552   0.179E-01    0.249E-01
DAV:   4    -0.161021813348E+03    0.17125E-03   -0.92156E-04  4800   0.131E-01    0.109E-01
DAV:   5    -0.161021778899E+03    0.34449E-04   -0.12383E-04  4776   0.433E-02    0.893E-02
DAV:   6    -0.161021721746E+03    0.57153E-04   -0.10395E-04  4200   0.273E-02    0.508E-02
DAV:   7    -0.161021726559E+03   -0.48135E-05   -0.34713E-05  4408   0.200E-02    0.164E-02
DAV:   8    -0.161021753431E+03   -0.26872E-04   -0.43436E-06  2984   0.831E-03    0.955E-03
DAV:   9    -0.161021788126E+03   -0.34695E-04   -0.16467E-06  2232   0.689E-03    0.486E-03
DAV:  10    -0.161021814872E+03   -0.26746E-04   -0.15663E-06  2176   0.432E-03    0.285E-03
DAV:  11    -0.161021831480E+03   -0.16608E-04   -0.79790E-07  1920   0.356E-03    0.201E-03
DAV:  12    -0.161021848325E+03   -0.16844E-04   -0.58636E-07  1976   0.266E-03    0.133E-03
DAV:  13    -0.161021862566E+03   -0.14241E-04   -0.35060E-07  2024   0.231E-03    0.728E-04
DAV:  14    -0.161021875501E+03   -0.12935E-04   -0.25844E-07  1992   0.148E-03    0.738E-04
DAV:  15    -0.161021885753E+03   -0.10252E-04   -0.19779E-07  2024   0.139E-03    0.650E-04
DAV:  16    -0.161021890380E+03   -0.46268E-05   -0.13580E-07  1920   0.976E-04    0.424E-04
DAV:  17    -0.161021897319E+03   -0.69398E-05   -0.15853E-07  1960   0.875E-04    0.520E-04
DAV:  18    -0.161021901400E+03   -0.40804E-05   -0.14048E-07  2000   0.906E-04    0.340E-04
DAV:  19    -0.161021903325E+03   -0.19248E-05   -0.96895E-08  1888   0.766E-04    0.356E-04
DAV:  20    -0.161021903795E+03   -0.47075E-06   -0.50242E-08  1936   0.660E-04
   9 F= -.16102190E+03 E0= -.16100698E+03  d E =-.586753E-02  mag=    23.0000
       N       E                     dE             d eps       ncg     rms          rms(c)
DAV:   1    -0.161017220202E+03    0.46831E-02   -0.11391E+00  3040   0.212E+00    0.690E-01
DAV:   2    -0.161024953585E+03   -0.77334E-02   -0.85788E-02  4216   0.977E-01    0.306E-01
DAV:   3    -0.161025335672E+03   -0.38209E-03   -0.20141E-03  4288   0.184E-01    0.280E-01
DAV:   4    -0.161025191741E+03    0.14393E-03   -0.12126E-03  4584   0.147E-01    0.200E-01
DAV:   5    -0.161025048882E+03    0.14286E-03   -0.25991E-04  4720   0.638E-02    0.144E-01
DAV:   6    -0.161024905335E+03    0.14355E-03   -0.30486E-04  3488   0.407E-02    0.779E-02
DAV:   7    -0.161024911911E+03   -0.65757E-05   -0.84893E-05  4424   0.308E-02    0.204E-02
DAV:   8    -0.161024940914E+03   -0.29003E-04   -0.86671E-06  3768   0.115E-02    0.117E-02
DAV:   9    -0.161024989772E+03   -0.48859E-04   -0.15849E-06  2304   0.684E-03    0.537E-03
DAV:  10    -0.161025035846E+03   -0.46074E-04   -0.18093E-06  2280   0.481E-03    0.295E-03
DAV:  11    -0.161025060764E+03   -0.24918E-04   -0.89912E-07  2000   0.402E-03    0.172E-03
DAV:  12    -0.161025085987E+03   -0.25223E-04   -0.56730E-07  2048   0.270E-03    0.155E-03
DAV:  13    -0.161025110838E+03   -0.24851E-04   -0.35123E-07  2112   0.225E-03    0.104E-03
DAV:  14    -0.161025144298E+03   -0.33460E-04   -0.54147E-07  2200   0.161E-03    0.109E-03
DAV:  15    -0.161025160541E+03   -0.16243E-04   -0.27131E-07  2048   0.165E-03    0.760E-04
DAV:  16    -0.161025167447E+03   -0.69061E-05   -0.17372E-07  1912   0.103E-03    0.519E-04
DAV:  17    -0.161025176709E+03   -0.92616E-05   -0.14874E-07  1992   0.987E-04    0.496E-04
DAV:  18    -0.161025190204E+03   -0.13495E-04   -0.28974E-07  2160   0.107E-03    0.657E-04
DAV:  19    -0.161025196240E+03   -0.60366E-05   -0.19405E-07  2056   0.123E-03    0.413E-04
DAV:  20    -0.161025197894E+03   -0.16535E-05   -0.11641E-07  1912   0.896E-04    0.404E-04
DAV:  21    -0.161025198691E+03   -0.79734E-06   -0.66133E-08  1928   0.702E-04
  10 F= -.16102520E+03 E0= -.16101031E+03  d E =-.329490E-02  mag=    23.0000
       N       E                     dE             d eps       ncg     rms          rms(c)
DAV:   1    -0.161018129673E+03    0.70682E-02   -0.11688E+00  3040   0.214E+00    0.699E-01
DAV:   2    -0.161026069238E+03   -0.79396E-02   -0.88075E-02  4224   0.989E-01    0.310E-01
DAV:   3    -0.161026442146E+03   -0.37291E-03   -0.19949E-03  4264   0.183E-01    0.278E-01
DAV:   4    -0.161026311439E+03    0.13071E-03   -0.12088E-03  4560   0.147E-01    0.205E-01
DAV:   5    -0.161026160677E+03    0.15076E-03   -0.27988E-04  4776   0.664E-02    0.145E-01
DAV:   6    -0.161026014345E+03    0.14633E-03   -0.31602E-04  3536   0.414E-02    0.793E-02
DAV:   7    -0.161026022772E+03   -0.84270E-05   -0.86194E-05  4424   0.310E-02    0.212E-02
DAV:   8    -0.161026053317E+03   -0.30545E-04   -0.82664E-06  3784   0.114E-02    0.113E-02
DAV:   9    -0.161026103994E+03   -0.50678E-04   -0.13632E-06  2288   0.655E-03    0.589E-03
DAV:  10    -0.161026150827E+03   -0.46832E-04   -0.18717E-06  2272   0.509E-03    0.298E-03
DAV:  11    -0.161026177438E+03   -0.26611E-04   -0.96538E-07  2008   0.404E-03    0.170E-03
DAV:  12    -0.161026204985E+03   -0.27547E-04   -0.64656E-07  2096   0.280E-03    0.159E-03
DAV:  13    -0.161026226891E+03   -0.21906E-04   -0.34106E-07  2008   0.230E-03    0.101E-03
DAV:  14    -0.161026262597E+03   -0.35707E-04   -0.56815E-07  2208   0.158E-03    0.112E-03
DAV:  15    -0.161026280930E+03   -0.18333E-04   -0.28562E-07  2088   0.168E-03    0.797E-04
DAV:  16    -0.161026288251E+03   -0.73210E-05   -0.18421E-07  1920   0.108E-03    0.538E-04
DAV:  17    -0.161026297559E+03   -0.93072E-05   -0.15143E-07  1960   0.102E-03    0.532E-04
DAV:  18    -0.161026310173E+03   -0.12614E-04   -0.25539E-07  2152   0.105E-03    0.626E-04
DAV:  19    -0.161026318210E+03   -0.80372E-05   -0.24004E-07  2120   0.122E-03    0.495E-04
DAV:  20    -0.161026319856E+03   -0.16463E-05   -0.12396E-07  1928   0.102E-03    0.386E-04
DAV:  21    -0.161026320737E+03   -0.88057E-06   -0.74820E-08  1928   0.671E-04
  11 F= -.16102632E+03 E0= -.16101147E+03  d E =-.441694E-02  mag=    23.0000
       N       E                     dE             d eps       ncg     rms          rms(c)
DAV:   1    -0.161018208333E+03    0.81115E-02   -0.10331E+00  3072   0.202E+00    0.673E-01
DAV:   2    -0.161025096683E+03   -0.68883E-02   -0.59647E-02  4208   0.798E-01    0.369E-01
DAV:   3    -0.161028629151E+03   -0.35325E-02   -0.74620E-03  4320   0.364E-01    0.528E-01
DAV:   4    -0.161027685846E+03    0.94330E-03   -0.46593E-03  4624   0.281E-01    0.175E-01
DAV:   5    -0.161027616121E+03    0.69725E-04   -0.19966E-04  4448   0.515E-02    0.127E-01
DAV:   6    -0.161027448698E+03    0.16742E-03   -0.42183E-04  4320   0.626E-02    0.100E-01
DAV:   7    -0.161027408058E+03    0.40640E-04   -0.25352E-04  4616   0.599E-02    0.332E-02
DAV:   8    -0.161027474155E+03   -0.66097E-04   -0.17188E-05  4232   0.177E-02    0.134E-02
DAV:   9    -0.161027558601E+03   -0.84446E-04   -0.19902E-06  2296   0.619E-03    0.825E-03
DAV:  10    -0.161027641451E+03   -0.82850E-04   -0.14875E-06  2216   0.490E-03    0.485E-03
DAV:  11    -0.161027734828E+03   -0.93376E-04   -0.23536E-06  2512   0.393E-03    0.201E-03
DAV:  12    -0.161027787610E+03   -0.52783E-04   -0.67539E-07  2144   0.301E-03    0.144E-03
DAV:  13    -0.161027829386E+03   -0.41776E-04   -0.45265E-07  2008   0.235E-03    0.128E-03
DAV:  14    -0.161027876285E+03   -0.46899E-04   -0.58114E-07  2272   0.200E-03    0.110E-03
DAV:  15    -0.161027914703E+03   -0.38418E-04   -0.48262E-07  2120   0.179E-03    0.865E-04
DAV:  16    -0.161027961539E+03   -0.46836E-04   -0.97446E-07  2304   0.179E-03    0.811E-04
DAV:  17    -0.161027985069E+03   -0.23530E-04   -0.49822E-07  2248   0.168E-03    0.685E-04
DAV:  18    -0.161027991253E+03   -0.61839E-05   -0.24284E-07  1936   0.138E-03    0.399E-04
DAV:  19    -0.161027998176E+03   -0.69232E-05   -0.26394E-07  1992   0.107E-03    0.458E-04
DAV:  20    -0.161028000611E+03   -0.24345E-05   -0.14805E-07  1952   0.112E-03    0.215E-04
DAV:  21    -0.161028001187E+03   -0.57620E-06   -0.84042E-08  1920   0.734E-04
  12 F= -.16102800E+03 E0= -.16101309E+03  d E =-.168045E-02  mag=    23.0000
