CrCl3 2x2 + Ni S3 top-Cr (D3, U=0) (a_2x
   1.0000000000000000     
    12.0925489970493256    0.0000000000000000    0.0000000000000000
    -6.0462744985246628   10.4724546279527502    0.0000000000000000
     0.0000000000000000    0.0000000000000000   20.0000000000000000
   Cr   Cl   Ni
     8    24     1
Direct
  0.1670012167453138  0.3334196116347783  0.5009624625771449
  0.3315129531306588  0.1659012093937774  0.5001722312356169
  0.6666666666666714  0.3333333333333286  0.4909601178867204
  0.8340987906062226  0.1656117437368957  0.5001722312356169
  0.1664183948894786  0.8329987832546861  0.5009624625771449
  0.3333333333333286  0.6666666666666714  0.5007575763257542
  0.6665803883652217  0.8335816051105216  0.5009624625771449
  0.8343882562631041  0.6684870468693410  0.5001722312356169
  0.1795685380664696  0.5000184216068800  0.4344939552563218
  0.4946603399320128  0.1762157792578530  0.4306506327111611
  0.3224249611694397  0.3229437228641562  0.4351272785477954
  0.3211279528735035  0.5004921666781182  0.5675660657814908
 -0.0007432558814032  0.3209439501974407  0.5671935071753804
  0.1786327977998761  0.1790297787834899  0.5675616865194613
  0.6815554393258401  0.5053396600679873  0.4306506327111611
  0.0040799259455812  0.1791296853943276  0.4340716436301513
  0.8237842207421472  0.3184445606741597  0.4306506327111611
  0.8276462449609173  0.4986460830534400  0.5677983040749964
  0.5013539169465601  0.3290001619074772  0.5677983040749964
  0.6709998380925228  0.1723537550390827  0.5677983040749964
  0.1750497594487465 -0.0040799259455812  0.4340716436301513
  0.4999815783931199  0.6795501164595895  0.4344939552563218
  0.3204498835404105  0.8204314619335303  0.4344939552563218
  0.3216872060788439  0.0007432558814032  0.5671935071753804
  0.0003969809836139  0.8213672022001238  0.5675616865194613
  0.1793642138046145  0.6788720471264965  0.5675660657814908
  0.6770562771358437 -0.0005187616947164  0.4351272785477954
  0.0005187616947164  0.6775750388305600  0.4351272785477954
  0.8208703146056722  0.8249502405512534  0.4340716436301513
  0.8209702212165104 -0.0003969809836139  0.5675616865194613
  0.4995078333218821  0.8206357861953855  0.5675660657814908
  0.6790560498025593  0.6783127939211557  0.5671935071753804
  0.6666666666666714  0.3333333333333286  0.6164890032589644

  0.00000000E+00  0.00000000E+00  0.00000000E+00
  0.00000000E+00  0.00000000E+00  0.00000000E+00
  0.00000000E+00  0.00000000E+00  0.00000000E+00
  0.00000000E+00  0.00000000E+00  0.00000000E+00
  0.00000000E+00  0.00000000E+00  0.00000000E+00
  0.00000000E+00  0.00000000E+00  0.00000000E+00
  0.00000000E+00  0.00000000E+00  0.00000000E+00
  0.00000000E+00  0.00000000E+00  0.00000000E+00
  0.00000000E+00  0.00000000E+00  0.00000000E+00
  0.00000000E+00  0.00000000E+00  0.00000000E+00
  0.00000000E+00  0.00000000E+00  0.00000000E+00
  0.00000000E+00  0.00000000E+00  0.00000000E+00
  0.00000000E+00  0.00000000E+00  0.00000000E+00
  0.00000000E+00  0.00000000E+00  0.00000000E+00
  0.00000000E+00  0.00000000E+00  0.00000000E+00
  0.00000000E+00  0.00000000E+00  0.00000000E+00
  0.00000000E+00  0.00000000E+00  0.00000000E+00
  0.00000000E+00  0.00000000E+00  0.00000000E+00
  0.00000000E+00  0.00000000E+00  0.00000000E+00
  0.00000000E+00  0.00000000E+00  0.00000000E+00
  0.00000000E+00  0.00000000E+00  0.00000000E+00
  0.00000000E+00  0.00000000E+00  0.00000000E+00
  0.00000000E+00  0.00000000E+00  0.00000000E+00
  0.00000000E+00  0.00000000E+00  0.00000000E+00
  0.00000000E+00  0.00000000E+00  0.00000000E+00
  0.00000000E+00  0.00000000E+00  0.00000000E+00
  0.00000000E+00  0.00000000E+00  0.00000000E+00
  0.00000000E+00  0.00000000E+00  0.00000000E+00
  0.00000000E+00  0.00000000E+00  0.00000000E+00
  0.00000000E+00  0.00000000E+00  0.00000000E+00
  0.00000000E+00  0.00000000E+00  0.00000000E+00
  0.00000000E+00  0.00000000E+00  0.00000000E+00
  0.00000000E+00  0.00000000E+00  0.00000000E+00
