 running on   64 total cores
 distrk:  each k-point on   64 cores,    1 groups
 distr:  one band on    8 cores,    8 groups
 vasp.6.2.0 18Jan21 (build Jul 28 2023 11:58:00) complex                         
 POSCAR found type information on POSCAR CrClNi
 POSCAR found :  3 types and      33 ions
 scaLAPACK will be used
 LDA part: xc-table for Pade appr. of Perdew
 POSCAR, INCAR and KPOINTS ok, starting setup
 FFT: planning ...
 WAVECAR not read
 entering main loop
       N       E                     dE             d eps       ncg     rms          rms(c)
DAV:   1     0.211946960312E+04    0.21195E+04   -0.65009E+04  3096   0.914E+02
DAV:   2     0.408305735701E+03   -0.17112E+04   -0.15807E+04  3632   0.246E+02
DAV:   3    -0.130733816662E+03   -0.53904E+03   -0.52318E+03  4416   0.138E+02
DAV:   4    -0.173544188379E+03   -0.42810E+02   -0.42209E+02  4600   0.560E+01
DAV:   5    -0.174338184717E+03   -0.79400E+00   -0.78878E+00  4656   0.952E+00    0.423E+01
DAV:   6    -0.186686053263E+03   -0.12348E+02   -0.22531E+02  4400   0.651E+01    0.830E+01
DAV:   7    -0.168271812075E+03    0.18414E+02   -0.27293E+01  4824   0.553E+01    0.387E+01
DAV:   8    -0.161754398396E+03    0.65174E+01   -0.20285E+01  5088   0.269E+01    0.211E+01
DAV:   9    -0.158356776722E+03    0.33976E+01   -0.86039E+00  4376   0.334E+01    0.109E+01
DAV:  10    -0.157831835340E+03    0.52494E+00   -0.47265E+00  5248   0.128E+01    0.628E+00
DAV:  11    -0.158071767838E+03   -0.23993E+00   -0.90520E-01  4680   0.467E+00    0.429E+00
DAV:  12    -0.158269021730E+03   -0.19725E+00   -0.62666E-01  4408   0.433E+00    0.297E+00
DAV:  13    -0.158434297069E+03   -0.16528E+00   -0.24559E-01  4680   0.364E+00    0.306E+00
DAV:  14    -0.158475261986E+03   -0.40965E-01   -0.12845E-01  4536   0.246E+00    0.126E+00
DAV:  15    -0.158556707896E+03   -0.81446E-01   -0.30909E-02  4112   0.839E-01    0.907E-01
DAV:  16    -0.158652911789E+03   -0.96204E-01   -0.15272E-02  4320   0.599E-01    0.482E-01
DAV:  17    -0.158752441779E+03   -0.99530E-01   -0.99197E-03  4304   0.372E-01    0.327E-01
DAV:  18    -0.158816873492E+03   -0.64432E-01   -0.25639E-03  4192   0.253E-01    0.148E-01
DAV:  19    -0.158877195831E+03   -0.60322E-01   -0.13916E-03  4224   0.127E-01    0.155E-01
DAV:  20    -0.158958887715E+03   -0.81692E-01   -0.21423E-03  4008   0.139E-01    0.647E-02
DAV:  21    -0.158996687081E+03   -0.37799E-01   -0.71777E-04  4016   0.712E-02    0.507E-02
DAV:  22    -0.159023584847E+03   -0.26898E-01   -0.46260E-04  3560   0.412E-02    0.406E-02
DAV:  23    -0.159044350992E+03   -0.20766E-01   -0.50874E-04  3544   0.413E-02    0.241E-02
DAV:  24    -0.159052637926E+03   -0.82869E-02   -0.27475E-04  3712   0.296E-02    0.152E-02
DAV:  25    -0.159054044499E+03   -0.14066E-02   -0.45708E-05  3872   0.153E-02    0.103E-02
DAV:  26    -0.159054636341E+03   -0.59184E-03   -0.29751E-05  3600   0.123E-02    0.528E-03
DAV:  27    -0.159054760666E+03   -0.12432E-03   -0.50854E-06  2888   0.640E-03    0.343E-03
DAV:  28    -0.159054812640E+03   -0.51974E-04   -0.16247E-06  2376   0.361E-03    0.299E-03
DAV:  29    -0.159054846629E+03   -0.33989E-04   -0.12808E-06  2288   0.288E-03    0.221E-03
DAV:  30    -0.159054877619E+03   -0.30990E-04   -0.15632E-06  2368   0.254E-03    0.147E-03
DAV:  31    -0.159054889091E+03   -0.11472E-04   -0.45417E-07  2272   0.209E-03    0.116E-03
DAV:  32    -0.159054901037E+03   -0.11947E-04   -0.41572E-07  2192   0.155E-03    0.114E-03
DAV:  33    -0.159054912421E+03   -0.11384E-04   -0.34938E-07  2136   0.161E-03    0.114E-03
DAV:  34    -0.159054919255E+03   -0.68334E-05   -0.22403E-07  1984   0.137E-03    0.792E-04
DAV:  35    -0.159054923491E+03   -0.42361E-05   -0.14805E-07  1904   0.105E-03    0.643E-04
DAV:  36    -0.159054925653E+03   -0.21627E-05   -0.74692E-08  1896   0.891E-04    0.502E-04
DAV:  37    -0.159054927843E+03   -0.21895E-05   -0.64384E-08  1872   0.671E-04    0.279E-04
DAV:  38    -0.159054928818E+03   -0.97492E-06   -0.32465E-08  1904   0.570E-04
   1 F= -.16504777E+03 E0= -.16504777E+03  d E =-.165048E+03  mag=    24.0000
 curvature:   0.00 expect dE= 0.000E+00 dE for cont linesearch  0.000E+00
 trial: gam= 0.00000 g(F)=  0.203E+00 g(S)=  0.000E+00 ort = 0.000E+00 (trialstep = 0.100E+01)
 search vector abs. value=  0.203E+00
 bond charge predicted
       N       E                     dE             d eps       ncg     rms          rms(c)
DAV:   1    -0.159017613157E+03    0.37315E-01   -0.20378E+01  3160   0.863E+00    0.296E+00
DAV:   2    -0.159203434218E+03   -0.18582E+00   -0.13895E+00  4376   0.443E+00    0.340E+00
DAV:   3    -0.159361515665E+03   -0.15808E+00   -0.75190E-01  4384   0.494E+00    0.839E+00
DAV:   4    -0.159167783522E+03    0.19373E+00   -0.33460E-01  4848   0.274E+00    0.122E+00
DAV:   5    -0.159169246258E+03   -0.14627E-02   -0.19446E-02  4472   0.967E-01    0.112E+00
DAV:   6    -0.159159772565E+03    0.94737E-02   -0.89739E-03  4656   0.601E-01    0.702E-01
DAV:   7    -0.159149147320E+03    0.10625E-01   -0.55435E-03  4328   0.319E-01    0.397E-01
DAV:   8    -0.159153641085E+03   -0.44938E-02   -0.15806E-03  4440   0.210E-01    0.125E-01
DAV:   9    -0.159161078948E+03   -0.74379E-02   -0.48060E-04  4504   0.967E-02    0.137E-01
DAV:  10    -0.159169301272E+03   -0.82223E-02   -0.20067E-04  4032   0.513E-02    0.779E-02
DAV:  11    -0.159178162690E+03   -0.88614E-02   -0.15751E-04  4224   0.403E-02    0.337E-02
DAV:  12    -0.159182610135E+03   -0.44474E-02   -0.44148E-05  4032   0.181E-02    0.168E-02
DAV:  13    -0.159186424946E+03   -0.38148E-02   -0.34662E-05  3280   0.119E-02    0.134E-02
DAV:  14    -0.159190897109E+03   -0.44722E-02   -0.67235E-05  3176   0.133E-02    0.109E-02
DAV:  15    -0.159194230278E+03   -0.33332E-02   -0.72352E-05  3280   0.130E-02    0.957E-03
DAV:  16    -0.159195609349E+03   -0.13791E-02   -0.36946E-05  3432   0.961E-03    0.302E-03
DAV:  17    -0.159196085172E+03   -0.47582E-03   -0.15474E-05  3208   0.553E-03    0.128E-03
DAV:  18    -0.159196156962E+03   -0.71790E-04   -0.19875E-06  2744   0.278E-03    0.142E-03
DAV:  19    -0.159196165286E+03   -0.83246E-05   -0.33764E-07  2224   0.197E-03    0.759E-04
DAV:  20    -0.159196170164E+03   -0.48775E-05   -0.35560E-07  2160   0.135E-03    0.529E-04
DAV:  21    -0.159196172754E+03   -0.25901E-05   -0.17787E-07  2112   0.138E-03    0.415E-04
DAV:  22    -0.159196174116E+03   -0.13619E-05   -0.11262E-07  2008   0.845E-04    0.314E-04
DAV:  23    -0.159196174999E+03   -0.88281E-06   -0.59171E-08  1928   0.849E-04
   2 F= -.16518743E+03 E0= -.16518743E+03  d E =-.139655E+00  mag=    24.0000
 trial-energy change:   -0.139655  1 .order   -0.140740   -0.202581   -0.078899
 step:   1.7006(harm=  1.6379)  dis= 0.05793  next Energy=  -165.214693 (dE=-0.167E+00)
 bond charge predicted
       N       E                     dE             d eps       ncg     rms          rms(c)
DAV:   1    -0.159139912996E+03    0.56261E-01   -0.10022E+01  3192   0.608E+00    0.212E+00
DAV:   2    -0.159237523730E+03   -0.97611E-01   -0.66789E-01  4472   0.301E+00    0.287E+00
DAV:   3    -0.159316223510E+03   -0.78700E-01   -0.49447E-01  4512   0.392E+00    0.623E+00
DAV:   4    -0.159209754914E+03    0.10647E+00   -0.22989E-01  4760   0.212E+00    0.991E-01
DAV:   5    -0.159211070745E+03   -0.13158E-02   -0.12611E-02  4616   0.703E-01    0.786E-01
DAV:   6    -0.159206727145E+03    0.43436E-02   -0.50276E-03  4744   0.397E-01    0.459E-01
DAV:   7    -0.159201374885E+03    0.53523E-02   -0.24758E-03  4352   0.188E-01    0.255E-01
DAV:   8    -0.159203254103E+03   -0.18792E-02   -0.79709E-04  4416   0.139E-01    0.937E-02
DAV:   9    -0.159207031218E+03   -0.37771E-02   -0.20454E-04  4368   0.537E-02    0.979E-02
DAV:  10    -0.159210686315E+03   -0.36551E-02   -0.80341E-05  4320   0.377E-02    0.503E-02
DAV:  11    -0.159215099404E+03   -0.44131E-02   -0.75156E-05  4080   0.264E-02    0.185E-02
DAV:  12    -0.159217593820E+03   -0.24944E-02   -0.24094E-05  3792   0.116E-02    0.109E-02
DAV:  13    -0.159219598788E+03   -0.20050E-02   -0.17008E-05  3376   0.807E-03    0.879E-03
DAV:  14    -0.159221983693E+03   -0.23849E-02   -0.34297E-05  3168   0.884E-03    0.834E-03
DAV:  15    -0.159223985265E+03   -0.20016E-02   -0.51997E-05  3176   0.101E-02    0.575E-03
DAV:  16    -0.159224533119E+03   -0.54785E-03   -0.15258E-05  3664   0.654E-03    0.190E-03
DAV:  17    -0.159224681282E+03   -0.14816E-03   -0.32762E-06  2800   0.298E-03    0.101E-03
DAV:  18    -0.159224719952E+03   -0.38670E-04   -0.10109E-06  2368   0.220E-03    0.966E-04
DAV:  19    -0.159224727088E+03   -0.71364E-05   -0.41301E-07  2208   0.205E-03    0.593E-04
DAV:  20    -0.159224728715E+03   -0.16269E-05   -0.23083E-07  1992   0.135E-03    0.324E-04
DAV:  21    -0.159224729867E+03   -0.11518E-05   -0.13379E-07  2064   0.106E-03    0.282E-04
DAV:  22    -0.159224730507E+03   -0.64059E-06   -0.70564E-08  1952   0.783E-04
   3 F= -.16521468E+03 E0= -.16521468E+03  d E =-.166905E+00  mag=    24.0000
 curvature:  -0.81 expect dE=-0.407E-01 dE for cont linesearch -0.216E-07
 trial: gam= 0.24799 g(F)=  0.502E-01 g(S)=  0.000E+00 ort =-0.735E-04 (trialstep = 0.114E+01)
 search vector abs. value=  0.626E-01
 bond charge predicted
       N       E                     dE             d eps       ncg     rms          rms(c)
DAV:   1    -0.159210054032E+03    0.14676E-01   -0.86269E+00  3056   0.578E+00    0.186E+00
DAV:   2    -0.159330817301E+03   -0.12076E+00   -0.75055E-01  4752   0.364E+00    0.420E+00
DAV:   3    -0.159287100248E+03    0.43717E-01   -0.40446E-01  4448   0.394E+00    0.324E+00
DAV:   4    -0.159261324095E+03    0.25776E-01   -0.94585E-02  4912   0.161E+00    0.649E-01
DAV:   5    -0.159261893626E+03   -0.56953E-03   -0.62899E-03  4648   0.418E-01    0.619E-01
DAV:   6    -0.159260940317E+03    0.95331E-03   -0.24455E-03  4640   0.301E-01    0.469E-01
DAV:   7    -0.159259478594E+03    0.14617E-02   -0.35310E-03  4872   0.278E-01    0.231E-01
DAV:   8    -0.159259714971E+03   -0.23638E-03   -0.92174E-04  4344   0.149E-01    0.747E-02
DAV:   9    -0.159260293069E+03   -0.57810E-03   -0.89766E-05  4392   0.439E-02    0.505E-02
DAV:  10    -0.159260986771E+03   -0.69370E-03   -0.33042E-05  4392   0.261E-02    0.323E-02
DAV:  11    -0.159261691184E+03   -0.70441E-03   -0.22287E-05  4208   0.176E-02    0.226E-02
DAV:  12    -0.159262231344E+03   -0.54016E-03   -0.13213E-05  4312   0.143E-02    0.894E-03
DAV:  13    -0.159262609879E+03   -0.37853E-03   -0.29947E-06  2744   0.557E-03    0.420E-03
DAV:  14    -0.159263042431E+03   -0.43255E-03   -0.58112E-06  3080   0.477E-03    0.309E-03
DAV:  15    -0.159263297206E+03   -0.25477E-03   -0.22268E-06  2592   0.312E-03    0.327E-03
DAV:  16    -0.159263537733E+03   -0.24053E-03   -0.34076E-06  2720   0.330E-03    0.188E-03
DAV:  17    -0.159263788890E+03   -0.25116E-03   -0.60116E-06  2936   0.341E-03    0.160E-03
DAV:  18    -0.159263900086E+03   -0.11120E-03   -0.33226E-06  2800   0.276E-03    0.980E-04
DAV:  19    -0.159263914080E+03   -0.13993E-04   -0.34126E-07  2184   0.164E-03    0.650E-04
DAV:  20    -0.159263924204E+03   -0.10125E-04   -0.47255E-07  2200   0.129E-03    0.599E-04
DAV:  21    -0.159263925469E+03   -0.12646E-05   -0.17042E-07  1968   0.137E-03    0.246E-04
DAV:  22    -0.159263925564E+03   -0.95448E-07   -0.14484E-07  1976   0.765E-04
   4 F= -.16525310E+03 E0= -.16525310E+03  d E =-.384197E-01  mag=    24.0000
 trial-energy change:   -0.038420  1 .order   -0.038605   -0.057173   -0.020037
 step:   1.7856(harm=  1.7553)  dis= 0.02360  next Energy=  -165.258736 (dE=-0.441E-01)
 bond charge predicted
       N       E                     dE             d eps       ncg     rms          rms(c)
DAV:   1    -0.159253034988E+03    0.10890E-01   -0.27646E+00  3056   0.327E+00    0.106E+00
DAV:   2    -0.159291766045E+03   -0.38731E-01   -0.23873E-01  4680   0.204E+00    0.255E+00
DAV:   3    -0.159277349260E+03    0.14417E-01   -0.14176E-01  4400   0.220E+00    0.183E+00
DAV:   4    -0.159268904536E+03    0.84447E-02   -0.27467E-02  4816   0.911E-01    0.337E-01
DAV:   5    -0.159269039970E+03   -0.13543E-03   -0.19606E-03  4792   0.231E-01    0.339E-01
DAV:   6    -0.159268709543E+03    0.33043E-03   -0.85148E-04  4544   0.170E-01    0.270E-01
DAV:   7    -0.159268076723E+03    0.63282E-03   -0.10778E-03  4760   0.152E-01    0.994E-02
DAV:   8    -0.159268196577E+03   -0.11985E-03   -0.23680E-04  4296   0.728E-02    0.361E-02
DAV:   9    -0.159268413223E+03   -0.21665E-03   -0.24074E-05  4408   0.223E-02    0.266E-02
DAV:  10    -0.159268693782E+03   -0.28056E-03   -0.70011E-06  3616   0.117E-02    0.168E-02
DAV:  11    -0.159268994725E+03   -0.30094E-03   -0.73778E-06  3696   0.856E-03    0.118E-02
DAV:  12    -0.159269224667E+03   -0.22994E-03   -0.39189E-06  2952   0.774E-03    0.401E-03
DAV:  13    -0.159269384293E+03   -0.15963E-03   -0.18554E-06  2424   0.366E-03    0.263E-03
DAV:  14    -0.159269517658E+03   -0.13336E-03   -0.11738E-06  2224   0.309E-03    0.206E-03
DAV:  15    -0.159269650224E+03   -0.13257E-03   -0.19421E-06  2480   0.268E-03    0.208E-03
DAV:  16    -0.159269798497E+03   -0.14827E-03   -0.22560E-06  2528   0.268E-03    0.170E-03
DAV:  17    -0.159269870442E+03   -0.71944E-04   -0.89829E-07  2312   0.198E-03    0.187E-03
DAV:  18    -0.159269944326E+03   -0.73884E-04   -0.19872E-06  2456   0.270E-03    0.744E-04
DAV:  19    -0.159269969667E+03   -0.25342E-04   -0.79755E-07  2280   0.202E-03    0.599E-04
DAV:  20    -0.159269977872E+03   -0.82046E-05   -0.44369E-07  2088   0.167E-03    0.389E-04
DAV:  21    -0.159269979472E+03   -0.15999E-05   -0.22719E-07  1968   0.143E-03    0.351E-04
DAV:  22    -0.159269979889E+03   -0.41685E-06   -0.12557E-07  1880   0.958E-04
   5 F= -.16525866E+03 E0= -.16525866E+03  d E =-.439866E-01  mag=    24.0000
 curvature:  -1.09 expect dE=-0.996E-02 dE for cont linesearch -0.503E-06
 trial: gam= 0.21993 g(F)=  0.911E-02 g(S)=  0.000E+00 ort =-0.170E-03 (trialstep = 0.127E+01)
 search vector abs. value=  0.121E-01
 bond charge predicted
       N       E                     dE             d eps       ncg     rms          rms(c)
DAV:   1    -0.159262784317E+03    0.71952E-02   -0.18570E+00  3072   0.275E+00    0.898E-01
DAV:   2    -0.159277340114E+03   -0.14556E-01   -0.14040E-01  4296   0.144E+00    0.964E-01
DAV:   3    -0.159292678600E+03   -0.15338E-01   -0.77219E-02  4584   0.144E+00    0.245E+00
DAV:   4    -0.159273896108E+03    0.18782E-01   -0.47245E-02  4496   0.103E+00    0.344E-01
DAV:   5    -0.159274906092E+03   -0.10100E-02   -0.26245E-03  4624   0.256E-01    0.228E-01
DAV:   6    -0.159274526524E+03    0.37957E-03   -0.53783E-04  4480   0.105E-01    0.165E-01
DAV:   7    -0.159274165643E+03    0.36088E-03   -0.40624E-04  4392   0.759E-02    0.111E-01
DAV:   8    -0.159274204923E+03   -0.39280E-04   -0.92332E-05  4984   0.484E-02    0.335E-02
DAV:   9    -0.159274399637E+03   -0.19471E-03   -0.38427E-05  4504   0.264E-02    0.265E-02
DAV:  10    -0.159274681405E+03   -0.28177E-03   -0.11230E-05  3632   0.171E-02    0.131E-02
DAV:  11    -0.159274900818E+03   -0.21941E-03   -0.38181E-06  2888   0.804E-03    0.679E-03
DAV:  12    -0.159275091115E+03   -0.19030E-03   -0.26161E-06  2712   0.483E-03    0.475E-03
DAV:  13    -0.159275290410E+03   -0.19929E-03   -0.19368E-06  2528   0.382E-03    0.354E-03
DAV:  14    -0.159275398303E+03   -0.10789E-03   -0.93670E-07  2256   0.290E-03    0.189E-03
DAV:  15    -0.159275522776E+03   -0.12447E-03   -0.15003E-06  2384   0.282E-03    0.180E-03
DAV:  16    -0.159275639730E+03   -0.11695E-03   -0.16212E-06  2480   0.271E-03    0.138E-03
DAV:  17    -0.159275753714E+03   -0.11398E-03   -0.25490E-06  2704   0.264E-03    0.986E-04
DAV:  18    -0.159275795638E+03   -0.41924E-04   -0.72738E-07  2368   0.181E-03    0.864E-04
DAV:  19    -0.159275803697E+03   -0.80593E-05   -0.23972E-07  2040   0.158E-03    0.591E-04
DAV:  20    -0.159275809056E+03   -0.53587E-05   -0.17591E-07  1984   0.103E-03    0.491E-04
DAV:  21    -0.159275816007E+03   -0.69514E-05   -0.21922E-07  2064   0.107E-03    0.278E-04
DAV:  22    -0.159275817321E+03   -0.13136E-05   -0.12233E-07  1952   0.107E-03    0.392E-04
DAV:  23    -0.159275817592E+03   -0.27073E-06   -0.64748E-08  1920   0.693E-04
   6 F= -.16526675E+03 E0= -.16526675E+03  d E =-.808112E-02  mag=    24.0000
 trial-energy change:   -0.008081  1 .order   -0.008107   -0.011519   -0.004696
 step:   2.1786(harm=  2.1427)  dis= 0.01583  next Energy=  -165.268418 (dE=-0.975E-02)
 bond charge predicted
       N       E                     dE             d eps       ncg     rms          rms(c)
DAV:   1    -0.159269186060E+03    0.66313E-02   -0.95320E-01  3072   0.197E+00    0.648E-01
DAV:   2    -0.159276728355E+03   -0.75423E-02   -0.72039E-02  4288   0.103E+00    0.741E-01
DAV:   3    -0.159285065755E+03   -0.83374E-02   -0.45542E-02  4624   0.107E+00    0.182E+00
DAV:   4    -0.159274658677E+03    0.10407E-01   -0.26059E-02  4496   0.754E-01    0.252E-01
DAV:   5    -0.159275275241E+03   -0.61656E-03   -0.13549E-03  4744   0.183E-01    0.164E-01
DAV:   6    -0.159275063959E+03    0.21128E-03   -0.28073E-04  4496   0.754E-02    0.119E-01
DAV:   7    -0.159274816998E+03    0.24696E-03   -0.21605E-04  4296   0.544E-02    0.813E-02
DAV:   8    -0.159274836838E+03   -0.19839E-04   -0.50517E-05  4928   0.351E-02    0.237E-02
DAV:   9    -0.159274952906E+03   -0.11607E-03   -0.21260E-05  4200   0.195E-02    0.200E-02
DAV:  10    -0.159275127143E+03   -0.17424E-03   -0.53414E-06  2704   0.126E-02    0.915E-03
DAV:  11    -0.159275276851E+03   -0.14971E-03   -0.45087E-06  3176   0.750E-03    0.511E-03
DAV:  12    -0.159275352465E+03   -0.75614E-04   -0.61005E-07  2128   0.323E-03    0.339E-03
DAV:  13    -0.159275473732E+03   -0.12127E-03   -0.11881E-06  2328   0.279E-03    0.331E-03
DAV:  14    -0.159275570363E+03   -0.96631E-04   -0.96910E-07  2368   0.248E-03    0.218E-03
DAV:  15    -0.159275659951E+03   -0.89588E-04   -0.12487E-06  2344   0.265E-03    0.143E-03
DAV:  16    -0.159275689116E+03   -0.29165E-04   -0.38783E-07  2064   0.206E-03    0.107E-03
DAV:  17    -0.159275766391E+03   -0.77274E-04   -0.13824E-06  2344   0.186E-03    0.101E-03
DAV:  18    -0.159275814289E+03   -0.47898E-04   -0.82460E-07  2328   0.182E-03    0.865E-04
DAV:  19    -0.159275837057E+03   -0.22768E-04   -0.67211E-07  2264   0.194E-03    0.587E-04
DAV:  20    -0.159275840621E+03   -0.35639E-05   -0.28198E-07  2008   0.170E-03    0.370E-04
DAV:  21    -0.159275842668E+03   -0.20472E-05   -0.18097E-07  1960   0.104E-03    0.289E-04
DAV:  22    -0.159275843576E+03   -0.90795E-06   -0.10163E-07  1920   0.978E-04
   7 F= -.16526837E+03 E0= -.16526837E+03  d E =-.970207E-02  mag=    24.0000
 curvature:  -1.42 expect dE=-0.540E-02 dE for cont linesearch -0.142E-05
 trial: gam= 0.44272 g(F)=  0.380E-02 g(S)=  0.000E+00 ort =-0.110E-03 (trialstep = 0.145E+01)
 search vector abs. value=  0.607E-02
 bond charge predicted
       N       E                     dE             d eps       ncg     rms          rms(c)
DAV:   1    -0.159267919740E+03    0.79229E-02   -0.13705E+00  3080   0.231E+00    0.624E-01
DAV:   2    -0.159277583340E+03   -0.96636E-02   -0.82035E-02  4296   0.109E+00    0.925E-01
DAV:   3    -0.159284000602E+03   -0.64173E-02   -0.53291E-02  4648   0.114E+00    0.173E+00
DAV:   4    -0.159275335729E+03    0.86649E-02   -0.25055E-02  4392   0.712E-01    0.187E-01
DAV:   5    -0.159275957278E+03   -0.62155E-03   -0.80725E-04  4488   0.103E-01    0.146E-01
DAV:   6    -0.159275917790E+03    0.39488E-04   -0.18815E-04  4688   0.794E-02    0.120E-01
DAV:   7    -0.159275839572E+03    0.78219E-04   -0.23200E-04  4440   0.580E-02    0.981E-02
DAV:   8    -0.159275841424E+03   -0.18526E-05   -0.12577E-04  4928   0.486E-02    0.244E-02
DAV:   9    -0.159275888137E+03   -0.46713E-04   -0.18657E-05  4384   0.196E-02    0.117E-02
DAV:  10    -0.159275962396E+03   -0.74258E-04   -0.22311E-06  2448   0.658E-03    0.885E-03
DAV:  11    -0.159276022022E+03   -0.59627E-04   -0.17989E-06  2264   0.666E-03    0.611E-03
DAV:  12    -0.159276055412E+03   -0.33390E-04   -0.12335E-06  2008   0.377E-03    0.488E-03
DAV:  13    -0.159276088352E+03   -0.32941E-04   -0.75663E-07  2072   0.351E-03    0.216E-03
DAV:  14    -0.159276115335E+03   -0.26983E-04   -0.49567E-07  2000   0.246E-03    0.162E-03
DAV:  15    -0.159276153777E+03   -0.38442E-04   -0.65400E-07  2160   0.218E-03    0.146E-03
DAV:  16    -0.159276182149E+03   -0.28371E-04   -0.54136E-07  2080   0.168E-03    0.952E-04
DAV:  17    -0.159276198118E+03   -0.15970E-04   -0.28304E-07  1928   0.150E-03    0.706E-04
DAV:  18    -0.159276211752E+03   -0.13634E-04   -0.27046E-07  2016   0.129E-03    0.718E-04
DAV:  19    -0.159276229165E+03   -0.17412E-04   -0.44531E-07  2136   0.127E-03    0.596E-04
DAV:  20    -0.159276239664E+03   -0.10499E-04   -0.40994E-07  2144   0.140E-03    0.729E-04
DAV:  21    -0.159276241480E+03   -0.18159E-05   -0.17016E-07  1928   0.121E-03    0.291E-04
DAV:  22    -0.159276242282E+03   -0.80230E-06   -0.10200E-07  1888   0.770E-04
   8 F= -.16527257E+03 E0= -.16527257E+03  d E =-.420306E-02  mag=    24.0000
 trial-energy change:   -0.004203  1 .order   -0.004196   -0.005440   -0.002952
 step:   3.1724(harm=  3.1724)  dis= 0.01307  next Energy=  -165.274313 (dE=-0.595E-02)
 bond charge predicted
       N       E                     dE             d eps       ncg     rms          rms(c)
DAV:   1    -0.159261748708E+03    0.14493E-01   -0.19288E+00  3040   0.274E+00    0.741E-01
DAV:   2    -0.159275656476E+03   -0.13908E-01   -0.11676E-01  4256   0.130E+00    0.113E+00
DAV:   3    -0.159284547569E+03   -0.88911E-02   -0.80004E-02  4576   0.136E+00    0.210E+00
DAV:   4    -0.159272216670E+03    0.12331E-01   -0.38697E-02  4368   0.842E-01    0.229E-01
DAV:   5    -0.159273099366E+03   -0.88270E-03   -0.11700E-03  4528   0.136E-01    0.175E-01
DAV:   6    -0.159273049692E+03    0.49675E-04   -0.25638E-04  4656   0.898E-02    0.141E-01
DAV:   7    -0.159272944291E+03    0.10540E-03   -0.32669E-04  4408   0.653E-02    0.111E-01
DAV:   8    -0.159272949103E+03   -0.48127E-05   -0.15395E-04  4912   0.532E-02    0.259E-02
DAV:   9    -0.159273011708E+03   -0.62605E-04   -0.23630E-05  4416   0.217E-02    0.128E-02
DAV:  10    -0.159273105893E+03   -0.94185E-04   -0.26780E-06  2464   0.860E-03    0.110E-02
DAV:  11    -0.159273181400E+03   -0.75506E-04   -0.31484E-06  2608   0.904E-03    0.676E-03
DAV:  12    -0.159273226776E+03   -0.45376E-04   -0.16230E-06  2152   0.401E-03    0.521E-03
DAV:  13    -0.159273268545E+03   -0.41770E-04   -0.79802E-07  2096   0.361E-03    0.235E-03
DAV:  14    -0.159273313986E+03   -0.45441E-04   -0.72269E-07  2104   0.259E-03    0.173E-03
DAV:  15    -0.159273366240E+03   -0.52254E-04   -0.90949E-07  2216   0.275E-03    0.158E-03
DAV:  16    -0.159273395506E+03   -0.29266E-04   -0.57881E-07  2056   0.195E-03    0.107E-03
DAV:  17    -0.159273412487E+03   -0.16981E-04   -0.32285E-07  1936   0.159E-03    0.760E-04
DAV:  18    -0.159273432388E+03   -0.19901E-04   -0.39467E-07  2088   0.145E-03    0.878E-04
DAV:  19    -0.159273453566E+03   -0.21178E-04   -0.59506E-07  2216   0.153E-03    0.617E-04
DAV:  20    -0.159273464042E+03   -0.10476E-04   -0.45051E-07  2120   0.153E-03    0.802E-04
DAV:  21    -0.159273465328E+03   -0.12861E-05   -0.16904E-07  1936   0.127E-03    0.292E-04
DAV:  22    -0.159273466623E+03   -0.12954E-05   -0.12006E-07  1912   0.765E-04    0.487E-04
DAV:  23    -0.159273467521E+03   -0.89819E-06   -0.79531E-08  1936   0.791E-04
   9 F= -.16527430E+03 E0= -.16527430E+03  d E =-.592959E-02  mag=    24.0000
 curvature:  -2.57 expect dE=-0.636E-02 dE for cont linesearch -0.440E-06
 trial: gam= 0.64033 g(F)=  0.248E-02 g(S)=  0.000E+00 ort =-0.322E-04 (trialstep = 0.180E+01)
 search vector abs. value=  0.492E-02
 bond charge predicted
       N       E                     dE             d eps       ncg     rms          rms(c)
DAV:   1    -0.159263850509E+03    0.96161E-02   -0.21293E+00  3040   0.262E+00    0.671E-01
DAV:   2    -0.159285303701E+03   -0.21453E-01   -0.13164E-01  4600   0.149E+00    0.202E+00
DAV:   3    -0.159271943846E+03    0.13360E-01   -0.59465E-02  4496   0.135E+00    0.670E-01
DAV:   4    -0.159272184537E+03   -0.24069E-03   -0.51289E-03  4928   0.388E-01    0.220E-01
DAV:   5    -0.159272170011E+03    0.14526E-04   -0.66435E-04  4536   0.119E-01    0.222E-01
DAV:   6    -0.159272058800E+03    0.11121E-03   -0.29387E-04  4536   0.102E-01    0.191E-01
DAV:   7    -0.159271851437E+03    0.20736E-03   -0.44719E-04  5128   0.110E-01    0.568E-02
DAV:   8    -0.159271876198E+03   -0.24761E-04   -0.74388E-05  4336   0.305E-02    0.292E-02
DAV:   9    -0.159271931951E+03   -0.55753E-04   -0.53632E-06  2560   0.123E-02    0.142E-02
DAV:  10    -0.159272015879E+03   -0.83928E-04   -0.71442E-06  3544   0.764E-03    0.774E-03
DAV:  11    -0.159272084793E+03   -0.68914E-04   -0.10528E-06  2208   0.359E-03    0.443E-03
DAV:  12    -0.159272146097E+03   -0.61303E-04   -0.76038E-07  2048   0.299E-03    0.321E-03
DAV:  13    -0.159272204179E+03   -0.58083E-04   -0.81863E-07  2160   0.281E-03    0.172E-03
DAV:  14    -0.159272266161E+03   -0.61981E-04   -0.10703E-06  2208   0.262E-03    0.152E-03
DAV:  15    -0.159272289189E+03   -0.23028E-04   -0.40840E-07  2016   0.238E-03    0.110E-03
DAV:  16    -0.159272324294E+03   -0.35105E-04   -0.56696E-07  2136   0.188E-03    0.117E-03
DAV:  17    -0.159272342419E+03   -0.18125E-04   -0.36710E-07  2016   0.168E-03    0.820E-04
DAV:  18    -0.159272373995E+03   -0.31575E-04   -0.94048E-07  2208   0.160E-03    0.809E-04
DAV:  19    -0.159272379960E+03   -0.59654E-05   -0.25254E-07  1928   0.169E-03    0.538E-04
DAV:  20    -0.159272384301E+03   -0.43412E-05   -0.24287E-07  2040   0.967E-04    0.522E-04
DAV:  21    -0.159272385778E+03   -0.14764E-05   -0.10159E-07  1944   0.110E-03    0.282E-04
DAV:  22    -0.159272386730E+03   -0.95283E-06   -0.93170E-08  1904   0.545E-04
  10 F= -.16527724E+03 E0= -.16527724E+03  d E =-.294112E-02  mag=    24.0000
 trial-energy change:   -0.002941  1 .order   -0.002941   -0.004410   -0.001472
 step:   2.6951(harm=  2.6951)  dis= 0.00636  next Energy=  -165.277606 (dE=-0.331E-02)
 bond charge predicted
       N       E                     dE             d eps       ncg     rms          rms(c)
DAV:   1    -0.159268611163E+03    0.37746E-02   -0.53449E-01  3104   0.131E+00    0.333E-01
DAV:   2    -0.159273755558E+03   -0.51444E-02   -0.32096E-02  4568   0.732E-01    0.101E+00
DAV:   3    -0.159270610324E+03    0.31452E-02   -0.15467E-02  4528   0.657E-01    0.338E-01
DAV:   4    -0.159270677674E+03   -0.67351E-04   -0.12773E-03  4888   0.196E-01    0.110E-01
DAV:   5    -0.159270671598E+03    0.60768E-05   -0.16644E-04  4536   0.611E-02    0.108E-01
DAV:   6    -0.159270637747E+03    0.33851E-04   -0.67822E-05  4352   0.484E-02    0.980E-02
DAV:   7    -0.159270562358E+03    0.75389E-04   -0.11318E-04  5064   0.541E-02    0.258E-02
DAV:   8    -0.159270570264E+03   -0.79061E-05   -0.17956E-05  4216   0.151E-02    0.134E-02
DAV:   9    -0.159270588687E+03   -0.18423E-04   -0.12023E-06  2256   0.582E-03    0.646E-03
DAV:  10    -0.159270617942E+03   -0.29255E-04   -0.11824E-06  2216   0.383E-03    0.400E-03
DAV:  11    -0.159270646551E+03   -0.28609E-04   -0.86296E-07  2024   0.358E-03    0.208E-03
DAV:  12    -0.159270665038E+03   -0.18487E-04   -0.51934E-07  1896   0.259E-03    0.163E-03
DAV:  13    -0.159270682903E+03   -0.17865E-04   -0.31450E-07  1968   0.203E-03    0.114E-03
DAV:  14    -0.159270706929E+03   -0.24027E-04   -0.35132E-07  2040   0.163E-03    0.107E-03
DAV:  15    -0.159270724489E+03   -0.17560E-04   -0.31666E-07  2024   0.179E-03    0.842E-04
DAV:  16    -0.159270732831E+03   -0.83412E-05   -0.20594E-07  1912   0.126E-03    0.664E-04
DAV:  17    -0.159270734375E+03   -0.15445E-05   -0.88302E-08  1944   0.933E-04    0.371E-04
DAV:  18    -0.159270741358E+03   -0.69833E-05   -0.11913E-07  1928   0.737E-04    0.595E-04
DAV:  19    -0.159270751222E+03   -0.98640E-05   -0.24256E-07  2088   0.903E-04    0.298E-04
DAV:  20    -0.159270753526E+03   -0.23038E-05   -0.10328E-07  1912   0.904E-04    0.505E-04
DAV:  21    -0.159270754077E+03   -0.55114E-06   -0.56957E-08  1912   0.590E-04
  11 F= -.16527762E+03 E0= -.16527762E+03  d E =-.331879E-02  mag=    24.0000
 curvature:  -2.70 expect dE=-0.267E-02 dE for cont linesearch -0.137E-08
 trial: gam= 0.39014 g(F)=  0.990E-03 g(S)=  0.000E+00 ort = 0.158E-05 (trialstep = 0.198E+01)
 search vector abs. value=  0.174E-02
 bond charge predicted
       N       E                     dE             d eps       ncg     rms          rms(c)
DAV:   1    -0.159266271382E+03    0.44821E-02   -0.67471E-01  3080   0.163E+00    0.473E-01
DAV:   2    -0.159271409475E+03   -0.51381E-02   -0.45905E-02  4264   0.802E-01    0.599E-01
DAV:   3    -0.159275700993E+03   -0.42915E-02   -0.28934E-02  4520   0.820E-01    0.130E+00
DAV:   4    -0.159270425707E+03    0.52753E-02   -0.14529E-02  4496   0.581E-01    0.143E-01
DAV:   5    -0.159270790760E+03   -0.36505E-03   -0.52245E-04  4392   0.671E-02    0.131E-01
DAV:   6    -0.159270684510E+03    0.10625E-03   -0.18779E-04  4600   0.679E-02    0.890E-02
DAV:   7    -0.159270585229E+03    0.99280E-04   -0.13552E-04  5016   0.691E-02    0.750E-02
DAV:   8    -0.159270555769E+03    0.29460E-04   -0.67038E-05  5240   0.461E-02    0.191E-02
DAV:   9    -0.159270591505E+03   -0.35736E-04   -0.97224E-06  3888   0.135E-02    0.786E-03
DAV:  10    -0.159270655278E+03   -0.63773E-04   -0.15120E-06  2272   0.619E-03    0.629E-03
DAV:  11    -0.159270703440E+03   -0.48162E-04   -0.84872E-07  2128   0.457E-03    0.523E-03
DAV:  12    -0.159270762897E+03   -0.59457E-04   -0.11013E-06  2216   0.305E-03    0.294E-03
DAV:  13    -0.159270805166E+03   -0.42269E-04   -0.67490E-07  2152   0.292E-03    0.163E-03
DAV:  14    -0.159270833732E+03   -0.28566E-04   -0.44492E-07  1960   0.210E-03    0.114E-03
DAV:  15    -0.159270867634E+03   -0.33903E-04   -0.46186E-07  2160   0.193E-03    0.116E-03
DAV:  16    -0.159270907917E+03   -0.40282E-04   -0.66886E-07  2168   0.179E-03    0.916E-04
DAV:  17    -0.159270931492E+03   -0.23576E-04   -0.44304E-07  2104   0.173E-03    0.770E-04
DAV:  18    -0.159270946726E+03   -0.15233E-04   -0.35747E-07  1968   0.146E-03    0.733E-04
DAV:  19    -0.159270955335E+03   -0.86087E-05   -0.24783E-07  1944   0.128E-03    0.391E-04
DAV:  20    -0.159270965437E+03   -0.10103E-04   -0.31781E-07  2104   0.114E-03    0.662E-04
DAV:  21    -0.159270968697E+03   -0.32591E-05   -0.17506E-07  1952   0.123E-03    0.195E-04
DAV:  22    -0.159270970374E+03   -0.16775E-05   -0.13513E-07  1904   0.784E-04    0.443E-04
DAV:  23    -0.159270970801E+03   -0.42718E-06   -0.67412E-08  1928   0.798E-04
  12 F= -.16527900E+03 E0= -.16527900E+03  d E =-.138224E-02  mag=    24.0000
 trial-energy change:   -0.001382  1 .order   -0.001385   -0.001957   -0.000813
 step:   3.3789(harm=  3.3789)  dis= 0.00458  next Energy=  -165.279289 (dE=-0.167E-02)
 bond charge predicted
       N       E                     dE             d eps       ncg     rms          rms(c)
DAV:   1    -0.159268064418E+03    0.29060E-02   -0.34068E-01  3128   0.116E+00    0.335E-01
DAV:   2    -0.159270609460E+03   -0.25450E-02   -0.23176E-02  4264   0.570E-01    0.427E-01
DAV:   3    -0.159272766081E+03   -0.21566E-02   -0.14518E-02  4544   0.581E-01    0.904E-01
DAV:   4    -0.159270138799E+03    0.26273E-02   -0.69205E-03  4472   0.412E-01    0.102E-01
DAV:   5    -0.159270328289E+03   -0.18949E-03   -0.26753E-04  4448   0.511E-02    0.916E-02
DAV:   6    -0.159270272257E+03    0.56033E-04   -0.81282E-05  4488   0.456E-02    0.653E-02
DAV:   7    -0.159270202447E+03    0.69809E-04   -0.72981E-05  4792   0.485E-02    0.520E-02
DAV:   8    -0.159270184424E+03    0.18023E-04   -0.33901E-05  4952   0.310E-02    0.137E-02
DAV:   9    -0.159270205634E+03   -0.21210E-04   -0.38798E-06  2592   0.923E-03    0.559E-03
DAV:  10    -0.159270243873E+03   -0.38240E-04   -0.13068E-06  2104   0.479E-03    0.510E-03
DAV:  11    -0.159270267380E+03   -0.23507E-04   -0.52948E-07  2000   0.404E-03    0.355E-03
DAV:  12    -0.159270302512E+03   -0.35132E-04   -0.57622E-07  2088   0.207E-03    0.272E-03
DAV:  13    -0.159270329336E+03   -0.26824E-04   -0.36855E-07  2016   0.241E-03    0.142E-03
DAV:  14    -0.159270353182E+03   -0.23847E-04   -0.41154E-07  2056   0.159E-03    0.953E-04
DAV:  15    -0.159270367714E+03   -0.14532E-04   -0.20636E-07  1944   0.154E-03    0.931E-04
DAV:  16    -0.159270388591E+03   -0.20877E-04   -0.31081E-07  2072   0.127E-03    0.622E-04
DAV:  17    -0.159270401204E+03   -0.12612E-04   -0.18298E-07  1960   0.132E-03    0.614E-04
DAV:  18    -0.159270416824E+03   -0.15620E-04   -0.30731E-07  2048   0.105E-03    0.611E-04
DAV:  19    -0.159270423764E+03   -0.69401E-05   -0.15093E-07  1960   0.118E-03    0.368E-04
DAV:  20    -0.159270430154E+03   -0.63898E-05   -0.18550E-07  1952   0.841E-04    0.476E-04
DAV:  21    -0.159270433929E+03   -0.37753E-05   -0.13237E-07  1984   0.979E-04    0.255E-04
DAV:  22    -0.159270435229E+03   -0.12999E-05   -0.90712E-08  1896   0.711E-04    0.303E-04
DAV:  23    -0.159270435707E+03   -0.47753E-06   -0.53289E-08  1896   0.641E-04
  13 F= -.16527928E+03 E0= -.16527928E+03  d E =-.166903E-02  mag=    24.0000
 curvature:  -2.97 expect dE=-0.185E-02 dE for cont linesearch -0.111E-10
 trial: gam= 0.63732 g(F)=  0.624E-03 g(S)=  0.000E+00 ort = 0.808E-07 (trialstep = 0.226E+01)
 search vector abs. value=  0.133E-02
 bond charge predicted
       N       E                     dE             d eps       ncg     rms          rms(c)
DAV:   1    -0.159267031632E+03    0.34036E-02   -0.65625E-01  3056   0.163E+00    0.485E-01
DAV:   2    -0.159271659702E+03   -0.46281E-02   -0.45831E-02  4256   0.764E-01    0.478E-01
DAV:   3    -0.159276845368E+03   -0.51857E-02   -0.25459E-02  4568   0.778E-01    0.134E+00
DAV:   4    -0.159271115974E+03    0.57294E-02   -0.15179E-02  4336   0.578E-01    0.129E-01
DAV:   5    -0.159271560501E+03   -0.44453E-03   -0.48668E-04  3928   0.497E-02    0.113E-01
DAV:   6    -0.159271605783E+03   -0.45282E-04   -0.18687E-04  4808   0.684E-02    0.106E-01
DAV:   7    -0.159271597984E+03    0.77987E-05   -0.70476E-05  5032   0.507E-02    0.716E-02
DAV:   8    -0.159271601617E+03   -0.36328E-05   -0.76276E-05  4992   0.388E-02    0.219E-02
DAV:   9    -0.159271613584E+03   -0.11966E-04   -0.11583E-05  4128   0.163E-02    0.892E-03
DAV:  10    -0.159271620469E+03   -0.68856E-05   -0.19864E-06  2184   0.631E-03    0.503E-03
DAV:  11    -0.159271623914E+03   -0.34448E-05   -0.59613E-07  2112   0.455E-03    0.379E-03
DAV:  12    -0.159271625392E+03   -0.14781E-05   -0.39461E-07  1944   0.261E-03    0.281E-03
DAV:  13    -0.159271626441E+03   -0.10491E-05   -0.17814E-07  1904   0.187E-03    0.162E-03
DAV:  14    -0.159271627690E+03   -0.12493E-05   -0.84435E-08  1888   0.150E-03    0.973E-04
DAV:  15    -0.159271629298E+03   -0.16079E-05   -0.66434E-08  1880   0.823E-04    0.718E-04
DAV:  16    -0.159271630557E+03   -0.12590E-05   -0.36461E-08  1920   0.797E-04    0.424E-04
DAV:  17    -0.159271632064E+03   -0.15070E-05   -0.26375E-08  1880   0.571E-04    0.318E-04
DAV:  18    -0.159271633007E+03   -0.94245E-06   -0.17391E-08  1928   0.415E-04
  14 F= -.16528045E+03 E0= -.16528045E+03  d E =-.116085E-02  mag=    24.0000
 trial-energy change:   -0.001161  1 .order   -0.001162   -0.001407   -0.000916
 step:   6.4643(harm=  6.4643)  dis= 0.00785  next Energy=  -165.281300 (dE=-0.202E-02)
 bond charge predicted
       N       E                     dE             d eps       ncg     rms          rms(c)
DAV:   1    -0.159256530080E+03    0.15102E-01   -0.22833E+00  3040   0.304E+00    0.903E-01
DAV:   2    -0.159273207367E+03   -0.16677E-01   -0.15997E-01  4264   0.143E+00    0.886E-01
DAV:   3    -0.159291308438E+03   -0.18101E-01   -0.90389E-02  4600   0.145E+00    0.262E+00
DAV:   4    -0.159270971633E+03    0.20337E-01   -0.60893E-02  4392   0.107E+00    0.245E-01
DAV:   5    -0.159272432976E+03   -0.14613E-02   -0.16773E-03  4184   0.112E-01    0.216E-01
DAV:   6    -0.159272472873E+03   -0.39897E-04   -0.37943E-04  4856   0.122E-01    0.172E-01
DAV:   7    -0.159272518470E+03   -0.45597E-04   -0.43076E-04  4432   0.922E-02    0.156E-01
DAV:   8    -0.159272491870E+03    0.26599E-04   -0.28674E-04  5216   0.721E-02    0.407E-02
DAV:   9    -0.159272519966E+03   -0.28095E-04   -0.38597E-05  4664   0.288E-02    0.150E-02
DAV:  10    -0.159272536793E+03   -0.16827E-04   -0.62652E-06  2736   0.979E-03    0.871E-03
DAV:  11    -0.159272546101E+03   -0.93083E-05   -0.20639E-06  2400   0.902E-03    0.669E-03
DAV:  12    -0.159272550491E+03   -0.43898E-05   -0.10932E-06  2016   0.477E-03    0.412E-03
DAV:  13    -0.159272554634E+03   -0.41428E-05   -0.56053E-07  1896   0.316E-03    0.226E-03
DAV:  14    -0.159272558910E+03   -0.42768E-05   -0.26500E-07  1896   0.234E-03    0.178E-03
DAV:  15    -0.159272564581E+03   -0.56708E-05   -0.20641E-07  1928   0.164E-03    0.114E-03
DAV:  16    -0.159272568939E+03   -0.43579E-05   -0.11986E-07  1912   0.138E-03    0.958E-04
DAV:  17    -0.159272572040E+03   -0.31005E-05   -0.86617E-08  1888   0.116E-03    0.547E-04
DAV:  18    -0.159272573710E+03   -0.16708E-05   -0.55531E-08  1928   0.646E-04    0.390E-04
DAV:  19    -0.159272576008E+03   -0.22975E-05   -0.36201E-08  1872   0.596E-04    0.329E-04
DAV:  20    -0.159272579311E+03   -0.33034E-05   -0.57924E-08  1968   0.534E-04    0.271E-04
DAV:  21    -0.159272581821E+03   -0.25095E-05   -0.64866E-08  1888   0.592E-04    0.362E-04
DAV:  22    -0.159272582656E+03   -0.83472E-06   -0.36089E-08  1912   0.563E-04
  15 F= -.16528130E+03 E0= -.16528130E+03  d E =-.201539E-02  mag=    24.0000
 curvature:  -6.90 expect dE=-0.763E-02 dE for cont linesearch -0.278E-07
 trial: gam= 1.78765 g(F)=  0.111E-02 g(S)=  0.000E+00 ort =-0.232E-05 (trialstep = 0.770E+00)
 search vector abs. value=  0.535E-02
 bond charge predicted
       N       E                     dE             d eps       ncg     rms          rms(c)
DAV:   1    -0.159271274464E+03    0.13074E-02   -0.30855E-01  3072   0.112E+00    0.328E-01
DAV:   2    -0.159273786632E+03   -0.25122E-02   -0.21270E-02  4264   0.544E-01    0.487E-01
DAV:   3    -0.159275643816E+03   -0.18572E-02   -0.14593E-02  4536   0.605E-01    0.871E-01
DAV:   4    -0.159273270745E+03    0.23731E-02   -0.62059E-03  4376   0.379E-01    0.878E-02
DAV:   5    -0.159273453845E+03   -0.18310E-03   -0.20572E-04  4256   0.446E-02    0.713E-02
DAV:   6    -0.159273467555E+03   -0.13710E-04   -0.41052E-05  4608   0.387E-02    0.591E-02
DAV:   7    -0.159273485820E+03   -0.18265E-04   -0.64547E-05  4440   0.319E-02    0.557E-02
DAV:   8    -0.159273486668E+03   -0.84734E-06   -0.41257E-05  4712   0.287E-02    0.136E-02
DAV:   9    -0.159273494184E+03   -0.75163E-05   -0.36214E-06  2520   0.101E-02    0.531E-03
DAV:  10    -0.159273499648E+03   -0.54639E-05   -0.14016E-06  1984   0.470E-03    0.355E-03
DAV:  11    -0.159273502480E+03   -0.28320E-05   -0.53120E-07  1984   0.337E-03    0.310E-03
DAV:  12    -0.159273503912E+03   -0.14319E-05   -0.23432E-07  1872   0.246E-03    0.169E-03
DAV:  13    -0.159273505098E+03   -0.11861E-05   -0.11481E-07  1896   0.148E-03    0.958E-04
DAV:  14    -0.159273506407E+03   -0.13094E-05   -0.65512E-08  1896   0.130E-03    0.980E-04
DAV:  15    -0.159273507823E+03   -0.14154E-05   -0.44854E-08  1832   0.749E-04    0.549E-04
DAV:  16    -0.159273509013E+03   -0.11909E-05   -0.32723E-08  1872   0.514E-04    0.342E-04
DAV:  17    -0.159273510040E+03   -0.10270E-05   -0.16316E-08  1856   0.471E-04    0.249E-04
DAV:  18    -0.159273510946E+03   -0.90601E-06   -0.14045E-08  1872   0.310E-04
  16 F= -.16528203E+03 E0= -.16528203E+03  d E =-.732474E-03  mag=    24.0000
 trial-energy change:   -0.000732  1 .order   -0.000734   -0.000849   -0.000618
 step:   2.8333(harm=  2.8333)  dis= 0.00848  next Energy=  -165.282861 (dE=-0.156E-02)
 bond charge predicted
       N       E                     dE             d eps       ncg     rms          rms(c)
DAV:   1    -0.159258787389E+03    0.14723E-01   -0.22120E+00  3040   0.301E+00    0.876E-01
DAV:   2    -0.159277797359E+03   -0.19010E-01   -0.15360E-01  4280   0.147E+00    0.128E+00
DAV:   3    -0.159291021120E+03   -0.13224E-01   -0.10739E-01  4520   0.163E+00    0.248E+00
DAV:   4    -0.159273503836E+03    0.17517E-01   -0.55695E-02  4352   0.102E+00    0.254E-01
DAV:   5    -0.159274678827E+03   -0.11750E-02   -0.16444E-03  4472   0.170E-01    0.200E-01
DAV:   6    -0.159274698188E+03   -0.19361E-04   -0.27979E-04  4712   0.901E-02    0.153E-01
DAV:   7    -0.159274764801E+03   -0.66613E-04   -0.42602E-04  4336   0.686E-02    0.120E-01
DAV:   8    -0.159274781967E+03   -0.17166E-04   -0.17647E-04  4848   0.576E-02    0.296E-02
DAV:   9    -0.159274806702E+03   -0.24735E-04   -0.21242E-05  4352   0.207E-02    0.115E-02
DAV:  10    -0.159274826750E+03   -0.20048E-04   -0.24500E-06  2376   0.893E-03    0.771E-03
DAV:  11    -0.159274841154E+03   -0.14404E-04   -0.15777E-06  2160   0.720E-03    0.584E-03
DAV:  12    -0.159274850285E+03   -0.91311E-05   -0.11745E-06  1912   0.383E-03    0.398E-03
DAV:  13    -0.159274857612E+03   -0.73267E-05   -0.53790E-07  1912   0.323E-03    0.196E-03
DAV:  14    -0.159274862185E+03   -0.45737E-05   -0.24864E-07  1912   0.209E-03    0.154E-03
DAV:  15    -0.159274869737E+03   -0.75515E-05   -0.19080E-07  1912   0.171E-03    0.126E-03
DAV:  16    -0.159274876732E+03   -0.69952E-05   -0.14594E-07  1936   0.122E-03    0.968E-04
DAV:  17    -0.159274880769E+03   -0.40366E-05   -0.96166E-08  1872   0.121E-03    0.566E-04
DAV:  18    -0.159274883939E+03   -0.31700E-05   -0.75431E-08  1912   0.706E-04    0.376E-04
DAV:  19    -0.159274886794E+03   -0.28555E-05   -0.54325E-08  1864   0.649E-04    0.393E-04
DAV:  20    -0.159274891291E+03   -0.44968E-05   -0.89951E-08  1904   0.604E-04    0.301E-04
DAV:  21    -0.159274893644E+03   -0.23529E-05   -0.62937E-08  1904   0.674E-04    0.329E-04
DAV:  22    -0.159274894585E+03   -0.94065E-06   -0.39386E-08  1888   0.496E-04
  17 F= -.16528287E+03 E0= -.16528287E+03  d E =-.157171E-02  mag=    24.0000
 curvature:  -6.88 expect dE=-0.474E-02 dE for cont linesearch -0.191E-06
 trial: gam= 0.59097 g(F)=  0.690E-03 g(S)=  0.000E+00 ort = 0.122E-04 (trialstep = 0.118E+01)
 search vector abs. value=  0.257E-02
 bond charge predicted
       N       E                     dE             d eps       ncg     rms          rms(c)
DAV:   1    -0.159273090062E+03    0.18036E-02   -0.34641E-01  3048   0.119E+00    0.361E-01
DAV:   2    -0.159276667643E+03   -0.35776E-02   -0.25088E-02  4424   0.624E-01    0.675E-01
DAV:   3    -0.159277820472E+03   -0.11528E-02   -0.19578E-02  4512   0.698E-01    0.886E-01
DAV:   4    -0.159275532189E+03    0.22883E-02   -0.65820E-03  4472   0.381E-01    0.119E-01
DAV:   5    -0.159275671092E+03   -0.13890E-03   -0.24793E-04  4808   0.782E-02    0.754E-02
DAV:   6    -0.159275678988E+03   -0.78962E-05   -0.43255E-05  4496   0.289E-02    0.592E-02
DAV:   7    -0.159275681140E+03   -0.21517E-05   -0.60808E-05  4216   0.223E-02    0.388E-02
DAV:   8    -0.159275682388E+03   -0.12477E-05   -0.17090E-05  4248   0.189E-02    0.940E-03
DAV:   9    -0.159275690234E+03   -0.78468E-05   -0.28330E-06  2488   0.712E-03    0.603E-03
DAV:  10    -0.159275701354E+03   -0.11120E-04   -0.77537E-07  2048   0.476E-03    0.330E-03
DAV:  11    -0.159275713370E+03   -0.12016E-04   -0.39786E-07  2168   0.314E-03    0.197E-03
DAV:  12    -0.159275724688E+03   -0.11318E-04   -0.26484E-07  1968   0.182E-03    0.128E-03
DAV:  13    -0.159275733624E+03   -0.89361E-05   -0.17812E-07  1984   0.195E-03    0.127E-03
DAV:  14    -0.159275739020E+03   -0.53955E-05   -0.13405E-07  1944   0.985E-04    0.947E-04
DAV:  15    -0.159275745388E+03   -0.63678E-05   -0.84249E-08  1952   0.949E-04    0.512E-04
DAV:  16    -0.159275749565E+03   -0.41774E-05   -0.62429E-08  1944   0.745E-04    0.345E-04
DAV:  17    -0.159275755229E+03   -0.56642E-05   -0.81657E-08  2024   0.682E-04    0.373E-04
DAV:  18    -0.159275759111E+03   -0.38822E-05   -0.64840E-08  1960   0.705E-04    0.275E-04
DAV:  19    -0.159275760768E+03   -0.16571E-05   -0.41686E-08  1912   0.560E-04    0.223E-04
DAV:  20    -0.159275762624E+03   -0.18559E-05   -0.37834E-08  1904   0.464E-04    0.230E-04
DAV:  21    -0.159275764310E+03   -0.16856E-05   -0.37420E-08  1944   0.435E-04    0.154E-04
DAV:  22    -0.159275765599E+03   -0.12891E-05   -0.40608E-08  1968   0.443E-04    0.229E-04
DAV:  23    -0.159275765869E+03   -0.27005E-06   -0.20871E-08  1920   0.431E-04
  18 F= -.16528354E+03 E0= -.16528354E+03  d E =-.666070E-03  mag=    24.0000
 trial-energy change:   -0.000666  1 .order   -0.000665   -0.000824   -0.000506
 step:   3.0615(harm=  3.0615)  dis= 0.00542  next Energy=  -165.283938 (dE=-0.107E-02)
 bond charge predicted
       N       E                     dE             d eps       ncg     rms          rms(c)
DAV:   1    -0.159269740942E+03    0.60247E-02   -0.87352E-01  3040   0.189E+00    0.573E-01
DAV:   2    -0.159278944728E+03   -0.92038E-02   -0.63621E-02  4416   0.994E-01    0.106E+00
DAV:   3    -0.159281847630E+03   -0.29029E-02   -0.50896E-02  4488   0.112E+00    0.145E+00
DAV:   4    -0.159275959660E+03    0.58880E-02   -0.18633E-02  4448   0.609E-01    0.198E-01
DAV:   5    -0.159276297818E+03   -0.33816E-03   -0.68360E-04  4840   0.139E-01    0.120E-01
DAV:   6    -0.159276314379E+03   -0.16561E-04   -0.11637E-04  4496   0.446E-02    0.938E-02
DAV:   7    -0.159276331199E+03   -0.16820E-04   -0.14487E-04  4112   0.339E-02    0.603E-02
DAV:   8    -0.159276334733E+03   -0.35336E-05   -0.41007E-05  4744   0.293E-02    0.153E-02
DAV:   9    -0.159276351839E+03   -0.17106E-04   -0.73695E-06  3376   0.114E-02    0.912E-03
DAV:  10    -0.159276375321E+03   -0.23482E-04   -0.13236E-06  2280   0.717E-03    0.461E-03
DAV:  11    -0.159276402361E+03   -0.27040E-04   -0.63664E-07  2160   0.368E-03    0.272E-03
DAV:  12    -0.159276425141E+03   -0.22781E-04   -0.59389E-07  2064   0.251E-03    0.159E-03
DAV:  13    -0.159276437879E+03   -0.12737E-04   -0.30117E-07  1968   0.247E-03    0.178E-03
DAV:  14    -0.159276445993E+03   -0.81143E-05   -0.19581E-07  1936   0.131E-03    0.154E-03
DAV:  15    -0.159276455123E+03   -0.91294E-05   -0.12526E-07  1976   0.135E-03    0.820E-04
DAV:  16    -0.159276469906E+03   -0.14783E-04   -0.19752E-07  2072   0.975E-04    0.628E-04
DAV:  17    -0.159276479196E+03   -0.92903E-05   -0.13145E-07  2008   0.110E-03    0.675E-04
DAV:  18    -0.159276485987E+03   -0.67911E-05   -0.12877E-07  2016   0.873E-04    0.376E-04
DAV:  19    -0.159276488944E+03   -0.29565E-05   -0.71245E-08  1912   0.821E-04    0.317E-04
DAV:  20    -0.159276493884E+03   -0.49404E-05   -0.94507E-08  2000   0.597E-04    0.340E-04
DAV:  21    -0.159276497386E+03   -0.35017E-05   -0.71022E-08  1960   0.691E-04    0.250E-04
DAV:  22    -0.159276500223E+03   -0.28374E-05   -0.89226E-08  2064   0.591E-04    0.314E-04
DAV:  23    -0.159276501128E+03   -0.90499E-06   -0.50425E-08  1944   0.669E-04
  19 F= -.16528394E+03 E0= -.16528394E+03  d E =-.106747E-02  mag=    24.0000
 curvature:  -5.65 expect dE=-0.237E-02 dE for cont linesearch -0.116E-07
 trial: gam= 0.62077 g(F)=  0.419E-03 g(S)=  0.000E+00 ort = 0.230E-05 (trialstep = 0.156E+01)
 search vector abs. value=  0.141E-02
 bond charge predicted
       N       E                     dE             d eps       ncg     rms          rms(c)
DAV:   1    -0.159274713026E+03    0.17872E-02   -0.33501E-01  3088   0.117E+00    0.338E-01
DAV:   2    -0.159277394263E+03   -0.26812E-02   -0.23925E-02  4296   0.566E-01    0.490E-01
DAV:   3    -0.159279522011E+03   -0.21277E-02   -0.17445E-02  4448   0.625E-01    0.951E-01
DAV:   4    -0.159276726397E+03    0.27956E-02   -0.74352E-03  4424   0.395E-01    0.104E-01
DAV:   5    -0.159276938765E+03   -0.21237E-03   -0.23864E-04  4536   0.542E-02    0.763E-02
DAV:   6    -0.159276959850E+03   -0.21085E-04   -0.44060E-05  4544   0.382E-02    0.619E-02
DAV:   7    -0.159276983799E+03   -0.23950E-04   -0.64874E-05  4424   0.296E-02    0.553E-02
DAV:   8    -0.159276982892E+03    0.90776E-06   -0.36169E-05  4544   0.263E-02    0.108E-02
DAV:   9    -0.159276987077E+03   -0.41851E-05   -0.28955E-06  2440   0.779E-03    0.686E-03
DAV:  10    -0.159276988913E+03   -0.18359E-05   -0.10769E-06  2200   0.535E-03    0.331E-03
DAV:  11    -0.159276990938E+03   -0.20257E-05   -0.53484E-07  2064   0.336E-03    0.227E-03
DAV:  12    -0.159276992616E+03   -0.16780E-05   -0.21445E-07  1936   0.207E-03    0.174E-03
DAV:  13    -0.159276994148E+03   -0.15320E-05   -0.11480E-07  1880   0.172E-03    0.125E-03
DAV:  14    -0.159276995449E+03   -0.13005E-05   -0.59523E-08  1896   0.916E-04    0.121E-03
DAV:  15    -0.159276996670E+03   -0.12207E-05   -0.38481E-08  1864   0.895E-04    0.649E-04
DAV:  16    -0.159276997471E+03   -0.80108E-06   -0.26530E-08  1936   0.489E-04
  20 F= -.16528445E+03 E0= -.16528445E+03  d E =-.511608E-03  mag=    24.0000
 trial-energy change:   -0.000512  1 .order   -0.000511   -0.000656   -0.000366
 step:   3.5306(harm=  3.5306)  dis= 0.00794  next Energy=  -165.284681 (dE=-0.743E-03)
 reached required accuracy - stopping structural energy minimisation
Note: The following floating-point exceptions are signalling: IEEE_OVERFLOW_FLAG IEEE_UNDERFLOW_FLAG IEEE_DENORMAL
Note: The following floating-point exceptions are signalling: IEEE_OVERFLOW_FLAG IEEE_UNDERFLOW_FLAG IEEE_DENORMAL
Note: The following floating-point exceptions are signalling: IEEE_OVERFLOW_FLAG IEEE_UNDERFLOW_FLAG IEEE_DENORMAL
Note: The following floating-point exceptions are signalling: IEEE_OVERFLOW_FLAG IEEE_UNDERFLOW_FLAG IEEE_DENORMAL
Note: The following floating-point exceptions are signalling: IEEE_OVERFLOW_FLAG IEEE_UNDERFLOW_FLAG IEEE_DENORMAL
Note: The following floating-point exceptions are signalling: IEEE_OVERFLOW_FLAG IEEE_UNDERFLOW_FLAG IEEE_DENORMAL
Note: The following floating-point exceptions are signalling: IEEE_OVERFLOW_FLAG IEEE_UNDERFLOW_FLAG IEEE_DENORMAL
Note: The following floating-point exceptions are signalling: IEEE_OVERFLOW_FLAG IEEE_UNDERFLOW_FLAG IEEE_DENORMAL
Note: The following floating-point exceptions are signalling: IEEE_OVERFLOW_FLAG IEEE_UNDERFLOW_FLAG IEEE_DENORMAL
Note: The following floating-point exceptions are signalling: IEEE_OVERFLOW_FLAG IEEE_UNDERFLOW_FLAG IEEE_DENORMAL
Note: The following floating-point exceptions are signalling: IEEE_OVERFLOW_FLAG IEEE_UNDERFLOW_FLAG IEEE_DENORMAL
Note: The following floating-point exceptions are signalling: IEEE_OVERFLOW_FLAG IEEE_UNDERFLOW_FLAG IEEE_DENORMAL
Note: The following floating-point exceptions are signalling: IEEE_OVERFLOW_FLAG IEEE_UNDERFLOW_FLAG IEEE_DENORMAL
Note: The following floating-point exceptions are signalling: IEEE_OVERFLOW_FLAG IEEE_UNDERFLOW_FLAG IEEE_DENORMAL
Note: The following floating-point exceptions are signalling: IEEE_OVERFLOW_FLAG IEEE_UNDERFLOW_FLAG IEEE_DENORMAL
Note: The following floating-point exceptions are signalling: IEEE_OVERFLOW_FLAG IEEE_UNDERFLOW_FLAG IEEE_DENORMAL
Note: The following floating-point exceptions are signalling: IEEE_OVERFLOW_FLAG IEEE_UNDERFLOW_FLAG IEEE_DENORMAL
Note: The following floating-point exceptions are signalling: IEEE_OVERFLOW_FLAG IEEE_UNDERFLOW_FLAG IEEE_DENORMAL
Note: The following floating-point exceptions are signalling: IEEE_OVERFLOW_FLAG IEEE_UNDERFLOW_FLAG IEEE_DENORMAL
Note: The following floating-point exceptions are signalling: IEEE_OVERFLOW_FLAG IEEE_UNDERFLOW_FLAG IEEE_DENORMAL
Note: The following floating-point exceptions are signalling: IEEE_OVERFLOW_FLAG IEEE_UNDERFLOW_FLAG IEEE_DENORMAL
Note: The following floating-point exceptions are signalling: IEEE_OVERFLOW_FLAG IEEE_UNDERFLOW_FLAG IEEE_DENORMAL
Note: The following floating-point exceptions are signalling: IEEE_OVERFLOW_FLAG IEEE_UNDERFLOW_FLAG IEEE_DENORMAL
Note: The following floating-point exceptions are signalling: IEEE_OVERFLOW_FLAG IEEE_UNDERFLOW_FLAG IEEE_DENORMAL
Note: The following floating-point exceptions are signalling: IEEE_OVERFLOW_FLAG IEEE_UNDERFLOW_FLAG IEEE_DENORMAL
Note: The following floating-point exceptions are signalling: IEEE_OVERFLOW_FLAG IEEE_UNDERFLOW_FLAG IEEE_DENORMAL
Note: The following floating-point exceptions are signalling: IEEE_OVERFLOW_FLAG IEEE_UNDERFLOW_FLAG IEEE_DENORMAL
Note: The following floating-point exceptions are signalling: IEEE_OVERFLOW_FLAG IEEE_UNDERFLOW_FLAG IEEE_DENORMAL
Note: The following floating-point exceptions are signalling: IEEE_OVERFLOW_FLAG IEEE_UNDERFLOW_FLAG IEEE_DENORMAL
Note: The following floating-point exceptions are signalling: IEEE_OVERFLOW_FLAG IEEE_UNDERFLOW_FLAG IEEE_DENORMAL
Note: The following floating-point exceptions are signalling: IEEE_OVERFLOW_FLAG IEEE_UNDERFLOW_FLAG IEEE_DENORMAL
Note: The following floating-point exceptions are signalling: IEEE_OVERFLOW_FLAG IEEE_UNDERFLOW_FLAG IEEE_DENORMAL
Note: The following floating-point exceptions are signalling: IEEE_OVERFLOW_FLAG IEEE_UNDERFLOW_FLAG IEEE_DENORMAL
Note: The following floating-point exceptions are signalling: IEEE_OVERFLOW_FLAG IEEE_UNDERFLOW_FLAG IEEE_DENORMAL
Note: The following floating-point exceptions are signalling: IEEE_OVERFLOW_FLAG IEEE_UNDERFLOW_FLAG IEEE_DENORMAL
Note: The following floating-point exceptions are signalling: IEEE_OVERFLOW_FLAG IEEE_UNDERFLOW_FLAG IEEE_DENORMAL
Note: The following floating-point exceptions are signalling: IEEE_OVERFLOW_FLAG IEEE_UNDERFLOW_FLAG IEEE_DENORMAL
Note: The following floating-point exceptions are signalling: IEEE_OVERFLOW_FLAG IEEE_UNDERFLOW_FLAG IEEE_DENORMAL
Note: The following floating-point exceptions are signalling: IEEE_OVERFLOW_FLAG IEEE_UNDERFLOW_FLAG IEEE_DENORMAL
Note: The following floating-point exceptions are signalling: IEEE_OVERFLOW_FLAG IEEE_UNDERFLOW_FLAG IEEE_DENORMAL
Note: The following floating-point exceptions are signalling: IEEE_OVERFLOW_FLAG IEEE_UNDERFLOW_FLAG IEEE_DENORMAL
Note: The following floating-point exceptions are signalling: IEEE_OVERFLOW_FLAG IEEE_UNDERFLOW_FLAG IEEE_DENORMAL
Note: The following floating-point exceptions are signalling: IEEE_OVERFLOW_FLAG IEEE_UNDERFLOW_FLAG IEEE_DENORMAL
Note: The following floating-point exceptions are signalling: IEEE_OVERFLOW_FLAG IEEE_UNDERFLOW_FLAG IEEE_DENORMAL
Note: The following floating-point exceptions are signalling: IEEE_OVERFLOW_FLAG IEEE_UNDERFLOW_FLAG IEEE_DENORMAL
Note: The following floating-point exceptions are signalling: IEEE_OVERFLOW_FLAG IEEE_UNDERFLOW_FLAG IEEE_DENORMAL
Note: The following floating-point exceptions are signalling: IEEE_OVERFLOW_FLAG IEEE_UNDERFLOW_FLAG IEEE_DENORMAL
Note: The following floating-point exceptions are signalling: IEEE_OVERFLOW_FLAG IEEE_UNDERFLOW_FLAG IEEE_DENORMAL
Note: The following floating-point exceptions are signalling: IEEE_OVERFLOW_FLAG IEEE_UNDERFLOW_FLAG IEEE_DENORMAL
Note: The following floating-point exceptions are signalling: IEEE_OVERFLOW_FLAG IEEE_UNDERFLOW_FLAG IEEE_DENORMAL
Note: The following floating-point exceptions are signalling: IEEE_OVERFLOW_FLAG IEEE_UNDERFLOW_FLAG IEEE_DENORMAL
Note: The following floating-point exceptions are signalling: IEEE_OVERFLOW_FLAG IEEE_UNDERFLOW_FLAG IEEE_DENORMAL
Note: The following floating-point exceptions are signalling: IEEE_OVERFLOW_FLAG IEEE_UNDERFLOW_FLAG IEEE_DENORMAL
Note: The following floating-point exceptions are signalling: IEEE_OVERFLOW_FLAG IEEE_UNDERFLOW_FLAG IEEE_DENORMAL
Note: The following floating-point exceptions are signalling: IEEE_OVERFLOW_FLAG IEEE_UNDERFLOW_FLAG IEEE_DENORMAL
Note: The following floating-point exceptions are signalling: IEEE_OVERFLOW_FLAG IEEE_UNDERFLOW_FLAG IEEE_DENORMAL
Note: The following floating-point exceptions are signalling: IEEE_OVERFLOW_FLAG IEEE_UNDERFLOW_FLAG IEEE_DENORMAL
Note: The following floating-point exceptions are signalling: IEEE_OVERFLOW_FLAG IEEE_UNDERFLOW_FLAG IEEE_DENORMAL
Note: The following floating-point exceptions are signalling: IEEE_OVERFLOW_FLAG IEEE_UNDERFLOW_FLAG IEEE_DENORMAL
Note: The following floating-point exceptions are signalling: IEEE_OVERFLOW_FLAG IEEE_UNDERFLOW_FLAG IEEE_DENORMAL
Note: The following floating-point exceptions are signalling: IEEE_OVERFLOW_FLAG IEEE_UNDERFLOW_FLAG IEEE_DENORMAL
Note: The following floating-point exceptions are signalling: IEEE_OVERFLOW_FLAG IEEE_UNDERFLOW_FLAG IEEE_DENORMAL
Note: The following floating-point exceptions are signalling: IEEE_OVERFLOW_FLAG IEEE_UNDERFLOW_FLAG IEEE_DENORMAL
Note: The following floating-point exceptions are signalling: IEEE_OVERFLOW_FLAG IEEE_UNDERFLOW_FLAG IEEE_DENORMAL
