Cr8Cl24                                 
   1.0000000000000000     
    12.1682323165561677    0.0016454480897831    0.0000000000000000
    -6.1314979671184711   10.5521182477466997    0.0000000000000000
     0.0000000000000000    0.0000000000000000   17.6887664794999999
   Cr   Cl   Ni
     8    24     1
Direct
  0.1512794036557112  0.3382115189406872  0.3368623168484906
  0.1610935789193266  0.8449707960075530  0.3337934492861362
  0.6668504291099467  0.3418768405622420  0.3372440334655675
  0.6568676336364997  0.8425040806475339  0.3397472108116876
  0.8242347683473086  0.1718524080302534  0.3349127740920366
  0.8334139847941463  0.6752740986101362  0.3364798356062043
  0.3225898593501340  0.1742438554373953  0.3395546956490366
  0.3210059388141348  0.6781736360746209  0.3365804208750778
  0.1659228539269314  0.5076897733321725  0.2623451077715191
  0.1741850957121165  0.0139057058473006  0.2594231412348847
  0.6475141560153439  0.5082680544573909  0.2642609187349862
  0.6682218422717079  0.0027304399648576  0.2602419234037134
  0.3219814980580306  0.3421072500454304  0.2628925800162292
  0.3236949639311653  0.8351565386209749  0.2599972114268282
  0.8248278518640362  0.3188260615358021  0.2514650990495568
  0.8096360758918388  0.8317357999212615  0.2647851881116652
  0.9958381901377815  0.1809848528279329  0.2605822931809441
  0.0140206022647997  0.6981464841817298  0.2500762776067036
  0.4868474708755922  0.1854290732413746  0.2650751400307134
  0.4880871959354228  0.6743669124176896  0.2629015154589915
  0.9903213949095270  0.3285778071774123  0.4127345160153111
  0.0029422893581188  0.8368216672599552  0.4130893550511969
  0.4726659435631539  0.3421780749958892  0.4199346430210543
  0.4863123943240856  0.8342607143077614  0.4116527928782894
  0.3158826924325284  0.5086084345611405  0.4136143614822561
  0.3160222745520643  0.0131614374680847  0.4142294205543357
  0.8201309102193843  0.5091897303569982  0.4144726742501209
  0.8112811511212381  0.0037011725502042  0.4148486648532049
  0.1598831756596273  0.1818636769223863  0.4113761300021388
  0.1689434807919656  0.6879333710424357  0.4116638085520148
  0.6746977123054499  0.1805086825979998  0.4142268078660880
  0.6392837566544580  0.6747826021824851  0.4198286215661637
  0.4902979275964613  0.5083241608729329  0.3423471142468534

  0.00000000E+00  0.00000000E+00  0.00000000E+00
  0.00000000E+00  0.00000000E+00  0.00000000E+00
  0.00000000E+00  0.00000000E+00  0.00000000E+00
  0.00000000E+00  0.00000000E+00  0.00000000E+00
  0.00000000E+00  0.00000000E+00  0.00000000E+00
  0.00000000E+00  0.00000000E+00  0.00000000E+00
  0.00000000E+00  0.00000000E+00  0.00000000E+00
  0.00000000E+00  0.00000000E+00  0.00000000E+00
  0.00000000E+00  0.00000000E+00  0.00000000E+00
  0.00000000E+00  0.00000000E+00  0.00000000E+00
  0.00000000E+00  0.00000000E+00  0.00000000E+00
  0.00000000E+00  0.00000000E+00  0.00000000E+00
  0.00000000E+00  0.00000000E+00  0.00000000E+00
  0.00000000E+00  0.00000000E+00  0.00000000E+00
  0.00000000E+00  0.00000000E+00  0.00000000E+00
  0.00000000E+00  0.00000000E+00  0.00000000E+00
  0.00000000E+00  0.00000000E+00  0.00000000E+00
  0.00000000E+00  0.00000000E+00  0.00000000E+00
  0.00000000E+00  0.00000000E+00  0.00000000E+00
  0.00000000E+00  0.00000000E+00  0.00000000E+00
  0.00000000E+00  0.00000000E+00  0.00000000E+00
  0.00000000E+00  0.00000000E+00  0.00000000E+00
  0.00000000E+00  0.00000000E+00  0.00000000E+00
  0.00000000E+00  0.00000000E+00  0.00000000E+00
  0.00000000E+00  0.00000000E+00  0.00000000E+00
  0.00000000E+00  0.00000000E+00  0.00000000E+00
  0.00000000E+00  0.00000000E+00  0.00000000E+00
  0.00000000E+00  0.00000000E+00  0.00000000E+00
  0.00000000E+00  0.00000000E+00  0.00000000E+00
  0.00000000E+00  0.00000000E+00  0.00000000E+00
  0.00000000E+00  0.00000000E+00  0.00000000E+00
  0.00000000E+00  0.00000000E+00  0.00000000E+00
  0.00000000E+00  0.00000000E+00  0.00000000E+00
