33
Lattice="12.092548997049326 0.0 0.0 -6.046274498524663 10.47245462795275 0.0 0.0 0.0 20.0" Properties=species:S:1:pos:R:3:momenta:R:3 pbc="T T T"
Cr      -0.02884278       3.48900544       9.97035257       0.00000000       0.00000000       0.00000000
Cr       2.99250073       1.75915197       9.98117612       0.00000000       0.00000000       0.00000000
Cr       6.04627450       3.49081821      10.17111785       0.00000000       0.00000000       0.00000000
Cr       9.07282833       1.71200567       9.98117612       0.00000000       0.00000000       0.00000000
Cr      -3.01028576       8.75293049       9.97035257       0.00000000       0.00000000       0.00000000
Cr      -0.00000000       6.98163642       9.98678337       0.00000000       0.00000000       0.00000000
Cr       3.03912855       8.70297333       9.97035257       0.00000000       0.00000000       0.00000000
Cr       6.07349443       7.00129699       9.98117612       0.00000000       0.00000000       0.00000000
Cl      -0.90851066       5.24836789       8.64089730       0.00000000       0.00000000       0.00000000
Cl       4.98372911       1.89535008       8.73214458       0.00000000       0.00000000       0.00000000
Cl       1.91888772       3.37794715       8.61308716       0.00000000       0.00000000       0.00000000
Cl       0.85009187       5.22318125      11.33804715       0.00000000       0.00000000       0.00000000
Cl      10.12929877       3.34758048      11.34452586       0.00000000       0.00000000       0.00000000
Cl       1.02197812       1.83333953      11.30352537       0.00000000       0.00000000       0.00000000
Cl       5.19583126       5.20874357       8.73214458       0.00000000       0.00000000       0.00000000
Cl      10.99511461       1.87153046       8.60234120       0.00000000       0.00000000       0.00000000
Cl       7.95926313       3.36836098       8.73214458       0.00000000       0.00000000       0.00000000
Cl       7.05051665       5.33583996      11.36341234       0.00000000       0.00000000       0.00000000
Cl       3.94631771       3.43800655      11.36341234       0.00000000       0.00000000       0.00000000
Cl       7.14198913       1.69860812      11.36341234       0.00000000       0.00000000       0.00000000
Cl       2.16951012       0.01464083       8.60234120       0.00000000       0.00000000       0.00000000
Cl       1.95530991       7.06147738       8.64089730       0.00000000       0.00000000       0.00000000
Cl      -1.04679925       8.63506399       8.64089730       0.00000000       0.00000000       0.00000000
Cl       3.88071485       0.02643433      11.34452586       0.00000000       0.00000000       0.00000000
Cl      -4.96954496       8.67072585      11.30352537       0.00000000       0.00000000       0.00000000
Cl      -1.94791278       7.12466285      11.33804715       0.00000000       0.00000000       0.00000000
Cl       2.16144260      10.44528657       8.61308716       0.00000000       0.00000000       0.00000000
Cl      -4.08033032       7.12167554       8.61308716       0.00000000       0.00000000       0.00000000
Cl       4.97419877       8.58628333       8.60234120       0.00000000       0.00000000       0.00000000
Cl       3.94756683      10.44084388      11.30352537       0.00000000       0.00000000       0.00000000
Cl       1.09782091       8.59706516      11.33804715       0.00000000       0.00000000       0.00000000
Cl       4.12880988       7.09843982      11.34452586       0.00000000       0.00000000       0.00000000
H        6.04627450       3.49081821      11.72356984       0.00000000       0.00000000       0.00000000
