       N       E                     dE             d eps       ncg     rms          rms(c)
DAV:   1     0.207695031972E+04    0.20770E+04   -0.61182E+04  2928   0.913E+02
DAV:   2     0.412327343244E+03   -0.16646E+04   -0.15545E+04  3480   0.246E+02
DAV:   3    -0.125934119561E+03   -0.53826E+03   -0.52090E+03  4140   0.138E+02
DAV:   4    -0.172251214066E+03   -0.46317E+02   -0.45378E+02  4428   0.571E+01
DAV:   5    -0.173058974680E+03   -0.80776E+00   -0.79661E+00  4368   0.950E+00    0.406E+01
DAV:   6    -0.162518225571E+03    0.10541E+02   -0.14747E+02  4260   0.621E+01    0.419E+01
DAV:   7    -0.155969597673E+03    0.65486E+01   -0.23250E+01  4224   0.555E+01    0.198E+01
DAV:   8    -0.156447003424E+03   -0.47741E+00   -0.55148E+00  3756   0.551E+00    0.920E+00
DAV:   9    -0.156202275759E+03    0.24473E+00   -0.11166E+00  4320   0.826E+00    0.286E+00
DAV:  10    -0.156205802954E+03   -0.35272E-02   -0.24077E-01  4296   0.254E+00    0.131E+00
DAV:  11    -0.156219730775E+03   -0.13928E-01   -0.17521E-02  4116   0.890E-01    0.532E-01
DAV:  12    -0.156243186140E+03   -0.23455E-01   -0.71935E-03  4020   0.329E-01    0.285E-01
DAV:  13    -0.156255593783E+03   -0.12408E-01   -0.80863E-04  3912   0.112E-01    0.112E-01
DAV:  14    -0.156263602130E+03   -0.80083E-02   -0.23462E-04  3936   0.446E-02    0.818E-02
DAV:  15    -0.156270800496E+03   -0.71984E-02   -0.13814E-04  3360   0.266E-02    0.374E-02
DAV:  16    -0.156276633005E+03   -0.58325E-02   -0.12208E-04  3972   0.432E-02    0.314E-02
DAV:  17    -0.156278355943E+03   -0.17229E-02   -0.21620E-05  3924   0.185E-02    0.247E-02
DAV:  18    -0.156281673694E+03   -0.33178E-02   -0.98717E-05  3264   0.218E-02    0.188E-02
DAV:  19    -0.156282144533E+03   -0.47084E-03   -0.16356E-05  3480   0.122E-02    0.735E-03
DAV:  20    -0.156282212380E+03   -0.67847E-04   -0.49180E-06  2880   0.574E-03    0.362E-03
DAV:  21    -0.156282305877E+03   -0.93496E-04   -0.13096E-06  2280   0.290E-03    0.266E-03
DAV:  22    -0.156282386553E+03   -0.80676E-04   -0.13244E-06  2232   0.309E-03    0.137E-03
DAV:  23    -0.156282432378E+03   -0.45825E-04   -0.10754E-06  2172   0.285E-03    0.210E-03
DAV:  24    -0.156282449137E+03   -0.16759E-04   -0.62988E-07  2124   0.172E-03    0.112E-03
DAV:  25    -0.156282467824E+03   -0.18688E-04   -0.24845E-07  1992   0.130E-03    0.915E-04
DAV:  26    -0.156282473730E+03   -0.59057E-05   -0.90719E-08  1704   0.129E-03    0.555E-04
DAV:  27    -0.156282485377E+03   -0.11647E-04   -0.23152E-07  1932   0.768E-04    0.276E-04
DAV:  28    -0.156282489616E+03   -0.42389E-05   -0.10253E-07  1704   0.644E-04    0.267E-04
DAV:  29    -0.156282491217E+03   -0.16016E-05   -0.60870E-08  1656   0.624E-04    0.180E-04
DAV:  30    -0.156282491846E+03   -0.62900E-06   -0.37245E-08  1644   0.454E-04
   1 F= -.16209874E+03 E0= -.16209874E+03  d E =-.162099E+03  mag=    24.0000
       N       E                     dE             d eps       ncg     rms          rms(c)
DAV:   1    -0.156279283448E+03    0.32078E-02   -0.77266E-01  2880   0.174E+00    0.645E-01
DAV:   2    -0.156284492494E+03   -0.52090E-02   -0.60508E-02  4020   0.103E+00    0.414E-01
DAV:   3    -0.156284125495E+03    0.36700E-03   -0.16425E-03  4092   0.302E-01    0.237E-01
DAV:   4    -0.156284038306E+03    0.87189E-04   -0.17045E-04  4200   0.800E-02    0.199E-01
DAV:   5    -0.156283973141E+03    0.65164E-04   -0.43244E-04  3216   0.474E-02    0.105E-01
DAV:   6    -0.156283984992E+03   -0.11851E-04   -0.13678E-04  4056   0.786E-02    0.209E-02
DAV:   7    -0.156283997418E+03   -0.12426E-04   -0.10451E-05  3144   0.105E-02    0.229E-02
DAV:   8    -0.156284006187E+03   -0.87681E-05   -0.84667E-07  1704   0.387E-03    0.203E-02
DAV:   9    -0.156284019374E+03   -0.13187E-04   -0.47781E-06  2328   0.619E-03    0.749E-03
DAV:  10    -0.156284022899E+03   -0.35251E-05   -0.70191E-07  1716   0.293E-03    0.528E-03
DAV:  11    -0.156284029503E+03   -0.66043E-05   -0.33637E-07  1752   0.330E-03    0.188E-03
DAV:  12    -0.156284034146E+03   -0.46426E-05   -0.23531E-07  1764   0.133E-03    0.818E-04
DAV:  13    -0.156284035701E+03   -0.15553E-05   -0.43262E-08  1764   0.108E-03    0.545E-04
DAV:  14    -0.156284038810E+03   -0.31092E-05   -0.16006E-08  1716   0.408E-04    0.179E-04
DAV:  15    -0.156284044856E+03   -0.60456E-05   -0.20689E-08  1692   0.400E-04    0.519E-04
DAV:  16    -0.156284046196E+03   -0.13403E-05   -0.91708E-09  1776   0.382E-04    0.398E-04
DAV:  17    -0.156284047053E+03   -0.85655E-06   -0.64728E-09  1692   0.204E-04
   2 F= -.16210514E+03 E0= -.16210514E+03  d E =-.639528E-02  mag=    24.0000
       N       E                     dE             d eps       ncg     rms          rms(c)
DAV:   1    -0.156277854907E+03    0.61913E-02   -0.65474E-01  2940   0.160E+00    0.593E-01
DAV:   2    -0.156282286207E+03   -0.44313E-02   -0.51511E-02  4044   0.953E-01    0.381E-01
DAV:   3    -0.156281974166E+03    0.31204E-03   -0.13929E-03  4020   0.278E-01    0.218E-01
DAV:   4    -0.156281898970E+03    0.75196E-04   -0.14509E-04  4200   0.735E-02    0.183E-01
DAV:   5    -0.156281842991E+03    0.55979E-04   -0.36823E-04  3204   0.438E-02    0.963E-02
DAV:   6    -0.156281853957E+03   -0.10967E-04   -0.11645E-04  4008   0.724E-02    0.194E-02
DAV:   7    -0.156281865763E+03   -0.11805E-04   -0.87671E-06  2940   0.951E-03    0.213E-02
DAV:   8    -0.156281873903E+03   -0.81402E-05   -0.72322E-07  1704   0.361E-03    0.187E-02
DAV:   9    -0.156281886100E+03   -0.12198E-04   -0.34627E-06  2100   0.539E-03    0.652E-03
DAV:  10    -0.156281890112E+03   -0.40120E-05   -0.72614E-07  1704   0.344E-03    0.498E-03
DAV:  11    -0.156281894602E+03   -0.44892E-05   -0.39204E-07  1740   0.310E-03    0.189E-03
DAV:  12    -0.156281899595E+03   -0.49933E-05   -0.27071E-07  1740   0.151E-03    0.103E-03
DAV:  13    -0.156281900560E+03   -0.96469E-06   -0.60012E-08  1740   0.129E-03
   3 F= -.16210743E+03 E0= -.16210743E+03  d E =-.869230E-02  mag=    24.0000
