CrCl3 1x1 + H S2 hollow (D3, U=0) (a=6.0
    1.000000000000000     
     6.0462744985246628    0.0000000000000000    0.0000000000000000
    -3.0231372492623314    5.2362273139763751    0.0000000000000000
     0.0000000000000000    0.0000000000000000   20.0000000000000000
   Cr   Cl   H 
     2     6     1
Direct
     0.3333333333333357    0.6666666666666643    0.5000728096594563
     0.6666666666666643    0.3333333333333357    0.5000728096594563
     0.3530645255739536    1.0000000000000000    0.4347212128469092
     1.0000000000000000    0.3530645255739536    0.4347212128469092
     0.6469354744260463    0.6469354744260463    0.4347212128469092
     0.6464241882685595    1.0000000000000000    0.5667966927415417
     0.0000000000000000    0.6464241882685595    0.5667966927415417
     0.3535758117314405    0.3535758117314405    0.5667966927415417
     0.0000000000000000    1.0000000000000000    0.5753006639157328
 
  0.00000000E+00  0.00000000E+00  0.00000000E+00
  0.00000000E+00  0.00000000E+00  0.00000000E+00
  0.00000000E+00  0.00000000E+00  0.00000000E+00
  0.00000000E+00  0.00000000E+00  0.00000000E+00
  0.00000000E+00  0.00000000E+00  0.00000000E+00
  0.00000000E+00  0.00000000E+00  0.00000000E+00
  0.00000000E+00  0.00000000E+00  0.00000000E+00
  0.00000000E+00  0.00000000E+00  0.00000000E+00
  0.00000000E+00  0.00000000E+00  0.00000000E+00
