       N       E                     dE             d eps       ncg     rms          rms(c)
DAV:   1     0.525936539515E+03    0.52594E+03   -0.15610E+04   720   0.921E+02
DAV:   2     0.869717604285E+02   -0.43896E+03   -0.41728E+03   992   0.249E+02
DAV:   3    -0.357525164797E+02   -0.12272E+03   -0.12007E+03  1044   0.132E+02
DAV:   4    -0.439194641010E+02   -0.81669E+01   -0.80043E+01  1024   0.479E+01
DAV:   5    -0.441801765763E+02   -0.26071E+00   -0.25818E+00  1036   0.815E+00    0.229E+01
DAV:   6    -0.478151941037E+02   -0.36350E+01   -0.12450E+02  1076   0.773E+01    0.311E+01
DAV:   7    -0.394458980278E+02    0.83693E+01   -0.22548E+01   968   0.997E+01    0.107E+01
DAV:   8    -0.397934961283E+02   -0.34760E+00   -0.51003E+00   944   0.106E+01    0.646E+00
DAV:   9    -0.394048215145E+02    0.38867E+00   -0.16866E+00   996   0.110E+01    0.298E+00
DAV:  10    -0.394321661767E+02   -0.27345E-01   -0.21487E-01  1080   0.355E+00    0.179E+00
DAV:  11    -0.396280363671E+02   -0.19587E+00   -0.12219E-01   868   0.174E+00    0.963E-01
DAV:  12    -0.397346187102E+02   -0.10658E+00   -0.38165E-02   944   0.113E+00    0.556E-01
DAV:  13    -0.397846626450E+02   -0.50044E-01   -0.85075E-03  1048   0.561E-01    0.357E-01
DAV:  14    -0.398389085876E+02   -0.54246E-01   -0.61189E-03   968   0.401E-01    0.198E-01
DAV:  15    -0.398665454418E+02   -0.27637E-01   -0.18793E-03  1004   0.200E-01    0.168E-01
DAV:  16    -0.398992019676E+02   -0.32657E-01   -0.19676E-03   956   0.231E-01    0.959E-02
DAV:  17    -0.399384204915E+02   -0.39219E-01   -0.33098E-03   872   0.192E-01    0.722E-02
DAV:  18    -0.399549453820E+02   -0.16525E-01   -0.10545E-03   852   0.981E-02    0.483E-02
DAV:  19    -0.399608485481E+02   -0.59032E-02   -0.38344E-04   864   0.626E-02    0.285E-02
DAV:  20    -0.399641495662E+02   -0.33010E-02   -0.24156E-04   904   0.470E-02    0.132E-02
DAV:  21    -0.399642983377E+02   -0.14877E-03   -0.99078E-06  1004   0.158E-02    0.587E-03
DAV:  22    -0.399644100023E+02   -0.11166E-03   -0.59032E-06   728   0.768E-03    0.335E-03
DAV:  23    -0.399645057102E+02   -0.95708E-04   -0.68903E-06   712   0.877E-03    0.256E-03
DAV:  24    -0.399645412648E+02   -0.35555E-04   -0.10219E-06   600   0.503E-03    0.204E-03
DAV:  25    -0.399645627782E+02   -0.21513E-04   -0.10484E-06   616   0.382E-03    0.123E-03
DAV:  26    -0.399645727519E+02   -0.99737E-05   -0.39138E-07   544   0.335E-03    0.817E-04
DAV:  27    -0.399645965764E+02   -0.23825E-04   -0.15279E-06   632   0.372E-03    0.806E-04
DAV:  28    -0.399646028208E+02   -0.62444E-05   -0.32608E-07   520   0.276E-03    0.572E-04
DAV:  29    -0.399646058048E+02   -0.29839E-05   -0.18267E-07   488   0.209E-03    0.252E-04
DAV:  30    -0.399646073241E+02   -0.15193E-05   -0.99517E-08   472   0.163E-03    0.187E-04
DAV:  31    -0.399646085274E+02   -0.12033E-05   -0.74932E-08   428   0.133E-03    0.162E-04
DAV:  32    -0.399646097132E+02   -0.11859E-05   -0.67132E-08   428   0.115E-03    0.136E-04
DAV:  33    -0.399646102517E+02   -0.53844E-06   -0.54121E-08   448   0.985E-04
   1 F= -.40973149E+02 E0= -.40972108E+02  d E =-.409731E+02  mag=     5.0370
       N       E                     dE             d eps       ncg     rms          rms(c)
DAV:   1    -0.399636814549E+02    0.92826E-03   -0.24985E-01   720   0.210E+00    0.362E-01
DAV:   2    -0.399647629415E+02   -0.10815E-02   -0.11165E-02  1064   0.632E-01    0.170E-01
DAV:   3    -0.399655636926E+02   -0.80075E-03   -0.52365E-04  1032   0.176E-01    0.832E-02
DAV:   4    -0.399654246478E+02    0.13904E-03   -0.56030E-05  1112   0.625E-02    0.577E-02
DAV:   5    -0.399652485734E+02    0.17607E-03   -0.69699E-05  1088   0.725E-02    0.419E-02
DAV:   6    -0.399651873134E+02    0.61260E-04   -0.39479E-05  1080   0.549E-02    0.150E-02
DAV:   7    -0.399652473037E+02   -0.59990E-04   -0.50609E-06   808   0.170E-02    0.103E-02
DAV:   8    -0.399653975332E+02   -0.15023E-03   -0.39896E-06   704   0.927E-03    0.589E-03
DAV:   9    -0.399654891628E+02   -0.91630E-04   -0.10801E-06   608   0.753E-03    0.332E-03
DAV:  10    -0.399655923487E+02   -0.10319E-03   -0.15260E-06   656   0.656E-03    0.253E-03
DAV:  11    -0.399656637311E+02   -0.71382E-04   -0.85870E-07   568   0.559E-03    0.180E-03
DAV:  12    -0.399657684123E+02   -0.10468E-03   -0.26925E-06   776   0.529E-03    0.149E-03
DAV:  13    -0.399658364745E+02   -0.68062E-04   -0.14835E-06   680   0.396E-03    0.793E-04
DAV:  14    -0.399658670752E+02   -0.30601E-04   -0.99350E-07   664   0.355E-03    0.717E-04
DAV:  15    -0.399658739681E+02   -0.68928E-05   -0.29203E-07   528   0.284E-03    0.265E-04
DAV:  16    -0.399658756939E+02   -0.17258E-05   -0.15123E-07   480   0.194E-03    0.348E-04
DAV:  17    -0.399658764631E+02   -0.76927E-06   -0.86822E-08   476   0.159E-03
   2 F= -.40974782E+02 E0= -.40973573E+02  d E =-.163291E-02  mag=     5.0473
       N       E                     dE             d eps       ncg     rms          rms(c)
DAV:   1    -0.399657041910E+02    0.17150E-03   -0.16595E-02   720   0.541E-01    0.938E-02
DAV:   2    -0.399657267211E+02   -0.22530E-04   -0.72087E-04  1008   0.156E-01    0.410E-02
DAV:   3    -0.399658083507E+02   -0.81630E-04   -0.36456E-05   896   0.422E-02    0.204E-02
DAV:   4    -0.399657906452E+02    0.17705E-04   -0.29235E-06   672   0.119E-02    0.149E-02
DAV:   5    -0.399657568235E+02    0.33822E-04   -0.87263E-06   988   0.219E-02    0.103E-02
DAV:   6    -0.399657519604E+02    0.48632E-05   -0.11549E-06   512   0.141E-02    0.401E-03
DAV:   7    -0.399657591777E+02   -0.72173E-05   -0.62680E-07   416   0.805E-03    0.297E-03
DAV:   8    -0.399657717056E+02   -0.12528E-04   -0.38624E-07   480   0.379E-03    0.230E-03
DAV:   9    -0.399657902571E+02   -0.18552E-04   -0.31649E-07   512   0.262E-03    0.140E-03
DAV:  10    -0.399658015516E+02   -0.11294E-04   -0.15044E-07   480   0.273E-03    0.833E-04
DAV:  11    -0.399658135082E+02   -0.11957E-04   -0.21632E-07   496   0.221E-03    0.634E-04
DAV:  12    -0.399658258389E+02   -0.12331E-04   -0.23118E-07   520   0.268E-03    0.536E-04
DAV:  13    -0.399658373035E+02   -0.11465E-04   -0.30507E-07   528   0.240E-03    0.507E-04
DAV:  14    -0.399658430017E+02   -0.56982E-05   -0.21506E-07   504   0.218E-03    0.302E-04
DAV:  15    -0.399658461429E+02   -0.31412E-05   -0.16587E-07   488   0.176E-03    0.321E-04
DAV:  16    -0.399658472418E+02   -0.10989E-05   -0.95492E-08   480   0.170E-03    0.185E-04
DAV:  17    -0.399658476226E+02   -0.38089E-06   -0.57498E-08   476   0.109E-03
   3 F= -.40974849E+02 E0= -.40973601E+02  d E =-.169925E-02  mag=     5.0500
       N       E                     dE             d eps       ncg     rms          rms(c)
DAV:   1    -0.399654485741E+02    0.39867E-03   -0.64526E-02   720   0.103E+00    0.154E-01
DAV:   2    -0.399657810979E+02   -0.33252E-03   -0.45226E-03  1068   0.438E-01    0.733E-02
DAV:   3    -0.399657363677E+02    0.44730E-04   -0.83842E-05   808   0.546E-02    0.511E-02
DAV:   4    -0.399657123446E+02    0.24023E-04   -0.15953E-05  1044   0.201E-02    0.376E-02
DAV:   5    -0.399656782924E+02    0.34052E-04   -0.16918E-05  1068   0.286E-02    0.174E-02
DAV:   6    -0.399656863368E+02   -0.80443E-05   -0.33895E-06   708   0.237E-02    0.105E-02
DAV:   7    -0.399656954063E+02   -0.90696E-05   -0.15303E-06   436   0.134E-02    0.457E-03
DAV:   8    -0.399657243933E+02   -0.28987E-04   -0.13568E-06   508   0.544E-03    0.389E-03
DAV:   9    -0.399657477343E+02   -0.23341E-04   -0.46584E-07   480   0.566E-03    0.291E-03
DAV:  10    -0.399657774624E+02   -0.29728E-04   -0.47139E-07   568   0.340E-03    0.197E-03
DAV:  11    -0.399657965971E+02   -0.19135E-04   -0.33498E-07   504   0.286E-03    0.133E-03
DAV:  12    -0.399658045529E+02   -0.79559E-05   -0.16991E-07   488   0.286E-03    0.718E-04
DAV:  13    -0.399658167588E+02   -0.12206E-04   -0.27803E-07   524   0.208E-03    0.468E-04
DAV:  14    -0.399658263700E+02   -0.96112E-05   -0.22916E-07   528   0.213E-03    0.511E-04
DAV:  15    -0.399658296314E+02   -0.32613E-05   -0.11932E-07   480   0.182E-03    0.473E-04
DAV:  16    -0.399658305414E+02   -0.91008E-06   -0.66789E-08   480   0.139E-03
   4 F= -.40975406E+02 E0= -.40974086E+02  d E =-.557485E-03  mag=     5.0557
       N       E                     dE             d eps       ncg     rms          rms(c)
DAV:   1    -0.399614489126E+02    0.43807E-02   -0.58060E-01   720   0.309E+00    0.449E-01
DAV:   2    -0.399647479351E+02   -0.32990E-02   -0.40635E-02  1068   0.133E+00    0.219E-01
DAV:   3    -0.399644835800E+02    0.26436E-03   -0.71346E-04   840   0.171E-01    0.151E-01
DAV:   4    -0.399643740857E+02    0.10949E-03   -0.13635E-04  1024   0.631E-02    0.114E-01
DAV:   5    -0.399642496604E+02    0.12443E-03   -0.14036E-04  1072   0.105E-01    0.633E-02
DAV:   6    -0.399642539180E+02   -0.42575E-05   -0.51828E-05  1080   0.670E-02    0.253E-02
DAV:   7    -0.399643198072E+02   -0.65889E-04   -0.95928E-06   988   0.200E-02    0.141E-02
DAV:   8    -0.399644794092E+02   -0.15960E-03   -0.36130E-06   724   0.103E-02    0.100E-02
DAV:   9    -0.399646117451E+02   -0.13234E-03   -0.25439E-06   652   0.146E-02    0.483E-03
DAV:  10    -0.399647042776E+02   -0.92533E-04   -0.20833E-06   628   0.770E-03    0.424E-03
DAV:  11    -0.399647389124E+02   -0.34635E-04   -0.63781E-07   480   0.585E-03    0.226E-03
DAV:  12    -0.399648120144E+02   -0.73102E-04   -0.11705E-06   612   0.463E-03    0.170E-03
DAV:  13    -0.399648850768E+02   -0.73062E-04   -0.16033E-06   696   0.455E-03    0.109E-03
DAV:  14    -0.399649187549E+02   -0.33678E-04   -0.80711E-07   600   0.350E-03    0.111E-03
DAV:  15    -0.399649262415E+02   -0.74866E-05   -0.22465E-07   480   0.274E-03    0.729E-04
DAV:  16    -0.399649315167E+02   -0.52752E-05   -0.27421E-07   524   0.216E-03    0.652E-04
DAV:  17    -0.399649322136E+02   -0.69690E-06   -0.90876E-08   480   0.209E-03
   5 F= -.40976222E+02 E0= -.40974748E+02  d E =-.137312E-02  mag=     5.0712
       N       E                     dE             d eps       ncg     rms          rms(c)
DAV:   1    -0.399642374007E+02    0.69412E-03   -0.11077E-01   720   0.136E+00    0.149E-01
DAV:   2    -0.399648090109E+02   -0.57161E-03   -0.70631E-03  1044   0.572E-01    0.983E-02
DAV:   3    -0.399648257984E+02   -0.16787E-04   -0.36577E-04  1096   0.220E-01    0.599E-02
DAV:   4    -0.399647895177E+02    0.36281E-04   -0.34965E-05  1112   0.774E-02    0.384E-02
DAV:   5    -0.399647549867E+02    0.34531E-04   -0.16386E-05  1016   0.188E-02    0.276E-02
DAV:   6    -0.399647397004E+02    0.15286E-04   -0.12808E-05  1040   0.275E-02    0.905E-03
DAV:   7    -0.399647609150E+02   -0.21215E-04   -0.14919E-06   516   0.123E-02    0.419E-03
DAV:   8    -0.399647934186E+02   -0.32504E-04   -0.12091E-06   580   0.120E-02    0.241E-03
DAV:   9    -0.399648191127E+02   -0.25694E-04   -0.55871E-07   480   0.493E-03    0.183E-03
DAV:  10    -0.399648365687E+02   -0.17456E-04   -0.30788E-07   496   0.380E-03    0.168E-03
DAV:  11    -0.399648689209E+02   -0.32352E-04   -0.42578E-07   576   0.340E-03    0.914E-04
DAV:  12    -0.399648976956E+02   -0.28775E-04   -0.59078E-07   592   0.340E-03    0.688E-04
DAV:  13    -0.399649033932E+02   -0.56976E-05   -0.16106E-07   480   0.262E-03    0.465E-04
DAV:  14    -0.399649138103E+02   -0.10417E-04   -0.21314E-07   492   0.180E-03    0.379E-04
DAV:  15    -0.399649265276E+02   -0.12717E-04   -0.34888E-07   560   0.225E-03    0.385E-04
DAV:  16    -0.399649290450E+02   -0.25175E-05   -0.13308E-07   480   0.199E-03    0.230E-04
DAV:  17    -0.399649302474E+02   -0.12023E-05   -0.94059E-08   480   0.140E-03    0.167E-04
DAV:  18    -0.399649305955E+02   -0.34810E-06   -0.51544E-08   480   0.130E-03
   6 F= -.40976917E+02 E0= -.40975407E+02  d E =-.695021E-03  mag=     5.0746
       N       E                     dE             d eps       ncg     rms          rms(c)
DAV:   1    -0.399582225062E+02    0.67077E-02   -0.99694E-01   720   0.408E+00    0.450E-01
DAV:   2    -0.399637359381E+02   -0.55134E-02   -0.63360E-02  1056   0.170E+00    0.288E-01
DAV:   3    -0.399638691629E+02   -0.13322E-03   -0.33752E-03  1084   0.666E-01    0.182E-01
DAV:   4    -0.399636664680E+02    0.20269E-03   -0.31685E-04  1112   0.235E-01    0.115E-01
DAV:   5    -0.399635345295E+02    0.13194E-03   -0.13747E-04  1052   0.567E-02    0.842E-02
DAV:   6    -0.399635025857E+02    0.31944E-04   -0.11973E-04  1052   0.820E-02    0.285E-02
DAV:   7    -0.399636183753E+02   -0.11579E-03   -0.21929E-05  1056   0.396E-02    0.113E-02
DAV:   8    -0.399637552994E+02   -0.13692E-03   -0.56892E-06   808   0.246E-02    0.626E-03
DAV:   9    -0.399639140900E+02   -0.15879E-03   -0.22828E-06   720   0.104E-02    0.460E-03
DAV:  10    -0.399640543858E+02   -0.14030E-03   -0.16970E-06   676   0.593E-03    0.296E-03
DAV:  11    -0.399641675889E+02   -0.11320E-03   -0.12314E-06   664   0.484E-03    0.180E-03
DAV:  12    -0.399642406490E+02   -0.73060E-04   -0.67789E-07   568   0.406E-03    0.148E-03
DAV:  13    -0.399642978444E+02   -0.57195E-04   -0.72327E-07   592   0.357E-03    0.115E-03
DAV:  14    -0.399643989970E+02   -0.10115E-03   -0.34812E-06   808   0.516E-03    0.769E-04
DAV:  15    -0.399644127638E+02   -0.13767E-04   -0.18411E-07   528   0.206E-03    0.407E-04
DAV:  16    -0.399644215956E+02   -0.88318E-05   -0.20759E-07   516   0.170E-03    0.442E-04
DAV:  17    -0.399644247631E+02   -0.31675E-05   -0.11620E-07   504   0.172E-03    0.224E-04
DAV:  18    -0.399644258583E+02   -0.10952E-05   -0.79527E-08   476   0.137E-03    0.228E-04
DAV:  19    -0.399644260139E+02   -0.15562E-06   -0.39591E-08   480   0.120E-03
   7 F= -.40978462E+02 E0= -.40976777E+02  d E =-.223994E-02  mag=     5.0847
       N       E                     dE             d eps       ncg     rms          rms(c)
DAV:   1    -0.399369730655E+02    0.27453E-01   -0.39861E+00   720   0.816E+00    0.971E-01
DAV:   2    -0.399589330798E+02   -0.21960E-01   -0.26153E-01  1088   0.351E+00    0.796E-01
DAV:   3    -0.399590372382E+02   -0.10416E-03   -0.19158E-02  1088   0.165E+00    0.424E-01
DAV:   4    -0.399580342520E+02    0.10030E-02   -0.15452E-03  1112   0.495E-01    0.233E-01
DAV:   5    -0.399577527287E+02    0.28152E-03   -0.52285E-04  1064   0.126E-01    0.178E-01
DAV:   6    -0.399578036404E+02   -0.50912E-04   -0.55994E-04  1060   0.188E-01    0.714E-02
DAV:   7    -0.399582880889E+02   -0.48445E-03   -0.14670E-04  1048   0.102E-01    0.234E-02
DAV:   8    -0.399588572685E+02   -0.56918E-03   -0.24522E-05  1040   0.394E-02    0.153E-02
DAV:   9    -0.399594921681E+02   -0.63490E-03   -0.80269E-06   804   0.145E-02    0.123E-02
DAV:  10    -0.399601099472E+02   -0.61778E-03   -0.84117E-06   812   0.106E-02    0.884E-03
DAV:  11    -0.399605708341E+02   -0.46089E-03   -0.75656E-06   884   0.133E-02    0.462E-03
DAV:  12    -0.399608382872E+02   -0.26745E-03   -0.36799E-06   780   0.706E-03    0.363E-03
DAV:  13    -0.399611085576E+02   -0.27027E-03   -0.70792E-06   848   0.750E-03    0.215E-03
DAV:  14    -0.399612155116E+02   -0.10695E-03   -0.33824E-06   768   0.517E-03    0.117E-03
DAV:  15    -0.399612304274E+02   -0.14916E-04   -0.39436E-07   576   0.294E-03    0.676E-04
DAV:  16    -0.399612329710E+02   -0.25436E-05   -0.45362E-07   560   0.256E-03    0.401E-04
DAV:  17    -0.399612328144E+02    0.15657E-06   -0.10051E-07   480   0.226E-03
   8 F= -.40979173E+02 E0= -.40976481E+02  d E =-.295115E-02  mag=     5.1248
       N       E                     dE             d eps       ncg     rms          rms(c)
DAV:   1    -0.399610368505E+02    0.19612E-03   -0.22665E-02   720   0.619E-01    0.984E-02
DAV:   2    -0.399610852437E+02   -0.48393E-04   -0.16660E-03  1044   0.281E-01    0.853E-02
DAV:   3    -0.399610868921E+02   -0.16484E-05   -0.18882E-04  1104   0.167E-01    0.410E-02
DAV:   4    -0.399610412824E+02    0.45610E-04   -0.15165E-05  1112   0.449E-02    0.184E-02
DAV:   5    -0.399610093903E+02    0.31892E-04   -0.30056E-06   620   0.127E-02    0.130E-02
DAV:   6    -0.399609920058E+02    0.17385E-04   -0.94637E-06  1028   0.216E-02    0.624E-03
DAV:   7    -0.399610151440E+02   -0.23138E-04   -0.89251E-07   448   0.817E-03    0.308E-03
DAV:   8    -0.399610557176E+02   -0.40574E-04   -0.66700E-07   532   0.633E-03    0.300E-03
DAV:   9    -0.399610831796E+02   -0.27462E-04   -0.36228E-07   484   0.497E-03    0.204E-03
DAV:  10    -0.399611225414E+02   -0.39362E-04   -0.83724E-07   588   0.344E-03    0.185E-03
DAV:  11    -0.399611605814E+02   -0.38040E-04   -0.66357E-07   572   0.389E-03    0.116E-03
DAV:  12    -0.399611837072E+02   -0.23126E-04   -0.64483E-07   580   0.303E-03    0.858E-04
DAV:  13    -0.399611919861E+02   -0.82789E-05   -0.32227E-07   512   0.280E-03    0.631E-04
DAV:  14    -0.399611927892E+02   -0.80312E-06   -0.11106E-07   480   0.203E-03
   9 F= -.40979428E+02 E0= -.40976520E+02  d E =-.255402E-03  mag=     5.1345
       N       E                     dE             d eps       ncg     rms          rms(c)
DAV:   1    -0.399598193197E+02    0.13727E-02   -0.20398E-01   720   0.186E+00    0.322E-01
DAV:   2    -0.399605283147E+02   -0.70900E-03   -0.15680E-02  1084   0.884E-01    0.314E-01
DAV:   3    -0.399605105843E+02    0.17730E-04   -0.20765E-03  1092   0.560E-01    0.135E-01
DAV:   4    -0.399601912256E+02    0.31936E-03   -0.15712E-04  1112   0.135E-01    0.582E-02
DAV:   5    -0.399600048226E+02    0.18640E-03   -0.43775E-05  1080   0.448E-02    0.389E-02
DAV:   6    -0.399599350832E+02    0.69739E-04   -0.29129E-05  1032   0.437E-02    0.189E-02
DAV:   7    -0.399601117335E+02   -0.17665E-03   -0.10641E-05  1004   0.275E-02    0.953E-03
DAV:   8    -0.399603541088E+02   -0.24238E-03   -0.30903E-06   724   0.107E-02    0.933E-03
DAV:   9    -0.399607129348E+02   -0.35883E-03   -0.73919E-06   796   0.148E-02    0.642E-03
DAV:  10    -0.399609627631E+02   -0.24983E-03   -0.58505E-06   852   0.902E-03    0.468E-03
DAV:  11    -0.399611227954E+02   -0.16003E-03   -0.43136E-06   756   0.743E-03    0.212E-03
DAV:  12    -0.399611840800E+02   -0.61285E-04   -0.19859E-06   704   0.512E-03    0.159E-03
DAV:  13    -0.399611940423E+02   -0.99623E-05   -0.45088E-07   548   0.336E-03    0.121E-03
DAV:  14    -0.399611948539E+02   -0.81161E-06   -0.15924E-07   472   0.239E-03
  10 F= -.40980309E+02 E0= -.40976698E+02  d E =-.113615E-02  mag=     5.1702
       N       E                     dE             d eps       ncg     rms          rms(c)
DAV:   1    -0.399566234389E+02    0.45706E-02   -0.81454E-01   720   0.371E+00    0.755E-01
DAV:   2    -0.399592244051E+02   -0.26010E-02   -0.67387E-02  1096   0.193E+00    0.846E-01
DAV:   3    -0.399591796122E+02    0.44793E-04   -0.11512E-02  1092   0.131E+00    0.315E-01
DAV:   4    -0.399575130050E+02    0.16666E-02   -0.80411E-04  1048   0.268E-01    0.142E-01
DAV:   5    -0.399562361881E+02    0.12768E-02   -0.22235E-04  1072   0.117E-01    0.809E-02
DAV:   6    -0.399554445172E+02    0.79167E-03   -0.15393E-04  1032   0.947E-02    0.484E-02
DAV:   7    -0.399564667137E+02   -0.10222E-02   -0.53265E-05  1048   0.621E-02    0.260E-02
DAV:   8    -0.399579904526E+02   -0.15237E-02   -0.22497E-05   832   0.199E-02    0.266E-02
DAV:   9    -0.399600929825E+02   -0.21025E-02   -0.64621E-05  1028   0.437E-02    0.160E-02
DAV:  10    -0.399615115492E+02   -0.14186E-02   -0.67401E-05   908   0.258E-02    0.956E-03
DAV:  11    -0.399618897438E+02   -0.37819E-03   -0.16976E-05   900   0.136E-02    0.376E-03
DAV:  12    -0.399619757455E+02   -0.86002E-04   -0.41415E-06   668   0.626E-03    0.324E-03
DAV:  13    -0.399619776408E+02   -0.18953E-05   -0.25055E-07   504   0.344E-03    0.223E-03
DAV:  14    -0.399619783465E+02   -0.70572E-06   -0.23322E-07   456   0.274E-03
  11 F= -.40982813E+02 E0= -.40977854E+02  d E =-.364048E-02  mag=     5.2706
       N       E                     dE             d eps       ncg     rms          rms(c)
DAV:   1    -0.399470599669E+02    0.14918E-01   -0.32449E+00   720   0.742E+00    0.151E+00
DAV:   2    -0.399582194570E+02   -0.11159E-01   -0.25791E-01  1072   0.373E+00    0.151E+00
DAV:   3    -0.399572560314E+02    0.96343E-03   -0.40755E-02  1072   0.245E+00    0.659E-01
DAV:   4    -0.399494426467E+02    0.78134E-02   -0.29826E-03  1048   0.509E-01    0.336E-01
DAV:   5    -0.399428379776E+02    0.66047E-02   -0.88773E-04  1080   0.259E-01    0.181E-01
DAV:   6    -0.399358130533E+02    0.70249E-02   -0.72458E-04   856   0.141E-01    0.840E-02
DAV:   7    -0.399410763743E+02   -0.52633E-02   -0.26342E-04  1024   0.135E-01    0.653E-02
DAV:   8    -0.399486125387E+02   -0.75362E-02   -0.18730E-04   972   0.818E-02    0.616E-02
DAV:   9    -0.399594004865E+02   -0.10788E-01   -0.45748E-04   932   0.944E-02    0.334E-02
DAV:  10    -0.399658146206E+02   -0.64141E-02   -0.31309E-04   884   0.547E-02    0.169E-02
DAV:  11    -0.399677133807E+02   -0.18988E-02   -0.12228E-04   956   0.391E-02    0.109E-02
DAV:  12    -0.399679092843E+02   -0.19590E-03   -0.84809E-06   828   0.162E-02    0.770E-03
DAV:  13    -0.399679503259E+02   -0.41042E-04   -0.27545E-06   692   0.708E-03    0.428E-03
DAV:  14    -0.399679702306E+02   -0.19905E-04   -0.14309E-06   560   0.527E-03    0.189E-03
DAV:  15    -0.399679753040E+02   -0.50733E-05   -0.47579E-07   504   0.407E-03    0.107E-03
DAV:  16    -0.399679782411E+02   -0.29371E-05   -0.23411E-07   444   0.312E-03    0.629E-04
DAV:  17    -0.399679851121E+02   -0.68710E-05   -0.31302E-07   500   0.267E-03    0.558E-04
DAV:  18    -0.399679907899E+02   -0.56778E-05   -0.19800E-07   492   0.223E-03    0.634E-04
DAV:  19    -0.399679931909E+02   -0.24010E-05   -0.16506E-07   464   0.191E-03    0.386E-04
DAV:  20    -0.399679951451E+02   -0.19542E-05   -0.14782E-07   464   0.172E-03    0.359E-04
DAV:  21    -0.399679957086E+02   -0.56356E-06   -0.80903E-08   460   0.163E-03
  12 F= -.40992114E+02 E0= -.40986831E+02  d E =-.129407E-01  mag=     5.5062
