 running   16 mpi-ranks, with    1 threads/rank, on    1 nodes
 distrk:  each k-point on   16 cores,    1 groups
 distr:  one band on    4 cores,    4 groups
 vasp.6.5.1 10Mar25 (build Jan 13 2026 20:43:53) complex                         
 POSCAR found type information on POSCAR CrClH 
 POSCAR found :  3 types and       9 ions
 scaLAPACK will be used
 LDA part: xc-table for (Slater+PW92), standard interpolation
 POSCAR, INCAR and KPOINTS ok, starting setup
 FFT: planning ... GRIDC
 FFT: planning ... GRID_SOFT
 FFT: planning ... GRID
 WAVECAR not read
 entering main loop
       N       E                     dE             d eps       ncg     rms          rms(c)
DAV:   1     0.525936539515E+03    0.52594E+03   -0.15610E+04   720   0.921E+02
DAV:   2     0.869717604285E+02   -0.43896E+03   -0.41728E+03   992   0.249E+02
DAV:   3    -0.357525164797E+02   -0.12272E+03   -0.12007E+03  1044   0.132E+02
DAV:   4    -0.439194641010E+02   -0.81669E+01   -0.80043E+01  1024   0.479E+01
DAV:   5    -0.441801765763E+02   -0.26071E+00   -0.25818E+00  1036   0.815E+00    0.229E+01
DAV:   6    -0.478151941037E+02   -0.36350E+01   -0.12450E+02  1076   0.773E+01    0.311E+01
DAV:   7    -0.394458980278E+02    0.83693E+01   -0.22548E+01   968   0.997E+01    0.107E+01
DAV:   8    -0.397934961283E+02   -0.34760E+00   -0.51003E+00   944   0.106E+01    0.646E+00
DAV:   9    -0.394048215145E+02    0.38867E+00   -0.16866E+00   996   0.110E+01    0.298E+00
DAV:  10    -0.394321661767E+02   -0.27345E-01   -0.21487E-01  1080   0.355E+00    0.179E+00
DAV:  11    -0.396280363671E+02   -0.19587E+00   -0.12219E-01   868   0.174E+00    0.963E-01
DAV:  12    -0.397346187102E+02   -0.10658E+00   -0.38165E-02   944   0.113E+00    0.556E-01
DAV:  13    -0.397846626450E+02   -0.50044E-01   -0.85075E-03  1048   0.561E-01    0.357E-01
DAV:  14    -0.398389085876E+02   -0.54246E-01   -0.61189E-03   968   0.401E-01    0.198E-01
DAV:  15    -0.398665454418E+02   -0.27637E-01   -0.18793E-03  1004   0.200E-01    0.168E-01
DAV:  16    -0.398992019676E+02   -0.32657E-01   -0.19676E-03   956   0.231E-01    0.959E-02
DAV:  17    -0.399384204915E+02   -0.39219E-01   -0.33098E-03   872   0.192E-01    0.722E-02
DAV:  18    -0.399549453820E+02   -0.16525E-01   -0.10545E-03   852   0.981E-02    0.483E-02
DAV:  19    -0.399608485481E+02   -0.59032E-02   -0.38344E-04   864   0.626E-02    0.285E-02
DAV:  20    -0.399641495662E+02   -0.33010E-02   -0.24156E-04   904   0.470E-02    0.132E-02
DAV:  21    -0.399642983377E+02   -0.14877E-03   -0.99078E-06  1004   0.158E-02    0.587E-03
DAV:  22    -0.399644100023E+02   -0.11166E-03   -0.59032E-06   728   0.768E-03    0.335E-03
DAV:  23    -0.399645057102E+02   -0.95708E-04   -0.68903E-06   712   0.877E-03    0.256E-03
DAV:  24    -0.399645412648E+02   -0.35555E-04   -0.10219E-06   600   0.503E-03    0.204E-03
DAV:  25    -0.399645627782E+02   -0.21513E-04   -0.10484E-06   616   0.382E-03    0.123E-03
DAV:  26    -0.399645727519E+02   -0.99737E-05   -0.39138E-07   544   0.335E-03    0.817E-04
DAV:  27    -0.399645965764E+02   -0.23825E-04   -0.15279E-06   632   0.372E-03    0.806E-04
DAV:  28    -0.399646028208E+02   -0.62444E-05   -0.32608E-07   520   0.276E-03    0.572E-04
DAV:  29    -0.399646058048E+02   -0.29839E-05   -0.18267E-07   488   0.209E-03    0.252E-04
DAV:  30    -0.399646073241E+02   -0.15193E-05   -0.99517E-08   472   0.163E-03    0.187E-04
DAV:  31    -0.399646085274E+02   -0.12033E-05   -0.74932E-08   428   0.133E-03    0.162E-04
DAV:  32    -0.399646097132E+02   -0.11859E-05   -0.67132E-08   428   0.115E-03    0.136E-04
DAV:  33    -0.399646102517E+02   -0.53844E-06   -0.54121E-08   448   0.985E-04
   1 F= -.40973149E+02 E0= -.40972108E+02  d E =-.409731E+02  mag=     5.0370
 curvature:   0.00 expect dE= 0.000E+00 dE for cont linesearch  0.000E+00
 trial: gam= 0.00000 g(F)=  0.275E-02 g(S)=  0.000E+00 ort = 0.000E+00 (trialstep = 0.100E+01)
 search vector abs. value=  0.275E-02
 bond charge predicted
       N       E                     dE             d eps       ncg     rms          rms(c)
DAV:   1    -0.399636814549E+02    0.92826E-03   -0.24985E-01   720   0.210E+00    0.362E-01
DAV:   2    -0.399647629415E+02   -0.10815E-02   -0.11165E-02  1064   0.632E-01    0.170E-01
DAV:   3    -0.399655636926E+02   -0.80075E-03   -0.52365E-04  1032   0.176E-01    0.832E-02
DAV:   4    -0.399654246478E+02    0.13904E-03   -0.56030E-05  1112   0.625E-02    0.577E-02
DAV:   5    -0.399652485734E+02    0.17607E-03   -0.69699E-05  1088   0.725E-02    0.419E-02
DAV:   6    -0.399651873134E+02    0.61260E-04   -0.39479E-05  1080   0.549E-02    0.150E-02
DAV:   7    -0.399652473037E+02   -0.59990E-04   -0.50609E-06   808   0.170E-02    0.103E-02
DAV:   8    -0.399653975332E+02   -0.15023E-03   -0.39896E-06   704   0.927E-03    0.589E-03
DAV:   9    -0.399654891628E+02   -0.91630E-04   -0.10801E-06   608   0.753E-03    0.332E-03
DAV:  10    -0.399655923487E+02   -0.10319E-03   -0.15260E-06   656   0.656E-03    0.253E-03
DAV:  11    -0.399656637311E+02   -0.71382E-04   -0.85870E-07   568   0.559E-03    0.180E-03
DAV:  12    -0.399657684123E+02   -0.10468E-03   -0.26925E-06   776   0.529E-03    0.149E-03
DAV:  13    -0.399658364745E+02   -0.68062E-04   -0.14835E-06   680   0.396E-03    0.793E-04
DAV:  14    -0.399658670752E+02   -0.30601E-04   -0.99350E-07   664   0.355E-03    0.717E-04
DAV:  15    -0.399658739681E+02   -0.68928E-05   -0.29203E-07   528   0.284E-03    0.265E-04
DAV:  16    -0.399658756939E+02   -0.17258E-05   -0.15123E-07   480   0.194E-03    0.348E-04
DAV:  17    -0.399658764631E+02   -0.76927E-06   -0.86822E-08   476   0.159E-03
   2 F= -.40974782E+02 E0= -.40973573E+02  d E =-.163291E-02  mag=     5.0473
 trial-energy change:   -0.001633  1 .order   -0.001645   -0.002747   -0.000544
 step:   1.2576(harm=  1.2468)  dis= 0.00393  next Energy=   -40.974852 (dE=-0.170E-02)
 bond charge predicted
       N       E                     dE             d eps       ncg     rms          rms(c)
DAV:   1    -0.399657041910E+02    0.17150E-03   -0.16595E-02   720   0.541E-01    0.938E-02
DAV:   2    -0.399657267211E+02   -0.22530E-04   -0.72087E-04  1008   0.156E-01    0.410E-02
DAV:   3    -0.399658083507E+02   -0.81630E-04   -0.36456E-05   896   0.422E-02    0.204E-02
DAV:   4    -0.399657906452E+02    0.17705E-04   -0.29235E-06   672   0.119E-02    0.149E-02
DAV:   5    -0.399657568235E+02    0.33822E-04   -0.87263E-06   988   0.219E-02    0.103E-02
DAV:   6    -0.399657519604E+02    0.48632E-05   -0.11549E-06   512   0.141E-02    0.401E-03
DAV:   7    -0.399657591777E+02   -0.72173E-05   -0.62680E-07   416   0.805E-03    0.297E-03
DAV:   8    -0.399657717056E+02   -0.12528E-04   -0.38624E-07   480   0.379E-03    0.230E-03
DAV:   9    -0.399657902571E+02   -0.18552E-04   -0.31649E-07   512   0.262E-03    0.140E-03
DAV:  10    -0.399658015516E+02   -0.11294E-04   -0.15044E-07   480   0.273E-03    0.833E-04
DAV:  11    -0.399658135082E+02   -0.11957E-04   -0.21632E-07   496   0.221E-03    0.634E-04
DAV:  12    -0.399658258389E+02   -0.12331E-04   -0.23118E-07   520   0.268E-03    0.536E-04
DAV:  13    -0.399658373035E+02   -0.11465E-04   -0.30507E-07   528   0.240E-03    0.507E-04
DAV:  14    -0.399658430017E+02   -0.56982E-05   -0.21506E-07   504   0.218E-03    0.302E-04
DAV:  15    -0.399658461429E+02   -0.31412E-05   -0.16587E-07   488   0.176E-03    0.321E-04
DAV:  16    -0.399658472418E+02   -0.10989E-05   -0.95492E-08   480   0.170E-03    0.185E-04
DAV:  17    -0.399658476226E+02   -0.38089E-06   -0.57498E-08   476   0.109E-03
   3 F= -.40974849E+02 E0= -.40973601E+02  d E =-.169925E-02  mag=     5.0500
 curvature:  -0.62 expect dE=-0.378E-03 dE for cont linesearch -0.771E-07
 trial: gam= 0.22815 g(F)=  0.608E-03 g(S)=  0.000E+00 ort =-0.185E-04 (trialstep = 0.105E+01)
 search vector abs. value=  0.743E-03
 bond charge predicted
       N       E                     dE             d eps       ncg     rms          rms(c)
DAV:   1    -0.399654485741E+02    0.39867E-03   -0.64526E-02   720   0.103E+00    0.154E-01
DAV:   2    -0.399657810979E+02   -0.33252E-03   -0.45226E-03  1068   0.438E-01    0.733E-02
DAV:   3    -0.399657363677E+02    0.44730E-04   -0.83842E-05   808   0.546E-02    0.511E-02
DAV:   4    -0.399657123446E+02    0.24023E-04   -0.15953E-05  1044   0.201E-02    0.376E-02
DAV:   5    -0.399656782924E+02    0.34052E-04   -0.16918E-05  1068   0.286E-02    0.174E-02
DAV:   6    -0.399656863368E+02   -0.80443E-05   -0.33895E-06   708   0.237E-02    0.105E-02
DAV:   7    -0.399656954063E+02   -0.90696E-05   -0.15303E-06   436   0.134E-02    0.457E-03
DAV:   8    -0.399657243933E+02   -0.28987E-04   -0.13568E-06   508   0.544E-03    0.389E-03
DAV:   9    -0.399657477343E+02   -0.23341E-04   -0.46584E-07   480   0.566E-03    0.291E-03
DAV:  10    -0.399657774624E+02   -0.29728E-04   -0.47139E-07   568   0.340E-03    0.197E-03
DAV:  11    -0.399657965971E+02   -0.19135E-04   -0.33498E-07   504   0.286E-03    0.133E-03
DAV:  12    -0.399658045529E+02   -0.79559E-05   -0.16991E-07   488   0.286E-03    0.718E-04
DAV:  13    -0.399658167588E+02   -0.12206E-04   -0.27803E-07   524   0.208E-03    0.468E-04
DAV:  14    -0.399658263700E+02   -0.96112E-05   -0.22916E-07   528   0.213E-03    0.511E-04
DAV:  15    -0.399658296314E+02   -0.32613E-05   -0.11932E-07   480   0.182E-03    0.473E-04
DAV:  16    -0.399658305414E+02   -0.91008E-06   -0.66789E-08   480   0.139E-03
   4 F= -.40975406E+02 E0= -.40974086E+02  d E =-.557485E-03  mag=     5.0557
 ZBRENT: can't locate minimum, use default step
 trial-energy change:   -0.000557  1 .order   -0.000564   -0.000635   -0.000492
 step:   4.2061(harm=  4.6676)  dis= 0.00951  next Energy=   -40.976258 (dE=-0.141E-02)
 bond charge predicted
       N       E                     dE             d eps       ncg     rms          rms(c)
DAV:   1    -0.399614489126E+02    0.43807E-02   -0.58060E-01   720   0.309E+00    0.449E-01
DAV:   2    -0.399647479351E+02   -0.32990E-02   -0.40635E-02  1068   0.133E+00    0.219E-01
DAV:   3    -0.399644835800E+02    0.26436E-03   -0.71346E-04   840   0.171E-01    0.151E-01
DAV:   4    -0.399643740857E+02    0.10949E-03   -0.13635E-04  1024   0.631E-02    0.114E-01
DAV:   5    -0.399642496604E+02    0.12443E-03   -0.14036E-04  1072   0.105E-01    0.633E-02
DAV:   6    -0.399642539180E+02   -0.42575E-05   -0.51828E-05  1080   0.670E-02    0.253E-02
DAV:   7    -0.399643198072E+02   -0.65889E-04   -0.95928E-06   988   0.200E-02    0.141E-02
DAV:   8    -0.399644794092E+02   -0.15960E-03   -0.36130E-06   724   0.103E-02    0.100E-02
DAV:   9    -0.399646117451E+02   -0.13234E-03   -0.25439E-06   652   0.146E-02    0.483E-03
