CrCl3 2x2 + Ni S2 hollow (no_vdw, U=0) (
   1.0000000000000000     
    12.0925489970493256    0.0000000000000000    0.0000000000000000
    -6.0462744985246628   10.4724546279527502    0.0000000000000000
     0.0000000000000000    0.0000000000000000   20.0000000000000000
   Cr   Cl   Ni
     8    24     1
Direct
  0.1641335202527850  0.3302640953189083  0.5002345451216885
  0.3302640953189083  0.1641335202527850  0.5002345451216885
  0.6697359046810921  0.3338694249338628  0.5002345451216885
  0.8333333333333286  0.1666666666666714  0.4990878513334562
  0.1666666666666714  0.8333333333333286  0.4990878513334562
  0.3338694249338628  0.6697359046810921  0.5002345451216885
  0.6661305750661375  0.8358664797472150  0.5002345451216885
  0.8358664797472150  0.6661305750661375  0.5002345451216885
  0.1809341651116065  0.5000000000000000  0.4350163901824846
  0.5000000000000000  0.1809341651116065  0.4350163901824846
  0.3208218299273213  0.3208218299273213  0.4341560542483160
  0.3216555122526281  0.5000000000000000  0.5724718012353434
 -0.0005987415807895  0.3197278498175876  0.5670662978133141
  0.1762769482436107  0.1762769482436107  0.5673719826464791
  0.6791781700726788  0.5000000000000000  0.4341560542483160
 -0.0021610829582879  0.1773650353343549  0.4320669140630650
  0.8226349646656453  0.3204738817073571  0.4320669140630650
  0.8237230517563892  0.5000000000000000  0.5673719826464791
  0.5000000000000000  0.3216555122526281  0.5724718012353434
  0.6802721501824122  0.1796734086016229  0.5670662978133141
  0.1773650353343549 -0.0021610829582879  0.4320669140630650
  0.5000000000000000  0.6791781700726788  0.4341560542483160
  0.3204738817073571  0.8226349646656453  0.4320669140630650
  0.3197278498175876 -0.0005987415807895  0.5670662978133141
  0.0005987415807895  0.8203265913983770  0.5670662978133141
  0.1796734086016229  0.6802721501824122  0.5670662978133141
  0.6795261182926425  0.0021610829582879  0.4320669140630650
  0.0021610829582879  0.6795261182926425  0.4320669140630650
  0.8190658348883936  0.8190658348883936  0.4350163901824846
  0.8203265913983770  0.0005987415807895  0.5670662978133141
  0.5000000000000000  0.8237230517563892  0.5673719826464791
  0.6783444877473718  0.6783444877473718  0.5724718012353434
  0.5000000000000000  0.5000000000000000  0.5735690704068116

  0.00000000E+00  0.00000000E+00  0.00000000E+00
  0.00000000E+00  0.00000000E+00  0.00000000E+00
  0.00000000E+00  0.00000000E+00  0.00000000E+00
  0.00000000E+00  0.00000000E+00  0.00000000E+00
  0.00000000E+00  0.00000000E+00  0.00000000E+00
  0.00000000E+00  0.00000000E+00  0.00000000E+00
  0.00000000E+00  0.00000000E+00  0.00000000E+00
  0.00000000E+00  0.00000000E+00  0.00000000E+00
  0.00000000E+00  0.00000000E+00  0.00000000E+00
  0.00000000E+00  0.00000000E+00  0.00000000E+00
  0.00000000E+00  0.00000000E+00  0.00000000E+00
  0.00000000E+00  0.00000000E+00  0.00000000E+00
  0.00000000E+00  0.00000000E+00  0.00000000E+00
  0.00000000E+00  0.00000000E+00  0.00000000E+00
  0.00000000E+00  0.00000000E+00  0.00000000E+00
  0.00000000E+00  0.00000000E+00  0.00000000E+00
  0.00000000E+00  0.00000000E+00  0.00000000E+00
  0.00000000E+00  0.00000000E+00  0.00000000E+00
  0.00000000E+00  0.00000000E+00  0.00000000E+00
  0.00000000E+00  0.00000000E+00  0.00000000E+00
  0.00000000E+00  0.00000000E+00  0.00000000E+00
  0.00000000E+00  0.00000000E+00  0.00000000E+00
  0.00000000E+00  0.00000000E+00  0.00000000E+00
  0.00000000E+00  0.00000000E+00  0.00000000E+00
  0.00000000E+00  0.00000000E+00  0.00000000E+00
  0.00000000E+00  0.00000000E+00  0.00000000E+00
  0.00000000E+00  0.00000000E+00  0.00000000E+00
  0.00000000E+00  0.00000000E+00  0.00000000E+00
  0.00000000E+00  0.00000000E+00  0.00000000E+00
  0.00000000E+00  0.00000000E+00  0.00000000E+00
  0.00000000E+00  0.00000000E+00  0.00000000E+00
  0.00000000E+00  0.00000000E+00  0.00000000E+00
  0.00000000E+00  0.00000000E+00  0.00000000E+00
