       N       E                     dE             d eps       ncg     rms          rms(c)
DAV:   1     0.212105654926E+04    0.21211E+04   -0.64996E+04  3096   0.914E+02
DAV:   2     0.411043540213E+03   -0.17100E+04   -0.15856E+04  3592   0.246E+02
DAV:   3    -0.128733449984E+03   -0.53978E+03   -0.52265E+03  4384   0.138E+02
DAV:   4    -0.174070479961E+03   -0.45337E+02   -0.44714E+02  4640   0.572E+01
DAV:   5    -0.174840935117E+03   -0.77046E+00   -0.76558E+00  4680   0.959E+00    0.422E+01
DAV:   6    -0.193682546898E+03   -0.18842E+02   -0.24456E+02  4416   0.650E+01    0.838E+01
DAV:   7    -0.168818198408E+03    0.24864E+02   -0.27305E+01  4872   0.520E+01    0.389E+01
DAV:   8    -0.162569800937E+03    0.62484E+01   -0.21052E+01  4952   0.263E+01    0.209E+01
DAV:   9    -0.158935432135E+03    0.36344E+01   -0.95732E+00  4600   0.348E+01    0.102E+01
DAV:  10    -0.158519481856E+03    0.41595E+00   -0.46364E+00  4832   0.122E+01    0.753E+00
DAV:  11    -0.158660211105E+03   -0.14073E+00   -0.10167E+00  4408   0.483E+00    0.397E+00
DAV:  12    -0.158904730250E+03   -0.24452E+00   -0.28620E-01  4440   0.234E+00    0.271E+00
DAV:  13    -0.159104969236E+03   -0.20024E+00   -0.20895E-01  4408   0.149E+00    0.304E+00
DAV:  14    -0.159086331307E+03    0.18638E-01   -0.14876E-01  4384   0.102E+00    0.179E+00
DAV:  15    -0.159181686008E+03   -0.95355E-01   -0.80844E-02  4408   0.559E-01    0.266E+00
DAV:  16    -0.159266491867E+03   -0.84806E-01   -0.32482E-02  4336   0.591E-01    0.131E+00
DAV:  17    -0.159367668829E+03   -0.10118E+00   -0.27654E-02  4136   0.335E-01    0.239E-01
DAV:  18    -0.159425373703E+03   -0.57705E-01   -0.44344E-03  3888   0.230E-01    0.344E-01
DAV:  19    -0.159493459005E+03   -0.68085E-01   -0.29849E-03  3672   0.123E-01    0.998E-02
DAV:  20    -0.159558707375E+03   -0.65248E-01   -0.24434E-03  3720   0.865E-02    0.311E-01
DAV:  21    -0.159593369747E+03   -0.34662E-01   -0.98548E-04  4144   0.846E-02    0.117E-01
DAV:  22    -0.159613705709E+03   -0.20336E-01   -0.49548E-04  3712   0.417E-02    0.403E-02
DAV:  23    -0.159626725777E+03   -0.13020E-01   -0.26707E-04  3496   0.319E-02    0.275E-02
DAV:  24    -0.159634685072E+03   -0.79593E-02   -0.26009E-04  3472   0.248E-02    0.217E-02
DAV:  25    -0.159636267148E+03   -0.15821E-02   -0.43190E-05  3752   0.120E-02    0.233E-02
DAV:  26    -0.159636886073E+03   -0.61892E-03   -0.19349E-05  3488   0.867E-03    0.313E-03
DAV:  27    -0.159637045866E+03   -0.15979E-03   -0.56578E-06  3128   0.506E-03    0.422E-03
DAV:  28    -0.159637089868E+03   -0.44001E-04   -0.14159E-06  2480   0.266E-03    0.298E-03
DAV:  29    -0.159637106542E+03   -0.16674E-04   -0.60648E-07  2232   0.198E-03    0.955E-04
DAV:  30    -0.159637119480E+03   -0.12938E-04   -0.50857E-07  2200   0.167E-03    0.285E-03
DAV:  31    -0.159637127563E+03   -0.80825E-05   -0.23439E-07  1984   0.142E-03    0.187E-03
DAV:  32    -0.159637138360E+03   -0.10797E-04   -0.41406E-07  2160   0.125E-03    0.130E-03
DAV:  33    -0.159637146548E+03   -0.81882E-05   -0.30153E-07  2160   0.143E-03    0.619E-04
DAV:  34    -0.159637148529E+03   -0.19811E-05   -0.13343E-07  2008   0.112E-03    0.625E-04
DAV:  35    -0.159637150119E+03   -0.15902E-05   -0.74387E-08  1880   0.790E-04    0.500E-04
DAV:  36    -0.159637151665E+03   -0.15457E-05   -0.47745E-08  1880   0.588E-04    0.454E-04
DAV:  37    -0.159637152139E+03   -0.47376E-06   -0.21304E-08  1904   0.476E-04
   1 F= -.15963715E+03 E0= -.15963715E+03  d E =-.159637E+03  mag=    24.0000
       N       E                     dE             d eps       ncg     rms          rms(c)
DAV:   1    -0.159620553009E+03    0.16599E-01   -0.35607E+01  3048   0.106E+01    0.346E+00
DAV:   2    -0.160117262862E+03   -0.49671E+00   -0.37160E+00  4656   0.552E+00    0.779E+00
DAV:   3    -0.159972962635E+03    0.14430E+00   -0.28423E+00  4424   0.691E+00    0.110E+01
DAV:   4    -0.159828380639E+03    0.14458E+00   -0.96832E-01  4816   0.229E+00    0.118E+00
DAV:   5    -0.159833186648E+03   -0.48060E-02   -0.26386E-02  4104   0.457E-01    0.109E+00
DAV:   6    -0.159831155520E+03    0.20311E-02   -0.46151E-02  5008   0.500E-01    0.125E+00
DAV:   7    -0.159829477889E+03    0.16776E-02   -0.67613E-03  4544   0.341E-01    0.104E+00
DAV:   8    -0.159829477450E+03    0.43903E-06   -0.38370E-03  4512   0.252E-01    0.462E-01
DAV:   9    -0.159831363762E+03   -0.18863E-02   -0.66495E-04  4600   0.755E-02    0.275E-01
DAV:  10    -0.159835484008E+03   -0.41202E-02   -0.79785E-04  4544   0.688E-02    0.826E-02
DAV:  11    -0.159839168719E+03   -0.36847E-02   -0.40973E-04  4248   0.386E-02    0.805E-02
DAV:  12    -0.159841393521E+03   -0.22248E-02   -0.98028E-05  3784   0.340E-02    0.246E-02
DAV:  13    -0.159843562926E+03   -0.21694E-02   -0.26998E-05  3320   0.105E-02    0.138E-02
DAV:  14    -0.159845716202E+03   -0.21533E-02   -0.28170E-05  3608   0.984E-03    0.799E-03
DAV:  15    -0.159846979943E+03   -0.12637E-02   -0.14361E-05  3416   0.658E-03    0.773E-03
DAV:  16    -0.159848374535E+03   -0.13946E-02   -0.27631E-05  3104   0.729E-03    0.482E-03
DAV:  17    -0.159849191398E+03   -0.81686E-03   -0.26205E-05  3184   0.657E-03    0.189E-03
DAV:  18    -0.159849330318E+03   -0.13892E-03   -0.48516E-06  3224   0.355E-03    0.244E-03
DAV:  19    -0.159849349766E+03   -0.19447E-04   -0.49922E-07  2328   0.178E-03    0.174E-03
DAV:  20    -0.159849353551E+03   -0.37858E-05   -0.19959E-07  2016   0.129E-03    0.186E-03
DAV:  21    -0.159849357753E+03   -0.42014E-05   -0.27481E-07  2064   0.118E-03    0.651E-04
DAV:  22    -0.159849359195E+03   -0.14418E-05   -0.14805E-07  1952   0.105E-03    0.468E-04
DAV:  23    -0.159849360014E+03   -0.81903E-06   -0.70704E-08  1896   0.732E-04
   2 F= -.15984936E+03 E0= -.15984936E+03  d E =-.212208E+00  mag=    24.0000
       N       E                     dE             d eps       ncg     rms          rms(c)
DAV:   1    -0.159787874211E+03    0.61485E-01   -0.16204E+01  3056   0.721E+00    0.231E+00
DAV:   2    -0.159995064085E+03   -0.20719E+00   -0.15489E+00  4592   0.350E+00    0.569E+00
DAV:   3    -0.159949387219E+03    0.45677E-01   -0.14680E+00  4384   0.446E+00    0.682E+00
DAV:   4    -0.159879201941E+03    0.70185E-01   -0.35798E-01  4728   0.160E+00    0.803E-01
DAV:   5    -0.159880798224E+03   -0.15963E-02   -0.16532E-02  4352   0.326E-01    0.670E-01
DAV:   6    -0.159879825859E+03    0.97237E-03   -0.20862E-02  4896   0.380E-01    0.928E-01
DAV:   7    -0.159878570213E+03    0.12556E-02   -0.32759E-03  4640   0.258E-01    0.505E-01
DAV:   8    -0.159878959087E+03   -0.38887E-03   -0.15150E-03  4736   0.151E-01    0.166E-01
DAV:   9    -0.159880327817E+03   -0.13687E-02   -0.23655E-04  4352   0.447E-02    0.867E-02
DAV:  10    -0.159882605488E+03   -0.22777E-02   -0.17706E-04  4200   0.308E-02    0.339E-02
DAV:  11    -0.159884389707E+03   -0.17842E-02   -0.70153E-05  4056   0.229E-02    0.369E-02
DAV:  12    -0.159885424565E+03   -0.10349E-02   -0.14832E-05  3832   0.139E-02    0.217E-02
DAV:  13    -0.159886492706E+03   -0.10681E-02   -0.12557E-05  3352   0.783E-03    0.902E-03
DAV:  14    -0.159887664162E+03   -0.11715E-02   -0.15871E-05  3216   0.686E-03    0.764E-03
DAV:  15    -0.159888456261E+03   -0.79210E-03   -0.10039E-05  3264   0.519E-03    0.523E-03
DAV:  16    -0.159889149348E+03   -0.69309E-03   -0.13396E-05  3088   0.492E-03    0.285E-03
DAV:  17    -0.159889480972E+03   -0.33162E-03   -0.10369E-05  3168   0.418E-03    0.154E-03
DAV:  18    -0.159889523534E+03   -0.42562E-04   -0.11645E-06  2616   0.215E-03    0.105E-03
DAV:  19    -0.159889531222E+03   -0.76879E-05   -0.35007E-07  2120   0.170E-03    0.104E-03
DAV:  20    -0.159889533775E+03   -0.25532E-05   -0.21716E-07  1952   0.121E-03    0.355E-04
DAV:  21    -0.159889535449E+03   -0.16736E-05   -0.16052E-07  1968   0.982E-04    0.322E-04
DAV:  22    -0.159889536063E+03   -0.61450E-06   -0.76291E-08  1920   0.813E-04
   3 F= -.15988954E+03 E0= -.15988954E+03  d E =-.252384E+00  mag=    24.0000
       N       E                     dE             d eps       ncg     rms          rms(c)
DAV:   1    -0.159890417045E+03   -0.88160E-03   -0.21358E+01  3040   0.771E+00    0.236E+00
DAV:   2    -0.160178909033E+03   -0.28849E+00   -0.19334E+00  4760   0.477E+00    0.732E+00
DAV:   3    -0.159973192486E+03    0.20572E+00   -0.12875E+00  4440   0.493E+00    0.318E+00
DAV:   4    -0.159963028284E+03    0.10164E-01   -0.11873E-01  4904   0.122E+00    0.724E-01
DAV:   5    -0.159962131318E+03    0.89697E-03   -0.62893E-03  4544   0.237E-01    0.689E-01
DAV:   6    -0.159959264126E+03    0.28672E-02   -0.98383E-03  5024   0.310E-01    0.476E-01
DAV:   7    -0.159958514598E+03    0.74953E-03   -0.23250E-03  4376   0.154E-01    0.416E-01
DAV:   8    -0.159959096661E+03   -0.58206E-03   -0.78481E-04  4736   0.112E-01    0.190E-01
DAV:   9    -0.159960214874E+03   -0.11182E-02   -0.21844E-04  4544   0.495E-02    0.111E-01
DAV:  10    -0.159961390698E+03   -0.11758E-02   -0.84987E-05  4504   0.279E-02    0.471E-02
DAV:  11    -0.159962527061E+03   -0.11364E-02   -0.54553E-05  4384   0.191E-02    0.187E-02
DAV:  12    -0.159963428311E+03   -0.90125E-03   -0.17619E-05  3840   0.142E-02    0.749E-03
DAV:  13    -0.159964158923E+03   -0.73061E-03   -0.83478E-06  3520   0.755E-03    0.452E-03
DAV:  14    -0.159964625233E+03   -0.46631E-03   -0.42708E-06  3048   0.354E-03    0.375E-03
DAV:  15    -0.159965063827E+03   -0.43859E-03   -0.52678E-06  2968   0.339E-03    0.351E-03
DAV:  16    -0.159965547808E+03   -0.48398E-03   -0.12132E-05  3064   0.455E-03    0.132E-03
DAV:  17    -0.159965679179E+03   -0.13137E-03   -0.26252E-06  2968   0.250E-03    0.125E-03
DAV:  18    -0.159965746346E+03   -0.67167E-04   -0.18762E-06  2560   0.187E-03    0.832E-04
DAV:  19    -0.159965755340E+03   -0.89938E-05   -0.26661E-07  2160   0.138E-03    0.521E-04
DAV:  20    -0.159965758314E+03   -0.29742E-05   -0.23711E-07  2088   0.107E-03    0.303E-04
DAV:  21    -0.159965758375E+03   -0.61365E-07   -0.12183E-07  1896   0.111E-03
   4 F= -.15996576E+03 E0= -.15996576E+03  d E =-.762223E-01  mag=    24.0000
       N       E                     dE             d eps       ncg     rms          rms(c)
DAV:   1    -0.159881161924E+03    0.84596E-01   -0.32731E+01  3040   0.959E+00    0.283E+00
DAV:   2    -0.160239327255E+03   -0.35817E+00   -0.22076E+00  4752   0.557E+00    0.775E+00
DAV:   3    -0.160022195907E+03    0.21713E+00   -0.17195E+00  4488   0.584E+00    0.448E+00
DAV:   4    -0.159994511836E+03    0.27684E-01   -0.17625E-01  4912   0.167E+00    0.957E-01
DAV:   5    -0.159993347194E+03    0.11646E-02   -0.92777E-03  4392   0.289E-01    0.792E-01
DAV:   6    -0.159989342001E+03    0.40052E-02   -0.11444E-02  4976   0.362E-01    0.598E-01
DAV:   7    -0.159987965446E+03    0.13766E-02   -0.33389E-03  4352   0.205E-01    0.433E-01
DAV:   8    -0.159989067395E+03   -0.11019E-02   -0.65299E-04  4696   0.119E-01    0.219E-01
DAV:   9    -0.159990667702E+03   -0.16003E-02   -0.29977E-04  4712   0.580E-02    0.103E-01
DAV:  10    -0.159992444456E+03   -0.17768E-02   -0.93618E-05  4536   0.333E-02    0.395E-02
DAV:  11    -0.159994021912E+03   -0.15775E-02   -0.43246E-05  4424   0.220E-02    0.169E-02
DAV:  12    -0.159995073113E+03   -0.10512E-02   -0.15360E-05  3904   0.116E-02    0.215E-02
DAV:  13    -0.159996256415E+03   -0.11833E-02   -0.17652E-05  3560   0.114E-02    0.629E-03
DAV:  14    -0.159996933167E+03   -0.67675E-03   -0.73910E-06  3360   0.538E-03    0.669E-03
DAV:  15    -0.159997460523E+03   -0.52736E-03   -0.58653E-06  3112   0.441E-03    0.289E-03
DAV:  16    -0.159998108885E+03   -0.64836E-03   -0.14940E-05  3072   0.496E-03    0.202E-03
DAV:  17    -0.159998390260E+03   -0.28138E-03   -0.79538E-06  3248   0.379E-03    0.817E-04
DAV:  18    -0.159998451089E+03   -0.60829E-04   -0.15277E-06  2608   0.191E-03    0.718E-04
DAV:  19    -0.159998458571E+03   -0.74822E-05   -0.27175E-07  2120   0.149E-03    0.636E-04
DAV:  20    -0.159998461683E+03   -0.31118E-05   -0.22502E-07  1992   0.106E-03    0.462E-04
DAV:  21    -0.159998462420E+03   -0.73718E-06   -0.14740E-07  1968   0.115E-03
   5 F= -.15999846E+03 E0= -.15999846E+03  d E =-.108926E+00  mag=    24.0000
       N       E                     dE             d eps       ncg     rms          rms(c)
DAV:   1    -0.159967878704E+03    0.30583E-01   -0.22734E+01  3040   0.741E+00    0.199E+00
DAV:   2    -0.160070681755E+03   -0.10280E+00   -0.87990E-01  4384   0.325E+00    0.350E+00
DAV:   3    -0.160131246630E+03   -0.60565E-01   -0.81812E-01  4816   0.314E+00    0.735E+00
DAV:   4    -0.160030978986E+03    0.10027E+00   -0.26706E-01  4624   0.172E+00    0.695E-01
DAV:   5    -0.160038547461E+03   -0.75685E-02   -0.89901E-03  4016   0.213E-01    0.485E-01
DAV:   6    -0.160041202544E+03   -0.26551E-02   -0.15357E-02  4456   0.408E-01    0.120E+00
DAV:   7    -0.160037560433E+03    0.36421E-02   -0.50977E-03  4632   0.261E-01    0.373E-01
DAV:   8    -0.160037958011E+03   -0.39758E-03   -0.97299E-04  5064   0.930E-02    0.827E-02
DAV:   9    -0.160038453375E+03   -0.49536E-03   -0.83805E-05  4280   0.318E-02    0.762E-02
DAV:  10    -0.160038875242E+03   -0.42187E-03   -0.31299E-05  4328   0.204E-02    0.414E-02
DAV:  11    -0.160039278066E+03   -0.40282E-03   -0.16241E-05  3904   0.119E-02    0.122E-02
DAV:  12    -0.160039691565E+03   -0.41350E-03   -0.66016E-06  3272   0.719E-03    0.417E-03
DAV:  13    -0.160039954268E+03   -0.26270E-03   -0.19305E-06  2592   0.477E-03    0.403E-03
DAV:  14    -0.160040144888E+03   -0.19062E-03   -0.16693E-06  2416   0.406E-03    0.298E-03
DAV:  15    -0.160040367974E+03   -0.22309E-03   -0.29446E-06  2864   0.336E-03    0.207E-03
DAV:  16    -0.160040585328E+03   -0.21735E-03   -0.25831E-06  2744   0.238E-03    0.147E-03
DAV:  17    -0.160040719620E+03   -0.13429E-03   -0.16766E-06  2544   0.209E-03    0.158E-03
DAV:  18    -0.160040800413E+03   -0.80794E-04   -0.12392E-06  2440   0.208E-03    0.725E-04
DAV:  19    -0.160040824442E+03   -0.24028E-04   -0.42657E-07  2144   0.175E-03    0.616E-04
DAV:  20    -0.160040848243E+03   -0.23801E-04   -0.66688E-07  2232   0.151E-03    0.590E-04
DAV:  21    -0.160040856378E+03   -0.81353E-05   -0.43011E-07  2096   0.176E-03    0.346E-04
DAV:  22    -0.160040857047E+03   -0.66890E-06   -0.20108E-07  1936   0.131E-03
   6 F= -.16004086E+03 E0= -.16004086E+03  d E =-.423946E-01  mag=    24.0000
       N       E                     dE             d eps       ncg     rms          rms(c)
DAV:   1    -0.160027601126E+03    0.13255E-01   -0.62716E+00  3040   0.385E+00    0.104E+00
DAV:   2    -0.160048750505E+03   -0.21149E-01   -0.20558E-01  4248   0.148E+00    0.125E+00
DAV:   3    -0.160078877622E+03   -0.30127E-01   -0.16999E-01  4920   0.144E+00    0.411E+00
DAV:   4    -0.160043311453E+03    0.35566E-01   -0.82179E-02  4584   0.100E+00    0.439E-01
DAV:   5    -0.160045809597E+03   -0.24981E-02   -0.33822E-03  4104   0.127E-01    0.249E-01
DAV:   6    -0.160046711432E+03   -0.90184E-03   -0.44738E-03  4408   0.218E-01    0.631E-01
DAV:   7    -0.160045518434E+03    0.11930E-02   -0.18609E-03  4584   0.154E-01    0.137E-01
DAV:   8    -0.160045721002E+03   -0.20257E-03   -0.24878E-04  4648   0.435E-02    0.273E-02
DAV:   9    -0.160045910790E+03   -0.18979E-03   -0.22085E-05  4264   0.181E-02    0.206E-02
DAV:  10    -0.160046089541E+03   -0.17875E-03   -0.50089E-06  3256   0.955E-03    0.124E-02
DAV:  11    -0.160046263553E+03   -0.17401E-03   -0.43618E-06  3168   0.548E-03    0.643E-03
DAV:  12    -0.160046398655E+03   -0.13510E-03   -0.10338E-06  2320   0.345E-03    0.253E-03
DAV:  13    -0.160046504667E+03   -0.10601E-03   -0.10458E-06  2280   0.357E-03    0.222E-03
DAV:  14    -0.160046566703E+03   -0.62037E-04   -0.67017E-07  2128   0.276E-03    0.172E-03
DAV:  15    -0.160046649166E+03   -0.82463E-04   -0.10870E-06  2352   0.237E-03    0.165E-03
DAV:  16    -0.160046773666E+03   -0.12450E-03   -0.24795E-06  2712   0.276E-03    0.147E-03
DAV:  17    -0.160046823330E+03   -0.49664E-04   -0.68045E-07  2320   0.181E-03    0.845E-04
DAV:  18    -0.160046842980E+03   -0.19650E-04   -0.36783E-07  2112   0.147E-03    0.669E-04
DAV:  19    -0.160046852357E+03   -0.93767E-05   -0.22516E-07  1928   0.129E-03    0.531E-04
DAV:  20    -0.160046861379E+03   -0.90224E-05   -0.25768E-07  2088   0.104E-03    0.429E-04
DAV:  21    -0.160046866676E+03   -0.52973E-05   -0.24058E-07  2064   0.115E-03    0.456E-04
DAV:  22    -0.160046867064E+03   -0.38796E-06   -0.10133E-07  1952   0.100E-03
   7 F= -.16004687E+03 E0= -.16004687E+03  d E =-.484046E-01  mag=    24.0000
       N       E                     dE             d eps       ncg     rms          rms(c)
DAV:   1    -0.160036600425E+03    0.10266E-01   -0.63057E+00  3040   0.414E+00    0.117E+00
DAV:   2    -0.160057471159E+03   -0.20871E-01   -0.15962E-01  4184   0.130E+00    0.991E-01
DAV:   3    -0.160082792754E+03   -0.25322E-01   -0.10727E-01  4440   0.129E+00    0.285E+00
DAV:   4    -0.160057856485E+03    0.24936E-01   -0.73259E-02  4704   0.108E+00    0.311E-01
DAV:   5    -0.160059057575E+03   -0.12011E-02   -0.29473E-03  4232   0.127E-01    0.364E-01
DAV:   6    -0.160058904225E+03    0.15335E-03   -0.32616E-03  4880   0.204E-01    0.346E-01
DAV:   7    -0.160058507332E+03    0.39689E-03   -0.10487E-03  4680   0.129E-01    0.596E-02
DAV:   8    -0.160058715597E+03   -0.20826E-03   -0.24414E-04  4992   0.471E-02    0.109E-01
DAV:   9    -0.160058993129E+03   -0.27753E-03   -0.95285E-05  4288   0.393E-02    0.188E-02
DAV:  10    -0.160059367546E+03   -0.37442E-03   -0.10668E-05  3696   0.115E-02    0.109E-02
DAV:  11    -0.160059675110E+03   -0.30756E-03   -0.38855E-06  2992   0.547E-03    0.496E-03
DAV:  12    -0.160059941100E+03   -0.26599E-03   -0.28327E-06  2776   0.404E-03    0.300E-03
DAV:  13    -0.160060145628E+03   -0.20453E-03   -0.17241E-06  2560   0.355E-03    0.324E-03
DAV:  14    -0.160060267960E+03   -0.12233E-03   -0.10430E-06  2360   0.258E-03    0.272E-03
DAV:  15    -0.160060443193E+03   -0.17523E-03   -0.28070E-06  2792   0.265E-03    0.120E-03
DAV:  16    -0.160060599747E+03   -0.15655E-03   -0.34921E-06  2848   0.248E-03    0.102E-03
DAV:  17    -0.160060630359E+03   -0.30612E-04   -0.41765E-07  2312   0.162E-03    0.100E-03
DAV:  18    -0.160060640705E+03   -0.10346E-04   -0.25392E-07  1992   0.143E-03    0.498E-04
DAV:  19    -0.160060651768E+03   -0.11063E-04   -0.47642E-07  2240   0.127E-03    0.795E-04
DAV:  20    -0.160060654776E+03   -0.30079E-05   -0.18701E-07  1984   0.132E-03    0.349E-04
DAV:  21    -0.160060655565E+03   -0.78921E-06   -0.10491E-07  1912   0.817E-04
   8 F= -.16006066E+03 E0= -.16006066E+03  d E =-.137885E-01  mag=    24.0000
       N       E                     dE             d eps       ncg     rms          rms(c)
DAV:   1    -0.160054143925E+03    0.65109E-02   -0.23914E+00  3040   0.254E+00    0.718E-01
DAV:   2    -0.160062345667E+03   -0.82017E-02   -0.61695E-02  4168   0.819E-01    0.804E-01
DAV:   3    -0.160074677789E+03   -0.12332E-01   -0.59421E-02  4512   0.940E-01    0.211E+00
DAV:   4    -0.160061716704E+03    0.12961E-01   -0.36108E-02  4704   0.744E-01    0.174E-01
DAV:   5    -0.160062375374E+03   -0.65867E-03   -0.15568E-03  4416   0.895E-02    0.239E-01
DAV:   6    -0.160062252695E+03    0.12268E-03   -0.12568E-03  4760   0.128E-01    0.196E-01
DAV:   7    -0.160062089815E+03    0.16288E-03   -0.33765E-04  4592   0.724E-02    0.367E-02
DAV:   8    -0.160062180494E+03   -0.90679E-04   -0.86872E-05  4968   0.290E-02    0.630E-02
DAV:   9    -0.160062320063E+03   -0.13957E-03   -0.28479E-05  3760   0.221E-02    0.113E-02
DAV:  10    -0.160062508581E+03   -0.18852E-03   -0.40148E-06  2816   0.708E-03    0.657E-03
DAV:  11    -0.160062671036E+03   -0.16246E-03   -0.26666E-06  2712   0.448E-03    0.325E-03
DAV:  12    -0.160062787657E+03   -0.11662E-03   -0.10952E-06  2336   0.303E-03    0.224E-03
DAV:  13    -0.160062879851E+03   -0.92194E-04   -0.85224E-07  2240   0.269E-03    0.190E-03
DAV:  14    -0.160062956514E+03   -0.76663E-04   -0.87382E-07  2256   0.230E-03    0.185E-03
DAV:  15    -0.160063041024E+03   -0.84510E-04   -0.13387E-06  2448   0.235E-03    0.148E-03
DAV:  16    -0.160063105727E+03   -0.64704E-04   -0.12081E-06  2408   0.217E-03    0.913E-04
DAV:  17    -0.160063139050E+03   -0.33322E-04   -0.80963E-07  2264   0.205E-03    0.131E-03
DAV:  18    -0.160063145179E+03   -0.61290E-05   -0.30683E-07  1960   0.171E-03    0.320E-04
DAV:  19    -0.160063153072E+03   -0.78937E-05   -0.39347E-07  2024   0.114E-03    0.927E-04
DAV:  20    -0.160063154782E+03   -0.17100E-05   -0.14852E-07  1912   0.131E-03    0.204E-04
DAV:  21    -0.160063155534E+03   -0.75110E-06   -0.10120E-07  1896   0.656E-04
   9 F= -.16006316E+03 E0= -.16006316E+03  d E =-.162885E-01  mag=    24.0000
       N       E                     dE             d eps       ncg     rms          rms(c)
DAV:   1    -0.160051634081E+03    0.11521E-01   -0.72546E+00  3040   0.438E+00    0.123E+00
DAV:   2    -0.160074934807E+03   -0.23301E-01   -0.23537E-01  4264   0.160E+00    0.955E-01
DAV:   3    -0.160107851401E+03   -0.32917E-01   -0.15449E-01  4656   0.139E+00    0.423E+00
DAV:   4    -0.160069672739E+03    0.38179E-01   -0.90659E-02  4552   0.113E+00    0.318E-01
DAV:   5    -0.160072883031E+03   -0.32103E-02   -0.34267E-03  4040   0.137E-01    0.321E-01
DAV:   6    -0.160073006170E+03   -0.12314E-03   -0.26005E-03  4608   0.177E-01    0.321E-01
DAV:   7    -0.160072811783E+03    0.19439E-03   -0.65503E-04  4736   0.929E-02    0.911E-02
DAV:   8    -0.160072902266E+03   -0.90483E-04   -0.15305E-04  5096   0.396E-02    0.440E-02
DAV:   9    -0.160072975630E+03   -0.73364E-04   -0.27171E-05  4384   0.236E-02    0.145E-02
DAV:  10    -0.160073034736E+03   -0.59107E-04   -0.26497E-06  2352   0.886E-03    0.832E-03
DAV:  11    -0.160073082665E+03   -0.47928E-04   -0.37582E-06  2752   0.577E-03    0.494E-03
DAV:  12    -0.160073108840E+03   -0.26175E-04   -0.67544E-07  1976   0.366E-03    0.359E-03
DAV:  13    -0.160073143117E+03   -0.34277E-04   -0.51473E-07  2184   0.290E-03    0.336E-03
DAV:  14    -0.160073168120E+03   -0.25003E-04   -0.36709E-07  2008   0.241E-03    0.155E-03
DAV:  15    -0.160073191206E+03   -0.23087E-04   -0.41770E-07  2048   0.163E-03    0.110E-03
DAV:  16    -0.160073205016E+03   -0.13810E-04   -0.20053E-07  1928   0.156E-03    0.846E-04
DAV:  17    -0.160073223442E+03   -0.18426E-04   -0.29046E-07  2056   0.119E-03    0.838E-04
DAV:  18    -0.160073243961E+03   -0.20519E-04   -0.41939E-07  2184   0.144E-03    0.684E-04
DAV:  19    -0.160073249944E+03   -0.59833E-05   -0.21668E-07  1952   0.131E-03    0.471E-04
DAV:  20    -0.160073253181E+03   -0.32361E-05   -0.14573E-07  1928   0.915E-04    0.451E-04
DAV:  21    -0.160073255910E+03   -0.27293E-05   -0.10431E-07  1912   0.853E-04    0.384E-04
DAV:  22    -0.160073258252E+03   -0.23418E-05   -0.11070E-07  1968   0.715E-04    0.264E-04
DAV:  23    -0.160073258542E+03   -0.29069E-06   -0.48836E-08  1976   0.687E-04
  10 F= -.16007326E+03 E0= -.16007326E+03  d E =-.101030E-01  mag=    24.0000
       N       E                     dE             d eps       ncg     rms          rms(c)
DAV:   1    -0.160067860289E+03    0.53980E-02   -0.23886E+00  3040   0.251E+00    0.701E-01
DAV:   2    -0.160074906826E+03   -0.70465E-02   -0.74737E-02  4248   0.903E-01    0.350E-01
DAV:   3    -0.160077174674E+03   -0.22678E-02   -0.10324E-02  4648   0.388E-01    0.104E+00
DAV:   4    -0.160074612576E+03    0.25621E-02   -0.76116E-03  4584   0.340E-01    0.187E-01
DAV:   5    -0.160074770482E+03   -0.15791E-03   -0.33318E-04  4216   0.539E-02    0.149E-01
DAV:   6    -0.160074713869E+03    0.56613E-04   -0.44291E-04  4616   0.687E-02    0.131E-01
DAV:   7    -0.160074698192E+03    0.15677E-04   -0.16911E-04  4824   0.528E-02    0.192E-02
DAV:   8    -0.160074732966E+03   -0.34773E-04   -0.19518E-05  4152   0.141E-02    0.281E-02
DAV:   9    -0.160074762157E+03   -0.29191E-04   -0.11029E-05  2384   0.149E-02    0.132E-02
DAV:  10    -0.160074788454E+03   -0.26297E-04   -0.21494E-06  2120   0.623E-03    0.559E-03
DAV:  11    -0.160074807909E+03   -0.19455E-04   -0.15932E-06  2008   0.407E-03    0.324E-03
DAV:  12    -0.160074822296E+03   -0.14387E-04   -0.77658E-07  1904   0.390E-03    0.164E-03
DAV:  13    -0.160074837718E+03   -0.15422E-04   -0.43899E-07  2008   0.241E-03    0.124E-03
DAV:  14    -0.160074848858E+03   -0.11140E-04   -0.23816E-07  1936   0.199E-03    0.837E-04
DAV:  15    -0.160074858293E+03   -0.94352E-05   -0.17890E-07  1920   0.132E-03    0.646E-04
DAV:  16    -0.160074865173E+03   -0.68796E-05   -0.12710E-07  1952   0.100E-03    0.571E-04
DAV:  17    -0.160074873910E+03   -0.87379E-05   -0.15701E-07  1984   0.887E-04    0.642E-04
DAV:  18    -0.160074879840E+03   -0.59292E-05   -0.14115E-07  1960   0.896E-04    0.324E-04
DAV:  19    -0.160074882576E+03   -0.27366E-05   -0.96280E-08  1912   0.837E-04    0.478E-04
DAV:  20    -0.160074883343E+03   -0.76655E-06   -0.50013E-08  1928   0.649E-04
  11 F= -.16007488E+03 E0= -.16007488E+03  d E =-.117278E-01  mag=    24.0000
       N       E                     dE             d eps       ncg     rms          rms(c)
DAV:   1    -0.160066139532E+03    0.87430E-02   -0.22160E+00  3040   0.266E+00    0.817E-01
DAV:   2    -0.160075520983E+03   -0.93815E-02   -0.72641E-02  4224   0.877E-01    0.853E-01
DAV:   3    -0.160093269032E+03   -0.17748E-01   -0.85721E-02  4600   0.108E+00    0.284E+00
DAV:   4    -0.160074807879E+03    0.18461E-01   -0.48380E-02  4720   0.839E-01    0.198E-01
DAV:   5    -0.160075954357E+03   -0.11465E-02   -0.17818E-03  4112   0.954E-02    0.259E-01
DAV:   6    -0.160075474705E+03    0.47965E-03   -0.11957E-03  4448   0.121E-01    0.161E-01
DAV:   7    -0.160075180171E+03    0.29453E-03   -0.29054E-04  4464   0.598E-02    0.453E-02
DAV:   8    -0.160075411631E+03   -0.23146E-03   -0.51784E-05  4552   0.274E-02    0.323E-02
DAV:   9    -0.160075720727E+03   -0.30910E-03   -0.12043E-05  3824   0.155E-02    0.123E-02
DAV:  10    -0.160076019083E+03   -0.29836E-03   -0.30065E-06  2880   0.597E-03    0.728E-03
DAV:  11    -0.160076419750E+03   -0.40067E-03   -0.53446E-06  3136   0.478E-03    0.486E-03
DAV:  12    -0.160076652627E+03   -0.23288E-03   -0.14810E-06  2544   0.303E-03    0.424E-03
DAV:  13    -0.160076879673E+03   -0.22705E-03   -0.20919E-06  2752   0.315E-03    0.346E-03
DAV:  14    -0.160077061410E+03   -0.18174E-03   -0.16536E-06  2544   0.294E-03    0.226E-03
DAV:  15    -0.160077234506E+03   -0.17310E-03   -0.23050E-06  2776   0.267E-03    0.213E-03
DAV:  16    -0.160077355580E+03   -0.12107E-03   -0.19256E-06  2608   0.209E-03    0.203E-03
DAV:  17    -0.160077391901E+03   -0.36322E-04   -0.46222E-07  2240   0.165E-03    0.863E-04
DAV:  18    -0.160077417383E+03   -0.25481E-04   -0.59227E-07  2248   0.155E-03    0.756E-04
DAV:  19    -0.160077425512E+03   -0.81291E-05   -0.35964E-07  2072   0.162E-03    0.662E-04
DAV:  20    -0.160077427085E+03   -0.15737E-05   -0.21779E-07  1896   0.123E-03    0.428E-04
DAV:  21    -0.160077427327E+03   -0.24212E-06   -0.10579E-07  1960   0.951E-04
  12 F= -.16007743E+03 E0= -.16007743E+03  d E =-.254398E-02  mag=    24.0000
       N       E                     dE             d eps       ncg     rms          rms(c)
DAV:   1    -0.160077425508E+03    0.15773E-05   -0.47391E-04  3216   0.388E-02    0.118E-02
DAV:   2    -0.160077422483E+03    0.30249E-05   -0.14536E-05  4032   0.120E-02    0.880E-03
DAV:   3    -0.160077428861E+03   -0.63778E-05   -0.99140E-06  2216   0.123E-02    0.304E-02
DAV:   4    -0.160077425265E+03    0.35963E-05   -0.68308E-06  2056   0.110E-02    0.290E-03
DAV:   5    -0.160077425948E+03   -0.68353E-06   -0.38580E-07  1928   0.164E-03
  13 F= -.16007743E+03 E0= -.16007743E+03  d E =-.254261E-02  mag=    24.0000
       N       E                     dE             d eps       ncg     rms          rms(c)
DAV:   1    -0.160076389164E+03    0.10361E-02   -0.35219E-01  3056   0.109E+00    0.308E-01
DAV:   2    -0.160077734415E+03   -0.13453E-02   -0.13280E-02  4200   0.380E-01    0.154E-01
DAV:   3    -0.160078329496E+03   -0.59508E-03   -0.16753E-03  4712   0.158E-01    0.392E-01
DAV:   4    -0.160077912093E+03    0.41740E-03   -0.90140E-04  4880   0.119E-01    0.765E-02
DAV:   5    -0.160077885552E+03    0.26541E-04   -0.49115E-05  4032   0.176E-02    0.638E-02
DAV:   6    -0.160077744677E+03    0.14087E-03   -0.79551E-05  4304   0.265E-02    0.734E-02
DAV:   7    -0.160077702269E+03    0.42407E-04   -0.45380E-05  4568   0.262E-02    0.101E-02
DAV:   8    -0.160077733545E+03   -0.31276E-04   -0.43170E-06  2368   0.633E-03    0.112E-02
DAV:   9    -0.160077794757E+03   -0.61212E-04   -0.34386E-06  2360   0.816E-03    0.804E-03
DAV:  10    -0.160077840242E+03   -0.45485E-04   -0.12871E-06  2120   0.508E-03    0.263E-03
DAV:  11    -0.160077872423E+03   -0.32181E-04   -0.75622E-07  1984   0.288E-03    0.170E-03
DAV:  12    -0.160077901504E+03   -0.29080E-04   -0.45502E-07  1976   0.225E-03    0.143E-03
DAV:  13    -0.160077947959E+03   -0.46455E-04   -0.62125E-07  2208   0.192E-03    0.122E-03
DAV:  14    -0.160077979715E+03   -0.31756E-04   -0.44553E-07  2080   0.193E-03    0.916E-04
DAV:  15    -0.160077999866E+03   -0.20151E-04   -0.36979E-07  1968   0.162E-03    0.832E-04
DAV:  16    -0.160078014132E+03   -0.14267E-04   -0.28356E-07  2016   0.140E-03    0.604E-04
DAV:  17    -0.160078036072E+03   -0.21940E-04   -0.52986E-07  2184   0.142E-03    0.888E-04
DAV:  18    -0.160078043578E+03   -0.75054E-05   -0.28965E-07  2048   0.155E-03    0.423E-04
DAV:  19    -0.160078046434E+03   -0.28564E-05   -0.20735E-07  1888   0.104E-03    0.558E-04
DAV:  20    -0.160078047213E+03   -0.77859E-06   -0.10254E-07  1912   0.984E-04
  14 F= -.16007805E+03 E0= -.16007805E+03  d E =-.621264E-03  mag=    24.0000
       N       E                     dE             d eps       ncg     rms          rms(c)
DAV:   1    -0.160077982643E+03    0.63791E-04   -0.18464E-02  3168   0.248E-01    0.706E-02
DAV:   2    -0.160078035482E+03   -0.52839E-04   -0.69169E-04  4176   0.862E-02    0.326E-02
DAV:   3    -0.160078062840E+03   -0.27358E-04   -0.31372E-05  4272   0.218E-02    0.418E-02
DAV:   4    -0.160078056482E+03    0.63588E-05   -0.16009E-05  2392   0.166E-02    0.196E-02
DAV:   5    -0.160078052239E+03    0.42424E-05   -0.30702E-06  1992   0.814E-03    0.165E-02
DAV:   6    -0.160078032748E+03    0.19491E-04   -0.97753E-06  3768   0.770E-03    0.873E-03
DAV:   7    -0.160078028645E+03    0.41032E-05   -0.89115E-07  1968   0.376E-03    0.290E-03
DAV:   8    -0.160078031880E+03   -0.32343E-05   -0.34410E-07  1896   0.247E-03    0.231E-03
DAV:   9    -0.160078036607E+03   -0.47275E-05   -0.13014E-07  1880   0.162E-03    0.167E-03
DAV:  10    -0.160078042965E+03   -0.63580E-05   -0.14768E-07  1888   0.132E-03    0.995E-04
DAV:  11    -0.160078047666E+03   -0.47007E-05   -0.98632E-08  1904   0.124E-03    0.716E-04
DAV:  12    -0.160078052439E+03   -0.47733E-05   -0.87876E-08  1864   0.936E-04    0.451E-04
DAV:  13    -0.160078057343E+03   -0.49038E-05   -0.69048E-08  1896   0.845E-04    0.573E-04
DAV:  14    -0.160078060671E+03   -0.33280E-05   -0.51634E-08  1920   0.664E-04    0.256E-04
DAV:  15    -0.160078062872E+03   -0.22015E-05   -0.36930E-08  1912   0.519E-04    0.262E-04
DAV:  16    -0.160078065371E+03   -0.24991E-05   -0.36600E-08  1864   0.434E-04    0.203E-04
DAV:  17    -0.160078067474E+03   -0.21022E-05   -0.34644E-08  1896   0.469E-04    0.232E-04
DAV:  18    -0.160078069211E+03   -0.17370E-05   -0.46178E-08  1976   0.460E-04    0.216E-04
DAV:  19    -0.160078069502E+03   -0.29177E-06   -0.21291E-08  1952   0.475E-04
  15 F= -.16007807E+03 E0= -.16007807E+03  d E =-.643554E-03  mag=    24.0000
       N       E                     dE             d eps       ncg     rms          rms(c)
DAV:   1    -0.160076774867E+03    0.12943E-02   -0.32865E-01  3040   0.104E+00    0.278E-01
DAV:   2    -0.160077951045E+03   -0.11762E-02   -0.11026E-02  4072   0.338E-01    0.164E-01
DAV:   3    -0.160079010567E+03   -0.10595E-02   -0.28512E-03  4576   0.195E-01    0.525E-01
DAV:   4    -0.160078280348E+03    0.73022E-03   -0.16716E-03  4808   0.158E-01    0.675E-02
DAV:   5    -0.160078311858E+03   -0.31510E-04   -0.76293E-05  3896   0.201E-02    0.513E-02
DAV:   6    -0.160078280693E+03    0.31166E-04   -0.15248E-04  4424   0.415E-02    0.113E-01
DAV:   7    -0.160078231831E+03    0.48861E-04   -0.90311E-05  4440   0.352E-02    0.142E-02
DAV:   8    -0.160078262647E+03   -0.30815E-04   -0.98536E-06  2608   0.939E-03    0.149E-02
DAV:   9    -0.160078297416E+03   -0.34769E-04   -0.38427E-06  2312   0.934E-03    0.603E-03
DAV:  10    -0.160078325649E+03   -0.28234E-04   -0.91551E-07  1976   0.366E-03    0.503E-03
DAV:  11    -0.160078347561E+03   -0.21912E-04   -0.49343E-07  1904   0.255E-03    0.240E-03
DAV:  12    -0.160078363330E+03   -0.15769E-04   -0.29448E-07  1896   0.190E-03    0.115E-03
DAV:  13    -0.160078384461E+03   -0.21131E-04   -0.28943E-07  2000   0.160E-03    0.135E-03
DAV:  14    -0.160078410850E+03   -0.26390E-04   -0.39997E-07  2120   0.161E-03    0.688E-04
DAV:  15    -0.160078422729E+03   -0.11878E-04   -0.22487E-07  1912   0.146E-03    0.525E-04
DAV:  16    -0.160078430794E+03   -0.80653E-05   -0.16418E-07  1920   0.103E-03    0.479E-04
DAV:  17    -0.160078442720E+03   -0.11926E-04   -0.21907E-07  1984   0.101E-03    0.430E-04
DAV:  18    -0.160078451920E+03   -0.92000E-05   -0.28551E-07  2112   0.111E-03    0.530E-04
DAV:  19    -0.160078453130E+03   -0.12095E-05   -0.11320E-07  1936   0.106E-03    0.169E-04
DAV:  20    -0.160078453448E+03   -0.31792E-06   -0.55734E-08  1928   0.541E-04
  16 F= -.16007845E+03 E0= -.16007845E+03  d E =-.383945E-03  mag=    24.0000
