Cr8Cl24                                 
   1.00000000000000     
    12.1343889235999995    0.0000000000000000    0.0000000000000000
    -6.0613529830999999   10.5120826004999994    0.0000000000000000
     0.0000000000000000    0.0000000000000000   17.6887664794999999
   Cr   Cl   Co   H 
     8    24     1     1
Direct
     0.1510243534498983    0.3358594132131500    0.3368967905129807
     0.1585311898274711    0.8413483369551784    0.3336274655782603
     0.6640742734831591    0.3392746698028546    0.3368874611668389
     0.6607871726446106    0.8490191566976364    0.3368923731230780
     0.8253766494036299    0.1747127294849733    0.3336291760846137
     0.8328484175483339    0.6768277249228660    0.3368724048510572
     0.3197667732857639    0.1670618497650267    0.3368866072130174
     0.3231842500717903    0.6801980000374996    0.3369147303690383
     0.1698596024423580    0.5080685495178159    0.2647427245481495
     0.1703111725527435    0.0057841091676991    0.2565655569257075
     0.6560048946182206    0.5080390197993196    0.2679014707246594
     0.6726509164985615    0.0102381054402798    0.2566056052391303
     0.3277655992538442    0.3438841621756410    0.2679074616944206
     0.3112400729144085    0.8294954532165306    0.2565818327974725
     0.8135052191281744    0.3273775290511480    0.2565767707222548
     0.8140148265310714    0.8301174194977534    0.2646389516436827
     0.9897629188169574    0.1863691216356287    0.2565689720794779
     0.9941424329906070    0.6885934366270305    0.2565981499463632
     0.4919657204449450    0.1859212371061147    0.2647060409577122
     0.4919177935045411    0.6722757089542029    0.2678661054212199
     0.9877014065998608    0.3265053116660610    0.4123593616540973
     0.9961635025982503    0.8307893204773862    0.4123639755847108
     0.4919549310786309    0.3311296961551022    0.4176932006443224
     0.4919877719121573    0.8357993386579423    0.4102361784256914
     0.3150644058189087    0.5082402046205772    0.4177451903013747
     0.3103827087771336    0.0036960426407546    0.4123364899657318
     0.8194805264936775    0.5080506864643084    0.4102947351776294
     0.8147995413363631    0.0123041977422886    0.4123572733201399
     0.1644051320156024    0.1804669733632309    0.4103584387946313
     0.1692454841752848    0.6895920301515872    0.4123847997389731
     0.6735785978433881    0.1853696786887724    0.4123689147439862
     0.6688454853425938    0.6851432177399630    0.4176800921306381
     0.4918899640344776    0.5081109444094665    0.3580615414955091
     0.4919365025626021    0.5081509521542031    0.4411331884234073
 
  0.00000000E+00  0.00000000E+00  0.00000000E+00
  0.00000000E+00  0.00000000E+00  0.00000000E+00
  0.00000000E+00  0.00000000E+00  0.00000000E+00
  0.00000000E+00  0.00000000E+00  0.00000000E+00
  0.00000000E+00  0.00000000E+00  0.00000000E+00
  0.00000000E+00  0.00000000E+00  0.00000000E+00
  0.00000000E+00  0.00000000E+00  0.00000000E+00
  0.00000000E+00  0.00000000E+00  0.00000000E+00
  0.00000000E+00  0.00000000E+00  0.00000000E+00
  0.00000000E+00  0.00000000E+00  0.00000000E+00
  0.00000000E+00  0.00000000E+00  0.00000000E+00
  0.00000000E+00  0.00000000E+00  0.00000000E+00
  0.00000000E+00  0.00000000E+00  0.00000000E+00
  0.00000000E+00  0.00000000E+00  0.00000000E+00
  0.00000000E+00  0.00000000E+00  0.00000000E+00
  0.00000000E+00  0.00000000E+00  0.00000000E+00
  0.00000000E+00  0.00000000E+00  0.00000000E+00
  0.00000000E+00  0.00000000E+00  0.00000000E+00
  0.00000000E+00  0.00000000E+00  0.00000000E+00
  0.00000000E+00  0.00000000E+00  0.00000000E+00
  0.00000000E+00  0.00000000E+00  0.00000000E+00
  0.00000000E+00  0.00000000E+00  0.00000000E+00
  0.00000000E+00  0.00000000E+00  0.00000000E+00
  0.00000000E+00  0.00000000E+00  0.00000000E+00
  0.00000000E+00  0.00000000E+00  0.00000000E+00
  0.00000000E+00  0.00000000E+00  0.00000000E+00
  0.00000000E+00  0.00000000E+00  0.00000000E+00
  0.00000000E+00  0.00000000E+00  0.00000000E+00
  0.00000000E+00  0.00000000E+00  0.00000000E+00
  0.00000000E+00  0.00000000E+00  0.00000000E+00
  0.00000000E+00  0.00000000E+00  0.00000000E+00
  0.00000000E+00  0.00000000E+00  0.00000000E+00
  0.00000000E+00  0.00000000E+00  0.00000000E+00
  0.00000000E+00  0.00000000E+00  0.00000000E+00
