Cr8Cl24                                 
   1.0000000000000000     
    12.1343886061900470    0.0033722835295982    0.0000000000000000
    -6.0642738577024948   10.5103973726591580    0.0000000000000000
     0.0000000000000000    0.0000000000000000   17.6887664794999999
   Cr   Cl   Co
     8    24     1
Direct
  0.1573328975080520  0.3408376355731059  0.3373797753226352
  0.1584904305257882  0.8415104854518748  0.3373777594200590
  0.6591242832310742  0.3408680785125987  0.3373623134174783
  0.6591624712969648  0.8426700443485029  0.3373481113753492
  0.8251437318232450  0.1748622094942026  0.3373795753434470
  0.8264282698705725  0.6753226967423617  0.3373229886771352
  0.3246749774315196  0.1735678482218939  0.3374002021370426
  0.3246387501226565  0.6753596163184137  0.3373628095034991
  0.1696991173149039  0.5081546660738893  0.2642948503959576
  0.1708876617072583  0.0073994234606892  0.2616789800172518
  0.6622304969455710  0.5077989805231419  0.2608541011819062
  0.6717148750619352  0.0091114990633764  0.2616457283483649
  0.3221507839566882  0.3379510052198900  0.2610588873368841
  0.3119002926523520  0.8290368568148333  0.2616593867028120
  0.8126606045543016  0.3283727974635720  0.2616775228051157
  0.8140418479046032  0.8302608542179502  0.2642452146556035
  0.9909533386794623  0.1873409066163541  0.2616305717526871
  0.9927125774731343  0.6881696326074797  0.2616105216960797
  0.4919250623735368  0.1857304325366115  0.2643388935652288
  0.4919810653325299  0.6777874674306191  0.2611424983894777
  0.9908946106723221  0.3282758734790287  0.4131111271544863
  0.9925950414731345  0.8290973703848158  0.4130815806740473
  0.4921913691114430  0.3377826826190977  0.4138681396108920
  0.4918485094177290  0.8302945935384857  0.4104487809276922
  0.3222435345604887  0.5080229673524279  0.4135741068290550
  0.3118248920912248  0.0073012592761068  0.4131471830808539
  0.8142525473106558  0.5080750639759033  0.4104087926898548
  0.8126426291264757  0.0090389012184486  0.4131251974138257
  0.1697521410771450  0.1859689106287716  0.4105017752280057
  0.1709851411972495  0.6881114703494697  0.4130989585685738
  0.6716386227187253  0.1873577299938621  0.4130801863456743
  0.6620135230451104  0.6778249474095502  0.4136591648565762
  0.4925940614321656  0.5073994250826052  0.3373643615764564

  0.00000000E+00  0.00000000E+00  0.00000000E+00
  0.00000000E+00  0.00000000E+00  0.00000000E+00
  0.00000000E+00  0.00000000E+00  0.00000000E+00
  0.00000000E+00  0.00000000E+00  0.00000000E+00
  0.00000000E+00  0.00000000E+00  0.00000000E+00
  0.00000000E+00  0.00000000E+00  0.00000000E+00
  0.00000000E+00  0.00000000E+00  0.00000000E+00
  0.00000000E+00  0.00000000E+00  0.00000000E+00
  0.00000000E+00  0.00000000E+00  0.00000000E+00
  0.00000000E+00  0.00000000E+00  0.00000000E+00
  0.00000000E+00  0.00000000E+00  0.00000000E+00
  0.00000000E+00  0.00000000E+00  0.00000000E+00
  0.00000000E+00  0.00000000E+00  0.00000000E+00
  0.00000000E+00  0.00000000E+00  0.00000000E+00
  0.00000000E+00  0.00000000E+00  0.00000000E+00
  0.00000000E+00  0.00000000E+00  0.00000000E+00
  0.00000000E+00  0.00000000E+00  0.00000000E+00
  0.00000000E+00  0.00000000E+00  0.00000000E+00
  0.00000000E+00  0.00000000E+00  0.00000000E+00
  0.00000000E+00  0.00000000E+00  0.00000000E+00
  0.00000000E+00  0.00000000E+00  0.00000000E+00
  0.00000000E+00  0.00000000E+00  0.00000000E+00
  0.00000000E+00  0.00000000E+00  0.00000000E+00
  0.00000000E+00  0.00000000E+00  0.00000000E+00
  0.00000000E+00  0.00000000E+00  0.00000000E+00
  0.00000000E+00  0.00000000E+00  0.00000000E+00
  0.00000000E+00  0.00000000E+00  0.00000000E+00
  0.00000000E+00  0.00000000E+00  0.00000000E+00
  0.00000000E+00  0.00000000E+00  0.00000000E+00
  0.00000000E+00  0.00000000E+00  0.00000000E+00
  0.00000000E+00  0.00000000E+00  0.00000000E+00
  0.00000000E+00  0.00000000E+00  0.00000000E+00
  0.00000000E+00  0.00000000E+00  0.00000000E+00
