       N       E                     dE             d eps       ncg     rms          rms(c)
DAV:   1     0.212087003391E+04    0.21209E+04   -0.66140E+04  8056   0.929E+02
DAV:   2     0.384741569507E+03   -0.17361E+04   -0.16167E+04  9304   0.248E+02
DAV:   3    -0.134255060109E+03   -0.51900E+03   -0.50251E+03 11456   0.138E+02
DAV:   4    -0.175285094770E+03   -0.41030E+02   -0.40328E+02 12016   0.542E+01
DAV:   5    -0.175979815315E+03   -0.69472E+00   -0.68992E+00 12272   0.901E+00    0.389E+01
DAV:   6    -0.165571655132E+03    0.10408E+02   -0.13694E+02 12032   0.580E+01    0.368E+01
DAV:   7    -0.160616611043E+03    0.49550E+01   -0.20749E+01 11560   0.486E+01    0.199E+01
DAV:   8    -0.162602416641E+03   -0.19858E+01   -0.82275E+00 12000   0.112E+01    0.370E+01
DAV:   9    -0.162220349917E+03    0.38207E+00   -0.78592E+00 12640   0.158E+01    0.199E+01
DAV:  10    -0.162863254734E+03   -0.64290E+00   -0.11252E+01 11728   0.227E+01    0.339E+01
DAV:  11    -0.160899214025E+03    0.19640E+01   -0.21721E+00 12600   0.133E+01    0.154E+01
DAV:  12    -0.160732173225E+03    0.16704E+00   -0.79218E-01 11544   0.673E+00    0.672E+00
DAV:  13    -0.160782166079E+03   -0.49993E-01   -0.37126E-01 12080   0.234E+00    0.694E+00
DAV:  14    -0.160771085678E+03    0.11080E-01   -0.24625E-01 11888   0.176E+00    0.586E+00
DAV:  15    -0.160773774924E+03   -0.26892E-02   -0.14495E-01 11760   0.118E+00    0.608E+00
DAV:  16    -0.160754172200E+03    0.19603E-01   -0.44665E-02 13440   0.123E+00    0.439E+00
DAV:  17    -0.160763345265E+03   -0.91731E-02   -0.67152E-02 13608   0.130E+00    0.349E+00
DAV:  18    -0.160777259144E+03   -0.13914E-01   -0.71211E-02 13688   0.106E+00    0.290E+00
DAV:  19    -0.160781017870E+03   -0.37587E-02   -0.66256E-03 10568   0.271E-01    0.320E+00
DAV:  20    -0.160791565995E+03   -0.10548E-01   -0.30449E-03 13456   0.319E-01    0.321E+00
DAV:  21    -0.160808899242E+03   -0.17333E-01   -0.90026E-03 13048   0.671E-01    0.438E+00
DAV:  22    -0.160814884412E+03   -0.59852E-02   -0.15571E-02 12992   0.670E-01    0.279E+00
DAV:  23    -0.160819960916E+03   -0.50765E-02   -0.10559E-02 13288   0.391E-01    0.190E+00
DAV:  24    -0.160821867494E+03   -0.19066E-02   -0.19232E-03 12496   0.211E-01    0.195E+00
DAV:  25    -0.160820868462E+03    0.99903E-03   -0.12872E-03 12592   0.138E-01    0.154E+00
DAV:  26    -0.160819644379E+03    0.12241E-02   -0.17690E-03 11864   0.139E-01    0.116E+00
DAV:  27    -0.160819270151E+03    0.37423E-03   -0.97276E-04 12000   0.101E-01    0.897E-01
DAV:  28    -0.160819732993E+03   -0.46284E-03   -0.27916E-04 11192   0.628E-02    0.784E-01
DAV:  29    -0.160820787362E+03   -0.10544E-02   -0.11555E-04 11056   0.496E-02    0.770E-01
DAV:  30    -0.160820260180E+03    0.52718E-03   -0.83700E-04 13008   0.890E-02    0.439E-01
DAV:  31    -0.160821218403E+03   -0.95822E-03   -0.30265E-04 11504   0.619E-02    0.286E-01
DAV:  32    -0.160821537284E+03   -0.31888E-03   -0.13798E-04 11656   0.329E-02    0.177E-01
DAV:  33    -0.160821662662E+03   -0.12538E-03   -0.18697E-05 10640   0.174E-02    0.147E-01
DAV:  34    -0.160821799791E+03   -0.13713E-03   -0.37038E-05 10832   0.242E-02    0.845E-02
DAV:  35    -0.160821904018E+03   -0.10423E-03   -0.70588E-05 11416   0.236E-02    0.534E-02
DAV:  36    -0.160821954260E+03   -0.50243E-04   -0.13334E-05 11120   0.145E-02    0.384E-02
DAV:  37    -0.160821989694E+03   -0.35434E-04   -0.27033E-06  6120   0.795E-03    0.392E-02
DAV:  38    -0.160822016688E+03   -0.26994E-04   -0.21838E-06  6448   0.731E-03    0.359E-02
DAV:  39    -0.160822038056E+03   -0.21368E-04   -0.16609E-06  5248   0.526E-03    0.274E-02
DAV:  40    -0.160822047280E+03   -0.92239E-05   -0.14204E-06  5248   0.405E-03    0.193E-02
DAV:  41    -0.160822064180E+03   -0.16900E-04   -0.84792E-07  5136   0.320E-03    0.151E-02
DAV:  42    -0.160822074965E+03   -0.10785E-04   -0.43374E-07  5064   0.341E-03    0.128E-02
DAV:  43    -0.160822085846E+03   -0.10881E-04   -0.11848E-06  5176   0.336E-03    0.219E-03
DAV:  44    -0.160822092293E+03   -0.64469E-05   -0.33301E-07  5208   0.243E-03    0.246E-03
DAV:  45    -0.160822095811E+03   -0.35184E-05   -0.17802E-07  4960   0.155E-03    0.217E-03
DAV:  46    -0.160822098101E+03   -0.22896E-05   -0.77252E-08  5088   0.897E-04    0.261E-03
DAV:  47    -0.160822099528E+03   -0.14273E-05   -0.35713E-08  4992   0.688E-04    0.237E-03
DAV:  48    -0.160822101145E+03   -0.16162E-05   -0.22140E-08  4968   0.619E-04    0.152E-03
DAV:  49    -0.160822101810E+03   -0.66502E-06   -0.12270E-08  5080   0.419E-04
   1 F= -.16702278E+03 E0= -.16700211E+03  d E =-.167023E+03  mag=    27.1175
       N       E                     dE             d eps       ncg     rms          rms(c)
DAV:   1    -0.160819220325E+03    0.28808E-02   -0.35758E-01  8000   0.116E+00    0.416E-01
DAV:   2    -0.160823301509E+03   -0.40812E-02   -0.30496E-02 11632   0.710E-01    0.136E+00
DAV:   3    -0.160821739834E+03    0.15617E-02   -0.13063E-02 11288   0.556E-01    0.827E-01
DAV:   4    -0.160821119855E+03    0.61998E-03   -0.40639E-03 11208   0.382E-01    0.317E-01
DAV:   5    -0.160821297248E+03   -0.17739E-03   -0.45591E-04 11816   0.149E-01    0.255E-01
DAV:   6    -0.160821307040E+03   -0.97915E-05   -0.30719E-04 12752   0.813E-02    0.189E-01
DAV:   7    -0.160821311695E+03   -0.46551E-05   -0.21066E-04 12192   0.549E-02    0.132E-01
DAV:   8    -0.160821204231E+03    0.10746E-03   -0.94701E-05 11952   0.494E-02    0.962E-02
DAV:   9    -0.160821191578E+03    0.12653E-04   -0.41353E-05 11840   0.452E-02    0.112E-01
DAV:  10    -0.160821176356E+03    0.15222E-04   -0.20429E-05 10312   0.256E-02    0.147E-01
DAV:  11    -0.160821184883E+03   -0.85278E-05   -0.24783E-05 10392   0.210E-02    0.104E-01
DAV:  12    -0.160821211343E+03   -0.26459E-04   -0.18870E-05  7472   0.172E-02    0.800E-02
DAV:  13    -0.160821298552E+03   -0.87210E-04   -0.57575E-06  7808   0.135E-02    0.364E-02
DAV:  14    -0.160821349613E+03   -0.51061E-04   -0.33638E-06  7616   0.119E-02    0.260E-02
DAV:  15    -0.160821375941E+03   -0.26328E-04   -0.14131E-06  6472   0.101E-02    0.107E-02
DAV:  16    -0.160821395377E+03   -0.19436E-04   -0.74674E-07  5192   0.423E-03    0.691E-03
DAV:  17    -0.160821406848E+03   -0.11471E-04   -0.40769E-07  5024   0.292E-03    0.410E-03
DAV:  18    -0.160821410374E+03   -0.35265E-05   -0.25337E-07  4960   0.193E-03    0.205E-03
DAV:  19    -0.160821412016E+03   -0.16416E-05   -0.11032E-07  4816   0.137E-03    0.164E-03
DAV:  20    -0.160821413291E+03   -0.12757E-05   -0.57720E-08  4968   0.114E-03    0.829E-04
DAV:  21    -0.160821414454E+03   -0.11625E-05   -0.33786E-08  4816   0.740E-04    0.668E-04
DAV:  22    -0.160821415361E+03   -0.90673E-06   -0.17219E-08  4944   0.589E-04
   2 F= -.16702604E+03 E0= -.16700552E+03  d E =-.325843E-02  mag=    27.1086
       N       E                     dE             d eps       ncg     rms          rms(c)
DAV:   1    -0.160812526868E+03    0.88876E-02   -0.87020E-01  7904   0.180E+00    0.648E-01
DAV:   2    -0.160821539629E+03   -0.90128E-02   -0.72683E-02 11576   0.108E+00    0.193E+00
DAV:   3    -0.160819960856E+03    0.15788E-02   -0.30635E-02 11448   0.847E-01    0.107E+00
DAV:   4    -0.160817514619E+03    0.24462E-02   -0.97592E-03 11384   0.602E-01    0.421E-01
DAV:   5    -0.160817829800E+03   -0.31518E-03   -0.82690E-04 11888   0.209E-01    0.455E-01
DAV:   6    -0.160817709454E+03    0.12035E-03   -0.47313E-04 12544   0.143E-01    0.257E-01
DAV:   7    -0.160817705902E+03    0.35511E-05   -0.57896E-04 12808   0.838E-02    0.274E-01
DAV:   8    -0.160817460889E+03    0.24501E-03   -0.37210E-04 12560   0.830E-02    0.121E-01
DAV:   9    -0.160817478273E+03   -0.17383E-04   -0.11322E-04 12240   0.717E-02    0.227E-01
DAV:  10    -0.160817382663E+03    0.95610E-04   -0.72644E-05 11568   0.622E-02    0.255E-01
DAV:  11    -0.160817361749E+03    0.20914E-04   -0.60211E-05 11144   0.344E-02    0.167E-01
DAV:  12    -0.160817424556E+03   -0.62807E-04   -0.49623E-05 10784   0.273E-02    0.141E-01
DAV:  13    -0.160817597559E+03   -0.17300E-03   -0.23839E-05  9136   0.245E-02    0.687E-02
DAV:  14    -0.160817669675E+03   -0.72116E-04   -0.68186E-06  8472   0.189E-02    0.528E-02
DAV:  15    -0.160817755493E+03   -0.85817E-04   -0.43854E-06  7808   0.143E-02    0.228E-02
DAV:  16    -0.160817802538E+03   -0.47045E-04   -0.21059E-06  7016   0.656E-03    0.152E-02
DAV:  17    -0.160817831026E+03   -0.28488E-04   -0.91806E-07  5704   0.460E-03    0.942E-03
DAV:  18    -0.160817841737E+03   -0.10711E-04   -0.58847E-07  5088   0.339E-03    0.280E-03
DAV:  19    -0.160817847607E+03   -0.58700E-05   -0.41871E-07  4848   0.265E-03    0.322E-03
DAV:  20    -0.160817848906E+03   -0.12998E-05   -0.20107E-07  4848   0.188E-03    0.298E-03
DAV:  21    -0.160817849521E+03   -0.61490E-06   -0.81616E-08  4952   0.112E-03
   3 F= -.16702862E+03 E0= -.16700835E+03  d E =-.583511E-02  mag=    27.0949
       N       E                     dE             d eps       ncg     rms          rms(c)
DAV:   1    -0.160815507471E+03    0.23414E-02   -0.89198E-02  8024   0.577E-01    0.205E-01
DAV:   2    -0.160816327091E+03   -0.81962E-03   -0.74671E-03 11672   0.347E-01    0.464E-01
DAV:   3    -0.160816663823E+03   -0.33673E-03   -0.36060E-03 11280   0.295E-01    0.533E-01
DAV:   4    -0.160815812702E+03    0.85112E-03   -0.14146E-03 11368   0.206E-01    0.128E-01
DAV:   5    -0.160815998191E+03   -0.18549E-03   -0.97378E-05 11640   0.734E-02    0.107E-01
DAV:   6    -0.160816010544E+03   -0.12352E-04   -0.48499E-05 11536   0.405E-02    0.594E-02
DAV:   7    -0.160816019191E+03   -0.86472E-05   -0.61734E-05 10432   0.287E-02    0.822E-02
DAV:   8    -0.160815984043E+03    0.35148E-04   -0.39481E-05 10600   0.260E-02    0.419E-02
DAV:   9    -0.160815985434E+03   -0.13913E-05   -0.53965E-06  7280   0.191E-02    0.393E-02
DAV:  10    -0.160815994115E+03   -0.86809E-05   -0.34313E-06  6624   0.117E-02    0.408E-02
DAV:  11    -0.160816007268E+03   -0.13152E-04   -0.67139E-06  6640   0.955E-03    0.369E-02
DAV:  12    -0.160816017254E+03   -0.99869E-05   -0.51385E-06  5336   0.102E-02    0.200E-02
DAV:  13    -0.160816042071E+03   -0.24817E-04   -0.15730E-06  6056   0.602E-03    0.653E-03
DAV:  14    -0.160816055057E+03   -0.12986E-04   -0.77834E-07  5320   0.576E-03    0.809E-03
DAV:  15    -0.160816059615E+03   -0.45580E-05   -0.32866E-07  4960   0.491E-03    0.348E-03
DAV:  16    -0.160816066356E+03   -0.67407E-05   -0.19405E-07  5016   0.223E-03    0.249E-03
DAV:  17    -0.160816068556E+03   -0.22002E-05   -0.11308E-07  5128   0.125E-03    0.197E-03
DAV:  18    -0.160816070006E+03   -0.14496E-05   -0.61813E-08  4872   0.101E-03    0.146E-03
DAV:  19    -0.160816070347E+03   -0.34130E-06   -0.29867E-08  4984   0.741E-04
   4 F= -.16702880E+03 E0= -.16700860E+03  d E =-.601909E-02  mag=    27.0903
       N       E                     dE             d eps       ncg     rms          rms(c)
DAV:   1    -0.160814984901E+03    0.10851E-02   -0.18135E-01  8192   0.818E-01    0.220E-01
DAV:   2    -0.160816105271E+03   -0.11204E-02   -0.12076E-02 11144   0.377E-01    0.311E-01
DAV:   3    -0.160816605635E+03   -0.50036E-03   -0.31113E-03 11240   0.333E-01    0.651E-01
DAV:   4    -0.160815809586E+03    0.79605E-03   -0.22152E-03 11448   0.235E-01    0.209E-01
DAV:   5    -0.160815942800E+03   -0.13321E-03   -0.15822E-04 11040   0.861E-02    0.698E-02
DAV:   6    -0.160815969093E+03   -0.26293E-04   -0.54143E-05 11128   0.316E-02    0.952E-02
DAV:   7    -0.160815951498E+03    0.17594E-04   -0.41994E-05 10424   0.293E-02    0.563E-02
DAV:   8    -0.160815958843E+03   -0.73449E-05   -0.23136E-05 10704   0.193E-02    0.406E-02
DAV:   9    -0.160815960802E+03   -0.19589E-05   -0.85185E-06  9208   0.207E-02    0.369E-02
DAV:  10    -0.160815964074E+03   -0.32717E-05   -0.72443E-06  8848   0.172E-02    0.203E-02
DAV:  11    -0.160815962963E+03    0.11111E-05   -0.33280E-06  6688   0.931E-03    0.121E-02
DAV:  12    -0.160815963658E+03   -0.69465E-06   -0.33201E-06  5256   0.767E-03
   5 F= -.16702976E+03 E0= -.16700947E+03  d E =-.954864E-03  mag=    27.0918
       N       E                     dE             d eps       ncg     rms          rms(c)
DAV:   1    -0.160807258365E+03    0.87046E-02   -0.12565E+00  8192   0.215E+00    0.578E-01
DAV:   2    -0.160815178112E+03   -0.79197E-02   -0.84336E-02 11272   0.999E-01    0.877E-01
DAV:   3    -0.160818478505E+03   -0.33004E-02   -0.24095E-02 11272   0.887E-01    0.158E+00
DAV:   4    -0.160813494964E+03    0.49835E-02   -0.18396E-02 11352   0.610E-01    0.617E-01
DAV:   5    -0.160813808339E+03   -0.31338E-03   -0.20508E-03 11560   0.229E-01    0.203E-01
DAV:   6    -0.160814155296E+03   -0.34696E-03   -0.47894E-04 11880   0.113E-01    0.312E-01
DAV:   7    -0.160813966980E+03    0.18832E-03   -0.24815E-04 12616   0.946E-02    0.149E-01
DAV:   8    -0.160814088797E+03   -0.12182E-03   -0.16298E-04 12296   0.569E-02    0.150E-01
DAV:   9    -0.160814112219E+03   -0.23422E-04   -0.18437E-04 12368   0.636E-02    0.145E-01
DAV:  10    -0.160814120976E+03   -0.87573E-05   -0.22237E-04 11648   0.538E-02    0.174E-01
DAV:  11    -0.160814088654E+03    0.32323E-04   -0.82392E-05 11512   0.462E-02    0.942E-02
DAV:  12    -0.160814077610E+03    0.11043E-04   -0.17725E-05 11368   0.253E-02    0.518E-02
DAV:  13    -0.160814083262E+03   -0.56513E-05   -0.67539E-06  8840   0.233E-02    0.375E-02
DAV:  14    -0.160814082629E+03    0.63275E-06   -0.41560E-06  7256   0.163E-02
   6 F= -.16703067E+03 E0= -.16701022E+03  d E =-.186416E-02  mag=    27.0969
