33
Lattice="12.092548997049326 0.0 0.0 -6.046274498524663 10.47245462795275 0.0 0.0 0.0 20.0" Properties=species:S:1:pos:R:3:momenta:R:3 pbc="T T T"
Cr       0.01426255       3.50599619       9.98154625       0.00000000       0.00000000       0.00000000
Cr       2.92417553       1.67227020       9.93119110       0.00000000       0.00000000       0.00000000
Cr       6.04627450       3.49081821       9.88476075       0.00000000       0.00000000       0.00000000
Cr       9.18223275       1.69627519       9.93119110       0.00000000       0.00000000       0.00000000
Cr      -3.01712401       8.70710481       9.98154625       0.00000000       0.00000000       0.00000000
Cr      -0.00000000       6.98163642      10.01210295       0.00000000       0.00000000       0.00000000
Cr       3.00286146       8.73180826       9.98154625       0.00000000       0.00000000       0.00000000
Cr       6.03241521       7.10390923       9.93119110       0.00000000       0.00000000       0.00000000
Cl      -0.87978515       5.25392692       8.65224588       0.00000000       0.00000000       0.00000000
Cl       4.95431645       1.87815632       8.64013296       0.00000000       0.00000000       0.00000000
Cl       1.98466114       3.45124855       8.66899073       0.00000000       0.00000000       0.00000000
Cl       0.87029004       5.24235231      11.37533723       0.00000000       0.00000000       0.00000000
Cl      -1.93470951       3.36264118      11.33911101       0.00000000       0.00000000       0.00000000
Cl       1.02772319       1.86153084      11.35702101       0.00000000       0.00000000       0.00000000
Cl       5.19564736       5.24281256       8.64013296       0.00000000       0.00000000       0.00000000
Cl      -0.93451563       1.90606353       8.53556828       0.00000000       0.00000000       0.00000000
Cl       7.98885968       3.35148575       8.64013296       0.00000000       0.00000000       0.00000000
Cl       7.13882589       5.15999192      11.54164088       0.00000000       0.00000000       0.00000000
Cl       4.05445197       3.60240861      11.54164088       0.00000000       0.00000000       0.00000000
Cl       6.94554564       1.71005410      11.54164088       0.00000000       0.00000000       0.00000000
Cl       2.11795725      -0.14371749       8.53556828       0.00000000       0.00000000       0.00000000
Cl       1.93613290       7.08357488       8.65224588       0.00000000       0.00000000       0.00000000
Cl      -1.05634774       8.60740746       8.65224588       0.00000000       0.00000000       0.00000000
Cl       3.87948744      -0.00581300      11.33911101       0.00000000       0.00000000       0.00000000
Cl      -4.94800310       8.65165482      11.35702101       0.00000000       0.00000000       0.00000000
Cl      -1.94140924       7.09758519      11.37533723       0.00000000       0.00000000       0.00000000
Cl       8.11134951      -0.00685731       8.66899073       0.00000000       0.00000000       0.00000000
Cl      -4.04973615       7.02806339       8.66899073       0.00000000       0.00000000       0.00000000
Cl       4.86283287       8.71010859       8.53556828       0.00000000       0.00000000       0.00000000
Cl       9.96655441      -0.04073103      11.35702101       0.00000000       0.00000000       0.00000000
Cl       1.07111920       8.60497175      11.37533723       0.00000000       0.00000000       0.00000000
Cl       4.10149657       7.11562645      11.33911101       0.00000000       0.00000000       0.00000000
Fe       6.04627450       3.49081821      12.53478031       0.00000000       0.00000000       0.00000000
