CrCl3 2x2 + Fe S3 top-Cr (D3, U=0) (a_2x
   1.0000000000000000     
    12.0925489970493256    0.0000000000000000    0.0000000000000000
    -6.0462744985246628   10.4724546279527502    0.0000000000000000
     0.0000000000000000    0.0000000000000000   20.0000000000000000
   Cr   Cl   Fe
     8    24     1
Direct
  0.1685707776062956  0.3347826571550139  0.4990773125663720
  0.3216576739115068  0.1596827354546277  0.4965595548839152
  0.6666666666666714  0.3333333333333286  0.4942380373818530
  0.8403172645453719  0.1619749384568935  0.4965595548839152
  0.1662118795487324  0.8314292223937041  0.4990773125663720
  0.3333333333333286  0.6666666666666714  0.5006051476327266
  0.6652173428449861  0.8337881204512675  0.4990773125663720
  0.8380250615431066  0.6783423260884930  0.4965595548839152
  0.1780907372251379  0.5016901101653221  0.4326122940921445
  0.4993711841907968  0.1793425123159704  0.4320066481742466
  0.3289000870547237  0.3295548822407294  0.4334495365777710
  0.3222615476136333  0.5005848675388234  0.5687668613683705
  0.0005550752898220  0.3210938883263142  0.5669555506560406
  0.1738656193117650  0.1777549678199500  0.5678510503645608
  0.6799713281251738  0.5006288158092033  0.4320066481742466
  0.0137233818117397  0.1820073324911534  0.4267784139421208
  0.8206574876840294  0.3200286718748265  0.4320066481742466
  0.8367093333366149  0.4927203892743213  0.5770820439012661
  0.5072796107256785  0.3439889440622937  0.5770820439012661
  0.6560110559377061  0.1632906666633851  0.5770820439012661
  0.1682839506794137 -0.0137233818117397  0.4267784139421208
  0.4983098898346780  0.6764006270598156  0.4326122940921445
  0.3235993729401843  0.8219092627748624  0.4326122940921445
  0.3205388130364920 -0.0005550752898220  0.5669555506560406
  0.0038893485081851  0.8261343806882350  0.5678510503645608
  0.1783233199251900  0.6777384523863667  0.5687668613683705
  0.6704451177592703 -0.0006547951860057  0.4334495365777710
  0.0006547951860057  0.6710999129452762  0.4334495365777710
  0.8179926675088467  0.8317160493205866  0.4267784139421208
  0.8222450321800501 -0.0038893485081851  0.5678510503645608
  0.4994151324611766  0.8216766800748105  0.5687668613683705
  0.6789061116736863  0.6794611869635077  0.5669555506560406
  0.6666666666666714  0.3333333333333286  0.6267390154049954

  0.00000000E+00  0.00000000E+00  0.00000000E+00
  0.00000000E+00  0.00000000E+00  0.00000000E+00
  0.00000000E+00  0.00000000E+00  0.00000000E+00
  0.00000000E+00  0.00000000E+00  0.00000000E+00
  0.00000000E+00  0.00000000E+00  0.00000000E+00
  0.00000000E+00  0.00000000E+00  0.00000000E+00
  0.00000000E+00  0.00000000E+00  0.00000000E+00
  0.00000000E+00  0.00000000E+00  0.00000000E+00
  0.00000000E+00  0.00000000E+00  0.00000000E+00
  0.00000000E+00  0.00000000E+00  0.00000000E+00
  0.00000000E+00  0.00000000E+00  0.00000000E+00
  0.00000000E+00  0.00000000E+00  0.00000000E+00
  0.00000000E+00  0.00000000E+00  0.00000000E+00
  0.00000000E+00  0.00000000E+00  0.00000000E+00
  0.00000000E+00  0.00000000E+00  0.00000000E+00
  0.00000000E+00  0.00000000E+00  0.00000000E+00
  0.00000000E+00  0.00000000E+00  0.00000000E+00
  0.00000000E+00  0.00000000E+00  0.00000000E+00
  0.00000000E+00  0.00000000E+00  0.00000000E+00
  0.00000000E+00  0.00000000E+00  0.00000000E+00
  0.00000000E+00  0.00000000E+00  0.00000000E+00
  0.00000000E+00  0.00000000E+00  0.00000000E+00
  0.00000000E+00  0.00000000E+00  0.00000000E+00
  0.00000000E+00  0.00000000E+00  0.00000000E+00
  0.00000000E+00  0.00000000E+00  0.00000000E+00
  0.00000000E+00  0.00000000E+00  0.00000000E+00
  0.00000000E+00  0.00000000E+00  0.00000000E+00
  0.00000000E+00  0.00000000E+00  0.00000000E+00
  0.00000000E+00  0.00000000E+00  0.00000000E+00
  0.00000000E+00  0.00000000E+00  0.00000000E+00
  0.00000000E+00  0.00000000E+00  0.00000000E+00
  0.00000000E+00  0.00000000E+00  0.00000000E+00
  0.00000000E+00  0.00000000E+00  0.00000000E+00
