Cr8Cl24                                 
   1.0000000000000000     
    12.1682319641000003    0.0000000000000000    0.0000000000000000
    -6.1300719177999996   10.5529468652999991    0.0000000000000000
     0.0000000000000000    0.0000000000000000   17.6887664794999999
  Cr              Cl              Ni              H             
     8    24     1     1
Direct
     0.1541343787708808    0.3433296196391077    0.3381201755875284
     0.1556492509614760    0.8409117928973985    0.3372670368980863
     0.6582385706311397    0.3370016991820376    0.3395064436881765
     0.6575275224603140    0.8490227510390465    0.3355397856908334
     0.8259283498334837    0.1761983167279597    0.3371923401468106
     0.8272232593359254    0.6772958493273329    0.3367457513645916
     0.3220448542522511    0.1677002485106267    0.3400588967709658
     0.3217540083204736    0.6791316049032364    0.3365192464776391
     0.1683450557197279    0.5102641479226216    0.2628675669813020
     0.1701420922673242    0.0082389301807723    0.2623714382966679
     0.6663009646481953    0.5072792047850629    0.2620925130361555
     0.6743050897688037    0.0146829703614354    0.2586052679224990
     0.3202976153209367    0.3380253778928173    0.2651283295701264
     0.3096536920003658    0.8302870831017232    0.2609792137513844
     0.8124172533184373    0.3298551577206858    0.2627409254326846
     0.8101457954839985    0.8295426807043466    0.2623112436748564
     0.9932977398358596    0.1917506405325612    0.2610777439159872
     0.9919375679960097    0.6906076244347173    0.2591540986115295
     0.4909857253142006    0.1837678519880614    0.2653239575619065
     0.4888710776083385    0.6892107088478434    0.2610297849731757
     0.9890378267134404    0.3277515820975666    0.4151506632438519
     0.9902595875784278    0.8278388204463272    0.4134340448151259
     0.4892479561482057    0.3118395040705245    0.4224637919213989
     0.4894174318935268    0.8340844143930242    0.4103140920093034
     0.3142718330648904    0.5131178384622800    0.4123706802047254
     0.3047238892853955    0.9995151076668194    0.4169493819162257
     0.8107326232758907    0.5087164581781513    0.4121985440932309
     0.8119675795365952    0.0094589513306137    0.4119146662343917
     0.1701014953626660    0.1897711552381659    0.4123243861933704
     0.1676461890445987    0.6864288749974981    0.4120714676252275
     0.6741988985328373    0.1850368803402291    0.4149454010752194
     0.6670426690419645    0.6905132434201743    0.4126992854785309
     0.4991927965190487    0.4902698818820362    0.3341001244957428
     0.5128777991547391    0.4967686897769316    0.4146717853405663

  0.00000000E+00  0.00000000E+00  0.00000000E+00
  0.00000000E+00  0.00000000E+00  0.00000000E+00
  0.00000000E+00  0.00000000E+00  0.00000000E+00
  0.00000000E+00  0.00000000E+00  0.00000000E+00
  0.00000000E+00  0.00000000E+00  0.00000000E+00
  0.00000000E+00  0.00000000E+00  0.00000000E+00
  0.00000000E+00  0.00000000E+00  0.00000000E+00
  0.00000000E+00  0.00000000E+00  0.00000000E+00
  0.00000000E+00  0.00000000E+00  0.00000000E+00
  0.00000000E+00  0.00000000E+00  0.00000000E+00
  0.00000000E+00  0.00000000E+00  0.00000000E+00
  0.00000000E+00  0.00000000E+00  0.00000000E+00
  0.00000000E+00  0.00000000E+00  0.00000000E+00
  0.00000000E+00  0.00000000E+00  0.00000000E+00
  0.00000000E+00  0.00000000E+00  0.00000000E+00
  0.00000000E+00  0.00000000E+00  0.00000000E+00
  0.00000000E+00  0.00000000E+00  0.00000000E+00
  0.00000000E+00  0.00000000E+00  0.00000000E+00
  0.00000000E+00  0.00000000E+00  0.00000000E+00
  0.00000000E+00  0.00000000E+00  0.00000000E+00
  0.00000000E+00  0.00000000E+00  0.00000000E+00
  0.00000000E+00  0.00000000E+00  0.00000000E+00
  0.00000000E+00  0.00000000E+00  0.00000000E+00
  0.00000000E+00  0.00000000E+00  0.00000000E+00
  0.00000000E+00  0.00000000E+00  0.00000000E+00
  0.00000000E+00  0.00000000E+00  0.00000000E+00
  0.00000000E+00  0.00000000E+00  0.00000000E+00
  0.00000000E+00  0.00000000E+00  0.00000000E+00
  0.00000000E+00  0.00000000E+00  0.00000000E+00
  0.00000000E+00  0.00000000E+00  0.00000000E+00
  0.00000000E+00  0.00000000E+00  0.00000000E+00
  0.00000000E+00  0.00000000E+00  0.00000000E+00
  0.00000000E+00  0.00000000E+00  0.00000000E+00
  0.00000000E+00  0.00000000E+00  0.00000000E+00
