       N       E                     dE             d eps       ncg     rms          rms(c)
DAV:   1     0.213050540940E+04    0.21305E+04   -0.66581E+04  8032   0.935E+02
DAV:   2     0.390818273370E+03   -0.17397E+04   -0.16181E+04  9336   0.249E+02
DAV:   3    -0.134853274898E+03   -0.52567E+03   -0.50893E+03 11496   0.140E+02
DAV:   4    -0.177216253777E+03   -0.42363E+02   -0.41607E+02 12072   0.554E+01
DAV:   5    -0.178021652608E+03   -0.80540E+00   -0.80004E+00 12264   0.938E+00    0.410E+01
DAV:   6    -0.182927026760E+03   -0.49054E+01   -0.18501E+02 11552   0.632E+01    0.819E+01
DAV:   7    -0.170570480724E+03    0.12357E+02   -0.31798E+01 12552   0.551E+01    0.375E+01
DAV:   8    -0.162298542884E+03    0.82719E+01   -0.22911E+01 12488   0.361E+01    0.187E+01
DAV:   9    -0.161143952299E+03    0.11546E+01   -0.11878E+01 11952   0.316E+01    0.128E+01
DAV:  10    -0.161302997058E+03   -0.15904E+00   -0.35261E+00 11800   0.135E+01    0.125E+01
DAV:  11    -0.161178448248E+03    0.12455E+00   -0.34976E+00 11840   0.867E+00    0.149E+01
DAV:  12    -0.160923135712E+03    0.25531E+00   -0.17329E+00 11856   0.616E+00    0.872E+00
DAV:  13    -0.160896196658E+03    0.26939E-01   -0.13010E+00 11728   0.495E+00    0.626E+00
DAV:  14    -0.160899295337E+03   -0.30987E-02   -0.59755E-01 12368   0.380E+00    0.518E+00
DAV:  15    -0.160962312938E+03   -0.63018E-01   -0.85441E-02 11464   0.197E+00    0.340E+00
DAV:  16    -0.161014360373E+03   -0.52047E-01   -0.10055E-01 12400   0.166E+00    0.336E+00
DAV:  17    -0.161046590455E+03   -0.32230E-01   -0.12903E-01 12384   0.179E+00    0.271E+00
DAV:  18    -0.161056607240E+03   -0.10017E-01   -0.52122E-02 11816   0.155E+00    0.148E+00
DAV:  19    -0.161058965545E+03   -0.23583E-02   -0.11396E-02 11536   0.823E-01    0.780E-01
DAV:  20    -0.161059794394E+03   -0.82885E-03   -0.33711E-03 11904   0.511E-01    0.526E-01
DAV:  21    -0.161060851189E+03   -0.10568E-02   -0.17823E-03 12048   0.285E-01    0.321E-01
DAV:  22    -0.161062286539E+03   -0.14353E-02   -0.11526E-03 11704   0.212E-01    0.175E-01
DAV:  23    -0.161063232854E+03   -0.94632E-03   -0.35243E-04 11872   0.116E-01    0.133E-01
DAV:  24    -0.161063979742E+03   -0.74689E-03   -0.30165E-04 11872   0.782E-02    0.984E-02
DAV:  25    -0.161064535702E+03   -0.55596E-03   -0.10829E-04 11744   0.531E-02    0.508E-02
DAV:  26    -0.161065018675E+03   -0.48297E-03   -0.38290E-05 11488   0.336E-02    0.343E-02
DAV:  27    -0.161065359055E+03   -0.34038E-03   -0.20027E-05 10640   0.203E-02    0.200E-02
DAV:  28    -0.161065699996E+03   -0.34094E-03   -0.12513E-05 10376   0.126E-02    0.199E-02
DAV:  29    -0.161065938218E+03   -0.23822E-03   -0.93544E-06  9448   0.122E-02    0.103E-02
DAV:  30    -0.161066117077E+03   -0.17886E-03   -0.94683E-06  9840   0.102E-02    0.127E-02
DAV:  31    -0.161066242642E+03   -0.12556E-03   -0.14431E-05  9536   0.922E-03    0.140E-02
DAV:  32    -0.161066266068E+03   -0.23426E-04   -0.36048E-06  7768   0.614E-03    0.655E-03
DAV:  33    -0.161066281130E+03   -0.15063E-04   -0.20017E-06  6880   0.382E-03    0.409E-03
DAV:  34    -0.161066309347E+03   -0.28217E-04   -0.62721E-07  5816   0.323E-03    0.222E-03
DAV:  35    -0.161066334202E+03   -0.24855E-04   -0.38834E-07  5096   0.184E-03    0.292E-03
DAV:  36    -0.161066379195E+03   -0.44993E-04   -0.85041E-07  5960   0.225E-03    0.130E-03
DAV:  37    -0.161066410594E+03   -0.31399E-04   -0.10044E-06  6048   0.195E-03    0.238E-03
DAV:  38    -0.161066421260E+03   -0.10665E-04   -0.25313E-07  5080   0.179E-03    0.175E-03
DAV:  39    -0.161066426864E+03   -0.56048E-05   -0.19992E-07  4968   0.125E-03    0.131E-03
DAV:  40    -0.161066430615E+03   -0.37510E-05   -0.16238E-07  5232   0.954E-04    0.914E-04
DAV:  41    -0.161066432850E+03   -0.22342E-05   -0.83130E-08  4968   0.764E-04    0.576E-04
DAV:  42    -0.161066434502E+03   -0.16528E-05   -0.55406E-08  4960   0.621E-04    0.578E-04
DAV:  43    -0.161066435515E+03   -0.10125E-05   -0.34731E-08  4992   0.541E-04    0.225E-04
DAV:  44    -0.161066435809E+03   -0.29454E-06   -0.16630E-08  5168   0.379E-04
   1 F= -.16728823E+03 E0= -.16727765E+03  d E =-.167288E+03  mag=    25.0001
       N       E                     dE             d eps       ncg     rms          rms(c)
DAV:   1    -0.161065414011E+03    0.10215E-02   -0.15071E-01  8176   0.763E-01    0.259E-01
DAV:   2    -0.161066408915E+03   -0.99490E-03   -0.11678E-02 11352   0.401E-01    0.159E-01
DAV:   3    -0.161066467530E+03   -0.58614E-04   -0.87156E-04 11792   0.165E-01    0.252E-01
DAV:   4    -0.161066340008E+03    0.12752E-03   -0.76302E-04 11520   0.134E-01    0.118E-01
DAV:   5    -0.161066355485E+03   -0.15477E-04   -0.19165E-04 11696   0.672E-02    0.932E-02
DAV:   6    -0.161066343120E+03    0.12365E-04   -0.80887E-05 12160   0.482E-02    0.680E-02
DAV:   7    -0.161066345269E+03   -0.21487E-05   -0.59076E-05 11560   0.375E-02    0.736E-02
DAV:   8    -0.161066339209E+03    0.60595E-05   -0.59316E-05 12056   0.357E-02    0.434E-02
DAV:   9    -0.161066341156E+03   -0.19467E-05   -0.28602E-05  7752   0.262E-02    0.312E-02
DAV:  10    -0.161066343537E+03   -0.23806E-05   -0.10796E-05  6904   0.203E-02    0.242E-02
DAV:  11    -0.161066345479E+03   -0.19422E-05   -0.29122E-06  6432   0.146E-02    0.659E-03
DAV:  12    -0.161066348121E+03   -0.26419E-05   -0.10845E-06  5032   0.765E-03    0.105E-02
DAV:  13    -0.161066349062E+03   -0.94137E-06   -0.81760E-07  4936   0.711E-03
   2 F= -.16729069E+03 E0= -.16728019E+03  d E =-.246359E-02  mag=    25.0000
       N       E                     dE             d eps       ncg     rms          rms(c)
DAV:   1    -0.161054820790E+03    0.11527E-01   -0.13559E+00  8016   0.229E+00    0.789E-01
DAV:   2    -0.161063803110E+03   -0.89823E-02   -0.10479E-01 11344   0.120E+00    0.468E-01
DAV:   3    -0.161064023792E+03   -0.22068E-03   -0.64341E-03 11576   0.472E-01    0.679E-01
DAV:   4    -0.161063279076E+03    0.74472E-03   -0.54405E-03 11528   0.382E-01    0.372E-01
DAV:   5    -0.161063250175E+03    0.28900E-04   -0.17891E-03 12672   0.199E-01    0.276E-01
DAV:   6    -0.161063148430E+03    0.10174E-03   -0.73430E-04 13160   0.141E-01    0.203E-01
DAV:   7    -0.161063149889E+03   -0.14590E-05   -0.54521E-04 12848   0.113E-01    0.219E-01
DAV:   8    -0.161063099119E+03    0.50770E-04   -0.54430E-04 12864   0.108E-01    0.128E-01
DAV:   9    -0.161063104971E+03   -0.58521E-05   -0.28099E-04 12544   0.784E-02    0.911E-02
DAV:  10    -0.161063116170E+03   -0.11199E-04   -0.96755E-05 10912   0.591E-02    0.692E-02
DAV:  11    -0.161063123730E+03   -0.75595E-05   -0.21839E-05  9680   0.408E-02    0.167E-02
DAV:  12    -0.161063136940E+03   -0.13210E-04   -0.52378E-06  7096   0.196E-02    0.302E-02
DAV:  13    -0.161063140906E+03   -0.39662E-05   -0.40865E-06  6592   0.174E-02    0.105E-02
DAV:  14    -0.161063149544E+03   -0.86378E-05   -0.11651E-06  5000   0.728E-03    0.850E-03
DAV:  15    -0.161063155434E+03   -0.58902E-05   -0.80387E-07  5048   0.458E-03    0.679E-03
DAV:  16    -0.161063159140E+03   -0.37055E-05   -0.71726E-07  5040   0.367E-03    0.347E-03
DAV:  17    -0.161063162671E+03   -0.35315E-05   -0.43230E-07  5024   0.249E-03    0.272E-03
DAV:  18    -0.161063164950E+03   -0.22792E-05   -0.18365E-07  5072   0.178E-03    0.184E-03
DAV:  19    -0.161063166455E+03   -0.15047E-05   -0.84391E-08  5024   0.136E-03    0.920E-04
DAV:  20    -0.161063168473E+03   -0.20180E-05   -0.40912E-08  5000   0.900E-04    0.521E-04
DAV:  21    -0.161063169719E+03   -0.12463E-05   -0.22400E-08  5056   0.626E-04    0.395E-04
DAV:  22    -0.161063170936E+03   -0.12173E-05   -0.13571E-08  4992   0.461E-04    0.177E-04
DAV:  23    -0.161063171845E+03   -0.90854E-06   -0.92412E-09  4984   0.309E-04
   3 F= -.16729515E+03 E0= -.16728487E+03  d E =-.692258E-02  mag=    25.0000
       N       E                     dE             d eps       ncg     rms          rms(c)
DAV:   1    -0.161058048670E+03    0.51223E-02   -0.31915E-01  7952   0.111E+00    0.377E-01
DAV:   2    -0.161060166119E+03   -0.21174E-02   -0.24776E-02 11312   0.584E-01    0.228E-01
DAV:   3    -0.161060222781E+03   -0.56661E-04   -0.14703E-03 11616   0.226E-01    0.322E-01
DAV:   4    -0.161060043068E+03    0.17971E-03   -0.13360E-03 11504   0.184E-01    0.182E-01
DAV:   5    -0.161060040469E+03    0.25987E-05   -0.43545E-04 12392   0.984E-02    0.133E-01
DAV:   6    -0.161060017614E+03    0.22855E-04   -0.16415E-04 13184   0.688E-02    0.980E-02
DAV:   7    -0.161060019867E+03   -0.22526E-05   -0.13085E-04 12456   0.550E-02    0.106E-01
DAV:   8    -0.161060007458E+03    0.12409E-04   -0.13079E-04 12768   0.526E-02    0.615E-02
DAV:   9    -0.161060010971E+03   -0.35126E-05   -0.60184E-05 11040   0.377E-02    0.426E-02
DAV:  10    -0.161060015972E+03   -0.50016E-05   -0.20909E-05  7624   0.281E-02    0.345E-02
DAV:  11    -0.161060018977E+03   -0.30048E-05   -0.53286E-06  6808   0.203E-02    0.851E-03
DAV:  12    -0.161060023674E+03   -0.46971E-05   -0.15781E-06  5856   0.101E-02    0.144E-02
DAV:  13    -0.161060025511E+03   -0.18373E-05   -0.12747E-06  5128   0.916E-03    0.510E-03
DAV:  14    -0.161060028613E+03   -0.31017E-05   -0.41193E-07  4984   0.382E-03    0.414E-03
DAV:  15    -0.161060030554E+03   -0.19414E-05   -0.23844E-07  5000   0.241E-03    0.358E-03
DAV:  16    -0.161060031986E+03   -0.14317E-05   -0.14739E-07  5024   0.171E-03    0.218E-03
DAV:  17    -0.161060033426E+03   -0.14401E-05   -0.97348E-08  5008   0.124E-03    0.174E-03
DAV:  18    -0.161060034548E+03   -0.11220E-05   -0.51055E-08  5016   0.876E-04    0.120E-03
DAV:  19    -0.161060034986E+03   -0.43754E-06   -0.26608E-08  5112   0.706E-04
   4 F= -.16729571E+03 E0= -.16728554E+03  d E =-.748201E-02  mag=    25.0000
       N       E                     dE             d eps       ncg     rms          rms(c)
DAV:   1    -0.161059073868E+03    0.96068E-03   -0.20959E-01  7968   0.909E-01    0.236E-01
DAV:   2    -0.161060206263E+03   -0.11324E-02   -0.13066E-02 11216   0.379E-01    0.195E-01
DAV:   3    -0.161060497952E+03   -0.29169E-03   -0.27298E-03 11440   0.261E-01    0.460E-01
DAV:   4    -0.161060124185E+03    0.37377E-03   -0.15215E-03 11576   0.192E-01    0.108E-01
DAV:   5    -0.161060181664E+03   -0.57478E-04   -0.16397E-04 12024   0.636E-02    0.800E-02
DAV:   6    -0.161060181467E+03    0.19685E-06   -0.13062E-04 12352   0.483E-02    0.781E-02
DAV:   7    -0.161060173957E+03    0.75104E-05   -0.10967E-04 11464   0.434E-02    0.767E-02
DAV:   8    -0.161060167211E+03    0.67454E-05   -0.46429E-05 11048   0.355E-02    0.453E-02
DAV:   9    -0.161060168711E+03   -0.14999E-05   -0.16815E-05 11512   0.278E-02    0.280E-02
DAV:  10    -0.161060170101E+03   -0.13895E-05   -0.44396E-06  7120   0.175E-02    0.183E-02
DAV:  11    -0.161060172148E+03   -0.20474E-05   -0.29074E-06  6144   0.131E-02    0.111E-02
DAV:  12    -0.161060174753E+03   -0.26049E-05   -0.13725E-06  5656   0.101E-02    0.135E-02
DAV:  13    -0.161060175985E+03   -0.12321E-05   -0.14005E-06  4976   0.907E-03    0.385E-03
DAV:  14    -0.161060178660E+03   -0.26746E-05   -0.60303E-07  4904   0.419E-03    0.279E-03
DAV:  15    -0.161060180395E+03   -0.17353E-05   -0.30177E-07  4952   0.278E-03    0.205E-03
DAV:  16    -0.161060181777E+03   -0.13825E-05   -0.16274E-07  4960   0.145E-03    0.132E-03
DAV:  17    -0.161060182633E+03   -0.85590E-06   -0.83971E-08  4984   0.107E-03
   5 F= -.16729701E+03 E0= -.16728701E+03  d E =-.130296E-02  mag=    25.0000
       N       E                     dE             d eps       ncg     rms          rms(c)
DAV:   1    -0.161048432582E+03    0.11749E-01   -0.18861E+00  7904   0.273E+00    0.706E-01
DAV:   2    -0.161058899670E+03   -0.10467E-01   -0.11826E-01 11280   0.115E+00    0.583E-01
DAV:   3    -0.161061757192E+03   -0.28575E-02   -0.25733E-02 11416   0.808E-01    0.140E+00
DAV:   4    -0.161058185301E+03    0.35719E-02   -0.16676E-02 11576   0.608E-01    0.374E-01
DAV:   5    -0.161058553378E+03   -0.36808E-03   -0.23332E-03 11920   0.228E-01    0.261E-01
DAV:   6    -0.161058493813E+03    0.59565E-04   -0.12187E-03 12672   0.149E-01    0.254E-01
DAV:   7    -0.161058420879E+03    0.72934E-04   -0.60963E-04 12616   0.120E-01    0.199E-01
DAV:   8    -0.161058393003E+03    0.27875E-04   -0.41790E-04 13160   0.108E-01    0.141E-01
DAV:   9    -0.161058379357E+03    0.13646E-04   -0.18668E-04 12784   0.890E-02    0.814E-02
DAV:  10    -0.161058393287E+03   -0.13930E-04   -0.57639E-05 11808   0.536E-02    0.556E-02
DAV:  11    -0.161058404681E+03   -0.11394E-04   -0.31029E-05 10992   0.379E-02    0.303E-02
DAV:  12    -0.161058422182E+03   -0.17501E-04   -0.88539E-06  8512   0.272E-02    0.386E-02
DAV:  13    -0.161058429486E+03   -0.73035E-05   -0.69295E-06  7096   0.231E-02    0.123E-02
DAV:  14    -0.161058444893E+03   -0.15407E-04   -0.19003E-06  5792   0.111E-02    0.658E-03
DAV:  15    -0.161058456948E+03   -0.12055E-04   -0.16117E-06  5280   0.627E-03    0.470E-03
DAV:  16    -0.161058465305E+03   -0.83567E-05   -0.13906E-06  5248   0.440E-03    0.255E-03
DAV:  17    -0.161058470194E+03   -0.48896E-05   -0.70881E-07  5120   0.297E-03    0.223E-03
DAV:  18    -0.161058474121E+03   -0.39265E-05   -0.24513E-07  4952   0.207E-03    0.141E-03
DAV:  19    -0.161058478510E+03   -0.43894E-05   -0.14187E-07  5056   0.168E-03    0.109E-03
DAV:  20    -0.161058484010E+03   -0.55003E-05   -0.15877E-07  5096   0.131E-03    0.133E-03
DAV:  21    -0.161058487399E+03   -0.33883E-05   -0.12343E-07  5040   0.122E-03    0.788E-04
DAV:  22    -0.161058488934E+03   -0.15355E-05   -0.80881E-08  5008   0.825E-04    0.455E-04
DAV:  23    -0.161058490581E+03   -0.16470E-05   -0.57715E-08  4984   0.647E-04    0.400E-04
DAV:  24    -0.161058492322E+03   -0.17407E-05   -0.54740E-08  5040   0.615E-04    0.499E-04
DAV:  25    -0.161058494377E+03   -0.20552E-05   -0.85220E-08  5136   0.608E-04    0.256E-04
DAV:  26    -0.161058495110E+03   -0.73250E-06   -0.49632E-08  5032   0.611E-04
   6 F= -.16729878E+03 E0= -.16728929E+03  d E =-.307455E-02  mag=    25.0000
       N       E                     dE             d eps       ncg     rms          rms(c)
DAV:   1    -0.161057706359E+03    0.78802E-03   -0.25201E-01  7992   0.957E-01    0.236E-01
DAV:   2    -0.161058899915E+03   -0.11936E-02   -0.12652E-02 11272   0.412E-01    0.359E-01
DAV:   3    -0.161059475326E+03   -0.57541E-03   -0.84462E-03 11512   0.401E-01    0.543E-01
DAV:   4    -0.161058616972E+03    0.85835E-03   -0.46079E-03 11112   0.281E-01    0.202E-01
DAV:   5    -0.161058672809E+03   -0.55837E-04   -0.26630E-04 11680   0.974E-02    0.756E-02
DAV:   6    -0.161058685487E+03   -0.12678E-04   -0.78243E-05 11480   0.426E-02    0.957E-02
DAV:   7    -0.161058679507E+03    0.59799E-05   -0.10208E-04 11496   0.463E-02    0.704E-02
DAV:   8    -0.161058685439E+03   -0.59320E-05   -0.41078E-05 11448   0.370E-02    0.429E-02
DAV:   9    -0.161058690679E+03   -0.52393E-05   -0.14432E-05 11288   0.296E-02    0.245E-02
DAV:  10    -0.161058696512E+03   -0.58332E-05   -0.72776E-06  7128   0.207E-02    0.224E-02
DAV:  11    -0.161058701060E+03   -0.45481E-05   -0.45557E-06  6456   0.152E-02    0.108E-02
DAV:  12    -0.161058705110E+03   -0.40495E-05   -0.20079E-06  5696   0.965E-03    0.977E-03
DAV:  13    -0.161058708591E+03   -0.34811E-05   -0.97078E-07  4912   0.772E-03    0.507E-03
DAV:  14    -0.161058712279E+03   -0.36885E-05   -0.52135E-07  5240   0.425E-03    0.235E-03
DAV:  15    -0.161058715368E+03   -0.30890E-05   -0.31250E-07  5072   0.218E-03    0.174E-03
DAV:  16    -0.161058717025E+03   -0.16567E-05   -0.17671E-07  5008   0.147E-03    0.109E-03
DAV:  17    -0.161058718550E+03   -0.15254E-05   -0.90992E-08  4912   0.102E-03    0.890E-04
DAV:  18    -0.161058719602E+03   -0.10519E-05   -0.44291E-08  4992   0.854E-04    0.787E-04
DAV:  19    -0.161058720764E+03   -0.11617E-05   -0.35438E-08  4904   0.619E-04    0.583E-04
DAV:  20    -0.161058721619E+03   -0.85498E-06   -0.25254E-08  4976   0.521E-04
   7 F= -.16729977E+03 E0= -.16729020E+03  d E =-.983272E-03  mag=    25.0000
       N       E                     dE             d eps       ncg     rms          rms(c)
DAV:   1    -0.161055535477E+03    0.31853E-02   -0.63475E-01  7912   0.152E+00    0.375E-01
DAV:   2    -0.161058566737E+03   -0.30313E-02   -0.31766E-02 11312   0.653E-01    0.577E-01
DAV:   3    -0.161059955267E+03   -0.13885E-02   -0.20511E-02 11408   0.635E-01    0.844E-01
DAV:   4    -0.161057900952E+03    0.20543E-02   -0.10968E-02 11024   0.446E-01    0.320E-01
DAV:   5    -0.161057996035E+03   -0.95083E-04   -0.68493E-04 11680   0.153E-01    0.119E-01
DAV:   6    -0.161058023886E+03   -0.27850E-04   -0.20089E-04 11776   0.690E-02    0.155E-01
DAV:   7    -0.161058008230E+03    0.15656E-04   -0.25840E-04 12736   0.750E-02    0.111E-01
DAV:   8    -0.161058022504E+03   -0.14274E-04   -0.95669E-05 11952   0.589E-02    0.693E-02
DAV:   9    -0.161058032467E+03   -0.99631E-05   -0.36855E-05 12016   0.474E-02    0.383E-02
DAV:  10    -0.161058046200E+03   -0.13733E-04   -0.18316E-05 10280   0.328E-02    0.346E-02
DAV:  11    -0.161058055111E+03   -0.89107E-05   -0.92092E-06  7144   0.230E-02    0.156E-02
DAV:  12    -0.161058063726E+03   -0.86155E-05   -0.44004E-06  6464   0.143E-02    0.155E-02
DAV:  13    -0.161058070155E+03   -0.64289E-05   -0.27127E-06  5832   0.121E-02    0.930E-03
DAV:  14    -0.161058078009E+03   -0.78540E-05   -0.12883E-06  5088   0.687E-03    0.369E-03
DAV:  15    -0.161058085139E+03   -0.71296E-05   -0.86547E-07  5344   0.347E-03    0.276E-03
DAV:  16    -0.161058088377E+03   -0.32379E-05   -0.47750E-07  5088   0.265E-03    0.159E-03
DAV:  17    -0.161058091518E+03   -0.31415E-05   -0.23911E-07  4928   0.159E-03    0.140E-03
DAV:  18    -0.161058093823E+03   -0.23046E-05   -0.10456E-07  5000   0.137E-03    0.112E-03
DAV:  19    -0.161058096496E+03   -0.26729E-05   -0.76159E-08  5072   0.956E-04    0.926E-04
DAV:  20    -0.161058098581E+03   -0.20859E-05   -0.59140E-08  4968   0.876E-04    0.540E-04
DAV:  21    -0.161058099941E+03   -0.13593E-05   -0.46393E-08  4960   0.623E-04    0.320E-04
DAV:  22    -0.161058100866E+03   -0.92526E-06   -0.31067E-08  4968   0.530E-04
   8 F= -.16730034E+03 E0= -.16729067E+03  d E =-.156077E-02  mag=    25.0000
       N       E                     dE             d eps       ncg     rms          rms(c)
DAV:   1    -0.161056919236E+03    0.11807E-02   -0.43686E-01  7928   0.122E+00    0.309E-01
DAV:   2    -0.161058666702E+03   -0.17475E-02   -0.19013E-02 11320   0.492E-01    0.386E-01
DAV:   3    -0.161059385672E+03   -0.71897E-03   -0.85344E-03 11152   0.481E-01    0.600E-01
DAV:   4    -0.161058620697E+03    0.76498E-03   -0.59169E-03 11032   0.333E-01    0.314E-01
DAV:   5    -0.161058492406E+03    0.12829E-03   -0.66668E-04 11160   0.126E-01    0.902E-02
DAV:   6    -0.161058532930E+03   -0.40524E-04   -0.93715E-05 11912   0.569E-02    0.101E-01
DAV:   7    -0.161058543937E+03   -0.11007E-04   -0.15838E-04 11872   0.621E-02    0.111E-01
DAV:   8    -0.161058542846E+03    0.10912E-05   -0.10668E-04 11680   0.550E-02    0.562E-02
DAV:   9    -0.161058557611E+03   -0.14765E-04   -0.30729E-05 11536   0.395E-02    0.322E-02
DAV:  10    -0.161058565978E+03   -0.83675E-05   -0.90199E-06  7144   0.258E-02    0.303E-02
DAV:  11    -0.161058569923E+03   -0.39443E-05   -0.64559E-06  6816   0.201E-02    0.119E-02
DAV:  12    -0.161058577038E+03   -0.71149E-05   -0.17402E-06  5760   0.102E-02    0.730E-03
DAV:  13    -0.161058580641E+03   -0.36030E-05   -0.10928E-06  5080   0.798E-03    0.890E-03
DAV:  14    -0.161058582608E+03   -0.19677E-05   -0.10726E-06  5240   0.714E-03    0.275E-03
DAV:  15    -0.161058585348E+03   -0.27402E-05   -0.45391E-07  5288   0.243E-03    0.219E-03
DAV:  16    -0.161058586171E+03   -0.82291E-06   -0.20379E-07  5152   0.180E-03
   9 F= -.16730148E+03 E0= -.16729191E+03  d E =-.113323E-02  mag=    25.0000
       N       E                     dE             d eps       ncg     rms          rms(c)
DAV:   1    -0.161044643087E+03    0.13942E-01   -0.39352E+00  7904   0.367E+00    0.936E-01
DAV:   2    -0.161060541218E+03   -0.15898E-01   -0.17201E-01 11336   0.151E+00    0.109E+00
DAV:   3    -0.161063543351E+03   -0.30021E-02   -0.48748E-02 11624   0.129E+00    0.150E+00
DAV:   4    -0.161059703511E+03    0.38398E-02   -0.14907E-02 11648   0.750E-01    0.456E-01
DAV:   5    -0.161059602098E+03    0.10141E-03   -0.32221E-03 11912   0.247E-01    0.300E-01
DAV:   6    -0.161059734748E+03   -0.13265E-03   -0.17859E-03 12456   0.212E-01    0.343E-01
DAV:   7    -0.161059643187E+03    0.91561E-04   -0.10875E-03 12768   0.195E-01    0.305E-01
DAV:   8    -0.161059697647E+03   -0.54460E-04   -0.87634E-04 12208   0.165E-01    0.222E-01
DAV:   9    -0.161059721974E+03   -0.24327E-04   -0.65301E-04 13272   0.146E-01    0.116E-01
DAV:  10    -0.161059775434E+03   -0.53460E-04   -0.19047E-04 12416   0.866E-02    0.742E-02
DAV:  11    -0.161059805862E+03   -0.30428E-04   -0.76853E-05 11264   0.583E-02    0.550E-02
DAV:  12    -0.161059832223E+03   -0.26361E-04   -0.20458E-05 10304   0.367E-02    0.445E-02
DAV:  13    -0.161059847918E+03   -0.15694E-04   -0.76206E-06  7440   0.280E-02    0.235E-02
DAV:  14    -0.161059870593E+03   -0.22676E-04   -0.62056E-06  7232   0.147E-02    0.662E-03
DAV:  15    -0.161059886248E+03   -0.15654E-04   -0.44662E-06  7536   0.597E-03    0.502E-03
DAV:  16    -0.161059890669E+03   -0.44209E-05   -0.58800E-07  5200   0.385E-03    0.281E-03
DAV:  17    -0.161059894238E+03   -0.35689E-05   -0.35244E-07  5072   0.282E-03    0.226E-03
DAV:  18    -0.161059898002E+03   -0.37641E-05   -0.25242E-07  5256   0.211E-03    0.151E-03
DAV:  19    -0.161059899745E+03   -0.17430E-05   -0.14654E-07  5096   0.171E-03    0.119E-03
DAV:  20    -0.161059901761E+03   -0.20160E-05   -0.11463E-07  5016   0.127E-03    0.982E-04
DAV:  21    -0.161059902574E+03   -0.81366E-06   -0.62030E-08  5184   0.954E-04
  10 F= -.16730472E+03 E0= -.16729549E+03  d E =-.437910E-02  mag=    25.0000
