Cr8Cl24                                 
   1.00000000000000     
    12.1682319641000003    0.0000000000000000    0.0000000000000000
    -6.1300719177999996   10.5529468652999991    0.0000000000000000
     0.0000000000000000    0.0000000000000000   17.6887664794999999
   Cr   Cl   Ni   H 
     8    24     1     1
Direct
     0.1541023330302025    0.3433233368345370    0.3381182296750183
     0.1556498699889062    0.8409235628839795    0.3372636422285993
     0.6582605484621880    0.3369977811528955    0.3395055621263552
     0.6575265169546469    0.8490362708890586    0.3355344172281960
     0.8259276002007496    0.1761905910951498    0.3371898702294231
     0.8272519366151272    0.6773045372694426    0.3367341844670477
     0.3220380966159269    0.1676932018464754    0.3400633696846498
     0.3217340809593807    0.6791469865285436    0.3365171946470227
     0.1683431991681985    0.5102786971233257    0.2627766905662554
     0.1701869433334267    0.0082549568344916    0.2622777979410387
     0.6663660266164158    0.5072911073853632    0.2619847330216558
     0.6743419893405047    0.0147006050789784    0.2585085092185579
     0.3202592657154426    0.3380052174894885    0.2650266581952039
     0.3096362257710794    0.8302779880976203    0.2608955307493019
     0.8123893069965007    0.3298029876861790    0.2626491765778809
     0.8101192683458081    0.8295241398436488    0.2622172414812383
     0.9932819465942160    0.1917760956564507    0.2609887492234861
     0.9919834920754838    0.6906827045510937    0.2590486991966614
     0.4910026800639926    0.1837924627065703    0.2652323752347243
     0.4888563055274062    0.6892580436861877    0.2609282678650828
     0.9890111626074187    0.3276941937653888    0.4152571028596199
     0.9902485536073229    0.8277978950931697    0.4135240356921699
     0.4892625288742067    0.3118216791495385    0.4225789426308566
     0.4894000561148530    0.8340564283577550    0.4104222802549486
     0.3142229846042923    0.5131184481794122    0.4124650062530861
     0.3046725211861343    0.9995092897818836    0.4170605349345422
     0.8107500217966361    0.5087097509007421    0.4122883188983266
     0.8119084384950739    0.0094419520801736    0.4120090225441047
     0.1701132933014335    0.1897991781756190    0.4124225678168543
     0.1676850452869445    0.6864776696284380    0.4121686800101969
     0.6742408492656580    0.1850632474812954    0.4150374968954225
     0.6670404743640930    0.6904964584133211    0.4127841329858626
     0.4992221104836005    0.4902350919759328    0.3340801011951982
     0.5128827666370981    0.4967331053775865    0.4146809524712296
 
  0.00000000E+00  0.00000000E+00  0.00000000E+00
  0.00000000E+00  0.00000000E+00  0.00000000E+00
  0.00000000E+00  0.00000000E+00  0.00000000E+00
  0.00000000E+00  0.00000000E+00  0.00000000E+00
  0.00000000E+00  0.00000000E+00  0.00000000E+00
  0.00000000E+00  0.00000000E+00  0.00000000E+00
  0.00000000E+00  0.00000000E+00  0.00000000E+00
  0.00000000E+00  0.00000000E+00  0.00000000E+00
  0.00000000E+00  0.00000000E+00  0.00000000E+00
  0.00000000E+00  0.00000000E+00  0.00000000E+00
  0.00000000E+00  0.00000000E+00  0.00000000E+00
  0.00000000E+00  0.00000000E+00  0.00000000E+00
  0.00000000E+00  0.00000000E+00  0.00000000E+00
  0.00000000E+00  0.00000000E+00  0.00000000E+00
  0.00000000E+00  0.00000000E+00  0.00000000E+00
  0.00000000E+00  0.00000000E+00  0.00000000E+00
  0.00000000E+00  0.00000000E+00  0.00000000E+00
  0.00000000E+00  0.00000000E+00  0.00000000E+00
  0.00000000E+00  0.00000000E+00  0.00000000E+00
  0.00000000E+00  0.00000000E+00  0.00000000E+00
  0.00000000E+00  0.00000000E+00  0.00000000E+00
  0.00000000E+00  0.00000000E+00  0.00000000E+00
  0.00000000E+00  0.00000000E+00  0.00000000E+00
  0.00000000E+00  0.00000000E+00  0.00000000E+00
  0.00000000E+00  0.00000000E+00  0.00000000E+00
  0.00000000E+00  0.00000000E+00  0.00000000E+00
  0.00000000E+00  0.00000000E+00  0.00000000E+00
  0.00000000E+00  0.00000000E+00  0.00000000E+00
  0.00000000E+00  0.00000000E+00  0.00000000E+00
  0.00000000E+00  0.00000000E+00  0.00000000E+00
  0.00000000E+00  0.00000000E+00  0.00000000E+00
  0.00000000E+00  0.00000000E+00  0.00000000E+00
  0.00000000E+00  0.00000000E+00  0.00000000E+00
  0.00000000E+00  0.00000000E+00  0.00000000E+00
