Cr8Cl24                                 
   1.00000000000000     
    12.2092909193533465    0.0111018667517055    0.0000000000000000
    -6.0950311049460471   10.5791850380812260    0.0000000000000000
     0.0000000000000000    0.0000000000000000   17.6887664794999999
   Cr   Cl   Fe
     8    24     1
Direct
     0.1546982513390932    0.3394779192276550    0.3374163187805627
     0.1585247496560604    0.8414729110835139    0.3373662348756473
     0.6602868106220038    0.3397142221402878    0.3373683950334921
     0.6605006894828002    0.8452926004888066    0.3373272121235252
     0.8252136256226608    0.1747774652928439    0.3373650191746553
     0.8291712977718204    0.6767460998171877    0.3374009033220245
     0.3232556425047106    0.1708434584766569    0.3373373024788661
     0.3235753643602260    0.6764492867121952    0.3373731897625432
     0.1687785582862549    0.5081292986703820    0.2654134761253678
     0.1707084653393893    0.0055457661456111    0.2611508736114234
     0.6634581824226500    0.5071821984180394    0.2606056562757208
     0.6732089355084048    0.0107022289153765    0.2612575714228487
     0.3208693670925498    0.3368218725428906    0.2606792610808465
     0.3106472882846936    0.8284989131283009    0.2613993201688907
     0.8122987659368606    0.3269778632756200    0.2614115785244662
     0.8147203237535257    0.8308931925036622    0.2652026645622113
     0.9893729653812816    0.1870868904126821    0.2612002558077169
     0.9943635945979779    0.6894440952902245    0.2613093192986236
     0.4919527429278518    0.1847679933788723    0.2654359930008909
     0.4912315804547170    0.6795172751290667    0.2606330058446697
     0.9892786238760297    0.3267482960587372    0.4134767210532845
     0.9944603505795261    0.8292638380141987    0.4135800958205039
     0.4928157346185653    0.3364879363750816    0.4141530277719286
     0.4918748558459174    0.8312405781543164    0.4093291501217148
     0.3204932052533771    0.5087931339579268    0.4141266878512948
     0.3105387378580514    0.0056476899350197    0.4134157287795693
     0.8152231017106693    0.5080437537899427    0.4092936809670933
     0.8128804387378350    0.0106061686928929    0.4135315268257860
     0.1691098668666544    0.1852753113598605    0.4095341300848878
     0.1715152298303260    0.6893694081008076    0.4133361670320510
     0.6730363220886907    0.1877226840147178    0.4133169060771533
     0.6632045228358726    0.6791777316538287    0.4140817791593157
     0.4920619675529793    0.5079462508427489    0.3374108941804034
 
  0.00000000E+00  0.00000000E+00  0.00000000E+00
  0.00000000E+00  0.00000000E+00  0.00000000E+00
  0.00000000E+00  0.00000000E+00  0.00000000E+00
  0.00000000E+00  0.00000000E+00  0.00000000E+00
  0.00000000E+00  0.00000000E+00  0.00000000E+00
  0.00000000E+00  0.00000000E+00  0.00000000E+00
  0.00000000E+00  0.00000000E+00  0.00000000E+00
  0.00000000E+00  0.00000000E+00  0.00000000E+00
  0.00000000E+00  0.00000000E+00  0.00000000E+00
  0.00000000E+00  0.00000000E+00  0.00000000E+00
  0.00000000E+00  0.00000000E+00  0.00000000E+00
  0.00000000E+00  0.00000000E+00  0.00000000E+00
  0.00000000E+00  0.00000000E+00  0.00000000E+00
  0.00000000E+00  0.00000000E+00  0.00000000E+00
  0.00000000E+00  0.00000000E+00  0.00000000E+00
  0.00000000E+00  0.00000000E+00  0.00000000E+00
  0.00000000E+00  0.00000000E+00  0.00000000E+00
  0.00000000E+00  0.00000000E+00  0.00000000E+00
  0.00000000E+00  0.00000000E+00  0.00000000E+00
  0.00000000E+00  0.00000000E+00  0.00000000E+00
  0.00000000E+00  0.00000000E+00  0.00000000E+00
  0.00000000E+00  0.00000000E+00  0.00000000E+00
  0.00000000E+00  0.00000000E+00  0.00000000E+00
  0.00000000E+00  0.00000000E+00  0.00000000E+00
  0.00000000E+00  0.00000000E+00  0.00000000E+00
  0.00000000E+00  0.00000000E+00  0.00000000E+00
  0.00000000E+00  0.00000000E+00  0.00000000E+00
  0.00000000E+00  0.00000000E+00  0.00000000E+00
  0.00000000E+00  0.00000000E+00  0.00000000E+00
  0.00000000E+00  0.00000000E+00  0.00000000E+00
  0.00000000E+00  0.00000000E+00  0.00000000E+00
  0.00000000E+00  0.00000000E+00  0.00000000E+00
  0.00000000E+00  0.00000000E+00  0.00000000E+00
