 running on   32 total cores
 distrk:  each k-point on   32 cores,    1 groups
 distr:  one band on    4 cores,    8 groups
 vasp.6.2.0 18Jan21 (build Jul 28 2023 11:58:00) complex                         
 POSCAR found type information on POSCAR CrClCoH 
 POSCAR found :  4 types and      34 ions
 scaLAPACK will be used
 LDA part: xc-table for Pade appr. of Perdew
 found WAVECAR, reading the header
 POSCAR, INCAR and KPOINTS ok, starting setup
 FFT: planning ...
 reading WAVECAR
 the WAVECAR file was read successfully
 initial charge from wavefunction
 entering main loop
       N       E                     dE             d eps       ncg     rms          rms(c)
DAV:   1    -0.148181540195E+03   -0.14818E+03   -0.33250E+00 11824   0.921E+00    0.318E+00
DAV:   2    -0.148286254500E+03   -0.10471E+00   -0.20706E+00 11560   0.938E+00    0.341E+00
DAV:   3    -0.148262148975E+03    0.24106E-01   -0.40448E-01 11928   0.428E+00    0.170E+00
DAV:   4    -0.148265436312E+03   -0.32873E-02   -0.38708E-02 10776   0.131E+00    0.108E+00
DAV:   5    -0.148271563585E+03   -0.61273E-02   -0.13770E-02 11528   0.103E+00    0.101E+00
DAV:   6    -0.148275647992E+03   -0.40844E-02   -0.60547E-03 11344   0.639E-01    0.396E-01
DAV:   7    -0.148283723900E+03   -0.80759E-02   -0.40716E-03 11352   0.398E-01    0.500E-01
DAV:   8    -0.148288254597E+03   -0.45307E-02   -0.21869E-03 11272   0.411E-01    0.161E-01
DAV:   9    -0.148293193689E+03   -0.49391E-02   -0.59142E-04 11152   0.166E-01    0.131E-01
DAV:  10    -0.148297589382E+03   -0.43957E-02   -0.33641E-04 10752   0.153E-01    0.680E-02
DAV:  11    -0.148301155638E+03   -0.35663E-02   -0.91731E-05 10584   0.746E-02    0.521E-02
DAV:  12    -0.148302794777E+03   -0.16391E-02   -0.46528E-05 10568   0.547E-02    0.353E-02
DAV:  13    -0.148303952419E+03   -0.11576E-02   -0.19386E-05 10280   0.284E-02    0.205E-02
DAV:  14    -0.148304900809E+03   -0.94839E-03   -0.12541E-05 10008   0.195E-02    0.220E-02
DAV:  15    -0.148305267861E+03   -0.36705E-03   -0.57435E-06  8592   0.175E-02    0.122E-02
DAV:  16    -0.148305887974E+03   -0.62011E-03   -0.92281E-06  9096   0.103E-02    0.119E-02
DAV:  17    -0.148306137754E+03   -0.24978E-03   -0.27812E-06  7288   0.856E-03    0.610E-03
DAV:  18    -0.148306415209E+03   -0.27745E-03   -0.55018E-06  8584   0.862E-03    0.700E-03
DAV:  19    -0.148306511039E+03   -0.95829E-04   -0.18073E-06  6664   0.559E-03    0.356E-03
DAV:  20    -0.148306541270E+03   -0.30232E-04   -0.14863E-06  6504   0.438E-03    0.199E-03
DAV:  21    -0.148306545406E+03   -0.41360E-05   -0.54203E-07  6096   0.293E-03    0.230E-03
DAV:  22    -0.148306547569E+03   -0.21624E-05   -0.27790E-07  5104   0.276E-03    0.208E-03
DAV:  23    -0.148306549940E+03   -0.23716E-05   -0.20631E-07  4936   0.187E-03    0.147E-03
DAV:  24    -0.148306551023E+03   -0.10822E-05   -0.15476E-07  5224   0.154E-03    0.117E-03
DAV:  25    -0.148306554361E+03   -0.33380E-05   -0.22179E-07  5704   0.137E-03    0.195E-03
DAV:  26    -0.148306556676E+03   -0.23155E-05   -0.20093E-07  5488   0.158E-03    0.140E-03
DAV:  27    -0.148306557566E+03   -0.89031E-06   -0.15210E-07  5384   0.106E-03
   1 F= -.15455459E+03 E0= -.15453944E+03  d E =-.154555E+03  mag=    24.0000
 curvature:   0.00 expect dE= 0.000E+00 dE for cont linesearch  0.000E+00
 trial: gam= 0.00000 g(F)=  0.141E+00 g(S)=  0.000E+00 ort = 0.000E+00 (trialstep = 0.100E+01)
 search vector abs. value=  0.141E+00
 bond charge predicted
       N       E                     dE             d eps       ncg     rms          rms(c)
DAV:   1    -0.148331491275E+03   -0.24935E-01   -0.12941E+01  7904   0.713E+00    0.259E+00
DAV:   2    -0.148432402150E+03   -0.10091E+00   -0.11105E+00 11360   0.433E+00    0.179E+00
DAV:   3    -0.148429240163E+03    0.31620E-02   -0.30735E-02 11632   0.119E+00    0.980E-01
DAV:   4    -0.148427185614E+03    0.20545E-02   -0.62797E-03 11840   0.548E-01    0.780E-01
DAV:   5    -0.148426085952E+03    0.10997E-02   -0.64142E-03 11920   0.557E-01    0.611E-01
DAV:   6    -0.148425422343E+03    0.66361E-03   -0.68289E-03 12112   0.455E-01    0.262E-01
DAV:   7    -0.148425770175E+03   -0.34783E-03   -0.14480E-03 11496   0.239E-01    0.207E-01
DAV:   8    -0.148425947235E+03   -0.17706E-03   -0.37736E-04 11936   0.187E-01    0.824E-02
DAV:   9    -0.148426128092E+03   -0.18086E-03   -0.98106E-05 11864   0.536E-02    0.971E-02
DAV:  10    -0.148426211689E+03   -0.83597E-04   -0.47329E-05 11304   0.579E-02    0.606E-02
DAV:  11    -0.148426358885E+03   -0.14720E-03   -0.29348E-05 11344   0.218E-02    0.499E-02
DAV:  12    -0.148426422986E+03   -0.64101E-04   -0.96856E-06 10448   0.206E-02    0.294E-02
DAV:  13    -0.148426494368E+03   -0.71383E-04   -0.48494E-06  7544   0.108E-02    0.145E-02
DAV:  14    -0.148426580632E+03   -0.86264E-04   -0.70568E-06  9264   0.960E-03    0.743E-03
DAV:  15    -0.148426616593E+03   -0.35961E-04   -0.13199E-06  6304   0.821E-03    0.653E-03
DAV:  16    -0.148426649603E+03   -0.33010E-04   -0.10231E-06  6256   0.574E-03    0.551E-03
DAV:  17    -0.148426671929E+03   -0.22327E-04   -0.93325E-07  6272   0.412E-03    0.459E-03
DAV:  18    -0.148426687727E+03   -0.15797E-04   -0.69723E-07  5976   0.307E-03    0.349E-03
DAV:  19    -0.148426695943E+03   -0.82167E-05   -0.54988E-07  5768   0.275E-03    0.386E-03
DAV:  20    -0.148426699740E+03   -0.37962E-05   -0.38191E-07  5024   0.286E-03    0.259E-03
DAV:  21    -0.148426702195E+03   -0.24552E-05   -0.22892E-07  5496   0.196E-03    0.175E-03
DAV:  22    -0.148426705446E+03   -0.32508E-05   -0.21390E-07  5400   0.147E-03    0.118E-03
DAV:  23    -0.148426707462E+03   -0.20164E-05   -0.13510E-07  5232   0.130E-03    0.981E-04
DAV:  24    -0.148426709173E+03   -0.17110E-05   -0.10137E-07  5040   0.118E-03    0.105E-03
DAV:  25    -0.148426710615E+03   -0.14423E-05   -0.81651E-08  5104   0.991E-04    0.612E-04
DAV:  26    -0.148426711413E+03   -0.79816E-06   -0.56431E-08  5240   0.727E-04
   2 F= -.15465824E+03 E0= -.15464281E+03  d E =-.103653E+00  mag=    24.0000
 trial-energy change:   -0.103653  1 .order   -0.104165   -0.140501   -0.067829
 step:   2.0205(harm=  1.9333)  dis= 0.03065  next Energy=  -154.692310 (dE=-0.138E+00)
 bond charge predicted
       N       E                     dE             d eps       ncg     rms          rms(c)
DAV:   1    -0.148378276136E+03    0.48434E-01   -0.13474E+01  7904   0.726E+00    0.264E+00
DAV:   2    -0.148482422099E+03   -0.10415E+00   -0.11441E+00 11328   0.440E+00    0.183E+00
DAV:   3    -0.148479124644E+03    0.32975E-02   -0.31635E-02 11608   0.121E+00    0.979E-01
DAV:   4    -0.148476957304E+03    0.21673E-02   -0.64144E-03 11688   0.552E-01    0.778E-01
DAV:   5    -0.148475825863E+03    0.11314E-02   -0.59222E-03 12144   0.540E-01    0.618E-01
DAV:   6    -0.148475113061E+03    0.71280E-03   -0.65153E-03 12024   0.426E-01    0.287E-01
DAV:   7    -0.148475473763E+03   -0.36070E-03   -0.15184E-03 12136   0.251E-01    0.195E-01
DAV:   8    -0.148475685973E+03   -0.21221E-03   -0.44979E-04 11416   0.196E-01    0.795E-02
DAV:   9    -0.148475878533E+03   -0.19256E-03   -0.92699E-05 11968   0.556E-02    0.888E-02
DAV:  10    -0.148475973596E+03   -0.95064E-04   -0.42988E-05 11168   0.549E-02    0.575E-02
DAV:  11    -0.148476126971E+03   -0.15337E-03   -0.25750E-05 11376   0.194E-02    0.487E-02
DAV:  12    -0.148476193824E+03   -0.66853E-04   -0.81350E-06  9848   0.185E-02    0.258E-02
DAV:  13    -0.148476260136E+03   -0.66311E-04   -0.37739E-06  7136   0.962E-03    0.142E-02
DAV:  14    -0.148476338888E+03   -0.78752E-04   -0.57665E-06  9400   0.943E-03    0.630E-03
DAV:  15    -0.148476388733E+03   -0.49846E-04   -0.11564E-06  6216   0.561E-03    0.345E-03
DAV:  16    -0.148476419935E+03   -0.31202E-04   -0.86278E-07  6112   0.419E-03    0.491E-03
DAV:  17    -0.148476436197E+03   -0.16261E-04   -0.49700E-07  5728   0.427E-03    0.291E-03
DAV:  18    -0.148476460821E+03   -0.24625E-04   -0.84933E-07  6232   0.224E-03    0.279E-03
DAV:  19    -0.148476475746E+03   -0.14925E-04   -0.41820E-07  6032   0.236E-03    0.220E-03
DAV:  20    -0.148476484182E+03   -0.84356E-05   -0.36016E-07  5792   0.249E-03    0.257E-03
DAV:  21    -0.148476488480E+03   -0.42979E-05   -0.28743E-07  5104   0.213E-03    0.183E-03
DAV:  22    -0.148476491074E+03   -0.25945E-05   -0.21240E-07  5552   0.155E-03    0.113E-03
DAV:  23    -0.148476493613E+03   -0.25383E-05   -0.16058E-07  5184   0.113E-03    0.913E-04
DAV:  24    -0.148476495001E+03   -0.13888E-05   -0.90548E-08  5184   0.103E-03    0.744E-04
DAV:  25    -0.148476496811E+03   -0.18094E-05   -0.92620E-08  5320   0.831E-04    0.834E-04
DAV:  26    -0.148476498267E+03   -0.14564E-05   -0.69135E-08  5136   0.965E-04    0.533E-04
DAV:  27    -0.148476499334E+03   -0.10672E-05   -0.60660E-08  4992   0.660E-04    0.405E-04
DAV:  28    -0.148476500530E+03   -0.11959E-05   -0.57525E-08  5632   0.655E-04    0.529E-04
DAV:  29    -0.148476500907E+03   -0.37651E-06   -0.30222E-08  5200   0.574E-04
   3 F= -.15469098E+03 E0= -.15467514E+03  d E =-.136386E+00  mag=    24.0000
 curvature:  -0.96 expect dE=-0.151E-01 dE for cont linesearch -0.486E-04
 trial: gam= 0.13107 g(F)=  0.157E-01 g(S)=  0.000E+00 ort =-0.267E-02 (trialstep = 0.120E+01)
 search vector abs. value=  0.175E-01
 bond charge predicted
       N       E                     dE             d eps       ncg     rms          rms(c)
DAV:   1    -0.148465311860E+03    0.11189E-01   -0.24925E+00  7952   0.321E+00    0.122E+00
DAV:   2    -0.148487817773E+03   -0.22506E-01   -0.14306E-01 11856   0.155E+00    0.720E-01
DAV:   3    -0.148491137051E+03   -0.33193E-02   -0.15115E-02 11600   0.901E-01    0.421E-01
DAV:   4    -0.148490280277E+03    0.85677E-03   -0.34029E-03 11752   0.510E-01    0.232E-01
DAV:   5    -0.148490091863E+03    0.18841E-03   -0.83561E-04 12520   0.162E-01    0.166E-01
DAV:   6    -0.148490116832E+03   -0.24970E-04   -0.50265E-04 12064   0.125E-01    0.123E-01
DAV:   7    -0.148490241521E+03   -0.12469E-03   -0.26894E-04 12760   0.110E-01    0.544E-02
DAV:   8    -0.148490369739E+03   -0.12822E-03   -0.65806E-05 12744   0.474E-02    0.332E-02
DAV:   9    -0.148490475406E+03   -0.10567E-03   -0.25603E-05 11888   0.351E-02    0.209E-02
DAV:  10    -0.148490569578E+03   -0.94172E-04   -0.11512E-05 10096   0.222E-02    0.170E-02
DAV:  11    -0.148490616848E+03   -0.47270E-04   -0.53424E-06  7680   0.143E-02    0.159E-02
DAV:  12    -0.148490659964E+03   -0.43115E-04   -0.36959E-06  7880   0.151E-02    0.632E-03
DAV:  13    -0.148490684375E+03   -0.24412E-04   -0.18854E-06  6688   0.576E-03    0.421E-03
DAV:  14    -0.148490694736E+03   -0.10361E-04   -0.86305E-07  5888   0.507E-03    0.457E-03
DAV:  15    -0.148490702776E+03   -0.80398E-05   -0.50497E-07  5864   0.389E-03    0.251E-03
DAV:  16    -0.148490711197E+03   -0.84213E-05   -0.44277E-07  5752   0.253E-03    0.267E-03
DAV:  17    -0.148490721052E+03   -0.98545E-05   -0.52891E-07  6064   0.271E-03    0.275E-03
DAV:  18    -0.148490729484E+03   -0.84321E-05   -0.46143E-07  5896   0.264E-03    0.246E-03
DAV:  19    -0.148490735454E+03   -0.59703E-05   -0.44396E-07  5752   0.243E-03    0.262E-03
DAV:  20    -0.148490739420E+03   -0.39657E-05   -0.30239E-07  5440   0.202E-03    0.133E-03
DAV:  21    -0.148490742652E+03   -0.32322E-05   -0.21816E-07  5424   0.172E-03    0.164E-03
DAV:  22    -0.148490746969E+03   -0.43172E-05   -0.25303E-07  5616   0.143E-03    0.114E-03
DAV:  23    -0.148490749540E+03   -0.25706E-05   -0.17890E-07  5448   0.129E-03    0.781E-04
DAV:  24    -0.148490751591E+03   -0.20508E-05   -0.14114E-07  5384   0.114E-03    0.111E-03
DAV:  25    -0.148490752337E+03   -0.74587E-06   -0.72041E-08  5192   0.103E-03
   4 F= -.15470105E+03 E0= -.15468497E+03  d E =-.100727E-01  mag=    24.0000
 trial-energy change:   -0.010073  1 .order   -0.010157   -0.018540   -0.001773
 step:   1.3359(harm=  1.3315)  dis= 0.01064  next Energy=  -154.701147 (dE=-0.102E-01)
 bond charge predicted
       N       E                     dE             d eps       ncg     rms          rms(c)
DAV:   1    -0.148491006259E+03   -0.25467E-03   -0.29866E-02  8264   0.351E-01    0.134E-01
DAV:   2    -0.148491250531E+03   -0.24427E-03   -0.16499E-03 11784   0.163E-01    0.738E-02
DAV:   3    -0.148491305591E+03   -0.55060E-04   -0.18675E-04 11448   0.100E-01    0.471E-02
DAV:   4    -0.148491292666E+03    0.12925E-04   -0.40652E-05 11384   0.546E-02    0.248E-02
DAV:   5    -0.148491288856E+03    0.38103E-05   -0.82699E-06  9632   0.158E-02    0.188E-02
DAV:   6    -0.148491286621E+03    0.22349E-05   -0.68562E-06  9264   0.138E-02    0.140E-02
DAV:   7    -0.148491288373E+03   -0.17520E-05   -0.28410E-06  6864   0.128E-02    0.621E-03
DAV:   8    -0.148491292641E+03   -0.42682E-05   -0.13636E-06  5848   0.645E-03    0.343E-03
DAV:   9    -0.148491296962E+03   -0.43206E-05   -0.88715E-07  5744   0.483E-03    0.317E-03
DAV:  10    -0.148491299697E+03   -0.27356E-05   -0.47102E-07  5056   0.403E-03    0.379E-03
DAV:  11    -0.148491301509E+03   -0.18113E-05   -0.20809E-07  5600   0.296E-03    0.190E-03
DAV:  12    -0.148491302308E+03   -0.79927E-06   -0.15732E-07  5184   0.185E-03
   5 F= -.15470114E+03 E0= -.15468503E+03  d E =-.101641E-01  mag=    24.0000
 curvature:  -0.75 expect dE=-0.687E-03 dE for cont linesearch -0.167E-07
 trial: gam= 0.03420 g(F)=  0.912E-03 g(S)=  0.000E+00 ort =-0.197E-04 (trialstep = 0.123E+01)
 search vector abs. value=  0.931E-03
 bond charge predicted
       N       E                     dE             d eps       ncg     rms          rms(c)
DAV:   1    -0.148490796739E+03    0.50477E-03   -0.10695E-01  8024   0.658E-01    0.265E-01
DAV:   2    -0.148491448005E+03   -0.65127E-03   -0.84706E-03 11536   0.463E-01    0.228E-01
DAV:   3    -0.148491536248E+03   -0.88243E-04   -0.10797E-03 11528   0.279E-01    0.130E-01
DAV:   4    -0.148491510835E+03    0.25412E-04   -0.12961E-04 11968   0.987E-02    0.639E-02
DAV:   5    -0.148491500938E+03    0.98975E-05   -0.32277E-05 11408   0.285E-02    0.514E-02
DAV:   6    -0.148491492804E+03    0.81336E-05   -0.22674E-05 11504   0.285E-02    0.349E-02
DAV:   7    -0.148491495258E+03   -0.24533E-05   -0.16316E-05 11784   0.280E-02    0.195E-02
DAV:   8    -0.148491499713E+03   -0.44557E-05   -0.49333E-06  7704   0.188E-02    0.143E-02
DAV:   9    -0.148491508434E+03   -0.87211E-05   -0.25977E-06  5840   0.980E-03    0.854E-03
DAV:  10    -0.148491515905E+03   -0.74705E-05   -0.16727E-06  6064   0.105E-02    0.569E-03
DAV:  11    -0.148491524862E+03   -0.89569E-05   -0.10634E-06  5480   0.654E-03    0.414E-03
DAV:  12    -0.148491533618E+03   -0.87562E-05   -0.67112E-07  5816   0.425E-03    0.349E-03
DAV:  13    -0.148491537400E+03   -0.37815E-05   -0.40353E-07  5112   0.323E-03    0.286E-03
DAV:  14    -0.148491541977E+03   -0.45770E-05   -0.23404E-07  5520   0.283E-03    0.205E-03
DAV:  15    -0.148491544909E+03   -0.29320E-05   -0.15329E-07  5240   0.174E-03    0.166E-03
DAV:  16    -0.148491546378E+03   -0.14694E-05   -0.10003E-07  5064   0.163E-03    0.175E-03
DAV:  17    -0.148491548839E+03   -0.24615E-05   -0.72038E-08  5240   0.142E-03    0.105E-03
DAV:  18    -0.148491552766E+03   -0.39262E-05   -0.13597E-07  5712   0.993E-04    0.146E-03
DAV:  19    -0.148491553583E+03   -0.81716E-06   -0.59911E-08  5120   0.115E-03
   6 F= -.15470205E+03 E0= -.15468587E+03  d E =-.906292E-03  mag=    24.0000
 trial-energy change:   -0.000906  1 .order   -0.000900   -0.001121   -0.000678
 step:   2.7957(harm=  3.1169)  dis= 0.00451  next Energy=  -154.702493 (dE=-0.135E-02)
 bond charge predicted
       N       E                     dE             d eps       ncg     rms          rms(c)
DAV:   1    -0.148490016547E+03    0.15362E-02   -0.17313E-01  7944   0.838E-01    0.338E-01
DAV:   2    -0.148491080493E+03   -0.10639E-02   -0.13740E-02 11520   0.595E-01    0.299E-01
DAV:   3    -0.148491214636E+03   -0.13414E-03   -0.17876E-03 11568   0.360E-01    0.169E-01
DAV:   4    -0.148491174791E+03    0.39845E-04   -0.20789E-04 12040   0.125E-01    0.812E-02
DAV:   5    -0.148491159629E+03    0.15161E-04   -0.51239E-05 11608   0.353E-02    0.664E-02
DAV:   6    -0.148491148123E+03    0.11507E-04   -0.37438E-05 11808   0.390E-02    0.458E-02
DAV:   7    -0.148491151306E+03   -0.31827E-05   -0.28217E-05 12640   0.359E-02    0.239E-02
DAV:   8    -0.148491158391E+03   -0.70856E-05   -0.10596E-05 10056   0.249E-02    0.200E-02
DAV:   9    -0.148491169146E+03   -0.10755E-04   -0.33998E-06  6472   0.139E-02    0.945E-03
DAV:  10    -0.148491181482E+03   -0.12336E-04   -0.19200E-06  6000   0.113E-02    0.663E-03
DAV:  11    -0.148491194842E+03   -0.13360E-04   -0.17349E-06  5832   0.691E-03    0.461E-03
DAV:  12    -0.148491206136E+03   -0.11295E-04   -0.95760E-07  5856   0.556E-03    0.413E-03
DAV:  13    -0.148491212670E+03   -0.65334E-05   -0.63367E-07  5424   0.406E-03    0.345E-03
DAV:  14    -0.148491218667E+03   -0.59972E-05   -0.28094E-07  5432   0.304E-03    0.243E-03
DAV:  15    -0.148491221181E+03   -0.25136E-05   -0.18041E-07  5160   0.197E-03    0.178E-03
DAV:  16    -0.148491223963E+03   -0.27825E-05   -0.11296E-07  5016   0.140E-03    0.163E-03
DAV:  17    -0.148491228338E+03   -0.43753E-05   -0.11057E-07  5688   0.149E-03    0.170E-03
DAV:  18    -0.148491232707E+03   -0.43684E-05   -0.11617E-07  5352   0.157E-03    0.139E-03
DAV:  19    -0.148491234841E+03   -0.21339E-05   -0.11600E-07  5168   0.133E-03    0.137E-03
DAV:  20    -0.148491236827E+03   -0.19863E-05   -0.96741E-08  5560   0.111E-03    0.700E-04
DAV:  21    -0.148491237318E+03   -0.49129E-06   -0.55240E-08  5144   0.817E-04
   7 F= -.15470256E+03 E0= -.15468631E+03  d E =-.142150E-02  mag=    24.0000
 curvature:  -1.55 expect dE=-0.150E-02 dE for cont linesearch -0.148E-04
 trial: gam= 0.96447 g(F)=  0.973E-03 g(S)=  0.000E+00 ort = 0.942E-04 (trialstep = 0.711E+00)
 search vector abs. value=  0.202E-02
 bond charge predicted
       N       E                     dE             d eps       ncg     rms          rms(c)
DAV:   1    -0.148490777460E+03    0.45937E-03   -0.11700E-01  8024   0.671E-01    0.316E-01
DAV:   2    -0.148491205873E+03   -0.42841E-03   -0.72147E-03 12432   0.568E-01    0.336E-01
DAV:   3    -0.148491438054E+03   -0.23218E-03   -0.18039E-03 11824   0.374E-01    0.125E-01
DAV:   4    -0.148491439225E+03   -0.11718E-05   -0.21202E-04 11832   0.124E-01    0.707E-02
DAV:   5    -0.148491435324E+03    0.39019E-05   -0.49562E-05 12184   0.480E-02    0.491E-02
DAV:   6    -0.148491443144E+03   -0.78204E-05   -0.47514E-05 11216   0.557E-02    0.477E-02
DAV:   7    -0.148491444815E+03   -0.16716E-05   -0.41722E-05 11840   0.523E-02    0.173E-02
DAV:   8    -0.148491456121E+03   -0.11305E-04   -0.83141E-06  9696   0.193E-02    0.121E-02
DAV:   9    -0.148491461952E+03   -0.58311E-05   -0.25131E-06  6552   0.134E-02    0.854E-03
DAV:  10    -0.148491467286E+03   -0.53343E-05   -0.11413E-06  5152   0.783E-03    0.634E-03
DAV:  11    -0.148491472489E+03   -0.52027E-05   -0.94128E-07  5528   0.628E-03    0.348E-03
DAV:  12    -0.148491477008E+03   -0.45186E-05   -0.88907E-07  5256   0.340E-03    0.615E-03
DAV:  13    -0.148491478332E+03   -0.13246E-05   -0.46698E-07  5160   0.395E-03    0.277E-03
DAV:  14    -0.148491480211E+03   -0.18791E-05   -0.23092E-07  4944   0.328E-03    0.276E-03
DAV:  15    -0.148491481134E+03   -0.92235E-06   -0.12113E-07  5120   0.204E-03
   8 F= -.15470324E+03 E0= -.15468704E+03  d E =-.676169E-03  mag=    24.0000
 ZBRENT: can't locate minimum, use default step
 trial-energy change:   -0.000676  1 .order   -0.000674   -0.000756   -0.000591
 step:   2.8444(harm=  3.2572)  dis= 0.00625  next Energy=  -154.704295 (dE=-0.173E-02)
 bond charge predicted
       N       E                     dE             d eps       ncg     rms          rms(c)
DAV:   1    -0.148484898179E+03    0.65820E-02   -0.10530E+00  7904   0.201E+00    0.946E-01
DAV:   2    -0.148489289740E+03   -0.43916E-02   -0.64122E-02 12368   0.167E+00    0.102E+00
DAV:   3    -0.148490978799E+03   -0.16891E-02   -0.16006E-02 11776   0.111E+00    0.391E-01
DAV:   4    -0.148490971413E+03    0.73863E-05   -0.18311E-03 12032   0.367E-01    0.207E-01
DAV:   5    -0.148490942675E+03    0.28738E-04   -0.41474E-04 12072   0.133E-01    0.153E-01
DAV:   6    -0.148491027641E+03   -0.84966E-04   -0.48313E-04 11736   0.182E-01    0.171E-01
DAV:   7    -0.148491029679E+03   -0.20382E-05   -0.36154E-04 12040   0.153E-01    0.613E-02
DAV:   8    -0.148491097104E+03   -0.67425E-04   -0.10791E-04 12608   0.697E-02    0.536E-02
DAV:   9    -0.148491126486E+03   -0.29382E-04   -0.44019E-05 12176   0.493E-02    0.273E-02
DAV:  10    -0.148491149656E+03   -0.23170E-04   -0.91552E-06  8376   0.247E-02    0.167E-02
DAV:  11    -0.148491179170E+03   -0.29513E-04   -0.53640E-06  8664   0.131E-02    0.122E-02
DAV:  12    -0.148491207835E+03   -0.28666E-04   -0.29441E-06  6728   0.699E-03    0.931E-03
DAV:  13    -0.148491226592E+03   -0.18757E-04   -0.25132E-06  6160   0.109E-02    0.145E-02
DAV:  14    -0.148491236193E+03   -0.96008E-05   -0.99673E-07  5592   0.958E-03    0.574E-03
DAV:  15    -0.148491245328E+03   -0.91358E-05   -0.70641E-07  5512   0.438E-03    0.480E-03
DAV:  16    -0.148491253531E+03   -0.82030E-05   -0.54576E-07  5552   0.379E-03    0.209E-03
DAV:  17    -0.148491259157E+03   -0.56260E-05   -0.39146E-07  5288   0.213E-03    0.236E-03
DAV:  18    -0.148491264401E+03   -0.52436E-05   -0.23783E-07  5320   0.232E-03    0.310E-03
DAV:  19    -0.148491268564E+03   -0.41627E-05   -0.28036E-07  5280   0.213E-03    0.292E-03
DAV:  20    -0.148491271618E+03   -0.30541E-05   -0.24076E-07  5552   0.188E-03    0.124E-03
DAV:  21    -0.148491273103E+03   -0.14852E-05   -0.13964E-07  5128   0.132E-03    0.141E-03
DAV:  22    -0.148491273852E+03   -0.74898E-06   -0.78535E-08  5032   0.951E-04
   9 F= -.15470432E+03 E0= -.15468836E+03  d E =-.175941E-02  mag=    24.0000
 curvature:  -3.01 expect dE=-0.636E-02 dE for cont linesearch -0.446E-04
 trial: gam= 2.17882 g(F)=  0.211E-02 g(S)=  0.000E+00 ort = 0.173E-03 (trialstep = 0.185E+00)
 search vector abs. value=  0.125E-01
 bond charge predicted
       N       E                     dE             d eps       ncg     rms          rms(c)
DAV:   1    -0.148491279197E+03   -0.60941E-05   -0.40229E-02  8176   0.404E-01    0.253E-01
DAV:   2    -0.148491378099E+03   -0.98902E-04   -0.35235E-03 12280   0.458E-01    0.300E-01
DAV:   3    -0.148491518903E+03   -0.14080E-03   -0.10342E-03 11936   0.281E-01    0.950E-02
DAV:   4    -0.148491526632E+03   -0.77285E-05   -0.13176E-04 11752   0.101E-01    0.594E-02
DAV:   5    -0.148491521340E+03    0.52918E-05   -0.34951E-05 11992   0.404E-02    0.374E-02
DAV:   6    -0.148491529330E+03   -0.79898E-05   -0.43379E-05 11184   0.529E-02    0.580E-02
DAV:   7    -0.148491527540E+03    0.17901E-05   -0.23684E-05 11536   0.406E-02    0.175E-02
DAV:   8    -0.148491538045E+03   -0.10506E-04   -0.83841E-06  7848   0.190E-02    0.179E-02
DAV:   9    -0.148491542390E+03   -0.43447E-05   -0.32912E-06  6592   0.153E-02    0.638E-03
DAV:  10    -0.148491545508E+03   -0.31182E-05   -0.80206E-07  5168   0.772E-03    0.372E-03
DAV:  11    -0.148491550219E+03   -0.47107E-05   -0.58556E-07  5472   0.299E-03    0.372E-03
DAV:  12    -0.148491553820E+03   -0.36010E-05   -0.39018E-07  4992   0.347E-03    0.349E-03
DAV:  13    -0.148491555415E+03   -0.15947E-05   -0.26920E-07  5232   0.299E-03    0.200E-03
DAV:  14    -0.148491556670E+03   -0.12556E-05   -0.15745E-07  5064   0.207E-03    0.144E-03
DAV:  15    -0.148491557592E+03   -0.92160E-06   -0.10410E-07  5096   0.146E-03
  10 F= -.15470480E+03 E0= -.15468895E+03  d E =-.475786E-03  mag=    24.0000
 ZBRENT: can't locate minimum, use default step
 trial-energy change:   -0.000476  1 .order   -0.000474   -0.000459   -0.000489
 step:   0.7381(harm=  0.7381)  dis= 0.00576  next Energy=  -154.706394 (dE=-0.207E-02)
 bond charge predicted
       N       E                     dE             d eps       ncg     rms          rms(c)
DAV:   1    -0.148490108803E+03    0.14479E-02   -0.36210E-01  7936   0.121E+00    0.754E-01
DAV:   2    -0.148491329453E+03   -0.12207E-02   -0.31674E-02 12192   0.136E+00    0.912E-01
DAV:   3    -0.148492352606E+03   -0.10232E-02   -0.93484E-03 11880   0.841E-01    0.292E-01
DAV:   4    -0.148492418067E+03   -0.65461E-04   -0.11663E-03 11704   0.299E-01    0.174E-01
DAV:   5    -0.148492389950E+03    0.28117E-04   -0.34067E-04 11992   0.117E-01    0.125E-01
DAV:   6    -0.148492464366E+03   -0.74416E-04   -0.49215E-04 11800   0.175E-01    0.202E-01
DAV:   7    -0.148492446820E+03    0.17546E-04   -0.21032E-04 11928   0.118E-01    0.790E-02
DAV:   8    -0.148492498216E+03   -0.51396E-04   -0.11131E-04 12168   0.655E-02    0.513E-02
DAV:   9    -0.148492526145E+03   -0.27928E-04   -0.35047E-05 11288   0.447E-02    0.221E-02
DAV:  10    -0.148492538654E+03   -0.12510E-04   -0.60686E-06  7872   0.230E-02    0.138E-02
DAV:  11    -0.148492562338E+03   -0.23683E-04   -0.36931E-06  6976   0.734E-03    0.119E-02
DAV:  12    -0.148492579824E+03   -0.17486E-04   -0.43745E-06  6520   0.130E-02    0.128E-02
DAV:  13    -0.148492591464E+03   -0.11641E-04   -0.19148E-06  6192   0.105E-02    0.811E-03
DAV:  14    -0.148492596696E+03   -0.52321E-05   -0.10749E-06  5376   0.740E-03    0.344E-03
DAV:  15    -0.148492601854E+03   -0.51579E-05   -0.70720E-07  5512   0.363E-03    0.360E-03
DAV:  16    -0.148492605001E+03   -0.31473E-05   -0.41563E-07  5096   0.379E-03    0.470E-03
DAV:  17    -0.148492608705E+03   -0.37038E-05   -0.41316E-07  5416   0.302E-03    0.259E-03
DAV:  18    -0.148492612564E+03   -0.38592E-05   -0.27539E-07  5416   0.213E-03    0.267E-03
DAV:  19    -0.148492614131E+03   -0.15666E-05   -0.18493E-07  5224   0.176E-03    0.154E-03
DAV:  20    -0.148492615284E+03   -0.11534E-05   -0.11973E-07  5080   0.126E-03    0.129E-03
DAV:  21    -0.148492616078E+03   -0.79348E-06   -0.75891E-08  5088   0.110E-03
  11 F= -.15470643E+03 E0= -.15469100E+03  d E =-.210823E-02  mag=    24.0000
 curvature:  -2.84 expect dE=-0.106E-01 dE for cont linesearch -0.237E-02
 ZBRENT: increasing intervall
 opt :   1.8453  next Energy=  -154.710642 (dE=-0.632E-02)
 bond charge predicted
       N       E                     dE             d eps       ncg     rms          rms(c)
DAV:   1    -0.148485552788E+03    0.70625E-02   -0.14477E+00  7912   0.242E+00    0.145E+00
DAV:   2    -0.148491402920E+03   -0.58501E-02   -0.12508E-01 12200   0.260E+00    0.182E+00
DAV:   3    -0.148494706744E+03   -0.33038E-02   -0.37089E-02 11848   0.164E+00    0.623E-01
DAV:   4    -0.148495042499E+03   -0.33576E-03   -0.45807E-03 11616   0.581E-01    0.341E-01
DAV:   5    -0.148494969744E+03    0.72755E-04   -0.17573E-03 12112   0.227E-01    0.316E-01
DAV:   6    -0.148495216791E+03   -0.24705E-03   -0.27823E-03 11712   0.378E-01    0.447E-01
DAV:   7    -0.148495167089E+03    0.49703E-04   -0.79863E-04 12000   0.225E-01    0.227E-01
DAV:   8    -0.148495294148E+03   -0.12706E-03   -0.48174E-04 12480   0.138E-01    0.632E-02
DAV:   9    -0.148495402761E+03   -0.10861E-03   -0.13406E-04 11344   0.847E-02    0.640E-02
DAV:  10    -0.148495433157E+03   -0.30396E-04   -0.53249E-05 11616   0.620E-02    0.445E-02
DAV:  11    -0.148495488550E+03   -0.55393E-04   -0.18718E-05 10664   0.242E-02    0.313E-02
DAV:  12    -0.148495535600E+03   -0.47049E-04   -0.18594E-05 11008   0.240E-02    0.193E-02
DAV:  13    -0.148495574185E+03   -0.38585E-04   -0.50184E-06  7448   0.148E-02    0.125E-02
DAV:  14    -0.148495590878E+03   -0.16693E-04   -0.20589E-06  6192   0.132E-02    0.769E-03
DAV:  15    -0.148495609604E+03   -0.18726E-04   -0.13359E-06  6200   0.592E-03    0.524E-03
DAV:  16    -0.148495621765E+03   -0.12161E-04   -0.91529E-07  5552   0.433E-03    0.577E-03
DAV:  17    -0.148495630844E+03   -0.90784E-05   -0.82966E-07  5808   0.481E-03    0.380E-03
DAV:  18    -0.148495640435E+03   -0.95910E-05   -0.79511E-07  5864   0.312E-03    0.507E-03
DAV:  19    -0.148495643241E+03   -0.28066E-05   -0.48802E-07  5176   0.361E-03    0.247E-03
DAV:  20    -0.148495646839E+03   -0.35974E-05   -0.34382E-07  5512   0.198E-03    0.264E-03
DAV:  21    -0.148495649073E+03   -0.22346E-05   -0.20722E-07  5136   0.201E-03    0.135E-03
DAV:  22    -0.148495650682E+03   -0.16091E-05   -0.13724E-07  5040   0.125E-03    0.851E-04
DAV:  23    -0.148495652828E+03   -0.21462E-05   -0.13678E-07  5576   0.114E-03    0.155E-03
DAV:  24    -0.148495653823E+03   -0.99422E-06   -0.92451E-08  5184   0.113E-03
  12 F= -.15471061E+03 E0= -.15469642E+03  d E =-.628393E-02  mag=    24.0000
 curvature:  -5.04 expect dE=-0.382E-01 dE for cont linesearch -0.752E-02
 ZBRENT: increasing intervall
 opt :   4.0596  next Energy=  -154.722548 (dE=-0.182E-01)
 bond charge predicted
       N       E                     dE             d eps       ncg     rms          rms(c)
DAV:   1    -0.148463913078E+03    0.31740E-01   -0.57935E+00  7904   0.485E+00    0.255E+00
DAV:   2    -0.148493055824E+03   -0.29143E-01   -0.46916E-01 12096   0.442E+00    0.343E+00
DAV:   3    -0.148501805253E+03   -0.87494E-02   -0.13051E-01 11816   0.293E+00    0.123E+00
DAV:   4    -0.148503239314E+03   -0.14341E-02   -0.15485E-02 11640   0.935E-01    0.682E-01
DAV:   5    -0.148503147847E+03    0.91467E-04   -0.11369E-02 12048   0.509E-01    0.902E-01
DAV:   6    -0.148503244544E+03   -0.96697E-04   -0.10434E-02 11832   0.664E-01    0.572E-01
DAV:   7    -0.148503580375E+03   -0.33583E-03   -0.21265E-03 12320   0.387E-01    0.409E-01
DAV:   8    -0.148504017300E+03   -0.43692E-03   -0.15710E-03 12096   0.223E-01    0.166E-01
DAV:   9    -0.148504263917E+03   -0.24662E-03   -0.77383E-04 11712   0.202E-01    0.165E-01
DAV:  10    -0.148504353254E+03   -0.89337E-04   -0.26082E-04 11448   0.137E-01    0.739E-02
DAV:  11    -0.148504459438E+03   -0.10618E-03   -0.10221E-04 12384   0.692E-02    0.769E-02
DAV:  12    -0.148504615595E+03   -0.15616E-03   -0.55833E-05 12048   0.333E-02    0.370E-02
DAV:  13    -0.148504702058E+03   -0.86463E-04   -0.32444E-05 11920   0.373E-02    0.322E-02
DAV:  14    -0.148504768305E+03   -0.66247E-04   -0.13241E-05  8584   0.252E-02    0.164E-02
DAV:  15    -0.148504824819E+03   -0.56514E-04   -0.39003E-06  8096   0.116E-02    0.102E-02
DAV:  16    -0.148504856939E+03   -0.32120E-04   -0.18515E-06  6488   0.890E-03    0.531E-03
DAV:  17    -0.148504891247E+03   -0.34308E-04   -0.23412E-06  6872   0.654E-03    0.664E-03
DAV:  18    -0.148504912282E+03   -0.21036E-04   -0.10970E-06  6088   0.448E-03    0.537E-03
DAV:  19    -0.148504921540E+03   -0.92576E-05   -0.88758E-07  5720   0.578E-03    0.356E-03
DAV:  20    -0.148504931545E+03   -0.10005E-04   -0.92314E-07  6000   0.264E-03    0.487E-03
DAV:  21    -0.148504936452E+03   -0.49069E-05   -0.47597E-07  5272   0.258E-03    0.309E-03
DAV:  22    -0.148504938613E+03   -0.21605E-05   -0.24846E-07  5224   0.169E-03    0.150E-03
DAV:  23    -0.148504942475E+03   -0.38623E-05   -0.23584E-07  5528   0.151E-03    0.159E-03
DAV:  24    -0.148504945568E+03   -0.30932E-05   -0.20613E-07  5168   0.132E-03    0.163E-03
DAV:  25    -0.148504947388E+03   -0.18202E-05   -0.13118E-07  5152   0.127E-03    0.125E-03
DAV:  26    -0.148504948415E+03   -0.10263E-05   -0.79228E-08  5064   0.874E-04    0.940E-04
DAV:  27    -0.148504949573E+03   -0.11584E-05   -0.68375E-08  5216   0.700E-04    0.467E-04
DAV:  28    -0.148504951026E+03   -0.14530E-05   -0.70776E-08  5256   0.663E-04    0.558E-04
DAV:  29    -0.148504951758E+03   -0.73168E-06   -0.46453E-08  5136   0.646E-04
  13 F= -.15472214E+03 E0= -.15471135E+03  d E =-.178178E-01  mag=    24.0000
 curvature:  -8.01 expect dE=-0.151E+00 dE for cont linesearch -0.221E-01
 ZBRENT: increasing intervall
 opt :   8.4883  next Energy=  -154.755019 (dE=-0.507E-01)
 bond charge predicted
       N       E                     dE             d eps       ncg     rms          rms(c)
DAV:   1    -0.148357824722E+03    0.14713E+00   -0.23167E+01  7904   0.972E+00    0.365E+00
DAV:   2    -0.148501258100E+03   -0.14343E+00   -0.16562E+00 11464   0.608E+00    0.522E+00
DAV:   3    -0.148515716775E+03   -0.14459E-01   -0.31594E-01 11704   0.462E+00    0.189E+00
DAV:   4    -0.148516777229E+03   -0.10605E-02   -0.26676E-02 11688   0.107E+00    0.120E+00
DAV:   5    -0.148515442552E+03    0.13347E-02   -0.17002E-02 11560   0.690E-01    0.101E+00
DAV:   6    -0.148515138756E+03    0.30380E-03   -0.38319E-03 12440   0.374E-01    0.880E-01
DAV:   7    -0.148515057842E+03    0.80914E-04   -0.87479E-03 12392   0.535E-01    0.493E-01
DAV:   8    -0.148516078081E+03   -0.10202E-02   -0.39844E-03 11944   0.299E-01    0.395E-01
DAV:   9    -0.148516192054E+03   -0.11397E-03   -0.17827E-03 11976   0.284E-01    0.222E-01
DAV:  10    -0.148516550489E+03   -0.35843E-03   -0.24053E-04 11696   0.120E-01    0.196E-01
DAV:  11    -0.148516745069E+03   -0.19458E-03   -0.42925E-04 12496   0.115E-01    0.744E-02
DAV:  12    -0.148517066171E+03   -0.32110E-03   -0.15455E-04 12544   0.686E-02    0.953E-02
DAV:  13    -0.148517235146E+03   -0.16898E-03   -0.49299E-05 11752   0.353E-02    0.412E-02
DAV:  14    -0.148517353015E+03   -0.11787E-03   -0.15704E-05 11408   0.292E-02    0.346E-02
DAV:  15    -0.148517527510E+03   -0.17450E-03   -0.24292E-05  8800   0.163E-02    0.231E-02
DAV:  16    -0.148517632603E+03   -0.10509E-03   -0.68718E-06  8184   0.111E-02    0.470E-03
DAV:  17    -0.148517728188E+03   -0.95585E-04   -0.27571E-06  7640   0.617E-03    0.650E-03
DAV:  18    -0.148517777347E+03   -0.49159E-04   -0.18350E-06  6192   0.450E-03    0.773E-03
DAV:  19    -0.148517812582E+03   -0.35235E-04   -0.15099E-06  6088   0.492E-03    0.454E-03
DAV:  20    -0.148517853402E+03   -0.40820E-04   -0.25894E-06  7112   0.373E-03    0.448E-03
DAV:  21    -0.148517869411E+03   -0.16009E-04   -0.68089E-07  6000   0.325E-03    0.158E-03
DAV:  22    -0.148517878111E+03   -0.87004E-05   -0.51457E-07  5616   0.234E-03    0.232E-03
DAV:  23    -0.148517879613E+03   -0.15020E-05   -0.25674E-07  5200   0.177E-03    0.113E-03
DAV:  24    -0.148517883911E+03   -0.42976E-05   -0.23475E-07  5320   0.132E-03    0.861E-04
DAV:  25    -0.148517888125E+03   -0.42138E-05   -0.28594E-07  5840   0.135E-03    0.109E-03
DAV:  26    -0.148517889240E+03   -0.11153E-05   -0.16072E-07  5176   0.130E-03    0.619E-04
DAV:  27    -0.148517889753E+03   -0.51256E-06   -0.88332E-08  5000   0.848E-04
  14 F= -.15473939E+03 E0= -.15473055E+03  d E =-.350647E-01  mag=    24.0000
 curvature: -11.90 expect dE=-0.326E+00 dE for cont linesearch -0.769E-04
 trial: gam=10.65603 g(F)=  0.274E-01 g(S)=  0.000E+00 ort =-0.284E-03 (trialstep = 0.160E-01)
 search vector abs. value=  0.144E+01
 bond charge predicted
       N       E                     dE             d eps       ncg     rms          rms(c)
DAV:   1    -0.148517892791E+03   -0.35510E-05   -0.33522E-02  8304   0.369E-01    0.135E-01
DAV:   2    -0.148518071212E+03   -0.17842E-03   -0.26362E-03 11448   0.267E-01    0.222E-01
DAV:   3    -0.148518098095E+03   -0.26882E-04   -0.49804E-04 11632   0.188E-01    0.643E-02
DAV:   4    -0.148518108696E+03   -0.10602E-04   -0.36204E-05 11448   0.391E-02    0.458E-02
DAV:   5    -0.148518105464E+03    0.32320E-05   -0.23870E-05  9456   0.247E-02    0.395E-02
DAV:   6    -0.148518104461E+03    0.10032E-05   -0.47500E-06  7496   0.158E-02    0.273E-02
DAV:   7    -0.148518104133E+03    0.32826E-06   -0.11492E-05 10320   0.158E-02    0.171E-02
DAV:   8    -0.148518106219E+03   -0.20856E-05   -0.62782E-06  7920   0.164E-02    0.174E-02
DAV:   9    -0.148518106465E+03   -0.24686E-06   -0.26843E-06  5944   0.132E-02
  15 F= -.15473974E+03 E0= -.15473085E+03  d E =-.351014E-03  mag=    24.0000
 ZBRENT: can't locate minimum, use default step
 trial-energy change:   -0.000351  1 .order   -0.000365   -0.000391   -0.000339
 step:   0.0640(harm=  0.1207)  dis= 0.00575  next Energy=  -154.740860 (dE=-0.147E-02)
 bond charge predicted
       N       E                     dE             d eps       ncg     rms          rms(c)
DAV:   1    -0.148516386432E+03    0.17198E-02   -0.30128E-01  7976   0.111E+00    0.406E-01
DAV:   2    -0.148518109324E+03   -0.17229E-02   -0.23599E-02 11408   0.796E-01    0.652E-01
DAV:   3    -0.148518292189E+03   -0.18287E-03   -0.43960E-03 11528   0.560E-01    0.193E-01
DAV:   4    -0.148518331483E+03   -0.39294E-04   -0.33193E-04 11632   0.116E-01    0.137E-01
DAV:   5    -0.148518308067E+03    0.23416E-04   -0.21017E-04 11752   0.751E-02    0.115E-01
DAV:   6    -0.148518300331E+03    0.77363E-05   -0.37640E-05 12264   0.422E-02    0.834E-02
DAV:   7    -0.148518295458E+03    0.48731E-05   -0.75805E-05 11936   0.476E-02    0.516E-02
DAV:   8    -0.148518310278E+03   -0.14820E-04   -0.57980E-05 12152   0.457E-02    0.445E-02
DAV:   9    -0.148518312570E+03   -0.22913E-05   -0.19860E-05 10552   0.332E-02    0.130E-02
DAV:  10    -0.148518324163E+03   -0.11593E-04   -0.68359E-06  6848   0.150E-02    0.276E-02
DAV:  11    -0.148518328387E+03   -0.42244E-05   -0.51212E-06  6032   0.138E-02    0.129E-02
DAV:  12    -0.148518341454E+03   -0.13067E-04   -0.61553E-06  6344   0.958E-03    0.159E-02
DAV:  13    -0.148518344848E+03   -0.33934E-05   -0.20973E-06  5400   0.753E-03    0.642E-03
DAV:  14    -0.148518348293E+03   -0.34453E-05   -0.86286E-07  5192   0.473E-03    0.709E-03
DAV:  15    -0.148518350443E+03   -0.21501E-05   -0.83815E-07  5088   0.364E-03    0.333E-03
DAV:  16    -0.148518352725E+03   -0.22824E-05   -0.19798E-07  5232   0.255E-03    0.181E-03
DAV:  17    -0.148518354970E+03   -0.22450E-05   -0.13672E-07  5280   0.126E-03    0.268E-03
DAV:  18    -0.148518358176E+03   -0.32057E-05   -0.15607E-07  5112   0.142E-03    0.171E-03
DAV:  19    -0.148518360179E+03   -0.20032E-05   -0.13394E-07  5232   0.134E-03    0.140E-03
DAV:  20    -0.148518360644E+03   -0.46463E-06   -0.74817E-08  5184   0.993E-04
  16 F= -.15474039E+03 E0= -.15473134E+03  d E =-.100623E-02  mag=    24.0000
 curvature:  -2.51 expect dE=-0.691E-01 dE for cont linesearch -0.784E-04
 ZBRENT: extrapolating
 opt :   0.0863  next Energy=  -154.740468 (dE=-0.108E-02)
 bond charge predicted
       N       E                     dE             d eps       ncg     rms          rms(c)
DAV:   1    -0.148517836009E+03    0.52417E-03   -0.64660E-02  8032   0.512E-01    0.186E-01
DAV:   2    -0.148518188370E+03   -0.35236E-03   -0.50089E-03 11376   0.367E-01    0.293E-01
DAV:   3    -0.148518235790E+03   -0.47421E-04   -0.90823E-04 11576   0.254E-01    0.921E-02
DAV:   4    -0.148518248477E+03   -0.12687E-04   -0.67208E-05 11640   0.553E-02    0.621E-02
DAV:   5    -0.148518242662E+03    0.58158E-05   -0.44227E-05 11472   0.335E-02    0.544E-02
DAV:   6    -0.148518240556E+03    0.21059E-05   -0.83924E-06  9376   0.209E-02    0.376E-02
DAV:   7    -0.148518239623E+03    0.93291E-06   -0.19818E-05 11056   0.220E-02    0.231E-02
DAV:   8    -0.148518243550E+03   -0.39270E-05   -0.11154E-05 10464   0.214E-02    0.179E-02
DAV:   9    -0.148518244620E+03   -0.10703E-05   -0.35679E-06  6256   0.156E-02    0.639E-03
DAV:  10    -0.148518248306E+03   -0.36855E-05   -0.17177E-06  5464   0.806E-03    0.134E-02
DAV:  11    -0.148518249378E+03   -0.10725E-05   -0.10638E-06  5088   0.648E-03    0.682E-03
DAV:  12    -0.148518252956E+03   -0.35775E-05   -0.10300E-06  5504   0.435E-03    0.498E-03
DAV:  13    -0.148518254411E+03   -0.14552E-05   -0.40628E-07  5176   0.318E-03    0.250E-03
DAV:  14    -0.148518255599E+03   -0.11883E-05   -0.22588E-07  4960   0.256E-03    0.327E-03
DAV:  15    -0.148518256313E+03   -0.71382E-06   -0.17708E-07  5048   0.167E-03
  17 F= -.15474047E+03 E0= -.15473134E+03  d E =-.108657E-02  mag=    24.0000
 curvature:  -2.38 expect dE=-0.662E-01 dE for cont linesearch -0.555E-07
 trial: gam= 0.02127 g(F)=  0.278E-01 g(S)=  0.000E+00 ort = 0.183E-03 (trialstep = 0.301E-01)
 search vector abs. value=  0.284E-01
 bond charge predicted
       N       E                     dE             d eps       ncg     rms          rms(c)
DAV:   1    -0.148519116657E+03   -0.86106E-03   -0.25048E-03  8288   0.103E-01    0.408E-02
DAV:   2    -0.148519128871E+03   -0.12214E-04   -0.18266E-04 11400   0.696E-02    0.618E-02
DAV:   3    -0.148519135282E+03   -0.64114E-05   -0.41270E-05 11848   0.542E-02    0.201E-02
DAV:   4    -0.148519137719E+03   -0.24363E-05   -0.18874E-06  6136   0.115E-02    0.135E-02
DAV:   5    -0.148519137262E+03    0.45685E-06   -0.22327E-06  5320   0.634E-03
  18 F= -.15474130E+03 E0= -.15473216E+03  d E =-.830407E-03  mag=    24.0000
 ZBRENT: can't locate minimum, use default step
 trial-energy change:   -0.000830  1 .order   -0.000831   -0.000835   -0.000827
 step:   0.1202(harm=  3.0479)  dis= 0.00124  next Energy=  -154.782800 (dE=-0.423E-01)
 bond charge predicted
       N       E                     dE             d eps       ncg     rms          rms(c)
DAV:   1    -0.148521524351E+03   -0.23866E-02   -0.22380E-02  8232   0.308E-01    0.116E-01
DAV:   2    -0.148521641795E+03   -0.11744E-03   -0.15242E-03 11552   0.193E-01    0.149E-01
DAV:   3    -0.148521682431E+03   -0.40636E-04   -0.29720E-04 11864   0.151E-01    0.572E-02
DAV:   4    -0.148521681126E+03    0.13052E-05   -0.20368E-05 11400   0.285E-02    0.313E-02
DAV:   5    -0.148521676221E+03    0.49052E-05   -0.10272E-05  6464   0.156E-02    0.338E-02
DAV:   6    -0.148521672737E+03    0.34835E-05   -0.46775E-06  7688   0.161E-02    0.216E-02
DAV:   7    -0.148521667579E+03    0.51582E-05   -0.14976E-05 11040   0.153E-02    0.184E-02
DAV:   8    -0.148521670752E+03   -0.31737E-05   -0.42769E-06  6736   0.153E-02    0.175E-02
DAV:   9    -0.148521672820E+03   -0.20672E-05   -0.13905E-06  5328   0.104E-02    0.691E-03
DAV:  10    -0.148521677475E+03   -0.46558E-05   -0.90389E-07  5064   0.402E-03    0.735E-03
DAV:  11    -0.148521681403E+03   -0.39279E-05   -0.53369E-07  5160   0.522E-03    0.339E-03
DAV:  12    -0.148521687159E+03   -0.57558E-05   -0.37545E-07  5360   0.300E-03    0.344E-03
DAV:  13    -0.148521689988E+03   -0.28292E-05   -0.19907E-07  5152   0.200E-03    0.206E-03
DAV:  14    -0.148521692923E+03   -0.29347E-05   -0.15610E-07  5000   0.152E-03    0.331E-03
DAV:  15    -0.148521695289E+03   -0.23656E-05   -0.15121E-07  5016   0.152E-03    0.120E-03
DAV:  16    -0.148521697281E+03   -0.19921E-05   -0.84090E-08  5040   0.136E-03    0.156E-03
DAV:  17    -0.148521699224E+03   -0.19434E-05   -0.72646E-08  5424   0.111E-03    0.895E-04
DAV:  18    -0.148521701132E+03   -0.19077E-05   -0.70069E-08  5296   0.611E-04    0.978E-04
DAV:  19    -0.148521702004E+03   -0.87211E-06   -0.34573E-08  5000   0.614E-04
  19 F= -.15474372E+03 E0= -.15473455E+03  d E =-.324344E-02  mag=    24.0000
 curvature:  -0.09 expect dE=-0.226E-02 dE for cont linesearch -0.221E-02
 ZBRENT: increasing intervall
 opt :   0.3006  next Energy=  -154.748187 (dE=-0.771E-02)
 bond charge predicted
       N       E                     dE             d eps       ncg     rms          rms(c)
DAV:   1    -0.148525776593E+03   -0.40755E-02   -0.90061E-02  8096   0.617E-01    0.241E-01
DAV:   2    -0.148526325448E+03   -0.54885E-03   -0.64199E-03 11384   0.405E-01    0.338E-01
DAV:   3    -0.148526445051E+03   -0.11960E-03   -0.13786E-03 11824   0.317E-01    0.123E-01
DAV:   4    -0.148526453462E+03   -0.84108E-05   -0.96606E-05 11728   0.683E-02    0.750E-02
DAV:   5    -0.148526438465E+03    0.14997E-04   -0.78556E-05 11592   0.387E-02    0.658E-02
DAV:   6    -0.148526431005E+03    0.74597E-05   -0.15671E-05 10984   0.288E-02    0.409E-02
DAV:   7    -0.148526414854E+03    0.16151E-04   -0.23767E-05 11880   0.228E-02    0.230E-02
DAV:   8    -0.148526423450E+03   -0.85959E-05   -0.18655E-05 11120   0.266E-02    0.386E-02
DAV:   9    -0.148526424976E+03   -0.15258E-05   -0.49727E-06  7304   0.195E-02    0.158E-02
DAV:  10    -0.148526436521E+03   -0.11546E-04   -0.26858E-06  5496   0.651E-03    0.137E-02
DAV:  11    -0.148526444579E+03   -0.80572E-05   -0.14036E-06  5544   0.831E-03    0.527E-03
DAV:  12    -0.148526456844E+03   -0.12266E-04   -0.75709E-07  5704   0.484E-03    0.372E-03
DAV:  13    -0.148526466818E+03   -0.99739E-05   -0.50335E-07  5400   0.301E-03    0.246E-03
DAV:  14    -0.148526475320E+03   -0.85021E-05   -0.34783E-07  5544   0.294E-03    0.292E-03
DAV:  15    -0.148526480528E+03   -0.52073E-05   -0.25616E-07  5128   0.161E-03    0.183E-03
DAV:  16    -0.148526483668E+03   -0.31400E-05   -0.12347E-07  5008   0.192E-03    0.130E-03
DAV:  17    -0.148526487473E+03   -0.38053E-05   -0.12881E-07  5376   0.120E-03    0.186E-03
DAV:  18    -0.148526491839E+03   -0.43655E-05   -0.11876E-07  5480   0.111E-03    0.116E-03
DAV:  19    -0.148526494480E+03   -0.26415E-05   -0.90552E-08  5224   0.958E-04    0.121E-03
DAV:  20    -0.148526496571E+03   -0.20912E-05   -0.84522E-08  5336   0.944E-04    0.757E-04
DAV:  21    -0.148526497649E+03   -0.10780E-05   -0.57622E-08  5000   0.765E-04    0.540E-04
DAV:  22    -0.148526498143E+03   -0.49419E-06   -0.36859E-08  5048   0.589E-04
  20 F= -.15474821E+03 E0= -.15473900E+03  d E =-.773578E-02  mag=    24.0000
 curvature:  -0.19 expect dE=-0.382E-02 dE for cont linesearch -0.366E-02
 ZBRENT: increasing intervall
 opt :   0.6613  next Energy=  -154.755855 (dE=-0.154E-01)
 bond charge predicted
       N       E                     dE             d eps       ncg     rms          rms(c)
DAV:   1    -0.148531856108E+03   -0.53585E-02   -0.36019E-01  7952   0.123E+00    0.478E-01
DAV:   2    -0.148534200581E+03   -0.23445E-02   -0.25514E-02 11408   0.800E-01    0.650E-01
DAV:   3    -0.148534610226E+03   -0.40964E-03   -0.53164E-03 11832   0.623E-01    0.249E-01
DAV:   4    -0.148534628959E+03   -0.18734E-04   -0.37843E-04 11728   0.138E-01    0.148E-01
DAV:   5    -0.148534581922E+03    0.47037E-04   -0.31386E-04 11768   0.774E-02    0.133E-01
DAV:   6    -0.148534556701E+03    0.25221E-04   -0.61492E-05 11952   0.570E-02    0.833E-02
DAV:   7    -0.148534511645E+03    0.45056E-04   -0.96190E-05 11872   0.470E-02    0.466E-02
DAV:   8    -0.148534538177E+03   -0.26532E-04   -0.71770E-05 12200   0.523E-02    0.747E-02
DAV:   9    -0.148534544052E+03   -0.58752E-05   -0.21378E-05 11080   0.378E-02    0.299E-02
DAV:  10    -0.148534574235E+03   -0.30183E-04   -0.66569E-06  6320   0.121E-02    0.246E-02
DAV:  11    -0.148534598940E+03   -0.24705E-04   -0.51574E-06  6920   0.152E-02    0.928E-03
DAV:  12    -0.148534633880E+03   -0.34941E-04   -0.31447E-06  6568   0.105E-02    0.742E-03
DAV:  13    -0.148534663078E+03   -0.29197E-04   -0.19456E-06  6128   0.658E-03    0.507E-03
DAV:  14    -0.148534682731E+03   -0.19653E-04   -0.10111E-06  5976   0.637E-03    0.487E-03
DAV:  15    -0.148534698625E+03   -0.15894E-04   -0.89726E-07  5720   0.345E-03    0.438E-03
DAV:  16    -0.148534707923E+03   -0.92981E-05   -0.42230E-07  5120   0.368E-03    0.165E-03
DAV:  17    -0.148534721863E+03   -0.13940E-04   -0.53742E-07  5968   0.199E-03    0.384E-03
DAV:  18    -0.148534733884E+03   -0.12021E-04   -0.43358E-07  5752   0.218E-03    0.114E-03
DAV:  19    -0.148534739503E+03   -0.56192E-05   -0.29688E-07  5320   0.156E-03    0.126E-03
DAV:  20    -0.148534742924E+03   -0.34205E-05   -0.20191E-07  5240   0.135E-03    0.146E-03
DAV:  21    -0.148534744578E+03   -0.16541E-05   -0.12052E-07  5072   0.112E-03    0.858E-04
DAV:  22    -0.148534746194E+03   -0.16160E-05   -0.99262E-08  5312   0.864E-04    0.660E-04
DAV:  23    -0.148534748259E+03   -0.20654E-05   -0.10186E-07  5704   0.838E-04    0.738E-04
DAV:  24    -0.148534749169E+03   -0.90914E-06   -0.76683E-08  5024   0.791E-04
  21 F= -.15475585E+03 E0= -.15474656E+03  d E =-.153776E-01  mag=    24.0000
 curvature:  -0.39 expect dE=-0.558E-02 dE for cont linesearch -0.476E-02
 ZBRENT: increasing intervall
 opt :   1.3828  next Energy=  -154.765734 (dE=-0.253E-01)
 bond charge predicted
       N       E                     dE             d eps       ncg     rms          rms(c)
DAV:   1    -0.148534164755E+03    0.58350E-03   -0.14405E+00  7904   0.247E+00    0.940E-01
DAV:   2    -0.148544011754E+03   -0.98470E-02   -0.10096E-01 11488   0.156E+00    0.120E+00
DAV:   3    -0.148545414865E+03   -0.14031E-02   -0.19707E-02 11896   0.120E+00    0.511E-01
DAV:   4    -0.148545445465E+03   -0.30600E-04   -0.14567E-03 11896   0.284E-01    0.287E-01
DAV:   5    -0.148545303077E+03    0.14239E-03   -0.12586E-03 11872   0.156E-01    0.273E-01
DAV:   6    -0.148545221695E+03    0.81383E-04   -0.24394E-04 12040   0.114E-01    0.171E-01
DAV:   7    -0.148545114332E+03    0.10736E-03   -0.41436E-04 12096   0.104E-01    0.949E-02
DAV:   8    -0.148545196784E+03   -0.82452E-04   -0.25083E-04 12208   0.990E-02    0.134E-01
DAV:   9    -0.148545222262E+03   -0.25478E-04   -0.74591E-05 12448   0.701E-02    0.513E-02
DAV:  10    -0.148545304547E+03   -0.82285E-04   -0.25992E-05 11096   0.231E-02    0.470E-02
DAV:  11    -0.148545368221E+03   -0.63674E-04   -0.21896E-05 11280   0.286E-02    0.184E-02
DAV:  12    -0.148545466723E+03   -0.98503E-04   -0.90667E-06  8624   0.203E-02    0.138E-02
DAV:  13    -0.148545553497E+03   -0.86774E-04   -0.60465E-06  8288   0.131E-02    0.113E-02
DAV:  14    -0.148545603818E+03   -0.50321E-04   -0.19685E-06  6712   0.105E-02    0.942E-03
DAV:  15    -0.148545666761E+03   -0.62944E-04   -0.37968E-06  6824   0.777E-03    0.105E-02
DAV:  16    -0.148545698455E+03   -0.31694E-04   -0.13411E-06  6200   0.567E-03    0.284E-03
DAV:  17    -0.148545724444E+03   -0.25989E-04   -0.10416E-06  6056   0.320E-03    0.620E-03
DAV:  18    -0.148545751362E+03   -0.26918E-04   -0.14850E-06  6200   0.406E-03    0.544E-03
DAV:  19    -0.148545766243E+03   -0.14881E-04   -0.93463E-07  6016   0.325E-03    0.231E-03
DAV:  20    -0.148545770441E+03   -0.41980E-05   -0.47813E-07  5136   0.247E-03    0.196E-03
DAV:  21    -0.148545775095E+03   -0.46533E-05   -0.36226E-07  5656   0.177E-03    0.155E-03
DAV:  22    -0.148545779492E+03   -0.43972E-05   -0.32948E-07  5688   0.153E-03    0.866E-04
DAV:  23    -0.148545781221E+03   -0.17296E-05   -0.19527E-07  5072   0.134E-03    0.683E-04
DAV:  24    -0.148545782003E+03   -0.78109E-06   -0.11519E-07  5104   0.921E-04
  22 F= -.15476566E+03 E0= -.15475621E+03  d E =-.251854E-01  mag=    24.0000
 curvature:  -0.80 expect dE=-0.883E-02 dE for cont linesearch -0.202E-02
 ZBRENT: increasing intervall
 opt :   2.8256  next Energy=  -154.763060 (dE=-0.226E-01)
 bond charge predicted
       N       E                     dE             d eps       ncg     rms          rms(c)
DAV:   1    -0.148498159495E+03    0.47622E-01   -0.57606E+00  7904   0.495E+00    0.183E+00
DAV:   2    -0.148539546483E+03   -0.41387E-01   -0.39882E-01 11488   0.299E+00    0.209E+00
DAV:   3    -0.148544218534E+03   -0.46721E-02   -0.67937E-02 11864   0.221E+00    0.105E+00
DAV:   4    -0.148544141944E+03    0.76590E-04   -0.55315E-03 11888   0.599E-01    0.537E-01
DAV:   5    -0.148543724343E+03    0.41760E-03   -0.52447E-03 11912   0.317E-01    0.583E-01
DAV:   6    -0.148543430259E+03    0.29408E-03   -0.11178E-03 12160   0.239E-01    0.342E-01
DAV:   7    -0.148543206176E+03    0.22408E-03   -0.18321E-03 12208   0.240E-01    0.207E-01
DAV:   8    -0.148543433642E+03   -0.22747E-03   -0.84647E-04 12304   0.181E-01    0.220E-01
DAV:   9    -0.148543558287E+03   -0.12465E-03   -0.24905E-04 12336   0.111E-01    0.778E-02
DAV:  10    -0.148543786447E+03   -0.22816E-03   -0.94514E-05 12504   0.529E-02    0.836E-02
DAV:  11    -0.148543946395E+03   -0.15995E-03   -0.70906E-05 12472   0.584E-02    0.418E-02
DAV:  12    -0.148544232035E+03   -0.28564E-03   -0.37757E-05 11872   0.365E-02    0.251E-02
DAV:  13    -0.148544448862E+03   -0.21683E-03   -0.17137E-05 11080   0.237E-02    0.238E-02
DAV:  14    -0.148544600762E+03   -0.15190E-03   -0.50351E-06  8216   0.163E-02    0.786E-03
DAV:  15    -0.148544769219E+03   -0.16846E-03   -0.60728E-06  8864   0.729E-03    0.831E-03
DAV:  16    -0.148544887405E+03   -0.11819E-03   -0.25092E-06  6968   0.617E-03    0.583E-03
DAV:  17    -0.148544977334E+03   -0.89930E-04   -0.34803E-06  7568   0.672E-03    0.735E-03
DAV:  18    -0.148545017855E+03   -0.40521E-04   -0.24747E-06  6400   0.570E-03    0.734E-03
DAV:  19    -0.148545041118E+03   -0.23263E-04   -0.15642E-06  6448   0.446E-03    0.176E-03
DAV:  20    -0.148545049904E+03   -0.87860E-05   -0.83916E-07  5960   0.283E-03    0.481E-03
DAV:  21    -0.148545055929E+03   -0.60244E-05   -0.72518E-07  5792   0.315E-03    0.224E-03
DAV:  22    -0.148545058071E+03   -0.21428E-05   -0.34472E-07  5144   0.189E-03    0.111E-03
DAV:  23    -0.148545059187E+03   -0.11153E-05   -0.18906E-07  5096   0.132E-03    0.985E-04
DAV:  24    -0.148545061102E+03   -0.19150E-05   -0.12821E-07  5480   0.115E-03    0.756E-04
DAV:  25    -0.148545062516E+03   -0.14140E-05   -0.10490E-07  5048   0.913E-04    0.404E-04
DAV:  26    -0.148545063371E+03   -0.85493E-06   -0.71515E-08  5280   0.739E-04
  23 F= -.15476246E+03 E0= -.15475267E+03  d E =-.219889E-01  mag=    24.0000
 curvature:   1.04 expect dE= 0.469E-01 dE for cont linesearch  0.628E-02
 ZBRENT: bracketing found
 ZBRENT: interpolating
 opt :   1.9475  next Energy=  -154.768043 (dE=-0.276E-01)
 bond charge predicted
       N       E                     dE             d eps       ncg     rms          rms(c)
DAV:   1    -0.148531875361E+03    0.13187E-01   -0.21347E+00  7904   0.301E+00    0.111E+00
DAV:   2    -0.148546657071E+03   -0.14782E-01   -0.14418E-01 11480   0.176E+00    0.124E+00
DAV:   3    -0.148548793321E+03   -0.21362E-02   -0.23991E-02 11880   0.132E+00    0.646E-01
DAV:   4    -0.148548720246E+03    0.73075E-04   -0.20253E-03 12024   0.369E-01    0.314E-01
DAV:   5    -0.148548536524E+03    0.18372E-03   -0.17000E-03 11768   0.182E-01    0.342E-01
DAV:   6    -0.148548406772E+03    0.12975E-03   -0.42765E-04 11984   0.142E-01    0.190E-01
DAV:   7    -0.148548294594E+03    0.11218E-03   -0.66113E-04 12040   0.122E-01    0.120E-01
DAV:   8    -0.148548417163E+03   -0.12257E-03   -0.31524E-04 11904   0.120E-01    0.146E-01
DAV:   9    -0.148548457605E+03   -0.40442E-04   -0.99285E-05 12168   0.755E-02    0.462E-02
DAV:  10    -0.148548579366E+03   -0.12176E-03   -0.37466E-05 11424   0.277E-02    0.529E-02
DAV:  11    -0.148548658039E+03   -0.78674E-04   -0.27061E-05 11440   0.345E-02    0.222E-02
DAV:  12    -0.148548791740E+03   -0.13370E-03   -0.14042E-05 10120   0.232E-02    0.180E-02
DAV:  13    -0.148548896669E+03   -0.10493E-03   -0.66084E-06  7848   0.143E-02    0.115E-02
DAV:  14    -0.148548970098E+03   -0.73429E-04   -0.26646E-06  7024   0.115E-02    0.970E-03
DAV:  15    -0.148549050161E+03   -0.80063E-04   -0.44429E-06  7576   0.823E-03    0.942E-03
DAV:  16    -0.148549089189E+03   -0.39028E-04   -0.12627E-06  6096   0.591E-03    0.241E-03
DAV:  17    -0.148549136380E+03   -0.47191E-04   -0.18093E-06  6624   0.381E-03    0.579E-03
DAV:  18    -0.148549165368E+03   -0.28988E-04   -0.17433E-06  6256   0.449E-03    0.684E-03
DAV:  19    -0.148549175976E+03   -0.10608E-04   -0.81457E-07  5744   0.360E-03    0.162E-03
DAV:  20    -0.148549179842E+03   -0.38661E-05   -0.48030E-07  5104   0.200E-03    0.187E-03
DAV:  21    -0.148549184535E+03   -0.46933E-05   -0.33360E-07  5656   0.191E-03    0.203E-03
DAV:  22    -0.148549187413E+03   -0.28777E-05   -0.23125E-07  5264   0.154E-03    0.493E-04
DAV:  23    -0.148549189835E+03   -0.24227E-05   -0.21778E-07  5352   0.117E-03    0.102E-03
DAV:  24    -0.148549190582E+03   -0.74612E-06   -0.10697E-07  5168   0.105E-03
  24 F= -.15476810E+03 E0= -.15475852E+03  d E =-.276286E-01  mag=    24.0000
 curvature:  -0.39 expect dE=-0.682E-02 dE for cont linesearch -0.440E-06
 trial: gam= 0.61765 g(F)=  0.173E-01 g(S)=  0.000E+00 ort = 0.178E-03 (trialstep = 0.414E+00)
 search vector abs. value=  0.284E-01
 bond charge predicted
       N       E                     dE             d eps       ncg     rms          rms(c)
DAV:   1    -0.148553363660E+03   -0.41738E-02   -0.41515E-01  7936   0.131E+00    0.555E-01
DAV:   2    -0.148555921466E+03   -0.25578E-02   -0.35758E-02 11464   0.101E+00    0.828E-01
DAV:   3    -0.148556401588E+03   -0.48012E-03   -0.72877E-03 11576   0.720E-01    0.231E-01
DAV:   4    -0.148556473710E+03   -0.72122E-04   -0.62623E-04 11784   0.132E-01    0.191E-01
DAV:   5    -0.148556443396E+03    0.30313E-04   -0.58318E-04 11464   0.123E-01    0.184E-01
DAV:   6    -0.148556426828E+03    0.16568E-04   -0.11093E-04 11648   0.689E-02    0.103E-01
DAV:   7    -0.148556440901E+03   -0.14073E-04   -0.12394E-04 11544   0.454E-02    0.538E-02
DAV:   8    -0.148556469963E+03   -0.29062E-04   -0.80571E-05 12568   0.625E-02    0.645E-02
DAV:   9    -0.148556471381E+03   -0.14180E-05   -0.20141E-05 11432   0.338E-02    0.339E-02
DAV:  10    -0.148556479246E+03   -0.78648E-05   -0.10409E-05  6208   0.130E-02    0.212E-02
DAV:  11    -0.148556485902E+03   -0.66555E-05   -0.57806E-06  7144   0.160E-02    0.123E-02
DAV:  12    -0.148556494802E+03   -0.88998E-05   -0.30578E-06  5968   0.107E-02    0.109E-02
DAV:  13    -0.148556498726E+03   -0.39249E-05   -0.24219E-06  5440   0.771E-03    0.446E-03
DAV:  14    -0.148556503332E+03   -0.46054E-05   -0.12223E-06  5640   0.748E-03    0.485E-03
DAV:  15    -0.148556506533E+03   -0.32010E-05   -0.72709E-07  5392   0.393E-03    0.279E-03
DAV:  16    -0.148556508590E+03   -0.20578E-05   -0.30210E-07  5224   0.282E-03    0.159E-03
DAV:  17    -0.148556511306E+03   -0.27158E-05   -0.20354E-07  5256   0.190E-03    0.342E-03
DAV:  18    -0.148556513782E+03   -0.24753E-05   -0.18930E-07  5416   0.212E-03    0.130E-03
DAV:  19    -0.148556514803E+03   -0.10219E-05   -0.11488E-07  5224   0.133E-03    0.134E-03
DAV:  20    -0.148556515327E+03   -0.52320E-06   -0.81585E-08  4976   0.113E-03
  25 F= -.15477463E+03 E0= -.15476489E+03  d E =-.653050E-02  mag=    24.0000
 ZBRENT: can't locate minimum, use default step
 trial-energy change:   -0.006531  1 .order   -0.006531   -0.007217   -0.005845
 step:   1.6542(harm=  2.1752)  dis= 0.01875  next Energy=  -154.787083 (dE=-0.190E-01)
 bond charge predicted
       N       E                     dE             d eps       ncg     rms          rms(c)
DAV:   1    -0.148541573401E+03    0.14941E-01   -0.37333E+00  7904   0.392E+00    0.153E+00
DAV:   2    -0.148566990524E+03   -0.25417E-01   -0.30805E-01 11496   0.272E+00    0.207E+00
DAV:   3    -0.148569939370E+03   -0.29488E-02   -0.50865E-02 11552   0.189E+00    0.693E-01
DAV:   4    -0.148570184675E+03   -0.24530E-03   -0.46060E-03 11856   0.361E-01    0.509E-01
DAV:   5    -0.148569993180E+03    0.19149E-03   -0.44374E-03 11432   0.346E-01    0.561E-01
DAV:   6    -0.148569825475E+03    0.16771E-03   -0.10231E-03 11824   0.213E-01    0.308E-01
DAV:   7    -0.148569929981E+03   -0.10451E-03   -0.14687E-03 11840   0.161E-01    0.180E-01
DAV:   8    -0.148570026266E+03   -0.96285E-04   -0.47921E-04 12712   0.173E-01    0.126E-01
DAV:   9    -0.148570080771E+03   -0.54505E-04   -0.95974E-05 11456   0.456E-02    0.895E-02
DAV:  10    -0.148570107346E+03   -0.26574E-04   -0.11593E-04 11896   0.565E-02    0.682E-02
DAV:  11    -0.148570142660E+03   -0.35314E-04   -0.37424E-05 12096   0.467E-02    0.505E-02
DAV:  12    -0.148570178980E+03   -0.36320E-04   -0.25428E-05 11736   0.315E-02    0.268E-02
DAV:  13    -0.148570204995E+03   -0.26016E-04   -0.65003E-06  7912   0.164E-02    0.143E-02
DAV:  14    -0.148570229163E+03   -0.24167E-04   -0.28123E-06  6832   0.141E-02    0.612E-03
DAV:  15    -0.148570250620E+03   -0.21457E-04   -0.22641E-06  6600   0.566E-03    0.520E-03
DAV:  16    -0.148570268140E+03   -0.17520E-04   -0.11639E-06  6144   0.514E-03    0.439E-03
DAV:  17    -0.148570280058E+03   -0.11918E-04   -0.77106E-07  5808   0.454E-03    0.346E-03
DAV:  18    -0.148570288786E+03   -0.87276E-05   -0.63195E-07  5880   0.350E-03    0.196E-03
DAV:  19    -0.148570292751E+03   -0.39648E-05   -0.49013E-07  5232   0.213E-03    0.240E-03
DAV:  20    -0.148570295028E+03   -0.22775E-05   -0.24124E-07  5080   0.191E-03    0.166E-03
DAV:  21    -0.148570297594E+03   -0.25658E-05   -0.19097E-07  5448   0.133E-03    0.121E-03
DAV:  22    -0.148570299755E+03   -0.21610E-05   -0.18635E-07  5360   0.159E-03    0.180E-03
DAV:  23    -0.148570300608E+03   -0.85292E-06   -0.10210E-07  5176   0.117E-03
  26 F= -.15478602E+03 E0= -.15477576E+03  d E =-.179180E-01  mag=    24.0000
 curvature:  -1.62 expect dE=-0.139E-01 dE for cont linesearch -0.102E-02
 ZBRENT: extrapolating
 opt :   2.1836  next Energy=  -154.787139 (dE=-0.190E-01)
 bond charge predicted
       N       E                     dE             d eps       ncg     rms          rms(c)
DAV:   1    -0.148567164115E+03    0.31356E-02   -0.67909E-01  7904   0.167E+00    0.615E-01
DAV:   2    -0.148571869146E+03   -0.47050E-02   -0.54795E-02 11392   0.107E+00    0.788E-01
DAV:   3    -0.148572352244E+03   -0.48310E-03   -0.76999E-03 11472   0.735E-01    0.304E-01
DAV:   4    -0.148572370991E+03   -0.18747E-04   -0.69683E-04 11800   0.161E-01    0.196E-01
DAV:   5    -0.148572338324E+03    0.32668E-04   -0.68932E-04 11624   0.136E-01    0.233E-01
DAV:   6    -0.148572297871E+03    0.40453E-04   -0.21180E-04 11872   0.983E-02    0.117E-01
DAV:   7    -0.148572317654E+03   -0.19783E-04   -0.17185E-04 12224   0.747E-02    0.944E-02
DAV:   8    -0.148572344956E+03   -0.27303E-04   -0.99970E-05 12808   0.638E-02    0.535E-02
DAV:   9    -0.148572361601E+03   -0.16644E-04   -0.47992E-05 11312   0.301E-02    0.463E-02
DAV:  10    -0.148572366048E+03   -0.44471E-05   -0.15709E-05  9680   0.285E-02    0.169E-02
DAV:  11    -0.148572379976E+03   -0.13928E-04   -0.64267E-06  7376   0.162E-02    0.185E-02
DAV:  12    -0.148572392988E+03   -0.13013E-04   -0.58190E-06  7720   0.148E-02    0.104E-02
DAV:  13    -0.148572399566E+03   -0.65776E-05   -0.19724E-06  5680   0.850E-03    0.564E-03
DAV:  14    -0.148572405470E+03   -0.59042E-05   -0.90391E-07  5280   0.533E-03    0.371E-03
DAV:  15    -0.148572410625E+03   -0.51546E-05   -0.85745E-07  5544   0.325E-03    0.478E-03
DAV:  16    -0.148572413552E+03   -0.29278E-05   -0.53297E-07  5160   0.357E-03    0.294E-03
DAV:  17    -0.148572417731E+03   -0.41782E-05   -0.33918E-07  5624   0.221E-03    0.277E-03
DAV:  18    -0.148572420525E+03   -0.27941E-05   -0.27703E-07  5552   0.201E-03    0.196E-03
DAV:  19    -0.148572421460E+03   -0.93534E-06   -0.14613E-07  5168   0.156E-03
  27 F= -.15478711E+03 E0= -.15477664E+03  d E =-.190095E-01  mag=    24.0000
 curvature:  -1.78 expect dE=-0.226E-01 dE for cont linesearch -0.566E-06
 trial: gam= 0.72757 g(F)=  0.127E-01 g(S)=  0.000E+00 ort =-0.951E-04 (trialstep = 0.768E+00)
 search vector abs. value=  0.276E-01
 bond charge predicted
       N       E                     dE             d eps       ncg     rms          rms(c)
DAV:   1    -0.148569977161E+03    0.24434E-02   -0.15890E+00  7904   0.255E+00    0.972E-01
DAV:   2    -0.148580414429E+03   -0.10437E-01   -0.11807E-01 11608   0.162E+00    0.112E+00
DAV:   3    -0.148581553413E+03   -0.11390E-02   -0.19534E-02 11488   0.122E+00    0.485E-01
DAV:   4    -0.148581607587E+03   -0.54174E-04   -0.22283E-03 11672   0.307E-01    0.312E-01
DAV:   5    -0.148581575177E+03    0.32410E-04   -0.19767E-03 12000   0.255E-01    0.381E-01
DAV:   6    -0.148581547054E+03    0.28123E-04   -0.75614E-04 11760   0.236E-01    0.210E-01
DAV:   7    -0.148581569302E+03   -0.22248E-04   -0.46936E-04 11904   0.169E-01    0.125E-01
DAV:   8    -0.148581719946E+03   -0.15064E-03   -0.45064E-04 12464   0.882E-02    0.133E-01
DAV:   9    -0.148581747273E+03   -0.27327E-04   -0.15102E-04 12040   0.896E-02    0.942E-02
DAV:  10    -0.148581771375E+03   -0.24102E-04   -0.99128E-05 11288   0.504E-02    0.434E-02
DAV:  11    -0.148581807256E+03   -0.35880E-04   -0.36325E-05 11592   0.336E-02    0.312E-02
DAV:  12    -0.148581839076E+03   -0.31820E-04   -0.93667E-06 10640   0.201E-02    0.261E-02
DAV:  13    -0.148581851015E+03   -0.11939E-04   -0.40558E-06  7816   0.126E-02    0.169E-02
DAV:  14    -0.148581860514E+03   -0.94983E-05   -0.24904E-06  6048   0.670E-03    0.578E-03
DAV:  15    -0.148581866297E+03   -0.57834E-05   -0.14078E-06  5840   0.608E-03    0.417E-03
DAV:  16    -0.148581871931E+03   -0.56344E-05   -0.93752E-07  5976   0.485E-03    0.724E-03
DAV:  17    -0.148581876009E+03   -0.40774E-05   -0.71556E-07  5496   0.385E-03    0.181E-03
DAV:  18    -0.148581879407E+03   -0.33977E-05   -0.43008E-07  5560   0.289E-03    0.439E-03
DAV:  19    -0.148581881108E+03   -0.17010E-05   -0.37362E-07  5248   0.258E-03    0.295E-03
DAV:  20    -0.148581882427E+03   -0.13197E-05   -0.17436E-07  5016   0.176E-03    0.796E-04
DAV:  21    -0.148581883662E+03   -0.12351E-05   -0.12809E-07  5328   0.111E-03    0.152E-03
DAV:  22    -0.148581884682E+03   -0.10193E-05   -0.84086E-08  5000   0.116E-03    0.754E-04
DAV:  23    -0.148581885411E+03   -0.72957E-06   -0.56972E-08  5056   0.795E-04
  28 F= -.15479571E+03 E0= -.15478456E+03  d E =-.860105E-02  mag=    24.0000
 trial-energy change:   -0.008601  1 .order   -0.008540   -0.009697   -0.007384
 step:   2.4066(harm=  3.2181)  dis= 0.02206  next Energy=  -154.804189 (dE=-0.171E-01)
 bond charge predicted
       N       E                     dE             d eps       ncg     rms          rms(c)
DAV:   1    -0.148538274755E+03    0.43610E-01   -0.72310E+00  7904   0.544E+00    0.190E+00
DAV:   2    -0.148589589009E+03   -0.51314E-01   -0.53601E-01 11640   0.319E+00    0.209E+00
DAV:   3    -0.148592156163E+03   -0.25672E-02   -0.74332E-02 11552   0.247E+00    0.114E+00
DAV:   4    -0.148591863077E+03    0.29309E-03   -0.74431E-03 11736   0.732E-01    0.569E-01
DAV:   5    -0.148591630080E+03    0.23300E-03   -0.41590E-03 11840   0.322E-01    0.614E-01
DAV:   6    -0.148591528505E+03    0.10158E-03   -0.19891E-03 11928   0.347E-01    0.378E-01
DAV:   7    -0.148591440209E+03    0.88296E-04   -0.19470E-03 11512   0.234E-01    0.280E-01
DAV:   8    -0.148591650142E+03   -0.20993E-03   -0.14959E-03 12336   0.257E-01    0.265E-01
DAV:   9    -0.148591859704E+03   -0.20956E-03   -0.10651E-03 12072   0.217E-01    0.245E-01
DAV:  10    -0.148591869962E+03   -0.10258E-04   -0.44175E-04 11568   0.112E-01    0.108E-01
DAV:  11    -0.148591959664E+03   -0.89702E-04   -0.11275E-04 12080   0.479E-02    0.472E-02
DAV:  12    -0.148592054010E+03   -0.94347E-04   -0.29381E-05 11416   0.238E-02    0.424E-02
DAV:  13    -0.148592085760E+03   -0.31750E-04   -0.77137E-06  8816   0.134E-02    0.357E-02
DAV:  14    -0.148592113171E+03   -0.27411E-04   -0.80235E-06  8024   0.129E-02    0.897E-03
DAV:  15    -0.148592134704E+03   -0.21533E-04   -0.48933E-06  8264   0.939E-03    0.899E-03
DAV:  16    -0.148592144871E+03   -0.10167E-04   -0.10698E-06  5944   0.555E-03    0.480E-03
DAV:  17    -0.148592155416E+03   -0.10545E-04   -0.71433E-07  5976   0.379E-03    0.363E-03
DAV:  18    -0.148592163629E+03   -0.82128E-05   -0.84023E-07  5920   0.340E-03    0.441E-03
DAV:  19    -0.148592166522E+03   -0.28931E-05   -0.49975E-07  5176   0.313E-03    0.378E-03
DAV:  20    -0.148592168530E+03   -0.20078E-05   -0.28636E-07  5200   0.248E-03    0.203E-03
DAV:  21    -0.148592170623E+03   -0.20936E-05   -0.19178E-07  5312   0.155E-03    0.144E-03
DAV:  22    -0.148592172650E+03   -0.20270E-05   -0.15023E-07  5464   0.137E-03    0.149E-03
DAV:  23    -0.148592174174E+03   -0.15239E-05   -0.10897E-07  5032   0.109E-03    0.662E-04
DAV:  24    -0.148592175509E+03   -0.13354E-05   -0.77958E-08  5080   0.874E-04    0.520E-04
DAV:  25    -0.148592176248E+03   -0.73843E-06   -0.50179E-08  5064   0.684E-04
  29 F= -.15480412E+03 E0= -.15479217E+03  d E =-.170089E-01  mag=    24.0000
 curvature:  -3.13 expect dE=-0.404E-01 dE for cont linesearch -0.155E-05
 trial: gam= 0.78246 g(F)=  0.129E-01 g(S)=  0.000E+00 ort =-0.117E-03 (trialstep = 0.102E+01)
 search vector abs. value=  0.296E-01
 bond charge predicted
       N       E                     dE             d eps       ncg     rms          rms(c)
DAV:   1    -0.148580774922E+03    0.11401E-01   -0.28989E+00  7904   0.342E+00    0.112E+00
DAV:   2    -0.148601937516E+03   -0.21163E-01   -0.22365E-01 11480   0.197E+00    0.101E+00
DAV:   3    -0.148603044592E+03   -0.11071E-02   -0.19397E-02 11664   0.123E+00    0.736E-01
DAV:   4    -0.148602619720E+03    0.42487E-03   -0.27074E-03 11712   0.493E-01    0.318E-01
DAV:   5    -0.148602448480E+03    0.17124E-03   -0.81029E-04 11920   0.147E-01    0.307E-01
DAV:   6    -0.148602361616E+03    0.86864E-04   -0.74749E-04 12432   0.168E-01    0.315E-01
DAV:   7    -0.148602127429E+03    0.23419E-03   -0.95734E-04 11848   0.170E-01    0.220E-01
DAV:   8    -0.148602114595E+03    0.12834E-04   -0.55710E-04 12464   0.165E-01    0.123E-01
DAV:   9    -0.148602264176E+03   -0.14958E-03   -0.37286E-04 12528   0.102E-01    0.126E-01
DAV:  10    -0.148602344999E+03   -0.80823E-04   -0.12067E-04 11776   0.688E-02    0.461E-02
DAV:  11    -0.148602494008E+03   -0.14901E-03   -0.35320E-05 11520   0.355E-02    0.246E-02
DAV:  12    -0.148602670995E+03   -0.17699E-03   -0.10646E-05 10032   0.172E-02    0.277E-02
DAV:  13    -0.148602765071E+03   -0.94076E-04   -0.53481E-06  7520   0.109E-02    0.122E-02
DAV:  14    -0.148602864705E+03   -0.99634E-04   -0.49661E-06  8496   0.752E-03    0.711E-03
DAV:  15    -0.148602936913E+03   -0.72208E-04   -0.16366E-06  6512   0.464E-03    0.504E-03
DAV:  16    -0.148602971015E+03   -0.34102E-04   -0.10322E-06  6168   0.460E-03    0.355E-03
DAV:  17    -0.148602996343E+03   -0.25328E-04   -0.13164E-06  6344   0.334E-03    0.461E-03
DAV:  18    -0.148603007587E+03   -0.11245E-04   -0.71550E-07  5824   0.344E-03    0.342E-03
DAV:  19    -0.148603010283E+03   -0.26953E-05   -0.41013E-07  5136   0.259E-03    0.250E-03
DAV:  20    -0.148603012863E+03   -0.25806E-05   -0.29448E-07  5352   0.186E-03    0.226E-03
DAV:  21    -0.148603015132E+03   -0.22687E-05   -0.21246E-07  5304   0.156E-03    0.908E-04
DAV:  22    -0.148603016183E+03   -0.10513E-05   -0.13264E-07  5136   0.115E-03    0.655E-04
DAV:  23    -0.148603016821E+03   -0.63804E-06   -0.80468E-08  5016   0.869E-04
  30 F= -.15481413E+03 E0= -.15480185E+03  d E =-.100083E-01  mag=    24.0000
 trial-energy change:   -0.010008  1 .order   -0.009897   -0.013088   -0.006706
 step:   1.9160(harm=  2.0921)  dis= 0.02171  next Energy=  -154.817149 (dE=-0.130E-01)
 bond charge predicted
       N       E                     dE             d eps       ncg     rms          rms(c)
DAV:   1    -0.148589894768E+03    0.13121E-01   -0.22348E+00  7904   0.301E+00    0.972E-01
DAV:   2    -0.148606124105E+03   -0.16229E-01   -0.17237E-01 11448   0.177E+00    0.862E-01
DAV:   3    -0.148606960281E+03   -0.83618E-03   -0.14268E-02 11680   0.105E+00    0.656E-01
DAV:   4    -0.148606615533E+03    0.34475E-03   -0.20426E-03 11752   0.432E-01    0.276E-01
DAV:   5    -0.148606469852E+03    0.14568E-03   -0.57812E-04 12200   0.117E-01    0.271E-01
DAV:   6    -0.148606405709E+03    0.64143E-04   -0.65644E-04 12192   0.152E-01    0.314E-01
DAV:   7    -0.148606194856E+03    0.21085E-03   -0.76694E-04 11856   0.157E-01    0.198E-01
DAV:   8    -0.148606174590E+03    0.20266E-04   -0.39979E-04 12496   0.145E-01    0.804E-02
DAV:   9    -0.148606300461E+03   -0.12587E-03   -0.25348E-04 12808   0.785E-02    0.106E-01
DAV:  10    -0.148606362706E+03   -0.62245E-04   -0.85843E-05 11840   0.588E-02    0.386E-02
DAV:  11    -0.148606482544E+03   -0.11984E-03   -0.23018E-05 10728   0.300E-02    0.174E-02
DAV:  12    -0.148606629436E+03   -0.14689E-03   -0.70380E-06  9208   0.138E-02    0.188E-02
DAV:  13    -0.148606707071E+03   -0.77635E-04   -0.32831E-06  7080   0.914E-03    0.774E-03
DAV:  14    -0.148606780406E+03   -0.73335E-04   -0.29222E-06  7008   0.555E-03    0.566E-03
DAV:  15    -0.148606843736E+03   -0.63330E-04   -0.16551E-06  6536   0.408E-03    0.415E-03
DAV:  16    -0.148606867868E+03   -0.24132E-04   -0.76354E-07  6032   0.383E-03    0.242E-03
DAV:  17    -0.148606890856E+03   -0.22988E-04   -0.79024E-07  6024   0.254E-03    0.319E-03
DAV:  18    -0.148606905706E+03   -0.14850E-04   -0.68243E-07  6080   0.287E-03    0.276E-03
DAV:  19    -0.148606909261E+03   -0.35555E-05   -0.40041E-07  5192   0.246E-03    0.298E-03
DAV:  20    -0.148606911337E+03   -0.20754E-05   -0.25706E-07  5264   0.176E-03    0.133E-03
DAV:  21    -0.148606913798E+03   -0.24611E-05   -0.18666E-07  5400   0.129E-03    0.797E-04
DAV:  22    -0.148606914883E+03   -0.10849E-05   -0.11296E-07  5008   0.113E-03    0.100E-03
DAV:  23    -0.148606915673E+03   -0.78998E-06   -0.79170E-08  5152   0.849E-04
  31 F= -.15481728E+03 E0= -.15480483E+03  d E =-.131628E-01  mag=    24.0000
 curvature:  -2.35 expect dE=-0.164E-01 dE for cont linesearch -0.101E-04
 trial: gam= 0.18662 g(F)=  0.698E-02 g(S)=  0.000E+00 ort = 0.356E-03 (trialstep = 0.120E+01)
 search vector abs. value=  0.815E-02
 bond charge predicted
       N       E                     dE             d eps       ncg     rms          rms(c)
DAV:   1    -0.148605683221E+03    0.12317E-02   -0.97878E-01  7920   0.204E+00    0.702E-01
DAV:   2    -0.148613172325E+03   -0.74891E-02   -0.71265E-02 11272   0.101E+00    0.473E-01
DAV:   3    -0.148614090744E+03   -0.91842E-03   -0.48040E-03 11688   0.541E-01    0.464E-01
DAV:   4    -0.148613979217E+03    0.11153E-03   -0.10635E-03 11792   0.303E-01    0.180E-01
DAV:   5    -0.148613958293E+03    0.20925E-04   -0.25358E-04 11952   0.573E-02    0.180E-01
DAV:   6    -0.148613939728E+03    0.18565E-04   -0.22743E-04 11680   0.876E-02    0.170E-01
DAV:   7    -0.148613944215E+03   -0.44872E-05   -0.42984E-04 12672   0.112E-01    0.173E-01
DAV:   8    -0.148613929515E+03    0.14700E-04   -0.20734E-04 12472   0.986E-02    0.575E-02
DAV:   9    -0.148613969473E+03   -0.39958E-04   -0.14875E-04 12584   0.518E-02    0.624E-02
DAV:  10    -0.148613976337E+03   -0.68637E-05   -0.38414E-05 10984   0.431E-02    0.244E-02
DAV:  11    -0.148613991211E+03   -0.14875E-04   -0.10076E-05  7848   0.199E-02    0.191E-02
DAV:  12    -0.148614006123E+03   -0.14912E-04   -0.53052E-06  8392   0.115E-02    0.143E-02
DAV:  13    -0.148614010546E+03   -0.44229E-05   -0.20588E-06  5552   0.582E-03    0.554E-03
DAV:  14    -0.148614014848E+03   -0.43020E-05   -0.83856E-07  5640   0.366E-03    0.491E-03
DAV:  15    -0.148614017497E+03   -0.26489E-05   -0.53504E-07  5368   0.350E-03    0.323E-03
DAV:  16    -0.148614019917E+03   -0.24199E-05   -0.32723E-07  5584   0.252E-03    0.494E-03
DAV:  17    -0.148614021771E+03   -0.18537E-05   -0.61826E-07  5096   0.296E-03    0.591E-03
DAV:  18    -0.148614022668E+03   -0.89712E-06   -0.27274E-07  5248   0.263E-03
  32 F= -.15482348E+03 E0= -.15481092E+03  d E =-.620085E-02  mag=    24.0000
 trial-energy change:   -0.006201  1 .order   -0.006217   -0.008456   -0.003978
 step:   2.3103(harm=  2.2647)  dis= 0.01618  next Energy=  -154.825314 (dE=-0.803E-02)
 bond charge predicted
       N       E                     dE             d eps       ncg     rms          rms(c)
DAV:   1    -0.148609511788E+03    0.45100E-02   -0.83994E-01  7904   0.189E+00    0.647E-01
DAV:   2    -0.148615944461E+03   -0.64327E-02   -0.60936E-02 11256   0.921E-01    0.425E-01
DAV:   3    -0.148616724287E+03   -0.77983E-03   -0.40509E-03 11608   0.496E-01    0.436E-01
DAV:   4    -0.148616623352E+03    0.10093E-03   -0.91552E-04 11776   0.281E-01    0.164E-01
DAV:   5    -0.148616603730E+03    0.19622E-04   -0.23629E-04 12192   0.517E-02    0.168E-01
DAV:   6    -0.148616587446E+03    0.16284E-04   -0.19080E-04 11776   0.820E-02    0.150E-01
DAV:   7    -0.148616594045E+03   -0.65994E-05   -0.35620E-04 12640   0.104E-01    0.158E-01
DAV:   8    -0.148616581191E+03    0.12854E-04   -0.18107E-04 12376   0.921E-02    0.531E-02
DAV:   9    -0.148616615987E+03   -0.34796E-04   -0.13404E-04 12504   0.500E-02    0.598E-02
DAV:  10    -0.148616620862E+03   -0.48753E-05   -0.32779E-05 10904   0.405E-02    0.259E-02
DAV:  11    -0.148616633414E+03   -0.12551E-04   -0.92412E-06  7288   0.185E-02    0.176E-02
DAV:  12    -0.148616647265E+03   -0.13851E-04   -0.56000E-06  8144   0.104E-02    0.140E-02
DAV:  13    -0.148616650904E+03   -0.36388E-05   -0.21772E-06  5488   0.602E-03    0.536E-03
DAV:  14    -0.148616654537E+03   -0.36329E-05   -0.83907E-07  5568   0.401E-03    0.661E-03
DAV:  15    -0.148616656856E+03   -0.23192E-05   -0.64937E-07  5344   0.384E-03    0.354E-03
DAV:  16    -0.148616659206E+03   -0.23501E-05   -0.39663E-07  5536   0.303E-03    0.499E-03
DAV:  17    -0.148616660922E+03   -0.17160E-05   -0.52636E-07  5112   0.297E-03    0.520E-03
DAV:  18    -0.148616662025E+03   -0.11028E-05   -0.25519E-07  5168   0.245E-03    0.183E-03
DAV:  19    -0.148616662552E+03   -0.52702E-06   -0.11173E-07  5168   0.132E-03
  33 F= -.15482528E+03 E0= -.15481261E+03  d E =-.799725E-02  mag=    24.0000
 curvature:  -1.31 expect dE=-0.713E-02 dE for cont linesearch -0.819E-06
 trial: gam= 0.80746 g(F)=  0.546E-02 g(S)=  0.000E+00 ort =-0.715E-04 (trialstep = 0.109E+01)
 search vector abs. value=  0.107E-01
 bond charge predicted
       N       E                     dE             d eps       ncg     rms          rms(c)
DAV:   1    -0.148612740420E+03    0.39216E-02   -0.13251E+00  7904   0.230E+00    0.790E-01
DAV:   2    -0.148620583991E+03   -0.78436E-02   -0.83899E-02 11184   0.130E+00    0.603E-01
DAV:   3    -0.148621722243E+03   -0.11383E-02   -0.89588E-03 10952   0.793E-01    0.413E-01
DAV:   4    -0.148621486662E+03    0.23558E-03   -0.19269E-03 11040   0.375E-01    0.213E-01
DAV:   5    -0.148621458177E+03    0.28485E-04   -0.38128E-04 11848   0.103E-01    0.163E-01
DAV:   6    -0.148621443946E+03    0.14231E-04   -0.42951E-04 12840   0.103E-01    0.214E-01
DAV:   7    -0.148621409021E+03    0.34924E-04   -0.30007E-04 11976   0.131E-01    0.167E-01
DAV:   8    -0.148621400534E+03    0.84873E-05   -0.26768E-04 12768   0.106E-01    0.886E-02
DAV:   9    -0.148621478192E+03   -0.77658E-04   -0.17640E-04 12376   0.683E-02    0.124E-01
DAV:  10    -0.148621492267E+03   -0.14075E-04   -0.62848E-05 11256   0.544E-02    0.206E-02
DAV:  11    -0.148621547147E+03   -0.54880E-04   -0.81336E-06  8480   0.173E-02    0.128E-02
DAV:  12    -0.148621614060E+03   -0.66912E-04   -0.61558E-06  9000   0.997E-03    0.107E-02
DAV:  13    -0.148621647233E+03   -0.33174E-04   -0.15743E-06  6424   0.583E-03    0.101E-02
DAV:  14    -0.148621672847E+03   -0.25614E-04   -0.12141E-06  6128   0.475E-03    0.392E-03
DAV:  15    -0.148621698336E+03   -0.25489E-04   -0.11173E-06  6112   0.367E-03    0.295E-03
DAV:  16    -0.148621709602E+03   -0.11266E-04   -0.70227E-07  5840   0.334E-03    0.501E-03
DAV:  17    -0.148621715766E+03   -0.61636E-05   -0.59180E-07  5576   0.282E-03    0.184E-03
DAV:  18    -0.148621718904E+03   -0.31386E-05   -0.30618E-07  5152   0.215E-03    0.315E-03
DAV:  19    -0.148621720731E+03   -0.18273E-05   -0.23369E-07  5144   0.183E-03    0.203E-03
DAV:  20    -0.148621722150E+03   -0.14186E-05   -0.14015E-07  5416   0.128E-03    0.665E-04
DAV:  21    -0.148621723183E+03   -0.10328E-05   -0.98213E-08  5056   0.101E-03    0.155E-03
DAV:  22    -0.148621723935E+03   -0.75266E-06   -0.71852E-08  5272   0.953E-04
  34 F= -.15482936E+03 E0= -.15481649E+03  d E =-.407937E-02  mag=    24.0000
 trial-energy change:   -0.004079  1 .order   -0.004069   -0.005871   -0.002267
 step:   1.7526(harm=  1.7711)  dis= 0.01508  next Energy=  -154.830056 (dE=-0.478E-02)
 bond charge predicted
       N       E                     dE             d eps       ncg     rms          rms(c)
DAV:   1    -0.148619667044E+03    0.20561E-02   -0.49659E-01  7920   0.141E+00    0.482E-01
DAV:   2    -0.148622496897E+03   -0.28299E-02   -0.31147E-02 11160   0.776E-01    0.362E-01
DAV:   3    -0.148623002505E+03   -0.50561E-03   -0.32678E-03 10920   0.477E-01    0.267E-01
DAV:   4    -0.148622915060E+03    0.87444E-04   -0.67150E-04 11016   0.225E-01    0.126E-01
DAV:   5    -0.148622900823E+03    0.14237E-04   -0.14423E-04 11712   0.539E-02    0.102E-01
DAV:   6    -0.148622893761E+03    0.70623E-05   -0.16193E-04 12344   0.612E-02    0.135E-01
DAV:   7    -0.148622875731E+03    0.18030E-04   -0.11585E-04 11896   0.803E-02    0.101E-01
DAV:   8    -0.148622871127E+03    0.46042E-05   -0.89817E-05 12624   0.638E-02    0.570E-02
DAV:   9    -0.148622905969E+03   -0.34842E-04   -0.76332E-05 12112   0.469E-02    0.762E-02
DAV:  10    -0.148622914461E+03   -0.84918E-05   -0.22012E-05  9688   0.342E-02    0.153E-02
DAV:  11    -0.148622940598E+03   -0.26137E-04   -0.31028E-06  6592   0.110E-02    0.821E-03
DAV:  12    -0.148622973608E+03   -0.33010E-04   -0.26830E-06  6696   0.652E-03    0.750E-03
DAV:  13    -0.148622990761E+03   -0.17153E-04   -0.15263E-06  5952   0.506E-03    0.841E-03
DAV:  14    -0.148622998697E+03   -0.79356E-05   -0.11830E-06  5328   0.494E-03    0.498E-03
DAV:  15    -0.148623009866E+03   -0.11170E-04   -0.64227E-07  5848   0.323E-03    0.387E-03
DAV:  16    -0.148623016397E+03   -0.65308E-05   -0.54206E-07  5608   0.317E-03    0.389E-03
DAV:  17    -0.148623020568E+03   -0.41708E-05   -0.43576E-07  5576   0.224E-03    0.220E-03
DAV:  18    -0.148623023101E+03   -0.25334E-05   -0.27202E-07  5360   0.206E-03    0.273E-03
DAV:  19    -0.148623024147E+03   -0.10459E-05   -0.16584E-07  5120   0.143E-03    0.847E-04
DAV:  20    -0.148623024694E+03   -0.54687E-06   -0.90583E-08  4984   0.906E-04
  35 F= -.15483005E+03 E0= -.15481707E+03  d E =-.477324E-02  mag=    24.0000
 curvature:  -1.75 expect dE=-0.391E-02 dE for cont linesearch -0.709E-09
 trial: gam= 0.38265 g(F)=  0.224E-02 g(S)=  0.000E+00 ort = 0.208E-05 (trialstep = 0.122E+01)
 search vector abs. value=  0.380E-02
 bond charge predicted
       N       E                     dE             d eps       ncg     rms          rms(c)
DAV:   1    -0.148621860355E+03    0.11638E-02   -0.49018E-01  7920   0.143E+00    0.554E-01
DAV:   2    -0.148624789099E+03   -0.29287E-02   -0.36287E-02 11352   0.925E-01    0.692E-01
DAV:   3    -0.148625466758E+03   -0.67766E-03   -0.62024E-03 11656   0.673E-01    0.384E-01
DAV:   4    -0.148625443262E+03    0.23496E-04   -0.83400E-04 11680   0.257E-01    0.144E-01
DAV:   5    -0.148625394493E+03    0.48770E-04   -0.40139E-04 11816   0.635E-02    0.174E-01
DAV:   6    -0.148625364185E+03    0.30307E-04   -0.23542E-04 11456   0.856E-02    0.113E-01
DAV:   7    -0.148625336345E+03    0.27840E-04   -0.13740E-04 11712   0.758E-02    0.116E-01
DAV:   8    -0.148625294918E+03    0.41427E-04   -0.12835E-04 12736   0.741E-02    0.864E-02
DAV:   9    -0.148625334397E+03   -0.39479E-04   -0.94630E-05 11992   0.654E-02    0.376E-02
DAV:  10    -0.148625375221E+03   -0.40824E-04   -0.15760E-05 10424   0.315E-02    0.153E-02
DAV:  11    -0.148625435199E+03   -0.59978E-04   -0.34140E-06  6696   0.707E-03    0.801E-03
DAV:  12    -0.148625501773E+03   -0.66575E-04   -0.37686E-06  7664   0.564E-03    0.122E-02
DAV:  13    -0.148625520715E+03   -0.18942E-04   -0.74580E-07  5552   0.462E-03    0.781E-03
DAV:  14    -0.148625543417E+03   -0.22702E-04   -0.54562E-07  5896   0.250E-03    0.321E-03
DAV:  15    -0.148625569715E+03   -0.26298E-04   -0.67298E-07  5992   0.287E-03    0.259E-03
DAV:  16    -0.148625589506E+03   -0.19791E-04   -0.78780E-07  5944   0.312E-03    0.433E-03
DAV:  17    -0.148625596031E+03   -0.65256E-05   -0.44936E-07  5408   0.258E-03    0.173E-03
DAV:  18    -0.148625601776E+03   -0.57446E-05   -0.34693E-07  5792   0.194E-03    0.127E-03
DAV:  19    -0.148625604921E+03   -0.31450E-05   -0.23775E-07  5224   0.172E-03    0.958E-04
DAV:  20    -0.148625607087E+03   -0.21663E-05   -0.18428E-07  5216   0.115E-03    0.952E-04
DAV:  21    -0.148625609092E+03   -0.20051E-05   -0.14692E-07  5344   0.123E-03    0.731E-04
DAV:  22    -0.148625610044E+03   -0.95173E-06   -0.10282E-07  5032   0.932E-04
  36 F= -.15483226E+03 E0= -.15481915E+03  d E =-.220965E-02  mag=    24.0000
 trial-energy change:   -0.002210  1 .order   -0.002212   -0.002731   -0.001693
 step:   3.2119(harm=  3.2119)  dis= 0.01216  next Energy=  -154.833648 (dE=-0.359E-02)
 bond charge predicted
       N       E                     dE             d eps       ncg     rms          rms(c)
DAV:   1    -0.148617557680E+03    0.80514E-02   -0.13059E+00  7904   0.233E+00    0.888E-01
DAV:   2    -0.148625838310E+03   -0.82806E-02   -0.96324E-02 11416   0.148E+00    0.118E+00
DAV:   3    -0.148627251479E+03   -0.14132E-02   -0.17191E-02 11672   0.112E+00    0.648E-01
DAV:   4    -0.148627259871E+03   -0.83920E-05   -0.18770E-03 11808   0.392E-01    0.242E-01
DAV:   5    -0.148627138987E+03    0.12088E-03   -0.13018E-03 12304   0.133E-01    0.321E-01
DAV:   6    -0.148627055294E+03    0.83693E-04   -0.66743E-04 11368   0.148E-01    0.164E-01
DAV:   7    -0.148627005665E+03    0.49629E-04   -0.35449E-04 12112   0.126E-01    0.183E-01
DAV:   8    -0.148626939810E+03    0.65855E-04   -0.25365E-04 12760   0.111E-01    0.111E-01
DAV:   9    -0.148627031096E+03   -0.91286E-04   -0.22089E-04 11992   0.101E-01    0.662E-02
DAV:  10    -0.148627111514E+03   -0.80418E-04   -0.35612E-05 11152   0.481E-02    0.394E-02
DAV:  11    -0.148627226487E+03   -0.11497E-03   -0.15332E-05  9192   0.128E-02    0.168E-02
DAV:  12    -0.148627352402E+03   -0.12592E-03   -0.65297E-06  8960   0.869E-03    0.225E-02
DAV:  13    -0.148627395058E+03   -0.42656E-04   -0.11993E-06  6048   0.651E-03    0.126E-02
DAV:  14    -0.148627463351E+03   -0.68293E-04   -0.17406E-06  6840   0.355E-03    0.540E-03
DAV:  15    -0.148627516707E+03   -0.53356E-04   -0.12538E-06  6320   0.382E-03    0.431E-03
DAV:  16    -0.148627549024E+03   -0.32317E-04   -0.98804E-07  6224   0.365E-03    0.346E-03
DAV:  17    -0.148627562588E+03   -0.13563E-04   -0.60529E-07  5696   0.274E-03    0.285E-03
DAV:  18    -0.148627572176E+03   -0.95880E-05   -0.50882E-07  5624   0.233E-03    0.183E-03
DAV:  19    -0.148627578760E+03   -0.65843E-05   -0.42898E-07  5696   0.229E-03    0.117E-03
DAV:  20    -0.148627583139E+03   -0.43787E-05   -0.37425E-07  5544   0.170E-03    0.166E-03
DAV:  21    -0.148627584934E+03   -0.17949E-05   -0.21767E-07  5096   0.158E-03    0.958E-04
DAV:  22    -0.148627585887E+03   -0.95334E-06   -0.13218E-07  5064   0.109E-03
  37 F= -.15483362E+03 E0= -.15482033E+03  d E =-.356177E-02  mag=    24.0000
 curvature:  -2.73 expect dE=-0.759E-02 dE for cont linesearch -0.378E-06
 trial: gam= 1.25938 g(F)=  0.279E-02 g(S)=  0.000E+00 ort =-0.229E-04 (trialstep = 0.702E+00)
 search vector abs. value=  0.875E-02
 bond charge predicted
       N       E                     dE             d eps       ncg     rms          rms(c)
DAV:   1    -0.148626430432E+03    0.11545E-02   -0.39274E-01  7936   0.127E+00    0.493E-01
DAV:   2    -0.148628682171E+03   -0.22517E-02   -0.29091E-02 11512   0.902E-01    0.841E-01
DAV:   3    -0.148629165839E+03   -0.48367E-03   -0.63279E-03 11744   0.689E-01    0.291E-01
DAV:   4    -0.148629292558E+03   -0.12672E-03   -0.52630E-04 11656   0.185E-01    0.155E-01
DAV:   5    -0.148629272548E+03    0.20010E-04   -0.45307E-04 11808   0.956E-02    0.180E-01
DAV:   6    -0.148629257231E+03    0.15317E-04   -0.21911E-04 11336   0.871E-02    0.923E-02
DAV:   7    -0.148629262588E+03   -0.53575E-05   -0.10661E-04 12040   0.737E-02    0.845E-02
DAV:   8    -0.148629270342E+03   -0.77536E-05   -0.76599E-05 12384   0.602E-02    0.526E-02
DAV:   9    -0.148629283048E+03   -0.12706E-04   -0.59329E-05 11984   0.557E-02    0.305E-02
DAV:  10    -0.148629294400E+03   -0.11352E-04   -0.74289E-06  8840   0.212E-02    0.241E-02
DAV:  11    -0.148629306618E+03   -0.12218E-04   -0.50758E-06  6016   0.833E-03    0.114E-02
DAV:  12    -0.148629318460E+03   -0.11842E-04   -0.22466E-06  6296   0.584E-03    0.140E-02
DAV:  13    -0.148629321819E+03   -0.33595E-05   -0.83731E-07  5104   0.385E-03    0.115E-02
DAV:  14    -0.148629325266E+03   -0.34471E-05   -0.11584E-06  5128   0.436E-03    0.528E-03
DAV:  15    -0.148629329835E+03   -0.45690E-05   -0.32120E-07  5848   0.310E-03    0.378E-03
DAV:  16    -0.148629332611E+03   -0.27759E-05   -0.30071E-07  5344   0.211E-03    0.639E-03
DAV:  17    -0.148629333981E+03   -0.13705E-05   -0.44924E-07  5104   0.243E-03    0.348E-03
DAV:  18    -0.148629334866E+03   -0.88421E-06   -0.15127E-07  5216   0.170E-03
  38 F= -.15483538E+03 E0= -.15482200E+03  d E =-.176771E-02  mag=    24.0000
 ZBRENT: can't locate minimum, use default step
 trial-energy change:   -0.001768  1 .order   -0.001764   -0.001937   -0.001591
 step:   2.8098(harm=  3.9341)  dis= 0.01556  next Energy=  -154.838342 (dE=-0.473E-02)
 bond charge predicted
       N       E                     dE             d eps       ncg     rms          rms(c)
DAV:   1    -0.148606159914E+03    0.23174E-01   -0.35356E+00  7904   0.380E+00    0.145E+00
DAV:   2    -0.148629027837E+03   -0.22868E-01   -0.26723E-01 11520   0.269E+00    0.270E+00
DAV:   3    -0.148631429484E+03   -0.24016E-02   -0.58362E-02 11672   0.210E+00    0.819E-01
DAV:   4    -0.148632447399E+03   -0.10179E-02   -0.43927E-03 11712   0.472E-01    0.484E-01
DAV:   5    -0.148632197691E+03    0.24971E-03   -0.32371E-03 11616   0.292E-01    0.436E-01
DAV:   6    -0.148632125567E+03    0.72124E-04   -0.15664E-03 11632   0.229E-01    0.268E-01
DAV:   7    -0.148632141036E+03   -0.15468E-04   -0.11895E-03 12048   0.227E-01    0.240E-01
DAV:   8    -0.148632199668E+03   -0.58632E-04   -0.68281E-04 12784   0.162E-01    0.107E-01
DAV:   9    -0.148632255779E+03   -0.56112E-04   -0.26420E-04 12240   0.125E-01    0.602E-02
DAV:  10    -0.148632310394E+03   -0.54615E-04   -0.38897E-05 10160   0.363E-02    0.691E-02
DAV:  11    -0.148632366232E+03   -0.55838E-04   -0.46771E-05 11552   0.258E-02    0.262E-02
DAV:  12    -0.148632424899E+03   -0.58667E-04   -0.14760E-05 11360   0.150E-02    0.453E-02
DAV:  13    -0.148632441557E+03   -0.16658E-04   -0.52673E-06  6016   0.893E-03    0.145E-02
DAV:  14    -0.148632477645E+03   -0.36089E-04   -0.35806E-06  7312   0.521E-03    0.447E-03
DAV:  15    -0.148632496109E+03   -0.18464E-04   -0.13920E-06  6040   0.634E-03    0.117E-02
DAV:  16    -0.148632505487E+03   -0.93774E-05   -0.12747E-06  6048   0.489E-03    0.261E-03
DAV:  17    -0.148632510129E+03   -0.46428E-05   -0.52404E-07  5320   0.304E-03    0.430E-03
DAV:  18    -0.148632513283E+03   -0.31537E-05   -0.52611E-07  5304   0.230E-03    0.411E-03
DAV:  19    -0.148632516151E+03   -0.28679E-05   -0.44014E-07  5256   0.273E-03    0.374E-03
DAV:  20    -0.148632518031E+03   -0.18797E-05   -0.25895E-07  5192   0.158E-03    0.777E-04
DAV:  21    -0.148632518900E+03   -0.86881E-06   -0.13022E-07  5136   0.125E-03
  39 F= -.15483861E+03 E0= -.15482499E+03  d E =-.499063E-02  mag=    24.0000
 curvature:  -5.49 expect dE=-0.919E-02 dE for cont linesearch -0.371E-03
 ZBRENT: increasing intervall
 opt :   7.0246  next Energy=  -154.835546 (dE=-0.193E-02)
 bond charge predicted
       N       E                     dE             d eps       ncg     rms          rms(c)
DAV:   1    -0.148521681702E+03    0.11084E+00   -0.14135E+01  7904   0.761E+00    0.285E+00
DAV:   2    -0.148619934121E+03   -0.98252E-01   -0.11075E+00 11464   0.538E+00    0.566E+00
DAV:   3    -0.148625728067E+03   -0.57939E-02   -0.24853E-01 11584   0.427E+00    0.158E+00
DAV:   4    -0.148628848430E+03   -0.31204E-02   -0.16757E-02 11536   0.889E-01    0.930E-01
DAV:   5    -0.148627822804E+03    0.10256E-02   -0.96111E-03 11408   0.533E-01    0.746E-01
DAV:   6    -0.148627504345E+03    0.31846E-03   -0.54356E-03 11728   0.432E-01    0.554E-01
DAV:   7    -0.148627684614E+03   -0.18027E-03   -0.64268E-03 11960   0.463E-01    0.471E-01
DAV:   8    -0.148627728015E+03   -0.43401E-04   -0.32312E-03 12376   0.344E-01    0.296E-01
DAV:   9    -0.148627909960E+03   -0.18195E-03   -0.28504E-04 11216   0.792E-02    0.195E-01
DAV:  10    -0.148628032153E+03   -0.12219E-03   -0.23441E-04 11896   0.473E-02    0.457E-02
DAV:  11    -0.148628201898E+03   -0.16975E-03   -0.61654E-05 11736   0.337E-02    0.881E-02
DAV:  12    -0.148628275078E+03   -0.73180E-04   -0.11860E-05 10200   0.155E-02    0.688E-02
DAV:  13    -0.148628364748E+03   -0.89669E-04   -0.18842E-05  9832   0.122E-02    0.135E-02
DAV:  14    -0.148628443767E+03   -0.79020E-04   -0.89894E-06  8968   0.101E-02    0.234E-02
DAV:  15    -0.148628472037E+03   -0.28270E-04   -0.24403E-06  6696   0.701E-03    0.819E-03
DAV:  16    -0.148628498685E+03   -0.26648E-04   -0.15739E-06  6688   0.529E-03    0.115E-02
DAV:  17    -0.148628510309E+03   -0.11624E-04   -0.19076E-06  5760   0.458E-03    0.667E-03
DAV:  18    -0.148628517246E+03   -0.69374E-05   -0.10222E-06  5648   0.431E-03    0.421E-03
DAV:  19    -0.148628520768E+03   -0.35216E-05   -0.71848E-07  5168   0.325E-03    0.513E-03
DAV:  20    -0.148628522613E+03   -0.18450E-05   -0.46785E-07  5104   0.244E-03    0.259E-03
DAV:  21    -0.148628524085E+03   -0.14725E-05   -0.18998E-07  5176   0.169E-03    0.665E-04
DAV:  22    -0.148628526132E+03   -0.20467E-05   -0.15619E-07  5152   0.970E-04    0.104E-03
DAV:  23    -0.148628528734E+03   -0.26025E-05   -0.11811E-07  5232   0.124E-03    0.173E-03
DAV:  24    -0.148628529909E+03   -0.11745E-05   -0.87073E-08  5120   0.100E-03    0.441E-04
DAV:  25    -0.148628530339E+03   -0.43014E-06   -0.48115E-08  5144   0.608E-04
  40 F= -.15483462E+03 E0= -.15482080E+03  d E =-.100255E-02  mag=    24.0000
 curvature:  45.25 expect dE= 0.438E+00 dE for cont linesearch  0.395E-01
 ZBRENT: bracketing found
 ZBRENT: interpolating
 opt :   3.7276  next Energy=  -154.838959 (dE=-0.534E-02)
 bond charge predicted
       N       E                     dE             d eps       ncg     rms          rms(c)
DAV:   1    -0.148568969968E+03    0.59560E-01   -0.86529E+00  7904   0.594E+00    0.223E+00
DAV:   2    -0.148625293677E+03   -0.56324E-01   -0.64663E-01 11448   0.396E+00    0.429E+00
DAV:   3    -0.148630899970E+03   -0.56063E-02   -0.14488E-01 11560   0.317E+00    0.113E+00
DAV:   4    -0.148633003807E+03   -0.21038E-02   -0.86020E-03 11568   0.557E-01    0.828E-01
DAV:   5    -0.148632374896E+03    0.62891E-03   -0.46767E-03 11400   0.292E-01    0.500E-01
DAV:   6    -0.148632201429E+03    0.17347E-03   -0.20660E-03 12376   0.300E-01    0.347E-01
DAV:   7    -0.148632244188E+03   -0.42759E-04   -0.22558E-03 12152   0.325E-01    0.242E-01
DAV:   8    -0.148632353583E+03   -0.10939E-03   -0.13576E-03 12168   0.232E-01    0.224E-01
DAV:   9    -0.148632407637E+03   -0.54055E-04   -0.29331E-04 12176   0.132E-01    0.141E-01
DAV:  10    -0.148632493871E+03   -0.86234E-04   -0.10345E-04 11728   0.596E-02    0.799E-02
DAV:  11    -0.148632595445E+03   -0.10157E-03   -0.61910E-05 11600   0.395E-02    0.236E-02
DAV:  12    -0.148632697844E+03   -0.10240E-03   -0.38618E-05 11656   0.224E-02    0.641E-02
DAV:  13    -0.148632738457E+03   -0.40613E-04   -0.18145E-05  7712   0.152E-02    0.110E-02
DAV:  14    -0.148632813907E+03   -0.75450E-04   -0.52094E-06  8904   0.874E-03    0.958E-03
DAV:  15    -0.148632851450E+03   -0.37543E-04   -0.51191E-06  7024   0.897E-03    0.203E-02
DAV:  16    -0.148632863364E+03   -0.11915E-04   -0.29612E-06  5912   0.672E-03    0.378E-03
DAV:  17    -0.148632871381E+03   -0.80164E-05   -0.77940E-07  5920   0.369E-03    0.271E-03
DAV:  18    -0.148632876080E+03   -0.46994E-05   -0.90466E-07  5288   0.265E-03    0.897E-03
DAV:  19    -0.148632879659E+03   -0.35791E-05   -0.10069E-06  5464   0.400E-03    0.474E-03
DAV:  20    -0.148632882379E+03   -0.27203E-05   -0.40683E-07  5328   0.191E-03    0.126E-03
DAV:  21    -0.148632883325E+03   -0.94568E-06   -0.18635E-07  5200   0.150E-03
  41 F= -.15483898E+03 E0= -.15482530E+03  d E =-.536390E-02  mag=    24.0000
 curvature:  -0.40 expect dE=-0.971E-03 dE for cont linesearch -0.677E-07
 trial: gam= 0.73743 g(F)=  0.240E-02 g(S)=  0.000E+00 ort = 0.383E-04 (trialstep = 0.131E+01)
 search vector abs. value=  0.722E-02
 bond charge predicted
       N       E                     dE             d eps       ncg     rms          rms(c)
DAV:   1    -0.148625865299E+03    0.70171E-02   -0.11742E+00  7904   0.219E+00    0.994E-01
DAV:   2    -0.148633062570E+03   -0.71973E-02   -0.97232E-02 11648   0.184E+00    0.222E+00
DAV:   3    -0.148633986709E+03   -0.92414E-03   -0.29229E-02 11696   0.147E+00    0.383E-01
DAV:   4    -0.148634616817E+03   -0.63011E-03   -0.21621E-03 10720   0.225E-01    0.462E-01
DAV:   5    -0.148634414057E+03    0.20276E-03   -0.88453E-04 11112   0.141E-01    0.151E-01
DAV:   6    -0.148634379391E+03    0.34666E-04   -0.33795E-04 12584   0.128E-01    0.208E-01
DAV:   7    -0.148634358253E+03    0.21138E-04   -0.40142E-04 12000   0.138E-01    0.863E-02
DAV:   8    -0.148634420013E+03   -0.61761E-04   -0.19621E-04 12112   0.916E-02    0.154E-01
DAV:   9    -0.148634456281E+03   -0.36267E-04   -0.65750E-05 12368   0.468E-02    0.623E-02
DAV:  10    -0.148634538191E+03   -0.81910E-04   -0.11090E-05  9976   0.169E-02    0.425E-02
DAV:  11    -0.148634615132E+03   -0.76941E-04   -0.10868E-05  8136   0.179E-02    0.934E-03
DAV:  12    -0.148634698061E+03   -0.82929E-04   -0.59390E-06  8984   0.889E-03    0.174E-02
DAV:  13    -0.148634738380E+03   -0.40320E-04   -0.25570E-06  6232   0.671E-03    0.431E-03
DAV:  14    -0.148634786898E+03   -0.48518E-04   -0.14857E-06  6464   0.508E-03    0.779E-03
DAV:  15    -0.148634807937E+03   -0.21039E-04   -0.21044E-06  6088   0.556E-03    0.103E-02
DAV:  16    -0.148634815951E+03   -0.80140E-05   -0.11575E-06  5328   0.367E-03    0.299E-03
DAV:  17    -0.148634823973E+03   -0.80216E-05   -0.51634E-07  5784   0.283E-03    0.303E-03
DAV:  18    -0.148634829452E+03   -0.54794E-05   -0.52041E-07  5384   0.201E-03    0.393E-03
DAV:  19    -0.148634833848E+03   -0.43955E-05   -0.37358E-07  5736   0.203E-03    0.125E-03
DAV:  20    -0.148634835543E+03   -0.16951E-05   -0.24247E-07  5096   0.141E-03    0.756E-04
DAV:  21    -0.148634835982E+03   -0.43913E-06   -0.11131E-07  5152   0.105E-03
  42 F= -.15484142E+03 E0= -.15482765E+03  d E =-.244374E-02  mag=    24.0000
 trial-energy change:   -0.002444  1 .order   -0.002422   -0.003175   -0.001669
 step:   2.5468(harm=  2.7572)  dis= 0.01473  next Energy=  -154.842233 (dE=-0.325E-02)
 bond charge predicted
       N       E                     dE             d eps       ncg     rms          rms(c)
DAV:   1    -0.148627212353E+03    0.76232E-02   -0.10545E+00  7904   0.208E+00    0.943E-01
DAV:   2    -0.148633724473E+03   -0.65121E-02   -0.89128E-02 11576   0.175E+00    0.216E+00
DAV:   3    -0.148634469660E+03   -0.74519E-03   -0.28502E-02 11648   0.140E+00    0.370E-01
DAV:   4    -0.148635046178E+03   -0.57652E-03   -0.18257E-03 10632   0.218E-01    0.434E-01
DAV:   5    -0.148634864292E+03    0.18189E-03   -0.66521E-04 10968   0.130E-01    0.145E-01
DAV:   6    -0.148634823544E+03    0.40747E-04   -0.27063E-04 12512   0.115E-01    0.198E-01
DAV:   7    -0.148634810579E+03    0.12965E-04   -0.39315E-04 12056   0.132E-01    0.742E-02
DAV:   8    -0.148634876067E+03   -0.65488E-04   -0.19619E-04 12072   0.906E-02    0.158E-01
DAV:   9    -0.148634918628E+03   -0.42561E-04   -0.56334E-05 11472   0.391E-02    0.575E-02
DAV:  10    -0.148634999347E+03   -0.80719E-04   -0.11281E-05  9848   0.152E-02    0.247E-02
DAV:  11    -0.148635067420E+03   -0.68073E-04   -0.49581E-06  7560   0.137E-02    0.822E-03
DAV:  12    -0.148635136730E+03   -0.69310E-04   -0.38505E-06  7744   0.719E-03    0.144E-02
DAV:  13    -0.148635179776E+03   -0.43046E-04   -0.19196E-06  6232   0.594E-03    0.426E-03
DAV:  14    -0.148635214242E+03   -0.34466E-04   -0.11136E-06  6216   0.424E-03    0.653E-03
DAV:  15    -0.148635232478E+03   -0.18237E-04   -0.10978E-06  5808   0.434E-03    0.527E-03
DAV:  16    -0.148635241143E+03   -0.86651E-05   -0.76938E-07  5136   0.319E-03    0.479E-03
DAV:  17    -0.148635249332E+03   -0.81884E-05   -0.58126E-07  5832   0.277E-03    0.329E-03
DAV:  18    -0.148635255850E+03   -0.65181E-05   -0.55227E-07  5624   0.215E-03    0.413E-03
DAV:  19    -0.148635258792E+03   -0.29417E-05   -0.35639E-07  5216   0.200E-03    0.116E-03
DAV:  20    -0.148635260030E+03   -0.12384E-05   -0.20387E-07  5072   0.135E-03    0.154E-03
DAV:  21    -0.148635260594E+03   -0.56411E-06   -0.10673E-07  5000   0.101E-03
  43 F= -.15484230E+03 E0= -.15482851E+03  d E =-.332524E-02  mag=    24.0000
 curvature:  -4.01 expect dE=-0.766E-02 dE for cont linesearch -0.107E-04
 trial: gam= 0.69554 g(F)=  0.191E-02 g(S)=  0.000E+00 ort = 0.139E-03 (trialstep = 0.156E+01)
 search vector abs. value=  0.559E-02
 bond charge predicted
       N       E                     dE             d eps       ncg     rms          rms(c)
DAV:   1    -0.148630085071E+03    0.51750E-02   -0.10813E+00  7904   0.209E+00    0.148E+00
DAV:   2    -0.148637063840E+03   -0.69788E-02   -0.20596E-01 11400   0.295E+00    0.462E+00
DAV:   3    -0.148635988605E+03    0.10752E-02   -0.71351E-02 11512   0.239E+00    0.494E-01
DAV:   4    -0.148637901605E+03   -0.19130E-02   -0.93435E-03 11448   0.374E-01    0.939E-01
DAV:   5    -0.148637498435E+03    0.40317E-03   -0.24674E-03 11128   0.282E-01    0.180E-01
DAV:   6    -0.148637623019E+03   -0.12458E-03   -0.56076E-04 12320   0.148E-01    0.441E-01
DAV:   7    -0.148637560959E+03    0.62060E-04   -0.44032E-04 11672   0.128E-01    0.247E-01
DAV:   8    -0.148637579792E+03   -0.18833E-04   -0.19726E-04 12128   0.998E-02    0.913E-02
DAV:   9    -0.148637640090E+03   -0.60298E-04   -0.61351E-05 11808   0.400E-02    0.363E-02
DAV:  10    -0.148637671063E+03   -0.30974E-04   -0.75035E-06  8160   0.123E-02    0.240E-02
DAV:  11    -0.148637696241E+03   -0.25178E-04   -0.55163E-06  8256   0.104E-02    0.851E-03
DAV:  12    -0.148637716808E+03   -0.20567E-04   -0.25699E-06  6400   0.602E-03    0.108E-02
DAV:  13    -0.148637725834E+03   -0.90257E-05   -0.12263E-06  5344   0.477E-03    0.495E-03
DAV:  14    -0.148637735316E+03   -0.94822E-05   -0.74658E-07  5688   0.314E-03    0.940E-03
DAV:  15    -0.148637742343E+03   -0.70272E-05   -0.56392E-07  5288   0.273E-03    0.142E-02
DAV:  16    -0.148637746540E+03   -0.41968E-05   -0.52260E-07  5168   0.355E-03    0.414E-03
DAV:  17    -0.148637751123E+03   -0.45827E-05   -0.64075E-07  5456   0.244E-03    0.799E-03
DAV:  18    -0.148637753444E+03   -0.23212E-05   -0.25106E-07  5160   0.208E-03    0.534E-03
DAV:  19    -0.148637754327E+03   -0.88336E-06   -0.12984E-07  5184   0.985E-04
  44 F= -.15484498E+03 E0= -.15483125E+03  d E =-.267816E-02  mag=    24.0000
 trial-energy change:   -0.002678  1 .order   -0.002681   -0.003119   -0.002243
 step:   5.5379(harm=  5.5379)  dis= 0.03110  next Energy=  -154.847857 (dE=-0.555E-02)
 bond charge predicted
       N       E                     dE             d eps       ncg     rms          rms(c)
DAV:   1    -0.148589185984E+03    0.48567E-01   -0.70642E+00  7904   0.536E+00    0.351E+00
DAV:   2    -0.148631679627E+03   -0.42494E-01   -0.11362E+00 11608   0.688E+00    0.961E+00
DAV:   3    -0.148634085656E+03   -0.24060E-02   -0.35644E-01 11472   0.539E+00    0.991E-01
DAV:   4    -0.148640932011E+03   -0.68464E-02   -0.32198E-02 11496   0.806E-01    0.182E+00
DAV:   5    -0.148639110038E+03    0.18220E-02   -0.70518E-03 10944   0.621E-01    0.423E-01
DAV:   6    -0.148639450967E+03   -0.34093E-03   -0.23826E-03 12336   0.357E-01    0.853E-01
DAV:   7    -0.148639422467E+03    0.28500E-04   -0.23642E-03 11592   0.315E-01    0.635E-01
DAV:   8    -0.148639350801E+03    0.71667E-04   -0.93464E-04 12240   0.247E-01    0.311E-01
DAV:   9    -0.148639540964E+03   -0.19016E-03   -0.38566E-04 11856   0.124E-01    0.135E-01
DAV:  10    -0.148639659800E+03   -0.11884E-03   -0.57004E-05  9864   0.319E-02    0.108E-01
DAV:  11    -0.148639726506E+03   -0.66706E-04   -0.21445E-05 11296   0.139E-02    0.416E-02
DAV:  12    -0.148639832611E+03   -0.10610E-03   -0.15927E-05 11104   0.151E-02    0.349E-02
DAV:  13    -0.148639880087E+03   -0.47476E-04   -0.21290E-06  7128   0.781E-03    0.319E-02
DAV:  14    -0.148639915712E+03   -0.35625E-04   -0.46082E-06  6864   0.802E-03    0.144E-02
DAV:  15    -0.148639952787E+03   -0.37075E-04   -0.32842E-06  7376   0.760E-03    0.172E-02
DAV:  16    -0.148639972002E+03   -0.19215E-04   -0.10299E-06  5752   0.385E-03    0.162E-02
DAV:  17    -0.148639986488E+03   -0.14486E-04   -0.94457E-07  5880   0.467E-03    0.275E-03
DAV:  18    -0.148639999674E+03   -0.13186E-04   -0.98330E-07  5968   0.280E-03    0.457E-03
DAV:  19    -0.148640004142E+03   -0.44683E-05   -0.37075E-07  5224   0.230E-03    0.329E-03
DAV:  20    -0.148640006917E+03   -0.27750E-05   -0.20769E-07  5056   0.181E-03    0.165E-03
DAV:  21    -0.148640010984E+03   -0.40669E-05   -0.19918E-07  5632   0.128E-03    0.196E-03
DAV:  22    -0.148640014281E+03   -0.32971E-05   -0.18059E-07  5176   0.120E-03    0.131E-03
DAV:  23    -0.148640016050E+03   -0.17689E-05   -0.11012E-07  5120   0.120E-03    0.746E-04
DAV:  24    -0.148640017467E+03   -0.14175E-05   -0.86602E-08  5016   0.817E-04    0.127E-03
DAV:  25    -0.148640018847E+03   -0.13794E-05   -0.64724E-08  5216   0.779E-04    0.343E-04
DAV:  26    -0.148640019895E+03   -0.10484E-05   -0.52406E-08  5024   0.600E-04    0.571E-04
DAV:  27    -0.148640020740E+03   -0.84533E-06   -0.39886E-08  5120   0.578E-04
  45 F= -.15484768E+03 E0= -.15483443E+03  d E =-.537825E-02  mag=    24.0000
 curvature:  -7.72 expect dE=-0.533E-01 dE for cont linesearch -0.145E-04
 trial: gam= 3.64905 g(F)=  0.690E-02 g(S)=  0.000E+00 ort =-0.102E-03 (trialstep = 0.163E+00)
 search vector abs. value=  0.806E-01
 bond charge predicted
       N       E                     dE             d eps       ncg     rms          rms(c)
DAV:   1    -0.148639867243E+03    0.15265E-03   -0.19521E-01  8120   0.890E-01    0.716E-01
DAV:   2    -0.148640943877E+03   -0.10766E-02   -0.32946E-02 11592   0.142E+00    0.233E+00
DAV:   3    -0.148640600542E+03    0.34334E-03   -0.16127E-02 11344   0.116E+00    0.236E-01
DAV:   4    -0.148641139373E+03   -0.53883E-03   -0.13624E-03 11488   0.181E-01    0.413E-01
DAV:   5    -0.148641068776E+03    0.70598E-04   -0.35341E-04 11232   0.130E-01    0.688E-02
DAV:   6    -0.148641105283E+03   -0.36507E-04   -0.89593E-05 12336   0.739E-02    0.197E-01
DAV:   7    -0.148641086170E+03    0.19113E-04   -0.81138E-05 11360   0.647E-02    0.103E-01
DAV:   8    -0.148641096945E+03   -0.10775E-04   -0.32444E-05 11624   0.441E-02    0.247E-02
DAV:   9    -0.148641119357E+03   -0.22411E-04   -0.67396E-06  8320   0.154E-02    0.252E-02
DAV:  10    -0.148641131269E+03   -0.11912E-04   -0.17927E-06  5792   0.750E-03    0.783E-03
DAV:  11    -0.148641147859E+03   -0.16590E-04   -0.12993E-06  5944   0.496E-03    0.559E-03
DAV:  12    -0.148641154588E+03   -0.67292E-05   -0.10338E-06  5424   0.512E-03    0.120E-02
DAV:  13    -0.148641157308E+03   -0.27199E-05   -0.52114E-07  5088   0.416E-03    0.240E-03
DAV:  14    -0.148641162103E+03   -0.47945E-05   -0.32344E-07  5672   0.182E-03    0.443E-03
DAV:  15    -0.148641164618E+03   -0.25148E-05   -0.17055E-07  4992   0.150E-03    0.809E-03
DAV:  16    -0.148641167168E+03   -0.25509E-05   -0.19968E-07  5112   0.244E-03    0.144E-03
DAV:  17    -0.148641169917E+03   -0.27483E-05   -0.18659E-07  5656   0.958E-04    0.414E-03
DAV:  18    -0.148641170101E+03   -0.18395E-06   -0.52429E-08  5200   0.988E-04
  46 F= -.15484874E+03 E0= -.15483563E+03  d E =-.105394E-02  mag=    24.0000
 ZBRENT: can't locate minimum, use default step
 trial-energy change:   -0.001054  1 .order   -0.001051   -0.001065   -0.001037
 step:   0.6526(harm=  6.3175)  dis= 0.01228  next Energy=  -154.868302 (dE=-0.206E-01)
 bond charge predicted
       N       E                     dE             d eps       ncg     rms          rms(c)
DAV:   1    -0.148632539737E+03    0.86302E-02   -0.17546E+00  7904   0.267E+00    0.200E+00
DAV:   2    -0.148642141258E+03   -0.96015E-02   -0.32776E-01 11712   0.396E+00    0.612E+00
DAV:   3    -0.148641368451E+03    0.77281E-03   -0.15567E-01 11384   0.318E+00    0.500E-01
DAV:   4    -0.148644324904E+03   -0.29565E-02   -0.84089E-03 11312   0.447E-01    0.906E-01
DAV:   5    -0.148643914553E+03    0.41035E-03   -0.19202E-03 10752   0.337E-01    0.208E-01
DAV:   6    -0.148644063988E+03   -0.14943E-03   -0.74900E-04 12336   0.219E-01    0.486E-01
DAV:   7    -0.148644020263E+03    0.43724E-04   -0.66746E-04 11320   0.186E-01    0.273E-01
DAV:   8    -0.148644031901E+03   -0.11637E-04   -0.23140E-04 11968   0.125E-01    0.137E-01
DAV:   9    -0.148644129100E+03   -0.97199E-04   -0.70305E-05 11152   0.559E-02    0.756E-02
DAV:  10    -0.148644186882E+03   -0.57782E-04   -0.12722E-05  9424   0.162E-02    0.591E-02
DAV:  11    -0.148644240354E+03   -0.53472E-04   -0.53615E-06  8312   0.110E-02    0.208E-02
DAV:  12    -0.148644308922E+03   -0.68568E-04   -0.52808E-06  8288   0.934E-03    0.189E-02
DAV:  13    -0.148644332532E+03   -0.23610E-04   -0.12481E-06  6232   0.572E-03    0.136E-02
DAV:  14    -0.148644351672E+03   -0.19139E-04   -0.90540E-07  5816   0.325E-03    0.357E-03
DAV:  15    -0.148644374452E+03   -0.22780E-04   -0.86190E-07  5920   0.322E-03    0.147E-02
DAV:  16    -0.148644386638E+03   -0.12186E-04   -0.59056E-07  5568   0.404E-03    0.809E-03
DAV:  17    -0.148644395270E+03   -0.86324E-05   -0.47168E-07  5480   0.217E-03    0.603E-03
DAV:  18    -0.148644399968E+03   -0.46976E-05   -0.28726E-07  5160   0.235E-03    0.375E-03
DAV:  19    -0.148644405843E+03   -0.58751E-05   -0.31152E-07  5824   0.187E-03    0.184E-03
DAV:  20    -0.148644408254E+03   -0.24112E-05   -0.19043E-07  5056   0.141E-03    0.217E-03
DAV:  21    -0.148644410643E+03   -0.23890E-05   -0.15025E-07  5312   0.142E-03    0.282E-03
DAV:  22    -0.148644412602E+03   -0.19587E-05   -0.12658E-07  5128   0.118E-03    0.152E-03
DAV:  23    -0.148644413904E+03   -0.13018E-05   -0.11558E-07  5200   0.782E-04    0.505E-04
DAV:  24    -0.148644414740E+03   -0.83596E-06   -0.59613E-08  5096   0.796E-04
  47 F= -.15485169E+03 E0= -.15483910E+03  d E =-.400426E-02  mag=    24.0000
 curvature:  -5.96 expect dE=-0.426E-01 dE for cont linesearch -0.237E-02
 ZBRENT: increasing intervall
 opt :   1.6314  next Energy=  -154.856554 (dE=-0.887E-02)
 bond charge predicted
       N       E                     dE             d eps       ncg     rms          rms(c)
DAV:   1    -0.148600850566E+03    0.43563E-01   -0.70121E+00  7904   0.535E+00    0.334E+00
DAV:   2    -0.148633181846E+03   -0.32331E-01   -0.82308E-01 11976   0.644E+00    0.809E+00
DAV:   3    -0.148645064615E+03   -0.11883E-01   -0.34867E-01 11496   0.496E+00    0.861E-01
DAV:   4    -0.148649193917E+03   -0.41293E-02   -0.18922E-02 10568   0.647E-01    0.847E-01
DAV:   5    -0.148648524047E+03    0.66987E-03   -0.33974E-03 10984   0.467E-01    0.492E-01
DAV:   6    -0.148648531916E+03   -0.78685E-05   -0.27014E-03 11600   0.394E-01    0.508E-01
DAV:   7    -0.148648794744E+03   -0.26283E-03   -0.17024E-03 11672   0.234E-01    0.194E-01
DAV:   8    -0.148648928332E+03   -0.13359E-03   -0.58424E-04 11784   0.200E-01    0.235E-01
DAV:   9    -0.148649066885E+03   -0.13855E-03   -0.13026E-04 11800   0.109E-01    0.600E-02
DAV:  10    -0.148649249661E+03   -0.18278E-03   -0.46044E-05 11440   0.249E-02    0.589E-02
DAV:  11    -0.148649382994E+03   -0.13333E-03   -0.88161E-06 10400   0.163E-02    0.478E-02
DAV:  12    -0.148649552130E+03   -0.16914E-03   -0.77766E-06  9872   0.143E-02    0.935E-03
DAV:  13    -0.148649637923E+03   -0.85793E-04   -0.22538E-06  7144   0.684E-03    0.747E-03
DAV:  14    -0.148649696066E+03   -0.58143E-04   -0.16751E-06  6448   0.427E-03    0.934E-03
DAV:  15    -0.148649753708E+03   -0.57643E-04   -0.19290E-06  6944   0.558E-03    0.647E-03
DAV:  16    -0.148649787919E+03   -0.34211E-04   -0.14598E-06  6560   0.395E-03    0.294E-03
DAV:  17    -0.148649804437E+03   -0.16518E-04   -0.86892E-07  5952   0.342E-03    0.234E-03
DAV:  18    -0.148649811334E+03   -0.68976E-05   -0.44935E-07  5352   0.236E-03    0.435E-03
DAV:  19    -0.148649817885E+03   -0.65509E-05   -0.35896E-07  5784   0.262E-03    0.245E-03
DAV:  20    -0.148649823261E+03   -0.53760E-05   -0.31484E-07  5464   0.185E-03    0.131E-03
DAV:  21    -0.148649828389E+03   -0.51280E-05   -0.32601E-07  5664   0.174E-03    0.278E-03
DAV:  22    -0.148649831250E+03   -0.28610E-05   -0.24871E-07  5344   0.168E-03    0.558E-04
DAV:  23    -0.148649832604E+03   -0.13536E-05   -0.16188E-07  5144   0.103E-03    0.566E-04
DAV:  24    -0.148649833323E+03   -0.71899E-06   -0.73171E-08  5040   0.853E-04
  48 F= -.15485648E+03 E0= -.15484537E+03  d E =-.879795E-02  mag=    24.0000
 curvature: -12.23 expect dE=-0.124E+00 dE for cont linesearch -0.247E-02
 ZBRENT: increasing intervall
 opt :   3.5892  next Energy=  -154.861195 (dE=-0.135E-01)
 bond charge predicted
       N       E                     dE             d eps       ncg     rms          rms(c)
DAV:   1    -0.148444908259E+03    0.20492E+00   -0.28039E+01  7904   0.107E+01    0.448E+00
DAV:   2    -0.148612541936E+03   -0.16763E+00   -0.20330E+00 11760   0.786E+00    0.354E+00
DAV:   3    -0.148656505628E+03   -0.43964E-01   -0.29975E-01 11544   0.421E+00    0.188E+00
DAV:   4    -0.148655069059E+03    0.14366E-02   -0.67866E-02 11360   0.255E+00    0.146E+00
DAV:   5    -0.148651649362E+03    0.34197E-02   -0.17843E-02 11568   0.117E+00    0.799E-01
DAV:   6    -0.148651347317E+03    0.30205E-03   -0.47186E-03 12392   0.479E-01    0.671E-01
DAV:   7    -0.148651207268E+03    0.14005E-03   -0.91266E-03 11568   0.792E-01    0.361E-01
DAV:   8    -0.148652161719E+03   -0.95445E-03   -0.24557E-03 12216   0.299E-01    0.107E-01
DAV:   9    -0.148652765752E+03   -0.60403E-03   -0.44071E-04 11512   0.103E-01    0.594E-02
DAV:  10    -0.148653298091E+03   -0.53234E-03   -0.89049E-05 12944   0.575E-02    0.127E-01
DAV:  11    -0.148653619388E+03   -0.32130E-03   -0.67875E-05 11680   0.662E-02    0.222E-02
DAV:  12    -0.148654010637E+03   -0.39125E-03   -0.24151E-05 11328   0.210E-02    0.228E-02
DAV:  13    -0.148654258263E+03   -0.24763E-03   -0.96979E-06 10144   0.176E-02    0.930E-03
DAV:  14    -0.148654413873E+03   -0.15561E-03   -0.33375E-06  8024   0.666E-03    0.785E-03
DAV:  15    -0.148654595663E+03   -0.18179E-03   -0.71811E-06  9288   0.835E-03    0.543E-03
DAV:  16    -0.148654660470E+03   -0.64807E-04   -0.22136E-06  7304   0.396E-03    0.417E-03
DAV:  17    -0.148654690768E+03   -0.30299E-04   -0.83103E-07  6176   0.333E-03    0.240E-03
DAV:  18    -0.148654713804E+03   -0.23036E-04   -0.13601E-06  6512   0.313E-03    0.198E-03
DAV:  19    -0.148654723521E+03   -0.97163E-05   -0.49793E-07  5704   0.240E-03    0.127E-03
DAV:  20    -0.148654730353E+03   -0.68328E-05   -0.32620E-07  5224   0.188E-03    0.129E-03
DAV:  21    -0.148654738642E+03   -0.82886E-05   -0.43197E-07  5912   0.167E-03    0.146E-03
DAV:  22    -0.148654743608E+03   -0.49657E-05   -0.33019E-07  5632   0.195E-03    0.103E-03
DAV:  23    -0.148654745349E+03   -0.17408E-05   -0.18370E-07  5200   0.146E-03    0.506E-04
DAV:  24    -0.148654748339E+03   -0.29908E-05   -0.14189E-07  5208   0.930E-04    0.529E-04
DAV:  25    -0.148654750430E+03   -0.20912E-05   -0.10118E-07  5208   0.920E-04    0.369E-04
DAV:  26    -0.148654751307E+03   -0.87696E-06   -0.58940E-08  5144   0.739E-04
  49 F= -.15486001E+03 E0= -.15485373E+03  d E =-.123239E-01  mag=    24.0000
 curvature: -23.32 expect dE=-0.606E+00 dE for cont linesearch -0.256E-03
 trial: gam= 3.03278 g(F)=  0.260E-01 g(S)=  0.000E+00 ort =-0.941E-03 (trialstep = 0.898E-01)
 search vector abs. value=  0.762E+00
 bond charge predicted
       N       E                     dE             d eps       ncg     rms          rms(c)
DAV:   1    -0.148653123646E+03    0.16268E-02   -0.53789E-01  8016   0.149E+00    0.674E-01
DAV:   2    -0.148655836015E+03   -0.27124E-02   -0.40571E-02 11672   0.115E+00    0.597E-01
DAV:   3    -0.148657093006E+03   -0.12570E-02   -0.65812E-03 11736   0.626E-01    0.246E-01
DAV:   4    -0.148657038985E+03    0.54021E-04   -0.95297E-04 11840   0.274E-01    0.181E-01
DAV:   5    -0.148656988483E+03    0.50502E-04   -0.31387E-04 11120   0.156E-01    0.103E-01
DAV:   6    -0.148656985543E+03    0.29403E-05   -0.14130E-04 11680   0.803E-02    0.872E-02
DAV:   7    -0.148656986768E+03   -0.12256E-05   -0.17969E-04 11400   0.980E-02    0.372E-02
DAV:   8    -0.148657029080E+03   -0.42312E-04   -0.33796E-05 12136   0.433E-02    0.249E-02
DAV:   9    -0.148657062599E+03   -0.33519E-04   -0.77472E-06  8576   0.205E-02    0.820E-03
DAV:  10    -0.148657100462E+03   -0.37863E-04   -0.19710E-06  6704   0.912E-03    0.984E-03
DAV:  11    -0.148657131485E+03   -0.31024E-04   -0.20330E-06  6512   0.663E-03    0.486E-03
DAV:  12    -0.148657152319E+03   -0.20834E-04   -0.15708E-06  6200   0.395E-03    0.434E-03
DAV:  13    -0.148657159328E+03   -0.70088E-05   -0.42616E-07  5344   0.420E-03    0.169E-03
DAV:  14    -0.148657168106E+03   -0.87783E-05   -0.33391E-07  5640   0.204E-03    0.183E-03
DAV:  15    -0.148657174459E+03   -0.63526E-05   -0.22627E-07  5216   0.165E-03    0.917E-04
DAV:  16    -0.148657179548E+03   -0.50889E-05   -0.17688E-07  5592   0.131E-03    0.866E-04
DAV:  17    -0.148657184373E+03   -0.48255E-05   -0.19365E-07  5576   0.117E-03    0.135E-03
DAV:  18    -0.148657186703E+03   -0.23298E-05   -0.12664E-07  5224   0.130E-03    0.463E-04
DAV:  19    -0.148657187985E+03   -0.12822E-05   -0.98021E-08  5000   0.857E-04    0.346E-04
DAV:  20    -0.148657188987E+03   -0.10019E-05   -0.61905E-08  5144   0.716E-04    0.309E-04
DAV:  21    -0.148657190043E+03   -0.10561E-05   -0.64972E-08  5360   0.667E-04    0.258E-04
DAV:  22    -0.148657190436E+03   -0.39272E-06   -0.40330E-08  5096   0.645E-04
  50 F= -.15486206E+03 E0= -.15485686E+03  d E =-.205316E-02  mag=    24.0000
 ZBRENT: can't locate minimum, use default step
 trial-energy change:   -0.002053  1 .order   -0.002045   -0.002078   -0.002012
 step:   0.3591(harm=  2.8613)  dis= 0.02087  next Energy=  -154.893115 (dE=-0.331E-01)
 bond charge predicted
       N       E                     dE             d eps       ncg     rms          rms(c)
DAV:   1    -0.148625988795E+03    0.31201E-01   -0.48402E+00  7904   0.447E+00    0.155E+00
DAV:   2    -0.148659367141E+03   -0.33378E-01   -0.33777E-01 11472   0.245E+00    0.903E-01
DAV:   3    -0.148663604646E+03   -0.42375E-02   -0.28614E-02 10696   0.118E+00    0.538E-01
DAV:   4    -0.148662889720E+03    0.71493E-03   -0.72312E-03 10760   0.763E-01    0.392E-01
DAV:   5    -0.148662507932E+03    0.38179E-03   -0.24688E-03 11824   0.373E-01    0.272E-01
DAV:   6    -0.148662498728E+03    0.92040E-05   -0.11278E-03 12152   0.145E-01    0.160E-01
DAV:   7    -0.148662718930E+03   -0.22020E-03   -0.44905E-04 11888   0.881E-02    0.498E-02
DAV:   8    -0.148662895900E+03   -0.17697E-03   -0.71907E-05 11472   0.409E-02    0.338E-02
DAV:   9    -0.148663061775E+03   -0.16587E-03   -0.26274E-05 12376   0.201E-02    0.202E-02
DAV:  10    -0.148663199824E+03   -0.13805E-03   -0.51250E-06  8816   0.102E-02    0.108E-02
DAV:  11    -0.148663330384E+03   -0.13056E-03   -0.71542E-06 10128   0.120E-02    0.760E-03
DAV:  12    -0.148663398195E+03   -0.67811E-04   -0.11103E-06  6456   0.718E-03    0.337E-03
DAV:  13    -0.148663461240E+03   -0.63045E-04   -0.17233E-06  6680   0.394E-03    0.286E-03
DAV:  14    -0.148663510221E+03   -0.48980E-04   -0.10552E-06  6288   0.323E-03    0.257E-03
DAV:  15    -0.148663549854E+03   -0.39634E-04   -0.12752E-06  6544   0.405E-03    0.202E-03
DAV:  16    -0.148663569909E+03   -0.20054E-04   -0.10056E-06  6216   0.309E-03    0.158E-03
DAV:  17    -0.148663579012E+03   -0.91033E-05   -0.62030E-07  5784   0.265E-03    0.105E-03
DAV:  18    -0.148663583431E+03   -0.44196E-05   -0.41799E-07  5352   0.197E-03    0.105E-03
DAV:  19    -0.148663585396E+03   -0.19645E-05   -0.22511E-07  5128   0.173E-03    0.512E-04
DAV:  20    -0.148663587979E+03   -0.25832E-05   -0.20998E-07  5560   0.116E-03    0.588E-04
DAV:  21    -0.148663589867E+03   -0.18877E-05   -0.15319E-07  5320   0.116E-03    0.377E-04
DAV:  22    -0.148663590700E+03   -0.83342E-06   -0.91303E-08  5152   0.913E-04
  51 F= -.15486728E+03 E0= -.15486543E+03  d E =-.727540E-02  mag=    24.0000
 curvature:  -8.71 expect dE=-0.276E+00 dE for cont linesearch -0.238E-02
 ZBRENT: increasing intervall
 opt :   0.8978  next Energy=  -154.870753 (dE=-0.107E-01)
 bond charge predicted
       N       E                     dE             d eps       ncg     rms          rms(c)
DAV:   1    -0.148510809030E+03    0.15278E+00   -0.19358E+01  7904   0.894E+00    0.270E+00
DAV:   2    -0.148656218859E+03   -0.14541E+00   -0.13540E+00 11472   0.451E+00    0.163E+00
DAV:   3    -0.148663181437E+03   -0.69626E-02   -0.75508E-02 10616   0.234E+00    0.103E+00
DAV:   4    -0.148659327808E+03    0.38536E-02   -0.16252E-02 10832   0.115E+00    0.694E-01
DAV:   5    -0.148658129017E+03    0.11988E-02   -0.48715E-03 12536   0.344E-01    0.547E-01
DAV:   6    -0.148657451490E+03    0.67753E-03   -0.49299E-03 11224   0.239E-01    0.274E-01
DAV:   7    -0.148657961910E+03   -0.51042E-03   -0.12070E-03 12184   0.158E-01    0.713E-02
DAV:   8    -0.148658433138E+03   -0.47123E-03   -0.93875E-05 11632   0.567E-02    0.378E-02
DAV:   9    -0.148658799660E+03   -0.36652E-03   -0.27768E-05 10216   0.312E-02    0.319E-02
DAV:  10    -0.148659082238E+03   -0.28258E-03   -0.11233E-05 11088   0.117E-02    0.188E-02
DAV:  11    -0.148659326046E+03   -0.24381E-03   -0.75362E-06  9856   0.122E-02    0.807E-03
DAV:  12    -0.148659513303E+03   -0.18726E-03   -0.34134E-06  7704   0.846E-03    0.400E-03
DAV:  13    -0.148659631757E+03   -0.11845E-03   -0.21909E-06  7216   0.589E-03    0.264E-03
DAV:  14    -0.148659698844E+03   -0.67087E-04   -0.11609E-06  6272   0.338E-03    0.255E-03
DAV:  15    -0.148659745238E+03   -0.46393E-04   -0.77868E-07  5944   0.298E-03    0.210E-03
DAV:  16    -0.148659784770E+03   -0.39533E-04   -0.90215E-07  6136   0.254E-03    0.159E-03
DAV:  17    -0.148659831977E+03   -0.47206E-04   -0.18322E-06  6968   0.272E-03    0.925E-04
DAV:  18    -0.148659846349E+03   -0.14372E-04   -0.40020E-07  6096   0.215E-03    0.664E-04
DAV:  19    -0.148659850996E+03   -0.46471E-05   -0.23122E-07  5272   0.149E-03    0.578E-04
DAV:  20    -0.148659854722E+03   -0.37255E-05   -0.18296E-07  5368   0.118E-03    0.454E-04
DAV:  21    -0.148659858070E+03   -0.33482E-05   -0.17984E-07  5488   0.106E-03    0.344E-04
DAV:  22    -0.148659859434E+03   -0.13643E-05   -0.13245E-07  5304   0.108E-03    0.282E-04
DAV:  23    -0.148659859855E+03   -0.42050E-06   -0.81767E-08  5056   0.830E-04
  52 F= -.15486111E+03 E0= -.15486110E+03  d E =-.110097E-02  mag=    24.0000
 curvature: -12.70 expect dE=-0.472E+00 dE for cont linesearch -0.315E-01
 ZBRENT: bracketing found
 ZBRENT: interpolating
 opt :   0.4933  next Energy=  -154.868251 (dE=-0.824E-02)
 bond charge predicted
       N       E                     dE             d eps       ncg     rms          rms(c)
DAV:   1    -0.148582938082E+03    0.76921E-01   -0.10910E+01  7904   0.671E+00    0.197E+00
DAV:   2    -0.148662088086E+03   -0.79150E-01   -0.74598E-01 11368   0.339E+00    0.120E+00
DAV:   3    -0.148666457172E+03   -0.43691E-02   -0.30448E-02 10904   0.139E+00    0.742E-01
DAV:   4    -0.148665060067E+03    0.13971E-02   -0.55907E-03 10912   0.670E-01    0.519E-01
DAV:   5    -0.148664408725E+03    0.65134E-03   -0.25465E-03 12888   0.301E-01    0.411E-01
DAV:   6    -0.148663948543E+03    0.46018E-03   -0.37048E-03 11880   0.310E-01    0.204E-01
DAV:   7    -0.148664256371E+03   -0.30783E-03   -0.10350E-03 11880   0.225E-01    0.815E-02
DAV:   8    -0.148664481471E+03   -0.22510E-03   -0.10007E-04 12304   0.765E-02    0.314E-02
DAV:   9    -0.148664767443E+03   -0.28597E-03   -0.19595E-05 10600   0.202E-02    0.237E-02
DAV:  10    -0.148664959204E+03   -0.19176E-03   -0.81351E-06  9776   0.146E-02    0.160E-02
DAV:  11    -0.148665119633E+03   -0.16043E-03   -0.35360E-06  7984   0.816E-03    0.830E-03
DAV:  12    -0.148665261263E+03   -0.14163E-03   -0.36704E-06  8208   0.673E-03    0.361E-03
DAV:  13    -0.148665340234E+03   -0.78971E-04   -0.12989E-06  6488   0.395E-03    0.280E-03
DAV:  14    -0.148665383985E+03   -0.43750E-04   -0.71304E-07  5776   0.327E-03    0.236E-03
DAV:  15    -0.148665437718E+03   -0.53733E-04   -0.13465E-06  6584   0.271E-03    0.206E-03
DAV:  16    -0.148665473677E+03   -0.35960E-04   -0.78576E-07  6112   0.246E-03    0.130E-03
DAV:  17    -0.148665492067E+03   -0.18390E-04   -0.55674E-07  5704   0.227E-03    0.132E-03
DAV:  18    -0.148665504507E+03   -0.12439E-04   -0.56632E-07  5864   0.204E-03    0.757E-04
DAV:  19    -0.148665509302E+03   -0.47955E-05   -0.34475E-07  5440   0.186E-03    0.605E-04
DAV:  20    -0.148665512145E+03   -0.28425E-05   -0.25926E-07  5344   0.140E-03    0.466E-04
DAV:  21    -0.148665513613E+03   -0.14683E-05   -0.16849E-07  5312   0.128E-03    0.315E-04
DAV:  22    -0.148665514418E+03   -0.80484E-06   -0.12134E-07  5176   0.941E-04
  53 F= -.15486861E+03 E0= -.15486796E+03  d E =-.860101E-02  mag=    24.0000
 curvature:  -0.39 expect dE=-0.126E-01 dE for cont linesearch -0.100E-04
 trial: gam= 0.15284 g(F)=  0.322E-01 g(S)=  0.000E+00 ort = 0.442E-02 (trialstep = 0.170E+00)
 search vector abs. value=  0.514E-01
 bond charge predicted
       N       E                     dE             d eps       ncg     rms          rms(c)
DAV:   1    -0.148670420394E+03   -0.49068E-02   -0.12662E-01  8160   0.715E-01    0.220E-01
DAV:   2    -0.148671334699E+03   -0.91431E-03   -0.94593E-03 11360   0.346E-01    0.115E-01
DAV:   3    -0.148671382066E+03   -0.47367E-04   -0.22603E-04 11136   0.936E-02    0.777E-02
DAV:   4    -0.148671367528E+03    0.14538E-04   -0.32235E-05 12416   0.384E-02    0.574E-02
DAV:   5    -0.148671350230E+03    0.17298E-04   -0.37007E-05 11616   0.297E-02    0.401E-02
DAV:   6    -0.148671347810E+03    0.24201E-05   -0.37813E-05 12248   0.448E-02    0.222E-02
DAV:   7    -0.148671351472E+03   -0.36621E-05   -0.10794E-05  9640   0.272E-02    0.637E-03
DAV:   8    -0.148671359564E+03   -0.80923E-05   -0.10334E-06  5728   0.679E-03    0.328E-03
DAV:   9    -0.148671366717E+03   -0.71522E-05   -0.47071E-07  5656   0.347E-03    0.303E-03
DAV:  10    -0.148671370620E+03   -0.39037E-05   -0.34301E-07  5176   0.332E-03    0.209E-03
DAV:  11    -0.148671373253E+03   -0.26328E-05   -0.17280E-07  5032   0.157E-03    0.157E-03
DAV:  12    -0.148671375120E+03   -0.18665E-05   -0.94708E-08  5208   0.134E-03    0.103E-03
DAV:  13    -0.148671377523E+03   -0.24037E-05   -0.81760E-08  5248   0.987E-04    0.867E-04
DAV:  14    -0.148671379751E+03   -0.22270E-05   -0.74285E-08  5296   0.900E-04    0.400E-04
DAV:  15    -0.148671380578E+03   -0.82785E-06   -0.40847E-08  5064   0.715E-04
  54 F= -.15487400E+03 E0= -.15487364E+03  d E =-.539188E-02  mag=    24.0000
 ZBRENT: can't locate minimum, use default step
 trial-energy change:   -0.005392  1 .order   -0.005393   -0.005606   -0.005179
 step:   0.6820(harm=  2.2351)  dis= 0.01070  next Energy=  -154.905358 (dE=-0.368E-01)
 bond charge predicted
       N       E                     dE             d eps       ncg     rms          rms(c)
DAV:   1    -0.148677715307E+03   -0.63356E-02   -0.11394E+00  7904   0.214E+00    0.653E-01
DAV:   2    -0.148686127993E+03   -0.84127E-02   -0.85252E-02 11312   0.107E+00    0.356E-01
DAV:   3    -0.148686367556E+03   -0.23956E-03   -0.21140E-03 11008   0.275E-01    0.234E-01
DAV:   4    -0.148686246888E+03    0.12067E-03   -0.27408E-04 12768   0.101E-01    0.173E-01
DAV:   5    -0.148686114455E+03    0.13243E-03   -0.32522E-04 11536   0.841E-02    0.119E-01
DAV:   6    -0.148686111487E+03    0.29685E-05   -0.34134E-04 12248   0.132E-01    0.659E-02
DAV:   7    -0.148686124971E+03   -0.13484E-04   -0.10081E-04 11864   0.836E-02    0.189E-02
DAV:   8    -0.148686161557E+03   -0.36587E-04   -0.10707E-05 10424   0.198E-02    0.106E-02
DAV:   9    -0.148686192434E+03   -0.30877E-04   -0.22088E-06  6608   0.819E-03    0.866E-03
DAV:  10    -0.148686216047E+03   -0.23612E-04   -0.15629E-06  5872   0.626E-03    0.561E-03
DAV:  11    -0.148686232125E+03   -0.16078E-04   -0.13756E-06  5720   0.391E-03    0.362E-03
DAV:  12    -0.148686245173E+03   -0.13048E-04   -0.74306E-07  5728   0.412E-03    0.200E-03
DAV:  13    -0.148686255082E+03   -0.99095E-05   -0.50604E-07  5464   0.292E-03    0.157E-03
DAV:  14    -0.148686263570E+03   -0.84877E-05   -0.36371E-07  5568   0.208E-03    0.123E-03
DAV:  15    -0.148686269134E+03   -0.55643E-05   -0.24405E-07  5368   0.179E-03    0.986E-04
DAV:  16    -0.148686272989E+03   -0.38545E-05   -0.19411E-07  5296   0.131E-03    0.763E-04
DAV:  17    -0.148686276717E+03   -0.37285E-05   -0.22109E-07  5832   0.134E-03    0.728E-04
DAV:  18    -0.148686277820E+03   -0.11028E-05   -0.15663E-07  5328   0.125E-03    0.314E-04
DAV:  19    -0.148686278124E+03   -0.30447E-06   -0.77218E-08  5200   0.859E-04
  55 F= -.15488747E+03 E0= -.15488743E+03  d E =-.188615E-01  mag=    24.0000
 curvature:  -0.76 expect dE=-0.148E-01 dE for cont linesearch -0.726E-02
 ZBRENT: increasing intervall
 opt :   1.7049  next Energy=  -154.901792 (dE=-0.332E-01)
 bond charge predicted
       N       E                     dE             d eps       ncg     rms          rms(c)
DAV:   1    -0.148669181373E+03    0.17096E-01   -0.45562E+00  7904   0.429E+00    0.130E+00
DAV:   2    -0.148702907936E+03   -0.33727E-01   -0.34158E-01 11384   0.220E+00    0.738E-01
DAV:   3    -0.148703678655E+03   -0.77072E-03   -0.88623E-03 11064   0.550E-01    0.471E-01
DAV:   4    -0.148703205536E+03    0.47312E-03   -0.10730E-03 12632   0.175E-01    0.348E-01
DAV:   5    -0.148702682569E+03    0.52297E-03   -0.11191E-03 11176   0.119E-01    0.229E-01
DAV:   6    -0.148702710039E+03   -0.27470E-04   -0.11603E-03 12416   0.209E-01    0.115E-01
DAV:   7    -0.148702735471E+03   -0.25433E-04   -0.38566E-04 11808   0.165E-01    0.420E-02
DAV:   8    -0.148702815157E+03   -0.79686E-04   -0.45620E-05 11984   0.552E-02    0.226E-02
DAV:   9    -0.148702894574E+03   -0.79417E-04   -0.12871E-05 10208   0.154E-02    0.188E-02
DAV:  10    -0.148702954333E+03   -0.59759E-04   -0.29420E-06  7472   0.703E-03    0.115E-02
DAV:  11    -0.148703011155E+03   -0.56822E-04   -0.42996E-06  8088   0.603E-03    0.515E-03
DAV:  12    -0.148703051978E+03   -0.40823E-04   -0.10596E-06  6272   0.434E-03    0.295E-03
DAV:  13    -0.148703073491E+03   -0.21513E-04   -0.62704E-07  5872   0.343E-03    0.253E-03
DAV:  14    -0.148703093368E+03   -0.19877E-04   -0.60107E-07  5944   0.263E-03    0.217E-03
DAV:  15    -0.148703112131E+03   -0.18763E-04   -0.77165E-07  6168   0.264E-03    0.193E-03
DAV:  16    -0.148703121888E+03   -0.97574E-05   -0.63312E-07  5872   0.253E-03    0.111E-03
DAV:  17    -0.148703126038E+03   -0.41500E-05   -0.44075E-07  5568   0.207E-03    0.990E-04
DAV:  18    -0.148703127599E+03   -0.15611E-05   -0.24754E-07  5280   0.165E-03    0.548E-04
DAV:  19    -0.148703128512E+03   -0.91333E-06   -0.13250E-07  5040   0.115E-03
  56 F= -.15490144E+03 E0= -.15490144E+03  d E =-.328348E-01  mag=    24.0000
 curvature:  -1.49 expect dE=-0.266E-01 dE for cont linesearch -0.786E-03
 ZBRENT: extrapolating
 opt :   2.0178  next Energy=  -154.902256 (dE=-0.336E-01)
 bond charge predicted
       N       E                     dE             d eps       ncg     rms          rms(c)
DAV:   1    -0.148701680613E+03    0.14470E-02   -0.42634E-01  7920   0.131E+00    0.399E-01
DAV:   2    -0.148704734656E+03   -0.30540E-02   -0.31649E-02 11360   0.670E-01    0.222E-01
DAV:   3    -0.148704858919E+03   -0.12426E-03   -0.82406E-04 11192   0.167E-01    0.143E-01
DAV:   4    -0.148704811833E+03    0.47086E-04   -0.96353E-05 11992   0.497E-02    0.105E-01
DAV:   5    -0.148704750446E+03    0.61387E-04   -0.10765E-04 10024   0.281E-02    0.670E-02
DAV:   6    -0.148704750902E+03   -0.45564E-06   -0.94653E-05 11400   0.327E-02    0.215E-02
DAV:   7    -0.148704764791E+03   -0.13890E-04   -0.96606E-06 11488   0.149E-02    0.943E-03
DAV:   8    -0.148704778911E+03   -0.14120E-04   -0.85533E-07  5712   0.553E-03    0.698E-03
DAV:   9    -0.148704791316E+03   -0.12405E-04   -0.78172E-07  5680   0.600E-03    0.526E-03
DAV:  10    -0.148704801218E+03   -0.99022E-05   -0.66037E-07  5728   0.555E-03    0.278E-03
DAV:  11    -0.148704808606E+03   -0.73876E-05   -0.65380E-07  5520   0.399E-03    0.171E-03
DAV:  12    -0.148704813635E+03   -0.50293E-05   -0.48087E-07  5352   0.269E-03    0.134E-03
DAV:  13    -0.148704817047E+03   -0.34120E-05   -0.25602E-07  5216   0.172E-03    0.100E-03
DAV:  14    -0.148704819938E+03   -0.28907E-05   -0.12241E-07  5328   0.150E-03    0.810E-04
DAV:  15    -0.148704822675E+03   -0.27370E-05   -0.12750E-07  5552   0.995E-04    0.572E-04
DAV:  16    -0.148704824233E+03   -0.15584E-05   -0.80468E-08  5216   0.918E-04    0.518E-04
DAV:  17    -0.148704825399E+03   -0.11656E-05   -0.77310E-08  5200   0.781E-04    0.399E-04
DAV:  18    -0.148704825901E+03   -0.50254E-06   -0.46319E-08  5120   0.697E-04
  57 F= -.15490225E+03 E0= -.15490225E+03  d E =-.336471E-01  mag=    24.0000
 curvature:  -1.55 expect dE=-0.333E-01 dE for cont linesearch -0.470E-07
 trial: gam= 0.47972 g(F)=  0.215E-01 g(S)=  0.000E+00 ort = 0.395E-04 (trialstep = 0.540E+00)
 search vector abs. value=  0.334E-01
 bond charge predicted
       N       E                     dE             d eps       ncg     rms          rms(c)
DAV:   1    -0.148709198562E+03   -0.43732E-02   -0.88674E-01  7904   0.191E+00    0.581E-01
DAV:   2    -0.148715538238E+03   -0.63397E-02   -0.60357E-02 11400   0.852E-01    0.302E-01
DAV:   3    -0.148716102776E+03   -0.56454E-03   -0.21082E-03 10400   0.330E-01    0.188E-01
DAV:   4    -0.148715999840E+03    0.10294E-03   -0.46451E-04 10720   0.179E-01    0.137E-01
DAV:   5    -0.148715959146E+03    0.40694E-04   -0.25609E-04 12448   0.927E-02    0.107E-01
DAV:   6    -0.148715956753E+03    0.23929E-05   -0.26483E-04 11736   0.677E-02    0.437E-02
DAV:   7    -0.148715980073E+03   -0.23321E-04   -0.42110E-05 11888   0.308E-02    0.158E-02
DAV:   8    -0.148715991840E+03   -0.11766E-04   -0.27323E-06  7152   0.115E-02    0.956E-03
DAV:   9    -0.148716000942E+03   -0.91026E-05   -0.19518E-06  6048   0.554E-03    0.742E-03
DAV:  10    -0.148716006134E+03   -0.51919E-05   -0.10255E-06  5328   0.594E-03    0.474E-03
DAV:  11    -0.148716010211E+03   -0.40766E-05   -0.11704E-06  5416   0.397E-03    0.320E-03
DAV:  12    -0.148716013745E+03   -0.35343E-05   -0.77743E-07  5400   0.394E-03    0.228E-03
DAV:  13    -0.148716016471E+03   -0.27265E-05   -0.46875E-07  5480   0.335E-03    0.161E-03
DAV:  14    -0.148716018360E+03   -0.18886E-05   -0.22017E-07  5296   0.222E-03    0.121E-03
DAV:  15    -0.148716019604E+03   -0.12445E-05   -0.12064E-07  5168   0.142E-03    0.882E-04
DAV:  16    -0.148716020297E+03   -0.69282E-06   -0.65920E-08  5120   0.111E-03
  58 F= -.15491250E+03 E0= -.15491250E+03  d E =-.102436E-01  mag=    24.0000
 ZBRENT: can't locate minimum, use default step
 trial-energy change:   -0.010244  1 .order   -0.010242   -0.011629   -0.008855
 step:   2.1598(harm=  2.2635)  dis= 0.03085  next Energy=  -154.926629 (dE=-0.244E-01)
 bond charge predicted
       N       E                     dE             d eps       ncg     rms          rms(c)
DAV:   1    -0.148670954139E+03    0.45065E-01   -0.79765E+00  7904   0.575E+00    0.173E+00
DAV:   2    -0.148730009016E+03   -0.59055E-01   -0.55060E-01 11424   0.261E+00    0.952E-01
DAV:   3    -0.148733801114E+03   -0.37921E-02   -0.19278E-02 10368   0.102E+00    0.557E-01
DAV:   4    -0.148732879410E+03    0.92170E-03   -0.43590E-03 10760   0.546E-01    0.406E-01
DAV:   5    -0.148732502898E+03    0.37651E-03   -0.24095E-03 12656   0.294E-01    0.318E-01
DAV:   6    -0.148732432494E+03    0.70403E-04   -0.24949E-03 11824   0.205E-01    0.130E-01
DAV:   7    -0.148732582455E+03   -0.14996E-03   -0.39685E-04 11696   0.924E-02    0.471E-02
DAV:   8    -0.148732644863E+03   -0.62408E-04   -0.29955E-05 11888   0.330E-02    0.282E-02
DAV:   9    -0.148732691004E+03   -0.46142E-04   -0.11451E-05 10592   0.142E-02    0.209E-02
DAV:  10    -0.148732718786E+03   -0.27782E-04   -0.55768E-06  9200   0.116E-02    0.123E-02
DAV:  11    -0.148732743032E+03   -0.24245E-04   -0.58008E-06  9216   0.862E-03    0.659E-03
DAV:  12    -0.148732764996E+03   -0.21964E-04   -0.12428E-06  6040   0.576E-03    0.393E-03
DAV:  13    -0.148732780207E+03   -0.15211E-04   -0.10531E-06  6048   0.372E-03    0.327E-03
DAV:  14    -0.148732789412E+03   -0.92056E-05   -0.49357E-07  5536   0.355E-03    0.280E-03
DAV:  15    -0.148732795103E+03   -0.56911E-05   -0.45369E-07  5640   0.259E-03    0.197E-03
DAV:  16    -0.148732799569E+03   -0.44653E-05   -0.36585E-07  5536   0.214E-03    0.143E-03
DAV:  17    -0.148732801476E+03   -0.19071E-05   -0.26072E-07  5328   0.184E-03    0.798E-04
DAV:  18    -0.148732802409E+03   -0.93361E-06   -0.14315E-07  5088   0.135E-03
  59 F= -.15492644E+03 E0= -.15492644E+03  d E =-.241868E-01  mag=    24.0000
 curvature:  -1.75 expect dE=-0.195E-01 dE for cont linesearch -0.352E-04
 trial: gam= 0.47494 g(F)=  0.111E-01 g(S)=  0.000E+00 ort = 0.820E-03 (trialstep = 0.864E+00)
 search vector abs. value=  0.194E-01
 bond charge predicted
       N       E                     dE             d eps       ncg     rms          rms(c)
DAV:   1    -0.148730168005E+03    0.26335E-02   -0.13789E+00  7904   0.240E+00    0.727E-01
DAV:   2    -0.148739856523E+03   -0.96885E-02   -0.89581E-02 11312   0.104E+00    0.377E-01
DAV:   3    -0.148740883365E+03   -0.10268E-02   -0.37580E-03 10232   0.478E-01    0.243E-01
DAV:   4    -0.148740721323E+03    0.16204E-03   -0.82877E-04 10600   0.242E-01    0.167E-01
DAV:   5    -0.148740676780E+03    0.44543E-04   -0.33918E-04 12864   0.916E-02    0.132E-01
DAV:   6    -0.148740713934E+03   -0.37154E-04   -0.37565E-04 11504   0.805E-02    0.552E-02
DAV:   7    -0.148740746464E+03   -0.32530E-04   -0.75693E-05 12264   0.536E-02    0.178E-02
DAV:   8    -0.148740759312E+03   -0.12847E-04   -0.83752E-06  9432   0.220E-02    0.961E-03
DAV:   9    -0.148740766184E+03   -0.68724E-05   -0.22177E-06  6248   0.787E-03    0.755E-03
DAV:  10    -0.148740770771E+03   -0.45872E-05   -0.10968E-06  5408   0.421E-03    0.457E-03
DAV:  11    -0.148740774740E+03   -0.39690E-05   -0.11785E-06  5712   0.402E-03    0.313E-03
DAV:  12    -0.148740776923E+03   -0.21823E-05   -0.65550E-07  5104   0.405E-03    0.174E-03
DAV:  13    -0.148740778542E+03   -0.16192E-05   -0.30176E-07  5224   0.271E-03    0.148E-03
DAV:  14    -0.148740779675E+03   -0.11327E-05   -0.14757E-07  5080   0.185E-03    0.969E-04
DAV:  15    -0.148740780390E+03   -0.71483E-06   -0.77019E-08  5144   0.113E-03
  60 F= -.15493453E+03 E0= -.15493453E+03  d E =-.808565E-02  mag=    24.0000
 trial-energy change:   -0.008086  1 .order   -0.008094   -0.009956   -0.006231
 step:   2.3090(harm=  2.3090)  dis= 0.01787  next Energy=  -154.939747 (dE=-0.133E-01)
 bond charge predicted
       N       E                     dE             d eps       ncg     rms          rms(c)
DAV:   1    -0.148716268970E+03    0.24511E-01   -0.38582E+00  7904   0.401E+00    0.122E+00
DAV:   2    -0.148743680847E+03   -0.27412E-01   -0.25058E-01 11280   0.172E+00    0.632E-01
DAV:   3    -0.148746379772E+03   -0.26989E-02   -0.10487E-02 10232   0.785E-01    0.405E-01
DAV:   4    -0.148745927481E+03    0.45229E-03   -0.22961E-03 10584   0.402E-01    0.279E-01
DAV:   5    -0.148745789784E+03    0.13770E-03   -0.92387E-04 12768   0.153E-01    0.220E-01
DAV:   6    -0.148745856874E+03   -0.67090E-04   -0.10570E-03 11384   0.134E-01    0.927E-02
DAV:   7    -0.148745931278E+03   -0.74404E-04   -0.21739E-04 12344   0.894E-02    0.296E-02
DAV:   8    -0.148745959295E+03   -0.28017E-04   -0.26238E-05 11200   0.369E-02    0.159E-02
DAV:   9    -0.148745973982E+03   -0.14686E-04   -0.69503E-06  8584   0.122E-02    0.124E-02
DAV:  10    -0.148745983563E+03   -0.95819E-05   -0.20923E-06  5776   0.606E-03    0.725E-03
DAV:  11    -0.148745992455E+03   -0.88916E-05   -0.30704E-06  6952   0.542E-03    0.410E-03
DAV:  12    -0.148745997234E+03   -0.47793E-05   -0.87100E-07  5224   0.466E-03    0.231E-03
DAV:  13    -0.148746000854E+03   -0.36194E-05   -0.40014E-07  5216   0.304E-03    0.200E-03
DAV:  14    -0.148746003676E+03   -0.28225E-05   -0.21684E-07  5296   0.228E-03    0.142E-03
DAV:  15    -0.148746005237E+03   -0.15608E-05   -0.13012E-07  5168   0.147E-03    0.123E-03
DAV:  16    -0.148746006515E+03   -0.12780E-05   -0.74853E-08  5160   0.123E-03    0.797E-04
DAV:  17    -0.148746007722E+03   -0.12069E-05   -0.78639E-08  5240   0.869E-04    0.583E-04
DAV:  18    -0.148746008338E+03   -0.61611E-06   -0.44493E-08  5096   0.896E-04
  61 F= -.15493992E+03 E0= -.15493992E+03  d E =-.134765E-01  mag=    24.0000
 curvature:  -1.95 expect dE=-0.143E-01 dE for cont linesearch -0.896E-05
 trial: gam= 0.69185 g(F)=  0.736E-02 g(S)=  0.000E+00 ort = 0.299E-03 (trialstep = 0.115E+01)
 search vector abs. value=  0.171E-01
 bond charge predicted
       N       E                     dE             d eps       ncg     rms          rms(c)
DAV:   1    -0.148736914232E+03    0.90935E-02   -0.18814E+00  7904   0.276E+00    0.860E-01
DAV:   2    -0.148751060967E+03   -0.14147E-01   -0.14192E-01 11256   0.131E+00    0.435E-01
DAV:   3    -0.148751614343E+03   -0.55338E-03   -0.35257E-03 10528   0.385E-01    0.278E-01
DAV:   4    -0.148751436393E+03    0.17795E-03   -0.69334E-04 10768   0.205E-01    0.208E-01
DAV:   5    -0.148751311186E+03    0.12521E-03   -0.42320E-04 12136   0.116E-01    0.162E-01
DAV:   6    -0.148751258682E+03    0.52504E-04   -0.52762E-04 12256   0.118E-01    0.762E-02
DAV:   7    -0.148751292011E+03   -0.33329E-04   -0.11713E-04 12312   0.619E-02    0.218E-02
DAV:   8    -0.148751328299E+03   -0.36288E-04   -0.98354E-06  9912   0.188E-02    0.114E-02
DAV:   9    -0.148751356129E+03   -0.27829E-04   -0.28405E-06  7432   0.833E-03    0.875E-03
DAV:  10    -0.148751375949E+03   -0.19820E-04   -0.15990E-06  5744   0.795E-03    0.569E-03
DAV:  11    -0.148751393192E+03   -0.17243E-04   -0.15659E-06  5872   0.405E-03    0.386E-03
DAV:  12    -0.148751407994E+03   -0.14802E-04   -0.93539E-07  5528   0.438E-03    0.246E-03
DAV:  13    -0.148751417625E+03   -0.96310E-05   -0.64401E-07  5920   0.377E-03    0.192E-03
DAV:  14    -0.148751424359E+03   -0.67344E-05   -0.38570E-07  5448   0.225E-03    0.126E-03
DAV:  15    -0.148751429713E+03   -0.53539E-05   -0.29206E-07  5536   0.176E-03    0.108E-03
DAV:  16    -0.148751432318E+03   -0.26047E-05   -0.19464E-07  5296   0.146E-03    0.675E-04
DAV:  17    -0.148751433643E+03   -0.13255E-05   -0.12630E-07  5120   0.115E-03    0.526E-04
DAV:  18    -0.148751434438E+03   -0.79424E-06   -0.83229E-08  5232   0.904E-04
  62 F= -.15494664E+03 E0= -.15494664E+03  d E =-.672644E-02  mag=    24.0000
 trial-energy change:   -0.006726  1 .order   -0.006716   -0.008720   -0.004711
 step:   2.5078(harm=  2.5078)  dis= 0.01865  next Energy=  -154.949402 (dE=-0.948E-02)
 bond charge predicted
       N       E                     dE             d eps       ncg     rms          rms(c)
DAV:   1    -0.148732586769E+03    0.18847E-01   -0.25986E+00  7904   0.324E+00    0.101E+00
DAV:   2    -0.148752188218E+03   -0.19601E-01   -0.19623E-01 11264   0.155E+00    0.512E-01
DAV:   3    -0.148752915494E+03   -0.72728E-03   -0.49733E-03 10416   0.465E-01    0.329E-01
DAV:   4    -0.148752668717E+03    0.24678E-03   -0.10122E-03 10712   0.250E-01    0.246E-01
DAV:   5    -0.148752494563E+03    0.17415E-03   -0.60012E-04 12280   0.135E-01    0.191E-01
DAV:   6    -0.148752423830E+03    0.70734E-04   -0.70048E-04 12184   0.134E-01    0.899E-02
DAV:   7    -0.148752467944E+03   -0.44114E-04   -0.15664E-04 12496   0.712E-02    0.257E-02
DAV:   8    -0.148752515123E+03   -0.47179E-04   -0.12937E-05 10712   0.216E-02    0.133E-02
DAV:   9    -0.148752551770E+03   -0.36646E-04   -0.37029E-06  8008   0.982E-03    0.103E-02
DAV:  10    -0.148752577834E+03   -0.26064E-04   -0.21246E-06  6136   0.936E-03    0.657E-03
DAV:  11    -0.148752600545E+03   -0.22711E-04   -0.23021E-06  6512   0.448E-03    0.416E-03
DAV:  12    -0.148752619401E+03   -0.18856E-04   -0.87058E-07  5640   0.453E-03    0.251E-03
DAV:  13    -0.148752632562E+03   -0.13161E-04   -0.65068E-07  6016   0.383E-03    0.195E-03
DAV:  14    -0.148752640559E+03   -0.79971E-05   -0.41114E-07  5448   0.234E-03    0.142E-03
DAV:  15    -0.148752647105E+03   -0.65465E-05   -0.30781E-07  5568   0.179E-03    0.115E-03
DAV:  16    -0.148752651094E+03   -0.39883E-05   -0.23304E-07  5352   0.157E-03    0.766E-04
DAV:  17    -0.148752653189E+03   -0.20951E-05   -0.16574E-07  5248   0.128E-03    0.610E-04
DAV:  18    -0.148752654314E+03   -0.11253E-05   -0.10906E-07  5128   0.105E-03    0.359E-04
DAV:  19    -0.148752654940E+03   -0.62604E-06   -0.67122E-08  5144   0.792E-04
  63 F= -.15494938E+03 E0= -.15494938E+03  d E =-.946024E-02  mag=    24.0000
 curvature:  -2.83 expect dE=-0.921E-02 dE for cont linesearch -0.118E-05
 trial: gam= 0.46641 g(F)=  0.325E-02 g(S)=  0.000E+00 ort =-0.842E-04 (trialstep = 0.142E+01)
 search vector abs. value=  0.689E-02
 bond charge predicted
       N       E                     dE             d eps       ncg     rms          rms(c)
DAV:   1    -0.148745289182E+03    0.73651E-02   -0.13406E+00  7904   0.236E+00    0.721E-01
DAV:   2    -0.148754296450E+03   -0.90073E-02   -0.83401E-02 11576   0.111E+00    0.400E-01
DAV:   3    -0.148755269621E+03   -0.97317E-03   -0.60376E-03 10760   0.629E-01    0.262E-01
DAV:   4    -0.148754953714E+03    0.31591E-03   -0.11629E-03 10816   0.314E-01    0.160E-01
DAV:   5    -0.148754886065E+03    0.67648E-04   -0.33698E-04 12360   0.726E-02    0.129E-01
DAV:   6    -0.148754856457E+03    0.29609E-04   -0.23848E-04 11016   0.441E-02    0.572E-02
DAV:   7    -0.148754906966E+03   -0.50509E-04   -0.56616E-05 11624   0.255E-02    0.145E-02
DAV:   8    -0.148754951771E+03   -0.44805E-04   -0.25668E-06  7200   0.118E-02    0.924E-03
DAV:   9    -0.148754989179E+03   -0.37408E-04   -0.24060E-06  6912   0.707E-03    0.769E-03
DAV:  10    -0.148755017241E+03   -0.28062E-04   -0.96436E-07  5488   0.446E-03    0.429E-03
DAV:  11    -0.148755046602E+03   -0.29361E-04   -0.12841E-06  6016   0.407E-03    0.312E-03
DAV:  12    -0.148755066337E+03   -0.19735E-04   -0.79536E-07  5536   0.398E-03    0.179E-03
DAV:  13    -0.148755080474E+03   -0.14137E-04   -0.58677E-07  5632   0.287E-03    0.155E-03
DAV:  14    -0.148755089426E+03   -0.89516E-05   -0.38327E-07  5496   0.241E-03    0.108E-03
DAV:  15    -0.148755095682E+03   -0.62567E-05   -0.28279E-07  5336   0.158E-03    0.767E-04
DAV:  16    -0.148755099643E+03   -0.39609E-05   -0.16782E-07  5192   0.138E-03    0.663E-04
DAV:  17    -0.148755103309E+03   -0.36661E-05   -0.15640E-07  5496   0.101E-03    0.467E-04
DAV:  18    -0.148755106207E+03   -0.28980E-05   -0.13148E-07  5272   0.107E-03    0.416E-04
DAV:  19    -0.148755108052E+03   -0.18449E-05   -0.12421E-07  5336   0.927E-04    0.291E-04
DAV:  20    -0.148755108579E+03   -0.52685E-06   -0.68514E-08  5104   0.865E-04
  64 F= -.15495270E+03 E0= -.15495270E+03  d E =-.331952E-02  mag=    24.0000
 trial-energy change:   -0.003320  1 .order   -0.003321   -0.004575   -0.002066
 step:   2.5967(harm=  2.5967)  dis= 0.01350  next Energy=  -154.953550 (dE=-0.417E-02)
 bond charge predicted
       N       E                     dE             d eps       ncg     rms          rms(c)
DAV:   1    -0.148748576430E+03    0.65316E-02   -0.90951E-01  7904   0.194E+00    0.594E-01
DAV:   2    -0.148754654115E+03   -0.60777E-02   -0.56683E-02 11544   0.915E-01    0.331E-01
DAV:   3    -0.148755345277E+03   -0.69116E-03   -0.42375E-03 10776   0.527E-01    0.218E-01
DAV:   4    -0.148755118479E+03    0.22680E-03   -0.81163E-04 10824   0.261E-01    0.132E-01
DAV:   5    -0.148755071679E+03    0.46800E-04   -0.23062E-04 12280   0.591E-02    0.106E-01
DAV:   6    -0.148755049506E+03    0.22173E-04   -0.16191E-04 11016   0.357E-02    0.473E-02
DAV:   7    -0.148755086753E+03   -0.37247E-04   -0.38075E-05 11504   0.200E-02    0.120E-02
DAV:   8    -0.148755120736E+03   -0.33983E-04   -0.15501E-06  6584   0.920E-03    0.778E-03
DAV:   9    -0.148755148683E+03   -0.27947E-04   -0.15286E-06  5784   0.606E-03    0.667E-03
DAV:  10    -0.148755169604E+03   -0.20921E-04   -0.90937E-07  5600   0.434E-03    0.372E-03
DAV:  11    -0.148755191870E+03   -0.22266E-04   -0.10513E-06  5888   0.370E-03    0.277E-03
DAV:  12    -0.148755206124E+03   -0.14255E-04   -0.62921E-07  5464   0.360E-03    0.160E-03
DAV:  13    -0.148755218088E+03   -0.11963E-04   -0.50809E-07  5584   0.254E-03    0.141E-03
DAV:  14    -0.148755225024E+03   -0.69356E-05   -0.32290E-07  5416   0.220E-03    0.932E-04
DAV:  15    -0.148755229351E+03   -0.43273E-05   -0.21813E-07  5088   0.138E-03    0.663E-04
DAV:  16    -0.148755231771E+03   -0.24203E-05   -0.11962E-07  5128   0.123E-03    0.552E-04
DAV:  17    -0.148755234245E+03   -0.24735E-05   -0.10496E-07  5280   0.819E-04    0.389E-04
DAV:  18    -0.148755237133E+03   -0.28880E-05   -0.10910E-07  5496   0.937E-04    0.395E-04
DAV:  19    -0.148755238673E+03   -0.15407E-05   -0.10170E-07  5208   0.868E-04    0.249E-04
DAV:  20    -0.148755239012E+03   -0.33857E-06   -0.52741E-08  5128   0.774E-04
  65 F= -.15495354E+03 E0= -.15495354E+03  d E =-.416325E-02  mag=    24.0000
 curvature:  -2.78 expect dE=-0.583E-02 dE for cont linesearch -0.229E-07
 trial: gam= 0.60924 g(F)=  0.210E-02 g(S)=  0.000E+00 ort =-0.752E-05 (trialstep = 0.166E+01)
 search vector abs. value=  0.464E-02
 bond charge predicted
       N       E                     dE             d eps       ncg     rms          rms(c)
DAV:   1    -0.148750110523E+03    0.51282E-02   -0.91681E-01  7904   0.196E+00    0.601E-01
DAV:   2    -0.148756951773E+03   -0.68412E-02   -0.67618E-02 11344   0.959E-01    0.322E-01
DAV:   3    -0.148757476475E+03   -0.52470E-03   -0.26841E-03 10456   0.393E-01    0.208E-01
DAV:   4    -0.148757333583E+03    0.14289E-03   -0.58455E-04 11008   0.212E-01    0.147E-01
DAV:   5    -0.148757264349E+03    0.69234E-04   -0.24025E-04 12736   0.738E-02    0.115E-01
DAV:   6    -0.148757234932E+03    0.29417E-04   -0.22325E-04 11784   0.574E-02    0.520E-02
DAV:   7    -0.148757270548E+03   -0.35616E-04   -0.42622E-05 12056   0.295E-02    0.139E-02
DAV:   8    -0.148757303585E+03   -0.33036E-04   -0.25390E-06  7000   0.932E-03    0.814E-03
DAV:   9    -0.148757332554E+03   -0.28969E-04   -0.14533E-06  5904   0.500E-03    0.690E-03
DAV:  10    -0.148757353372E+03   -0.20818E-04   -0.82697E-07  5632   0.429E-03    0.443E-03
DAV:  11    -0.148757370179E+03   -0.16807E-04   -0.10329E-06  5552   0.389E-03    0.248E-03
DAV:  12    -0.148757381279E+03   -0.11100E-04   -0.67213E-07  5592   0.339E-03    0.186E-03
DAV:  13    -0.148757391789E+03   -0.10510E-04   -0.46000E-07  5560   0.253E-03    0.118E-03
DAV:  14    -0.148757398512E+03   -0.67221E-05   -0.29265E-07  5320   0.206E-03    0.913E-04
DAV:  15    -0.148757403667E+03   -0.51554E-05   -0.21212E-07  5360   0.141E-03    0.598E-04
DAV:  16    -0.148757406727E+03   -0.30604E-05   -0.13068E-07  5152   0.123E-03    0.547E-04
DAV:  17    -0.148757408792E+03   -0.20644E-05   -0.93496E-08  5224   0.886E-04    0.415E-04
DAV:  18    -0.148757411495E+03   -0.27028E-05   -0.10056E-07  5352   0.817E-04    0.359E-04
DAV:  19    -0.148757413240E+03   -0.17458E-05   -0.95169E-08  5408   0.845E-04    0.256E-04
DAV:  20    -0.148757413505E+03   -0.26479E-06   -0.49532E-08  5160   0.762E-04
  66 F= -.15495580E+03 E0= -.15495580E+03  d E =-.225381E-02  mag=    24.0000
 trial-energy change:   -0.002254  1 .order   -0.002252   -0.003468   -0.001037
 step:   2.3658(harm=  2.3658)  dis= 0.00993  next Energy=  -154.956015 (dE=-0.247E-02)
 bond charge predicted
       N       E                     dE             d eps       ncg     rms          rms(c)
DAV:   1    -0.148756271491E+03    0.11417E-02   -0.16682E-01  7968   0.836E-01    0.256E-01
DAV:   2    -0.148757475779E+03   -0.12043E-02   -0.12294E-02 11320   0.409E-01    0.137E-01
DAV:   3    -0.148757600101E+03   -0.12432E-03   -0.49469E-04 10344   0.170E-01    0.890E-02
DAV:   4    -0.148757571872E+03    0.28229E-04   -0.10752E-04 11000   0.905E-02    0.625E-02
DAV:   5    -0.148757557247E+03    0.14625E-04   -0.43807E-05 11784   0.311E-02    0.491E-02
DAV:   6    -0.148757549863E+03    0.73835E-05   -0.40807E-05 11856   0.245E-02    0.223E-02
DAV:   7    -0.148757558884E+03   -0.90202E-05   -0.72364E-06  9696   0.126E-02    0.620E-03
DAV:   8    -0.148757568542E+03   -0.96581E-05   -0.69791E-07  5408   0.494E-03    0.339E-03
DAV:   9    -0.148757576541E+03   -0.79989E-05   -0.36203E-07  5184   0.228E-03    0.304E-03
DAV:  10    -0.148757581840E+03   -0.52996E-05   -0.17525E-07  5184   0.214E-03    0.211E-03
DAV:  11    -0.148757586978E+03   -0.51376E-05   -0.19467E-07  5456   0.161E-03    0.127E-03
DAV:  12    -0.148757590236E+03   -0.32585E-05   -0.13535E-07  5120   0.144E-03    0.899E-04
DAV:  13    -0.148757593449E+03   -0.32132E-05   -0.11417E-07  5344   0.119E-03    0.626E-04
DAV:  14    -0.148757595295E+03   -0.18454E-05   -0.76011E-08  5048   0.103E-03    0.402E-04
DAV:  15    -0.148757596682E+03   -0.13870E-05   -0.56384E-08  5168   0.702E-04    0.277E-04
DAV:  16    -0.148757597420E+03   -0.73860E-06   -0.33238E-08  5064   0.631E-04
  67 F= -.15495601E+03 E0= -.15495601E+03  d E =-.247019E-02  mag=    24.0000
 curvature:  -2.63 expect dE=-0.340E-02 dE for cont linesearch -0.758E-07
 trial: gam= 0.62084 g(F)=  0.130E-02 g(S)=  0.000E+00 ort =-0.116E-04 (trialstep = 0.180E+01)
 search vector abs. value=  0.307E-02
 bond charge predicted
       N       E                     dE             d eps       ncg     rms          rms(c)
DAV:   1    -0.148752803911E+03    0.47928E-02   -0.99398E-01  7904   0.200E+00    0.597E-01
DAV:   2    -0.148758615447E+03   -0.58115E-02   -0.53346E-02 11664   0.915E-01    0.345E-01
DAV:   3    -0.148759498689E+03   -0.88324E-03   -0.49908E-03 10696   0.579E-01    0.231E-01
DAV:   4    -0.148759218576E+03    0.28011E-03   -0.92020E-04 11000   0.275E-01    0.130E-01
DAV:   5    -0.148759152033E+03    0.66543E-04   -0.23471E-04 11968   0.517E-02    0.103E-01
DAV:   6    -0.148759116844E+03    0.35190E-04   -0.16689E-04 11208   0.355E-02    0.380E-02
DAV:   7    -0.148759193400E+03   -0.76557E-04   -0.27749E-05 11528   0.215E-02    0.121E-02
DAV:   8    -0.148759255537E+03   -0.62137E-04   -0.18138E-06  6608   0.803E-03    0.864E-03
DAV:   9    -0.148759307414E+03   -0.51877E-04   -0.11020E-06  5808   0.503E-03    0.598E-03
DAV:  10    -0.148759370322E+03   -0.62907E-04   -0.17496E-06  6632   0.373E-03    0.342E-03
DAV:  11    -0.148759399911E+03   -0.29589E-04   -0.64969E-07  5656   0.324E-03    0.193E-03
DAV:  12    -0.148759426502E+03   -0.26591E-04   -0.61163E-07  5840   0.283E-03    0.184E-03
DAV:  13    -0.148759447524E+03   -0.21022E-04   -0.56749E-07  5720   0.246E-03    0.110E-03
DAV:  14    -0.148759460375E+03   -0.12851E-04   -0.39043E-07  5384   0.202E-03    0.100E-03
DAV:  15    -0.148759468767E+03   -0.83920E-05   -0.27364E-07  5264   0.164E-03    0.667E-04
DAV:  16    -0.148759475688E+03   -0.69217E-05   -0.22625E-07  5624   0.132E-03    0.592E-04
DAV:  17    -0.148759480327E+03   -0.46382E-05   -0.17037E-07  5216   0.122E-03    0.451E-04
DAV:  18    -0.148759485226E+03   -0.48992E-05   -0.19713E-07  5496   0.105E-03    0.364E-04
DAV:  19    -0.148759487968E+03   -0.27423E-05   -0.15249E-07  5328   0.113E-03    0.278E-04
DAV:  20    -0.148759488762E+03   -0.79408E-06   -0.98536E-08  5176   0.912E-04
  68 F= -.15495755E+03 E0= -.15495755E+03  d E =-.153519E-02  mag=    24.0000
 trial-energy change:   -0.001535  1 .order   -0.001542   -0.002320   -0.000764
 step:   2.7189(harm=  2.6835)  dis= 0.01016  next Energy=  -154.957741 (dE=-0.173E-02)
 bond charge predicted
       N       E                     dE             d eps       ncg     rms          rms(c)
DAV:   1    -0.148758117688E+03    0.13703E-02   -0.25907E-01  8000   0.102E+00    0.305E-01
DAV:   2    -0.148759569678E+03   -0.14520E-02   -0.14018E-02 11696   0.476E-01    0.180E-01
DAV:   3    -0.148759847315E+03   -0.27764E-03   -0.14188E-03 10808   0.311E-01    0.121E-01
DAV:   4    -0.148759762312E+03    0.85003E-04   -0.25072E-04 11024   0.144E-01    0.667E-02
DAV:   5    -0.148759740099E+03    0.22213E-04   -0.60943E-05 11600   0.258E-02    0.524E-02
DAV:   6    -0.148759722613E+03    0.17486E-04   -0.43427E-05 11216   0.186E-02    0.196E-02
DAV:   7    -0.148759749404E+03   -0.26791E-04   -0.69277E-06  9120   0.114E-02    0.617E-03
DAV:   8    -0.148759773671E+03   -0.24267E-04   -0.82321E-07  5648   0.535E-03    0.435E-03
DAV:   9    -0.148759792176E+03   -0.18505E-04   -0.40989E-07  5464   0.283E-03    0.314E-03
DAV:  10    -0.148759813390E+03   -0.21215E-04   -0.45421E-07  5760   0.216E-03    0.218E-03
DAV:  11    -0.148759824743E+03   -0.11352E-04   -0.27560E-07  5328   0.212E-03    0.132E-03
DAV:  12    -0.148759835133E+03   -0.10391E-04   -0.27603E-07  5384   0.162E-03    0.118E-03
DAV:  13    -0.148759842945E+03   -0.78119E-05   -0.22640E-07  5384   0.155E-03    0.597E-04
DAV:  14    -0.148759848699E+03   -0.57537E-05   -0.18627E-07  5344   0.130E-03    0.667E-04
DAV:  15    -0.148759851576E+03   -0.28771E-05   -0.12224E-07  5112   0.114E-03    0.316E-04
DAV:  16    -0.148759854388E+03   -0.28119E-05   -0.10975E-07  5336   0.850E-04    0.411E-04
DAV:  17    -0.148759855234E+03   -0.84618E-06   -0.57775E-08  5096   0.831E-04
  69 F= -.15495773E+03 E0= -.15495773E+03  d E =-.171645E-02  mag=    24.0000
 curvature:  -3.19 expect dE=-0.359E-02 dE for cont linesearch -0.121E-06
 trial: gam= 0.86724 g(F)=  0.112E-02 g(S)=  0.000E+00 ort =-0.108E-04 (trialstep = 0.178E+01)
 search vector abs. value=  0.341E-02
 bond charge predicted
       N       E                     dE             d eps       ncg     rms          rms(c)
DAV:   1    -0.148755682607E+03    0.41718E-02   -0.74890E-01  7904   0.179E+00    0.524E-01
DAV:   2    -0.148760824415E+03   -0.51418E-02   -0.50378E-02 11352   0.872E-01    0.297E-01
DAV:   3    -0.148761479087E+03   -0.65467E-03   -0.39220E-03 10552   0.499E-01    0.205E-01
DAV:   4    -0.148761273208E+03    0.20588E-03   -0.74655E-04 10848   0.245E-01    0.125E-01
DAV:   5    -0.148761221962E+03    0.51246E-04   -0.19709E-04 11536   0.453E-02    0.100E-01
DAV:   6    -0.148761190334E+03    0.31628E-04   -0.16049E-04 10960   0.336E-02    0.441E-02
DAV:   7    -0.148761228429E+03   -0.38095E-04   -0.32488E-05 11552   0.181E-02    0.121E-02
DAV:   8    -0.148761267418E+03   -0.38989E-04   -0.16970E-06  6536   0.732E-03    0.874E-03
DAV:   9    -0.148761303735E+03   -0.36316E-04   -0.15078E-06  5688   0.494E-03    0.633E-03
DAV:  10    -0.148761337939E+03   -0.34204E-04   -0.11823E-06  5976   0.439E-03    0.375E-03
DAV:  11    -0.148761360581E+03   -0.22642E-04   -0.10782E-06  5544   0.372E-03    0.251E-03
DAV:  12    -0.148761377582E+03   -0.17001E-04   -0.67341E-07  5504   0.365E-03    0.200E-03
DAV:  13    -0.148761392111E+03   -0.14529E-04   -0.56235E-07  5752   0.265E-03    0.123E-03
DAV:  14    -0.148761404962E+03   -0.12851E-04   -0.45261E-07  5584   0.220E-03    0.113E-03
DAV:  15    -0.148761411191E+03   -0.62293E-05   -0.26756E-07  5280   0.167E-03    0.648E-04
DAV:  16    -0.148761416089E+03   -0.48973E-05   -0.19199E-07  5440   0.133E-03    0.626E-04
DAV:  17    -0.148761418969E+03   -0.28807E-05   -0.13550E-07  5144   0.114E-03    0.444E-04
DAV:  18    -0.148761422400E+03   -0.34306E-05   -0.13985E-07  5368   0.950E-04    0.436E-04
DAV:  19    -0.148761425272E+03   -0.28719E-05   -0.16370E-07  5608   0.105E-03    0.384E-04
DAV:  20    -0.148761425660E+03   -0.38816E-06   -0.76994E-08  5136   0.958E-04
  70 F= -.15495917E+03 E0= -.15495917E+03  d E =-.143695E-02  mag=    24.0000
 trial-energy change:   -0.001437  1 .order   -0.001434   -0.001988   -0.000881
 step:   3.2039(harm=  3.2039)  dis= 0.01361  next Energy=  -154.959513 (dE=-0.178E-02)
 bond charge predicted
       N       E                     dE             d eps       ncg     rms          rms(c)
DAV:   1    -0.148758251635E+03    0.31736E-02   -0.47419E-01  7920   0.142E+00    0.417E-01
DAV:   2    -0.148761469357E+03   -0.32177E-02   -0.31944E-02 11408   0.695E-01    0.237E-01
DAV:   3    -0.148761913437E+03   -0.44408E-03   -0.25130E-03 10544   0.400E-01    0.163E-01
DAV:   4    -0.148761779485E+03    0.13395E-03   -0.47519E-04 10880   0.195E-01    0.994E-02
DAV:   5    -0.148761745293E+03    0.34192E-04   -0.12508E-04 11440   0.359E-02    0.798E-02
DAV:   6    -0.148761722330E+03    0.22964E-04   -0.10118E-04 11008   0.268E-02    0.349E-02
DAV:   7    -0.148761747990E+03   -0.25661E-04   -0.20106E-05 11568   0.143E-02    0.963E-03
DAV:   8    -0.148761775362E+03   -0.27371E-04   -0.10224E-06  5856   0.579E-03    0.699E-03
DAV:   9    -0.148761800975E+03   -0.25613E-04   -0.99592E-07  5768   0.407E-03    0.510E-03
DAV:  10    -0.148761824920E+03   -0.23945E-04   -0.77048E-07  5456   0.361E-03    0.304E-03
DAV:  11    -0.148761840951E+03   -0.16031E-04   -0.74781E-07  5728   0.303E-03    0.204E-03
DAV:  12    -0.148761852447E+03   -0.11495E-04   -0.43796E-07  5512   0.296E-03    0.163E-03
DAV:  13    -0.148761862650E+03   -0.10203E-04   -0.36707E-07  5376   0.212E-03    0.105E-03
DAV:  14    -0.148761871674E+03   -0.90249E-05   -0.31294E-07  5552   0.178E-03    0.946E-04
DAV:  15    -0.148761876446E+03   -0.47715E-05   -0.19171E-07  5256   0.140E-03    0.560E-04
DAV:  16    -0.148761879431E+03   -0.29847E-05   -0.12555E-07  5104   0.111E-03    0.495E-04
DAV:  17    -0.148761881752E+03   -0.23211E-05   -0.99299E-08  5440   0.911E-04    0.392E-04
DAV:  18    -0.148761883923E+03   -0.21712E-05   -0.87383E-08  5208   0.823E-04    0.360E-04
DAV:  19    -0.148761886104E+03   -0.21809E-05   -0.11802E-07  5528   0.826E-04    0.358E-04
DAV:  20    -0.148761886418E+03   -0.31416E-06   -0.55806E-08  5136   0.852E-04
  71 F= -.15495952E+03 E0= -.15495952E+03  d E =-.178740E-02  mag=    24.0000
 curvature:  -4.91 expect dE=-0.518E-02 dE for cont linesearch -0.682E-08
 trial: gam= 0.93911 g(F)=  0.106E-02 g(S)=  0.000E+00 ort = 0.218E-05 (trialstep = 0.173E+01)
 search vector abs. value=  0.407E-02
 bond charge predicted
       N       E                     dE             d eps       ncg     rms          rms(c)
DAV:   1    -0.148755078552E+03    0.68076E-02   -0.11297E+00  7904   0.214E+00    0.629E-01
DAV:   2    -0.148761861656E+03   -0.67831E-02   -0.59005E-02 11728   0.989E-01    0.380E-01
DAV:   3    -0.148763022401E+03   -0.11607E-02   -0.74691E-03 10872   0.696E-01    0.260E-01
DAV:   4    -0.148762659122E+03    0.36328E-03   -0.12331E-03 10744   0.317E-01    0.135E-01
DAV:   5    -0.148762626836E+03    0.32286E-04   -0.28670E-04 11256   0.484E-02    0.107E-01
DAV:   6    -0.148762637623E+03   -0.10786E-04   -0.19027E-04 11816   0.469E-02    0.401E-02
DAV:   7    -0.148762680377E+03   -0.42755E-04   -0.40933E-05 11552   0.344E-02    0.138E-02
DAV:   8    -0.148762711947E+03   -0.31569E-04   -0.35684E-06  7176   0.930E-03    0.101E-02
DAV:   9    -0.148762740592E+03   -0.28645E-04   -0.14592E-06  5744   0.486E-03    0.682E-03
DAV:  10    -0.148762769360E+03   -0.28768E-04   -0.10732E-06  5848   0.440E-03    0.393E-03
DAV:  11    -0.148762786290E+03   -0.16930E-04   -0.97206E-07  5496   0.411E-03    0.261E-03
DAV:  12    -0.148762802826E+03   -0.16535E-04   -0.81565E-07  5904   0.336E-03    0.200E-03
DAV:  13    -0.148762812438E+03   -0.96123E-05   -0.50825E-07  5384   0.297E-03    0.126E-03
DAV:  14    -0.148762820847E+03   -0.84089E-05   -0.36499E-07  5496   0.202E-03    0.104E-03
DAV:  15    -0.148762826032E+03   -0.51849E-05   -0.23845E-07  5320   0.167E-03    0.671E-04
DAV:  16    -0.148762828914E+03   -0.28820E-05   -0.15177E-07  5120   0.123E-03    0.635E-04
DAV:  17    -0.148762830867E+03   -0.19535E-05   -0.11003E-07  5160   0.102E-03    0.454E-04
DAV:  18    -0.148762832805E+03   -0.19374E-05   -0.10189E-07  5416   0.835E-04    0.377E-04
DAV:  19    -0.148762834071E+03   -0.12667E-05   -0.89875E-08  5360   0.874E-04    0.280E-04
DAV:  20    -0.148762834291E+03   -0.21963E-06   -0.47037E-08  5160   0.711E-04
  72 F= -.15496078E+03 E0= -.15496078E+03  d E =-.126328E-02  mag=    24.0000
 trial-energy change:   -0.001263  1 .order   -0.001271   -0.001834   -0.000708
 step:   2.9042(harm=  2.8244)  dis= 0.01451  next Energy=  -154.961015 (dE=-0.150E-02)
 bond charge predicted
       N       E                     dE             d eps       ncg     rms          rms(c)
DAV:   1    -0.148759323906E+03    0.35102E-02   -0.51328E-01  7920   0.144E+00    0.424E-01
DAV:   2    -0.148762362807E+03   -0.30389E-02   -0.26993E-02 11688   0.677E-01    0.262E-01
DAV:   3    -0.148762922824E+03   -0.56002E-03   -0.35913E-03 10864   0.485E-01    0.178E-01
DAV:   4    -0.148762748327E+03    0.17450E-03   -0.58942E-04 10744   0.217E-01    0.910E-02
DAV:   5    -0.148762734077E+03    0.14250E-04   -0.13766E-04 11032   0.331E-02    0.720E-02
DAV:   6    -0.148762741124E+03   -0.70470E-05   -0.87924E-05 11728   0.331E-02    0.273E-02
DAV:   7    -0.148762763705E+03   -0.22581E-04   -0.19269E-05 11400   0.236E-02    0.942E-03
DAV:   8    -0.148762781661E+03   -0.17956E-04   -0.16438E-06  5912   0.636E-03    0.690E-03
DAV:   9    -0.148762797806E+03   -0.16145E-04   -0.76433E-07  5592   0.352E-03    0.476E-03
DAV:  10    -0.148762813105E+03   -0.15299E-04   -0.56780E-07  5272   0.321E-03    0.284E-03
DAV:  11    -0.148762822739E+03   -0.96349E-05   -0.51967E-07  5544   0.291E-03    0.183E-03
DAV:  12    -0.148762831954E+03   -0.92143E-05   -0.41759E-07  5608   0.249E-03    0.149E-03
DAV:  13    -0.148762837332E+03   -0.53787E-05   -0.27124E-07  5272   0.210E-03    0.863E-04
DAV:  14    -0.148762841935E+03   -0.46024E-05   -0.19511E-07  5512   0.146E-03    0.779E-04
DAV:  15    -0.148762844773E+03   -0.28384E-05   -0.13081E-07  5184   0.122E-03    0.477E-04
DAV:  16    -0.148762846162E+03   -0.13883E-05   -0.78381E-08  5040   0.906E-04    0.470E-04
DAV:  17    -0.148762847355E+03   -0.11935E-05   -0.60719E-08  5216   0.719E-04    0.329E-04
DAV:  18    -0.148762848619E+03   -0.12638E-05   -0.58862E-08  5192   0.664E-04    0.305E-04
DAV:  19    -0.148762849336E+03   -0.71729E-06   -0.51770E-08  5168   0.669E-04
  73 F= -.15496100E+03 E0= -.15496100E+03  d E =-.148615E-02  mag=    24.0000
 curvature:  -5.41 expect dE=-0.483E-02 dE for cont linesearch -0.736E-06
 trial: gam= 0.88225 g(F)=  0.893E-03 g(S)=  0.000E+00 ort =-0.235E-04 (trialstep = 0.197E+01)
 search vector abs. value=  0.402E-02
 bond charge predicted
       N       E                     dE             d eps       ncg     rms          rms(c)
DAV:   1    -0.148755048150E+03    0.78005E-02   -0.10899E+00  7904   0.215E+00    0.629E-01
DAV:   2    -0.148762610036E+03   -0.75619E-02   -0.70563E-02 11576   0.108E+00    0.378E-01
DAV:   3    -0.148763408155E+03   -0.79812E-03   -0.71325E-03 10768   0.673E-01    0.260E-01
DAV:   4    -0.148763027378E+03    0.38078E-03   -0.12549E-03 10704   0.317E-01    0.145E-01
DAV:   5    -0.148762941504E+03    0.85874E-04   -0.30327E-04 11760   0.509E-02    0.116E-01
DAV:   6    -0.148762876258E+03    0.65246E-04   -0.20007E-04 11192   0.409E-02    0.513E-02
DAV:   7    -0.148762938283E+03   -0.62026E-04   -0.45724E-05 11832   0.277E-02    0.151E-02
DAV:   8    -0.148763003505E+03   -0.65222E-04   -0.51494E-06  8392   0.111E-02    0.110E-02
DAV:   9    -0.148763068683E+03   -0.65177E-04   -0.16490E-06  6152   0.538E-03    0.754E-03
DAV:  10    -0.148763133082E+03   -0.64400E-04   -0.18090E-06  6448   0.455E-03    0.437E-03
DAV:  11    -0.148763170322E+03   -0.37240E-04   -0.12255E-06  5744   0.450E-03    0.306E-03
DAV:  12    -0.148763206539E+03   -0.36217E-04   -0.13594E-06  6200   0.391E-03    0.245E-03
DAV:  13    -0.148763228703E+03   -0.22164E-04   -0.78735E-07  5744   0.340E-03    0.165E-03
DAV:  14    -0.148763243615E+03   -0.14911E-04   -0.55395E-07  5552   0.243E-03    0.127E-03
DAV:  15    -0.148763254655E+03   -0.11040E-04   -0.43371E-07  5744   0.198E-03    0.947E-04
DAV:  16    -0.148763261272E+03   -0.66168E-05   -0.32548E-07  5464   0.168E-03    0.865E-04
DAV:  17    -0.148763263404E+03   -0.21326E-05   -0.18691E-07  5128   0.142E-03    0.571E-04
DAV:  18    -0.148763265752E+03   -0.23483E-05   -0.16357E-07  5360   0.107E-03    0.510E-04
DAV:  19    -0.148763266846E+03   -0.10940E-05   -0.11017E-07  5240   0.107E-03    0.248E-04
DAV:  20    -0.148763267154E+03   -0.30757E-06   -0.63246E-08  5128   0.733E-04
  74 F= -.15496208E+03 E0= -.15496208E+03  d E =-.108314E-02  mag=    24.0000
 trial-energy change:   -0.001083  1 .order   -0.001084   -0.001717   -0.000450
 step:   2.6675(harm=  2.6675)  dis= 0.01354  next Energy=  -154.962165 (dE=-0.116E-02)
 bond charge predicted
       N       E                     dE             d eps       ncg     rms          rms(c)
DAV:   1    -0.148762075533E+03    0.11913E-02   -0.13733E-01  8024   0.763E-01    0.223E-01
DAV:   2    -0.148762972767E+03   -0.89723E-03   -0.89742E-03 11552   0.389E-01    0.137E-01
DAV:   3    -0.148763115852E+03   -0.14309E-03   -0.92453E-04 10760   0.245E-01    0.937E-02
DAV:   4    -0.148763061271E+03    0.54581E-04   -0.15862E-04 10712   0.112E-01    0.515E-02
DAV:   5    -0.148763046638E+03    0.14633E-04   -0.37511E-05 10920   0.178E-02    0.412E-02
DAV:   6    -0.148763029555E+03    0.17084E-04   -0.25988E-05 11384   0.149E-02    0.177E-02
DAV:   7    -0.148763041515E+03   -0.11960E-04   -0.43725E-06  7392   0.930E-03    0.571E-03
DAV:   8    -0.148763056911E+03   -0.15397E-04   -0.10840E-06  5488   0.520E-03    0.419E-03
DAV:   9    -0.148763069111E+03   -0.12200E-04   -0.54797E-07  5216   0.289E-03    0.320E-03
DAV:  10    -0.148763081828E+03   -0.12716E-04   -0.32757E-07  5616   0.273E-03    0.218E-03
DAV:  11    -0.148763090873E+03   -0.90459E-05   -0.28444E-07  5304   0.194E-03    0.142E-03
DAV:  12    -0.148763098874E+03   -0.80006E-05   -0.26713E-07  5504   0.164E-03    0.112E-03
DAV:  13    -0.148763104117E+03   -0.52431E-05   -0.20617E-07  5392   0.160E-03    0.681E-04
DAV:  14    -0.148763106461E+03   -0.23439E-05   -0.12294E-07  5080   0.121E-03    0.572E-04
DAV:  15    -0.148763108842E+03   -0.23810E-05   -0.99280E-08  5248   0.933E-04    0.401E-04
DAV:  16    -0.148763110764E+03   -0.19219E-05   -0.85135E-08  5296   0.847E-04    0.381E-04
DAV:  17    -0.148763111442E+03   -0.67781E-06   -0.54000E-08  5072   0.718E-04
  75 F= -.15496216E+03 E0= -.15496216E+03  d E =-.116211E-02  mag=    24.0000
 curvature:  -6.15 expect dE=-0.323E-02 dE for cont linesearch -0.486E-08
 trial: gam= 0.55568 g(F)=  0.526E-03 g(S)=  0.000E+00 ort = 0.178E-05 (trialstep = 0.211E+01)
 search vector abs. value=  0.177E-02
 bond charge predicted
       N       E                     dE             d eps       ncg     rms          rms(c)
DAV:   1    -0.148758571127E+03    0.45396E-02   -0.75697E-01  7928   0.172E+00    0.512E-01
DAV:   2    -0.148762892975E+03   -0.43218E-02   -0.37732E-02 11720   0.852E-01    0.336E-01
DAV:   3    -0.148763532333E+03   -0.63936E-03   -0.58912E-03 11088   0.617E-01    0.227E-01
DAV:   4    -0.148763261523E+03    0.27081E-03   -0.89843E-04 10704   0.266E-01    0.107E-01
DAV:   5    -0.148763240247E+03    0.21277E-04   -0.20291E-04 11408   0.395E-02    0.840E-02
DAV:   6    -0.148763241829E+03   -0.15826E-05   -0.11385E-04 11504   0.382E-02    0.339E-02
DAV:   7    -0.148763276051E+03   -0.34221E-04   -0.22726E-05 11632   0.227E-02    0.110E-02
DAV:   8    -0.148763304401E+03   -0.28350E-04   -0.20137E-06  6424   0.618E-03    0.809E-03
DAV:   9    -0.148763329201E+03   -0.24800E-04   -0.89798E-07  5680   0.399E-03    0.588E-03
DAV:  10    -0.148763352172E+03   -0.22971E-04   -0.76997E-07  5640   0.444E-03    0.354E-03
DAV:  11    -0.148763370699E+03   -0.18527E-04   -0.10353E-06  5960   0.330E-03    0.254E-03
DAV:  12    -0.148763381262E+03   -0.10563E-04   -0.56414E-07  5416   0.394E-03    0.182E-03
DAV:  13    -0.148763388701E+03   -0.74391E-05   -0.39533E-07  5520   0.250E-03    0.125E-03
DAV:  14    -0.148763395141E+03   -0.64394E-05   -0.33310E-07  5640   0.185E-03    0.100E-03
DAV:  15    -0.148763397996E+03   -0.28550E-05   -0.19457E-07  5240   0.147E-03    0.692E-04
DAV:  16    -0.148763399113E+03   -0.11175E-05   -0.10207E-07  5096   0.106E-03    0.620E-04
DAV:  17    -0.148763400089E+03   -0.97629E-06   -0.73482E-08  5160   0.805E-04
  76 F= -.15496286E+03 E0= -.15496286E+03  d E =-.692996E-03  mag=    24.0000
 trial-energy change:   -0.000693  1 .order   -0.000703   -0.001111   -0.000296
 step:   2.9658(harm=  2.8746)  dis= 0.01056  next Energy=  -154.962916 (dE=-0.752E-03)
 bond charge predicted
       N       E                     dE             d eps       ncg     rms          rms(c)
DAV:   1    -0.148762492020E+03    0.90709E-03   -0.12514E-01  8176   0.699E-01    0.208E-01
DAV:   2    -0.148763160262E+03   -0.66824E-03   -0.63395E-03 11704   0.355E-01    0.142E-01
DAV:   3    -0.148763300712E+03   -0.14045E-03   -0.10412E-03 11040   0.262E-01    0.936E-02
DAV:   4    -0.148763252658E+03    0.48054E-04   -0.15410E-04 10704   0.109E-01    0.435E-02
DAV:   5    -0.148763249021E+03    0.36372E-05   -0.34231E-05 10952   0.162E-02    0.342E-02
DAV:   6    -0.148763248667E+03    0.35422E-06   -0.19052E-05 11392   0.162E-02    0.139E-02
DAV:   7    -0.148763256904E+03   -0.82379E-05   -0.30104E-06  6768   0.931E-03    0.448E-03
DAV:   8    -0.148763265507E+03   -0.86027E-05   -0.83653E-07  5320   0.408E-03    0.341E-03
DAV:   9    -0.148763270828E+03   -0.53205E-05   -0.32779E-07  5120   0.235E-03    0.277E-03
DAV:  10    -0.148763275863E+03   -0.50352E-05   -0.17383E-07  5216   0.228E-03    0.193E-03
DAV:  11    -0.148763280742E+03   -0.48795E-05   -0.17839E-07  5448   0.133E-03    0.127E-03
DAV:  12    -0.148763285068E+03   -0.43252E-05   -0.14171E-07  5424   0.139E-03    0.908E-04
DAV:  13    -0.148763287060E+03   -0.19922E-05   -0.11057E-07  5200   0.121E-03    0.495E-04
DAV:  14    -0.148763288258E+03   -0.11983E-05   -0.71219E-08  4960   0.927E-04    0.477E-04
DAV:  15    -0.148763288817E+03   -0.55847E-06   -0.44441E-08  5224   0.709E-04
  77 F= -.15496291E+03 E0= -.15496291E+03  d E =-.744469E-03  mag=    24.0000
 curvature:  -4.76 expect dE=-0.224E-02 dE for cont linesearch -0.425E-06
 trial: gam= 0.92650 g(F)=  0.472E-03 g(S)=  0.000E+00 ort =-0.126E-04 (trialstep = 0.205E+01)
 search vector abs. value=  0.197E-02
 bond charge predicted
       N       E                     dE             d eps       ncg     rms          rms(c)
DAV:   1    -0.148759346074E+03    0.39422E-02   -0.56001E-01  7904   0.153E+00    0.445E-01
DAV:   2    -0.148763029603E+03   -0.36835E-02   -0.35889E-02 11600   0.791E-01    0.281E-01
DAV:   3    -0.148763437531E+03   -0.40793E-03   -0.39208E-03 10768   0.502E-01    0.194E-01
DAV:   4    -0.148763221251E+03    0.21628E-03   -0.64617E-04 10760   0.227E-01    0.104E-01
DAV:   5    -0.148763168931E+03    0.52319E-04   -0.15004E-04 11600   0.342E-02    0.824E-02
DAV:   6    -0.148763126536E+03    0.42395E-04   -0.95879E-05 11344   0.321E-02    0.357E-02
DAV:   7    -0.148763162087E+03   -0.35551E-04   -0.21002E-05 11784   0.198E-02    0.103E-02
DAV:   8    -0.148763203018E+03   -0.40931E-04   -0.21808E-06  6568   0.621E-03    0.762E-03
DAV:   9    -0.148763242672E+03   -0.39654E-04   -0.10276E-06  5696   0.495E-03    0.569E-03
DAV:  10    -0.148763279036E+03   -0.36364E-04   -0.87426E-07  6016   0.452E-03    0.339E-03
DAV:  11    -0.148763306051E+03   -0.27014E-04   -0.98705E-07  5768   0.302E-03    0.229E-03
DAV:  12    -0.148763325370E+03   -0.19319E-04   -0.62260E-07  5648   0.348E-03    0.182E-03
DAV:  13    -0.148763339696E+03   -0.14326E-04   -0.55055E-07  5688   0.242E-03    0.112E-03
DAV:  14    -0.148763351071E+03   -0.11375E-04   -0.41861E-07  5736   0.205E-03    0.106E-03
DAV:  15    -0.148763357394E+03   -0.63227E-05   -0.26950E-07  5336   0.161E-03    0.629E-04
DAV:  16    -0.148763361147E+03   -0.37529E-05   -0.17852E-07  5128   0.126E-03    0.645E-04
DAV:  17    -0.148763364397E+03   -0.32504E-05   -0.14898E-07  5432   0.104E-03    0.417E-04
DAV:  18    -0.148763366966E+03   -0.25692E-05   -0.12750E-07  5536   0.972E-04    0.402E-04
DAV:  19    -0.148763368683E+03   -0.17163E-05   -0.12218E-07  5240   0.917E-04    0.231E-04
DAV:  20    -0.148763368899E+03   -0.21680E-06   -0.60471E-08  5192   0.842E-04
  78 F= -.15496345E+03 E0= -.15496345E+03  d E =-.537741E-03  mag=    24.0000
 trial-energy change:   -0.000538  1 .order   -0.000538   -0.000943   -0.000132
 step:   2.3856(harm=  2.3856)  dis= 0.00900  next Energy=  -154.963457 (dE=-0.549E-03)
 reached required accuracy - stopping structural energy minimisation
 writing wavefunctions
Note: The following floating-point exceptions are signalling: IEEE_OVERFLOW_FLAG IEEE_UNDERFLOW_FLAG IEEE_DENORMAL
Note: The following floating-point exceptions are signalling: IEEE_OVERFLOW_FLAG IEEE_UNDERFLOW_FLAG IEEE_DENORMAL
Note: The following floating-point exceptions are signalling: IEEE_OVERFLOW_FLAG IEEE_UNDERFLOW_FLAG IEEE_DENORMAL
Note: The following floating-point exceptions are signalling: IEEE_OVERFLOW_FLAG IEEE_UNDERFLOW_FLAG IEEE_DENORMAL
Note: The following floating-point exceptions are signalling: IEEE_OVERFLOW_FLAG IEEE_UNDERFLOW_FLAG IEEE_DENORMAL
Note: The following floating-point exceptions are signalling: IEEE_OVERFLOW_FLAG IEEE_UNDERFLOW_FLAG IEEE_DENORMAL
Note: The following floating-point exceptions are signalling: IEEE_OVERFLOW_FLAG IEEE_UNDERFLOW_FLAG IEEE_DENORMAL
Note: The following floating-point exceptions are signalling: IEEE_OVERFLOW_FLAG IEEE_UNDERFLOW_FLAG IEEE_DENORMAL
Note: The following floating-point exceptions are signalling: IEEE_OVERFLOW_FLAG IEEE_UNDERFLOW_FLAG IEEE_DENORMAL
Note: The following floating-point exceptions are signalling: IEEE_OVERFLOW_FLAG IEEE_UNDERFLOW_FLAG IEEE_DENORMAL
Note: The following floating-point exceptions are signalling: IEEE_OVERFLOW_FLAG IEEE_UNDERFLOW_FLAG IEEE_DENORMAL
Note: The following floating-point exceptions are signalling: IEEE_OVERFLOW_FLAG IEEE_UNDERFLOW_FLAG IEEE_DENORMAL
Note: The following floating-point exceptions are signalling: IEEE_OVERFLOW_FLAG IEEE_UNDERFLOW_FLAG IEEE_DENORMAL
Note: The following floating-point exceptions are signalling: IEEE_OVERFLOW_FLAG IEEE_UNDERFLOW_FLAG IEEE_DENORMAL
Note: The following floating-point exceptions are signalling: IEEE_OVERFLOW_FLAG IEEE_UNDERFLOW_FLAG IEEE_DENORMAL
Note: The following floating-point exceptions are signalling: IEEE_OVERFLOW_FLAG IEEE_UNDERFLOW_FLAG IEEE_DENORMAL
Note: The following floating-point exceptions are signalling: IEEE_OVERFLOW_FLAG IEEE_UNDERFLOW_FLAG IEEE_DENORMAL
Note: The following floating-point exceptions are signalling: IEEE_OVERFLOW_FLAG IEEE_UNDERFLOW_FLAG IEEE_DENORMAL
Note: The following floating-point exceptions are signalling: IEEE_OVERFLOW_FLAG IEEE_UNDERFLOW_FLAG IEEE_DENORMAL
Note: The following floating-point exceptions are signalling: IEEE_OVERFLOW_FLAG IEEE_UNDERFLOW_FLAG IEEE_DENORMAL
Note: The following floating-point exceptions are signalling: IEEE_OVERFLOW_FLAG IEEE_UNDERFLOW_FLAG IEEE_DENORMAL
Note: The following floating-point exceptions are signalling: IEEE_OVERFLOW_FLAG IEEE_UNDERFLOW_FLAG IEEE_DENORMAL
Note: The following floating-point exceptions are signalling: IEEE_OVERFLOW_FLAG IEEE_UNDERFLOW_FLAG IEEE_DENORMAL
Note: The following floating-point exceptions are signalling: IEEE_OVERFLOW_FLAG IEEE_UNDERFLOW_FLAG IEEE_DENORMAL
Note: The following floating-point exceptions are signalling: IEEE_OVERFLOW_FLAG IEEE_UNDERFLOW_FLAG IEEE_DENORMAL
Note: The following floating-point exceptions are signalling: IEEE_OVERFLOW_FLAG IEEE_UNDERFLOW_FLAG IEEE_DENORMAL
Note: The following floating-point exceptions are signalling: IEEE_OVERFLOW_FLAG IEEE_UNDERFLOW_FLAG IEEE_DENORMAL
Note: The following floating-point exceptions are signalling: IEEE_OVERFLOW_FLAG IEEE_UNDERFLOW_FLAG IEEE_DENORMAL
Note: The following floating-point exceptions are signalling: IEEE_OVERFLOW_FLAG IEEE_UNDERFLOW_FLAG IEEE_DENORMAL
Note: The following floating-point exceptions are signalling: IEEE_OVERFLOW_FLAG IEEE_UNDERFLOW_FLAG IEEE_DENORMAL
Note: The following floating-point exceptions are signalling: IEEE_OVERFLOW_FLAG IEEE_UNDERFLOW_FLAG IEEE_DENORMAL
Note: The following floating-point exceptions are signalling: IEEE_OVERFLOW_FLAG IEEE_UNDERFLOW_FLAG IEEE_DENORMAL
