Cr8Cl24Fe1
   1.0000000000000000
    12.0969953537000006    0.0000000000000000    0.0000000000000000
    -6.0484976768000003   10.4763052858000005    0.0000000000000000
     0.0000000000000000    0.0000000000000000   17.6700248717999990
   Cr   Cl   Fe   H
     8    24     1     1
Direct
  0.1634699969491678  0.8311890002059937  0.3367220510256622
  0.1591758385096133  0.3256591658202093  0.3384484306605693
  0.6618962659666103  0.8353854552543741  0.3389264909491778
  0.6691632705468477  0.3326984370909824  0.3377403188127439
  0.8343387748393309  0.6632194234741516  0.3384837628167267
  0.8300527527895126  0.1645286152083970  0.3366897242773806
  0.3317730470476987  0.6703438953044956  0.3389328797973463
  0.3242852782452208  0.1602472444791229  0.3377325817539640
  0.1737350428271172  0.9949195835466728  0.2600565854018803
  0.1786984131022785  0.4983798310398280  0.2661074010778622
  0.6760163505236662  0.9998105689030592  0.2608679557289900
  0.6752046851101734  0.4983602894817325  0.2650752458906258
  0.3175488358924575  0.8206048328372186  0.2608906427223748
  0.3182088922964523  0.3197698747355484  0.2650153211265635
  0.8150273086811272  0.8165231213403742  0.2661355316889130
  0.8196527936480281  0.3179302981559871  0.2600189160452488
  0.9993089738798213  0.6775881391432137  0.2605072590910824
  0.9941727833804996  0.1751178303936490  0.2604471816185954
  0.4968312558819185  0.6763186212406893  0.2657188789860148
  0.4967451838987009  0.1800570008424092  0.2648060472411560
  0.9983167670551580  0.8183574627219251  0.4137964387911293
  0.9952124491131924  0.3169435789117224  0.4137268919438776
  0.4968532901802394  0.8248716035007015  0.4152246605240297
  0.4967510487922466  0.3164880860570999  0.4214140980656863
  0.3161005712705347  0.9968121896477777  0.4132172086081241
  0.3165995296832976  0.4983109242233644  0.4222967466436472
  0.8171337733104820  0.9994961531637624  0.4140143640619581
  0.8230313558749176  0.4976989419435480  0.4146039834168588
  0.1765142230139087  0.6791346370688705  0.4140384815094068
  0.1704655654520387  0.1714496471574583  0.4146014586600267
  0.6769274824566638  0.6783969953477953  0.4223013011542354
  0.6773339668776106  0.1773668029735610  0.4131783121953151
  0.4967278670270354  0.4964543751787783  0.4676110618538511
  0.4967405828764325  0.4931337246055388  0.5565478538589791

  0.00000000E+00  0.00000000E+00  0.00000000E+00
  0.00000000E+00  0.00000000E+00  0.00000000E+00
  0.00000000E+00  0.00000000E+00  0.00000000E+00
  0.00000000E+00  0.00000000E+00  0.00000000E+00
  0.00000000E+00  0.00000000E+00  0.00000000E+00
  0.00000000E+00  0.00000000E+00  0.00000000E+00
  0.00000000E+00  0.00000000E+00  0.00000000E+00
  0.00000000E+00  0.00000000E+00  0.00000000E+00
  0.00000000E+00  0.00000000E+00  0.00000000E+00
  0.00000000E+00  0.00000000E+00  0.00000000E+00
  0.00000000E+00  0.00000000E+00  0.00000000E+00
  0.00000000E+00  0.00000000E+00  0.00000000E+00
  0.00000000E+00  0.00000000E+00  0.00000000E+00
  0.00000000E+00  0.00000000E+00  0.00000000E+00
  0.00000000E+00  0.00000000E+00  0.00000000E+00
  0.00000000E+00  0.00000000E+00  0.00000000E+00
  0.00000000E+00  0.00000000E+00  0.00000000E+00
  0.00000000E+00  0.00000000E+00  0.00000000E+00
  0.00000000E+00  0.00000000E+00  0.00000000E+00
  0.00000000E+00  0.00000000E+00  0.00000000E+00
  0.00000000E+00  0.00000000E+00  0.00000000E+00
  0.00000000E+00  0.00000000E+00  0.00000000E+00
  0.00000000E+00  0.00000000E+00  0.00000000E+00
  0.00000000E+00  0.00000000E+00  0.00000000E+00
  0.00000000E+00  0.00000000E+00  0.00000000E+00
  0.00000000E+00  0.00000000E+00  0.00000000E+00
  0.00000000E+00  0.00000000E+00  0.00000000E+00
  0.00000000E+00  0.00000000E+00  0.00000000E+00
  0.00000000E+00  0.00000000E+00  0.00000000E+00
  0.00000000E+00  0.00000000E+00  0.00000000E+00
  0.00000000E+00  0.00000000E+00  0.00000000E+00
  0.00000000E+00  0.00000000E+00  0.00000000E+00
  0.00000000E+00  0.00000000E+00  0.00000000E+00
  0.00000000E+00  0.00000000E+00  0.00000000E+00