34
Lattice="12.092548997049326 0.0 0.0 -6.046274498524663 10.47245462795275 0.0 0.0 0.0 20.0" Properties=species:S:1:pos:R:3:momenta:R:3 pbc="T T T"
Cr       0.01068476       3.49484189      10.04465299       0.00000000       0.00000000       0.00000000
Cr       3.00125806       1.74441064      10.05772404       0.00000000       0.00000000       0.00000000
Cr       6.14115787       3.51665580       9.62125140       0.00000000       0.00000000       0.00000000
Cr       9.14354474       1.74509721       9.91962604       0.00000000       0.00000000       0.00000000
Cr      -3.02704647       8.72943463      10.04074134       0.00000000       0.00000000       0.00000000
Cr      -0.00511780       6.98472159      10.02663691       0.00000000       0.00000000       0.00000000
Cr       3.01653671       8.73372230      10.01400376       0.00000000       0.00000000       0.00000000
Cr       6.02281139       7.01126309       9.97828464       0.00000000       0.00000000       0.00000000
Cl      -0.86357090       5.23505099       8.67920616       0.00000000       0.00000000       0.00000000
Cl       4.82814831       1.83807966       8.55944369       0.00000000       0.00000000       0.00000000
Cl       1.96227361       3.41143889       8.72500338       0.00000000       0.00000000       0.00000000
Cl       0.85337050       5.25236689      11.40354455       0.00000000       0.00000000       0.00000000
Cl      10.11234407       3.37359837      11.34013297       0.00000000       0.00000000       0.00000000
Cl       1.03881223       1.85002260      11.41138374       0.00000000       0.00000000       0.00000000
Cl       5.14121455       5.37172543       8.51690463       0.00000000       0.00000000       0.00000000
Cl      -0.93707977       1.79082488       8.69444897       0.00000000       0.00000000       0.00000000
Cl       8.30579678       3.28489110       8.38296525       0.00000000       0.00000000       0.00000000
Cl       7.01878961       5.18589522      11.27271279       0.00000000       0.00000000       0.00000000
Cl       3.90729958       3.44046517      11.51543375       0.00000000       0.00000000       0.00000000
Cl       7.03027703       1.80950173      11.20098344       0.00000000       0.00000000       0.00000000
Cl      -3.93450052      10.46632305       8.71183194       0.00000000       0.00000000       0.00000000
Cl       1.94193398       7.09730092       8.67033379       0.00000000       0.00000000       0.00000000
Cl      -1.08393083       8.61862253       8.68087845       0.00000000       0.00000000       0.00000000
Cl       3.90446420       0.00475878      11.39398325       0.00000000       0.00000000       0.00000000
Cl       7.11187504       8.58949443      11.39233584       0.00000000       0.00000000       0.00000000
Cl      -1.95221700       7.09642646      11.38704673       0.00000000       0.00000000       0.00000000
Cl       2.17235355      10.45365612       8.62610917       0.00000000       0.00000000       0.00000000
Cl      -4.08959590       7.10481276       8.67405358       0.00000000       0.00000000       0.00000000
Cl       4.97949296       8.67389541       8.67580025       0.00000000       0.00000000       0.00000000
Cl       9.92158213       0.00511948      11.37061675       0.00000000       0.00000000       0.00000000
Cl       1.06964397       8.62839723      11.36670610       0.00000000       0.00000000       0.00000000
Cl       4.09485321       7.07548531      11.34950879       0.00000000       0.00000000       0.00000000
Co       5.97589524       3.47926106      12.47286674       0.00000000       0.00000000       0.00000000
H        6.04958607       3.44334885      14.01944581       0.00000000       0.00000000       0.00000000
