CrCl3 1x1 + H S1 top-Cl (D3, U=0) (a=6.0463A, c=20.0000A)
1.0
    6.0462744985246628    0.0000000000000000    0.0000000000000000
   -3.0231372492623314    5.2362273139763751    0.0000000000000000
    0.0000000000000000    0.0000000000000000   20.0000000000000000
  Cr  Cl  H
  2  6  1
Direct
    0.3333333333333357    0.6666666666666643    0.5000000000000000
    0.6666666666666643    0.3333333333333357    0.5000000000000000
    0.3593001968636154    0.0000000000000000    0.4332138067400734
    0.0000000000000000    0.3593001968636154    0.4332138067400734
    0.6406998031363844    0.6406998031363844    0.4332138067400734
    0.6406998031363844    0.0000000000000000    0.5667861932599265
    0.0000000000000000    0.6406998031363844    0.5667861932599265
    0.3593001968636154    0.3593001968636154    0.5667861932599265
    0.3593001968636154    0.3593001968636154    0.6317861932599265
