CrCl3 2x2 + Fe S1 top-Cl (no_vdw, U=0) (
   1.0000000000000000     
    12.0925489970493256    0.0000000000000000    0.0000000000000000
    -6.0462744985246628   10.4724546279527502    0.0000000000000000
     0.0000000000000000    0.0000000000000000   20.0000000000000000
   Cr   Cl   Fe
     8    24     1
Direct
  0.1615760680229442  0.3216664338272068  0.5021419937948745
  0.3266210008470911  0.1548832956561629  0.5040274625994020
  0.6733789991529087  0.3282622948090574  0.5040274625994020
  0.8339667290523655  0.1616904556146925  0.4990482659244706
  0.1660332709476346  0.8277237265623129  0.4990482659244706
  0.3340346572421483  0.6677600831979255  0.5006939539101474
  0.6659653427578517  0.8337254259557628  0.5006939539101474
  0.8384239319770560  0.6600903658042769  0.5021419937948745
  0.1823074600750823  0.4939862998162091  0.4365976627660313
  0.5000000000000000  0.1745776379924327  0.4404117479583855
  0.3256068288092710  0.3183942627964841  0.4403831172249688
  0.3151798194795614  0.4959812219981353  0.5775303569612421
 -0.0021008924865321  0.3142247210223348  0.5677837306186171
  0.1717270303627616  0.1672353518536663  0.5708096906929877
  0.6743931711907292  0.4927874339872133  0.4403831172249688
 -0.0018561824166759  0.1724700464300795  0.4317344089561164
  0.8228515089611542  0.3158721214244823  0.4328563014328096
  0.8282729696372384  0.4955083214909046  0.5708096906929877
  0.5000000000000000  0.3072639224473459  0.5813801803974734
  0.6835512902852164  0.1730891124194260  0.5696179280351340
  0.1771484910388456 -0.0069793875366721  0.4328563014328096
  0.5000000000000000  0.6719716558367288  0.4370795946083980
  0.3194066094468885  0.8178720416588522  0.4312879071786330
  0.3164487097147834 -0.0104621778657903  0.5696179280351340
  0.0021008924865321  0.8163256135088669  0.5677837306186171
  0.1776445118714285  0.6746537655770606  0.5669759680503920
  0.6805933905531110 -0.0015345677880363  0.4312879071786330
  0.0018561824166759  0.6743262288467553  0.4317344089561164
  0.8176925399249175  0.8116788397411268  0.4365976627660313
  0.8223554881285712 -0.0029907462943677  0.5669759680503920
  0.5000000000000000  0.8238854419722272  0.5676504226165225
  0.6848201805204385  0.6808014025185738  0.5775303569612421
  0.5000000000000000  0.4936092562867541  0.5897867513874950

  0.00000000E+00  0.00000000E+00  0.00000000E+00
  0.00000000E+00  0.00000000E+00  0.00000000E+00
  0.00000000E+00  0.00000000E+00  0.00000000E+00
  0.00000000E+00  0.00000000E+00  0.00000000E+00
  0.00000000E+00  0.00000000E+00  0.00000000E+00
  0.00000000E+00  0.00000000E+00  0.00000000E+00
  0.00000000E+00  0.00000000E+00  0.00000000E+00
  0.00000000E+00  0.00000000E+00  0.00000000E+00
  0.00000000E+00  0.00000000E+00  0.00000000E+00
  0.00000000E+00  0.00000000E+00  0.00000000E+00
  0.00000000E+00  0.00000000E+00  0.00000000E+00
  0.00000000E+00  0.00000000E+00  0.00000000E+00
  0.00000000E+00  0.00000000E+00  0.00000000E+00
  0.00000000E+00  0.00000000E+00  0.00000000E+00
  0.00000000E+00  0.00000000E+00  0.00000000E+00
  0.00000000E+00  0.00000000E+00  0.00000000E+00
  0.00000000E+00  0.00000000E+00  0.00000000E+00
  0.00000000E+00  0.00000000E+00  0.00000000E+00
  0.00000000E+00  0.00000000E+00  0.00000000E+00
  0.00000000E+00  0.00000000E+00  0.00000000E+00
  0.00000000E+00  0.00000000E+00  0.00000000E+00
  0.00000000E+00  0.00000000E+00  0.00000000E+00
  0.00000000E+00  0.00000000E+00  0.00000000E+00
  0.00000000E+00  0.00000000E+00  0.00000000E+00
  0.00000000E+00  0.00000000E+00  0.00000000E+00
  0.00000000E+00  0.00000000E+00  0.00000000E+00
  0.00000000E+00  0.00000000E+00  0.00000000E+00
  0.00000000E+00  0.00000000E+00  0.00000000E+00
  0.00000000E+00  0.00000000E+00  0.00000000E+00
  0.00000000E+00  0.00000000E+00  0.00000000E+00
  0.00000000E+00  0.00000000E+00  0.00000000E+00
  0.00000000E+00  0.00000000E+00  0.00000000E+00
  0.00000000E+00  0.00000000E+00  0.00000000E+00
