
   1.0000000000000000
    12.0969953537000006    0.0000000000000000    0.0000000000000000
    -6.0484976768000003   10.4763052858000005    0.0000000000000000
     0.0000000000000000    0.0000000000000000   17.6700248717999990
   Cr   Cl   Ni   H
     8    24     1     1
Direct
  0.1634979243473182  0.8365149754720633  0.3382929802969343
  0.1600373881734072  0.3326393732591271  0.3403234110845617
  0.6629954894663612  0.8399324206599061  0.3405704730172445
  0.6672341377136632  0.3371092485768941  0.3403086421519177
  0.8335799674953535  0.6698931198530644  0.3407210770634492
  0.8299990256338319  0.1698653541182580  0.3379272544727598
  0.3301680585163851  0.6732416117087823  0.3403899809706274
  0.3267150769152707  0.1665318962703211  0.3404868750995718
  0.1754600940506705  0.0014914540546087  0.2622626118125027
  0.1783238857500393  0.5029578578576590  0.2663267037382440
  0.6767098814249479  0.0046999221559147  0.2620624803537908
  0.6745253748525286  0.5037244356022867  0.2672271320127280
  0.3162427097845253  0.8243330875855577  0.2620545101163358
  0.3190459295497945  0.3252526188456031  0.2669960392623310
  0.8155129931052940  0.8221176053230934  0.2668489136259353
  0.8182418259403974  0.3230733009078008  0.2618757903572302
  0.9983282639501780  0.6835420152295555  0.2623339550228749
  0.9950098945567234  0.1814620629654229  0.2620436305021130
  0.4968027847284375  0.6806691565552541  0.2672260818362560
  0.4969713649090366  0.1850422318304936  0.2663493906274681
  0.9986636888767180  0.8246781353242199  0.4155917383947241
  0.9950653372100433  0.3229333988363905  0.4149867366540434
  0.4963982162038079  0.8287768615284037  0.4156678244709937
  0.4970224096086966  0.3231053127124142  0.4219274879205912
  0.3169446823914228  0.0015592280738730  0.4152493095524221
  0.3161983827415042  0.5029628795605063  0.4219156173801082
  0.8178674083365181  0.0050324433665807  0.4153034017253319
  0.8226204000940456  0.5032569970587630  0.4156941689998490
  0.1751639672720913  0.6831439944092423  0.4152342387941985
  0.1711672152670047  0.1773420193497017  0.4156864058733447
  0.6772604608027635  0.6838773126854818  0.4222761641722101
  0.6771110167541892  0.1820641425040463  0.4150424295233393
  0.4967918645664824  0.5034431848712515  0.4380609312654045
  0.4964367100105420  0.5036807048874650  0.5206315778485475

  0.00000000E+00  0.00000000E+00  0.00000000E+00
  0.00000000E+00  0.00000000E+00  0.00000000E+00
  0.00000000E+00  0.00000000E+00  0.00000000E+00
  0.00000000E+00  0.00000000E+00  0.00000000E+00
  0.00000000E+00  0.00000000E+00  0.00000000E+00
  0.00000000E+00  0.00000000E+00  0.00000000E+00
  0.00000000E+00  0.00000000E+00  0.00000000E+00
  0.00000000E+00  0.00000000E+00  0.00000000E+00
  0.00000000E+00  0.00000000E+00  0.00000000E+00
  0.00000000E+00  0.00000000E+00  0.00000000E+00
  0.00000000E+00  0.00000000E+00  0.00000000E+00
  0.00000000E+00  0.00000000E+00  0.00000000E+00
  0.00000000E+00  0.00000000E+00  0.00000000E+00
  0.00000000E+00  0.00000000E+00  0.00000000E+00
  0.00000000E+00  0.00000000E+00  0.00000000E+00
  0.00000000E+00  0.00000000E+00  0.00000000E+00
  0.00000000E+00  0.00000000E+00  0.00000000E+00
  0.00000000E+00  0.00000000E+00  0.00000000E+00
  0.00000000E+00  0.00000000E+00  0.00000000E+00
  0.00000000E+00  0.00000000E+00  0.00000000E+00
  0.00000000E+00  0.00000000E+00  0.00000000E+00
  0.00000000E+00  0.00000000E+00  0.00000000E+00
  0.00000000E+00  0.00000000E+00  0.00000000E+00
  0.00000000E+00  0.00000000E+00  0.00000000E+00
  0.00000000E+00  0.00000000E+00  0.00000000E+00
  0.00000000E+00  0.00000000E+00  0.00000000E+00
  0.00000000E+00  0.00000000E+00  0.00000000E+00
  0.00000000E+00  0.00000000E+00  0.00000000E+00
  0.00000000E+00  0.00000000E+00  0.00000000E+00
  0.00000000E+00  0.00000000E+00  0.00000000E+00
  0.00000000E+00  0.00000000E+00  0.00000000E+00
  0.00000000E+00  0.00000000E+00  0.00000000E+00
  0.00000000E+00  0.00000000E+00  0.00000000E+00
  0.00000000E+00  0.00000000E+00  0.00000000E+00