CrCl3 2x2 + Co S3 top-Cr (no_vdw, U=0) (
   1.0000000000000000     
    12.0925489970493256    0.0000000000000000    0.0000000000000000
    -6.0462744985246628   10.4724546279527502    0.0000000000000000
     0.0000000000000000    0.0000000000000000   20.0000000000000000
   Cr   Cl   Co
     8    24     1
Direct
  0.1670861129706767  0.3333472162638398  0.5014545262554596
  0.3298164867342924  0.1643362191277639  0.5003948293170795
  0.6666666666666714  0.3333333333333286  0.4833069392707079
  0.8356637808722361  0.1654802676065428  0.5003948293170795
  0.1662611032931773  0.8329138870293233  0.5014545262554596
  0.3333333333333286  0.6666666666666714  0.5008318230856728
  0.6666527837361603  0.8337388967068226  0.5014545262554596
  0.8345197323934572  0.6701835132657076  0.5003948293170795
  0.1798389219764159  0.4996443755112092  0.4343047331598868
  0.4869169884203368  0.1724452185872528  0.4279367766177525
  0.3202272982019170  0.3212162868609936  0.4346260411105171
  0.3202253363246554  0.5005748199929323  0.5683008002262477
 -0.0004085310459380  0.3208919977114431  0.5678847481761888
  0.1785237501606134  0.1797116062398668  0.5688650967431275
  0.6855282301669162  0.5130830115796633  0.4279367766177525
  0.0039356472884041  0.1774306143334290  0.4348213827629228
  0.8275547814127474  0.3144717698330841  0.4279367766177525
  0.8328775505049724  0.5042973257528595  0.5705118297862715
  0.4957026742471405  0.3285802247521128  0.5705118297862715
  0.6714197752478874  0.1671224494950277  0.5705118297862715
  0.1734949670450249 -0.0039356472884041  0.4348213827629228
  0.5003556244887908  0.6801945464652068  0.4343047331598868
  0.3198054535347932  0.8201610780235838  0.4343047331598868
  0.3213005287573812  0.0004085310459380  0.5678847481761888
  0.0011878560792535  0.8214762498393864  0.5688650967431275
  0.1803494836682772  0.6797746636753450  0.5683008002262477
  0.6787837131390067 -0.0009889886590765  0.4346260411105171
  0.0009889886590765  0.6797727017980831  0.4346260411105171
  0.8225693856665709  0.8265050329549750  0.4348213827629228
  0.8202883937601331 -0.0011878560792535  0.5688650967431275
  0.4994251800070676  0.8196505163317227  0.5683008002262477
  0.6791080022885568  0.6786994712426186  0.5678847481761888
  0.6666666666666714  0.3333333333333286  0.6135589451772603

  0.00000000E+00  0.00000000E+00  0.00000000E+00
  0.00000000E+00  0.00000000E+00  0.00000000E+00
  0.00000000E+00  0.00000000E+00  0.00000000E+00
  0.00000000E+00  0.00000000E+00  0.00000000E+00
  0.00000000E+00  0.00000000E+00  0.00000000E+00
  0.00000000E+00  0.00000000E+00  0.00000000E+00
  0.00000000E+00  0.00000000E+00  0.00000000E+00
  0.00000000E+00  0.00000000E+00  0.00000000E+00
  0.00000000E+00  0.00000000E+00  0.00000000E+00
  0.00000000E+00  0.00000000E+00  0.00000000E+00
  0.00000000E+00  0.00000000E+00  0.00000000E+00
  0.00000000E+00  0.00000000E+00  0.00000000E+00
  0.00000000E+00  0.00000000E+00  0.00000000E+00
  0.00000000E+00  0.00000000E+00  0.00000000E+00
  0.00000000E+00  0.00000000E+00  0.00000000E+00
  0.00000000E+00  0.00000000E+00  0.00000000E+00
  0.00000000E+00  0.00000000E+00  0.00000000E+00
  0.00000000E+00  0.00000000E+00  0.00000000E+00
  0.00000000E+00  0.00000000E+00  0.00000000E+00
  0.00000000E+00  0.00000000E+00  0.00000000E+00
  0.00000000E+00  0.00000000E+00  0.00000000E+00
  0.00000000E+00  0.00000000E+00  0.00000000E+00
  0.00000000E+00  0.00000000E+00  0.00000000E+00
  0.00000000E+00  0.00000000E+00  0.00000000E+00
  0.00000000E+00  0.00000000E+00  0.00000000E+00
  0.00000000E+00  0.00000000E+00  0.00000000E+00
  0.00000000E+00  0.00000000E+00  0.00000000E+00
  0.00000000E+00  0.00000000E+00  0.00000000E+00
  0.00000000E+00  0.00000000E+00  0.00000000E+00
  0.00000000E+00  0.00000000E+00  0.00000000E+00
  0.00000000E+00  0.00000000E+00  0.00000000E+00
  0.00000000E+00  0.00000000E+00  0.00000000E+00
  0.00000000E+00  0.00000000E+00  0.00000000E+00
