       N       E                     dE             d eps       ncg     rms          rms(c)
DAV:   1     0.211581923745E+04    0.21158E+04   -0.64597E+04  3096   0.910E+02
DAV:   2     0.403101645811E+03   -0.17127E+04   -0.15858E+04  3656   0.246E+02
DAV:   3    -0.132384554989E+03   -0.53549E+03   -0.52008E+03  4456   0.138E+02
DAV:   4    -0.174253496086E+03   -0.41869E+02   -0.41204E+02  4624   0.549E+01
DAV:   5    -0.175014927386E+03   -0.76143E+00   -0.75539E+00  4656   0.940E+00    0.413E+01
DAV:   6    -0.170581607097E+03    0.44333E+01   -0.17341E+02  4464   0.614E+01    0.643E+01
DAV:   7    -0.178242282058E+03   -0.76607E+01   -0.42656E+01  4592   0.693E+01    0.476E+01
DAV:   8    -0.165292074027E+03    0.12950E+02   -0.23491E+01  4560   0.247E+01    0.269E+01
DAV:   9    -0.157666662042E+03    0.76254E+01   -0.19829E+01  4064   0.648E+01    0.383E+01
DAV:  10    -0.158787497231E+03   -0.11208E+01   -0.79575E+01  5000   0.250E+01    0.211E+01
DAV:  11    -0.157464570595E+03    0.13229E+01   -0.26114E+00  4512   0.793E+00    0.128E+01
DAV:  12    -0.157970934857E+03   -0.50636E+00   -0.52262E-01  4504   0.454E+00    0.102E+01
DAV:  13    -0.157993703404E+03   -0.22769E-01   -0.19092E-01  4864   0.283E+00    0.811E+00
DAV:  14    -0.158098294066E+03   -0.10459E+00   -0.94824E-02  4536   0.127E+00    0.731E+00
DAV:  15    -0.158197668173E+03   -0.99374E-01   -0.58773E-02  4768   0.156E+00    0.559E+00
DAV:  16    -0.158328829684E+03   -0.13116E+00   -0.93045E-02  4592   0.113E+00    0.467E+00
DAV:  17    -0.158313805651E+03    0.15024E-01   -0.13073E-02  3280   0.375E-01    0.457E+00
DAV:  18    -0.158398083951E+03   -0.84278E-01   -0.26679E-02  4480   0.885E-01    0.381E+00
DAV:  19    -0.158662831486E+03   -0.26475E+00   -0.92015E-02  4392   0.125E+00    0.192E+00
DAV:  20    -0.158754145452E+03   -0.91314E-01   -0.13415E-02  4008   0.368E-01    0.167E+00
DAV:  21    -0.158843428676E+03   -0.89283E-01   -0.15397E-02  4392   0.497E-01    0.144E+00
DAV:  22    -0.158883235022E+03   -0.39806E-01   -0.54874E-03  4488   0.249E-01    0.130E+00
DAV:  23    -0.159047000699E+03   -0.16377E+00   -0.36844E-02  4088   0.792E-01    0.658E-01
DAV:  24    -0.159194448589E+03   -0.14745E+00   -0.23509E-02  3928   0.396E-01    0.765E-01
DAV:  25    -0.159292728167E+03   -0.98280E-01   -0.10922E-02  4064   0.407E-01    0.449E-01
DAV:  26    -0.159403742259E+03   -0.11101E+00   -0.11343E-02  3696   0.271E-01    0.449E-01
DAV:  27    -0.159504016823E+03   -0.10027E+00   -0.10560E-02  3952   0.330E-01    0.534E-01
DAV:  28    -0.159552327812E+03   -0.48311E-01   -0.26384E-03  3984   0.148E-01    0.609E-01
DAV:  29    -0.159627543255E+03   -0.75215E-01   -0.45389E-03  3424   0.217E-01    0.799E-01
DAV:  30    -0.159658314319E+03   -0.30771E-01   -0.21948E-03  4384   0.192E-01    0.101E+00
DAV:  31    -0.159660110325E+03   -0.17960E-02   -0.75753E-04  3952   0.154E-01    0.895E-01
DAV:  32    -0.159672168877E+03   -0.12059E-01   -0.14296E-03  3944   0.207E-01    0.708E-01
DAV:  33    -0.159696435187E+03   -0.24266E-01   -0.33242E-03  4056   0.315E-01    0.376E-01
DAV:  34    -0.159742374115E+03   -0.45939E-01   -0.24423E-03  4064   0.184E-01    0.217E-01
DAV:  35    -0.159756320956E+03   -0.13947E-01   -0.64880E-04  4488   0.103E-01    0.152E-01
DAV:  36    -0.159763572067E+03   -0.72511E-02   -0.25651E-04  3760   0.435E-02    0.977E-02
DAV:  37    -0.159767422894E+03   -0.38508E-02   -0.25301E-04  3920   0.397E-02    0.510E-02
DAV:  38    -0.159768352736E+03   -0.92984E-03   -0.73494E-05  4112   0.291E-02    0.216E-02
DAV:  39    -0.159768675879E+03   -0.32314E-03   -0.31743E-05  3888   0.201E-02    0.772E-03
DAV:  40    -0.159768875376E+03   -0.19950E-03   -0.11518E-05  3168   0.831E-03    0.583E-03
DAV:  41    -0.159768966133E+03   -0.90757E-04   -0.42418E-06  2816   0.539E-03    0.464E-03
DAV:  42    -0.159769020902E+03   -0.54769E-04   -0.21963E-06  2536   0.530E-03    0.387E-03
DAV:  43    -0.159769063497E+03   -0.42595E-04   -0.22508E-06  2528   0.374E-03    0.373E-03
DAV:  44    -0.159769090876E+03   -0.27379E-04   -0.10204E-06  2360   0.290E-03    0.250E-03
DAV:  45    -0.159769115158E+03   -0.24281E-04   -0.16889E-06  2384   0.338E-03    0.231E-03
DAV:  46    -0.159769127508E+03   -0.12350E-04   -0.90246E-07  2376   0.234E-03    0.207E-03
DAV:  47    -0.159769131375E+03   -0.38673E-05   -0.29569E-07  2296   0.205E-03    0.152E-03
DAV:  48    -0.159769132898E+03   -0.15228E-05   -0.15248E-07  1968   0.107E-03    0.140E-03
DAV:  49    -0.159769134126E+03   -0.12281E-05   -0.83192E-08  1952   0.980E-04    0.757E-04
DAV:  50    -0.159769135123E+03   -0.99683E-06   -0.58192E-08  1912   0.906E-04
   1 F= -.15976914E+03 E0= -.15976739E+03  d E =-.159769E+03  mag=    23.0001
       N       E                     dE             d eps       ncg     rms          rms(c)
DAV:   1    -0.159699880376E+03    0.69254E-01   -0.30866E+01  3128   0.104E+01    0.369E+00
DAV:   2    -0.160114037861E+03   -0.41416E+00   -0.31433E+00  4488   0.594E+00    0.765E+00
DAV:   3    -0.160189993130E+03   -0.75955E-01   -0.30499E+00  4272   0.710E+00    0.109E+01
DAV:   4    -0.160028393267E+03    0.16160E+00   -0.19309E+00  4680   0.342E+00    0.351E+00
DAV:   5    -0.160053048138E+03   -0.24655E-01   -0.10082E-01  4808   0.139E+00    0.404E+00
DAV:   6    -0.159974590303E+03    0.78458E-01   -0.43166E-02  4512   0.785E-01    0.398E+00
DAV:   7    -0.160028914021E+03   -0.54324E-01   -0.39362E-02  4224   0.550E-01    0.390E+00
DAV:   8    -0.160049480505E+03   -0.20566E-01   -0.10651E-02  4512   0.250E-01    0.360E+00
DAV:   9    -0.160158245258E+03   -0.10876E+00   -0.33694E-01  4440   0.167E+00    0.165E+00
DAV:  10    -0.160163427046E+03   -0.51818E-02   -0.48069E-01  4648   0.159E+00    0.385E+00
DAV:  11    -0.160175133810E+03   -0.11707E-01   -0.16905E-02  4112   0.466E-01    0.360E+00
DAV:  12    -0.160169197331E+03    0.59365E-02   -0.87524E-03  4872   0.349E-01    0.265E+00
DAV:  13    -0.160158210490E+03    0.10987E-01   -0.17297E-01  4944   0.118E+00    0.140E+00
DAV:  14    -0.160166051107E+03   -0.78406E-02   -0.80192E-03  4264   0.411E-01    0.132E+00
DAV:  15    -0.160165477315E+03    0.57379E-03   -0.46714E-03  4808   0.295E-01    0.705E-01
DAV:  16    -0.160167421682E+03   -0.19444E-02   -0.25466E-03  4648   0.185E-01    0.264E-01
DAV:  17    -0.160169471697E+03   -0.20500E-02   -0.32687E-04  4328   0.626E-02    0.173E-01
DAV:  18    -0.160171106106E+03   -0.16344E-02   -0.11064E-04  4608   0.459E-02    0.642E-02
DAV:  19    -0.160173198451E+03   -0.20923E-02   -0.72291E-05  4104   0.269E-02    0.540E-02
DAV:  20    -0.160175062814E+03   -0.18644E-02   -0.53070E-05  4288   0.265E-02    0.286E-02
DAV:  21    -0.160176076706E+03   -0.10139E-02   -0.27671E-05  4112   0.175E-02    0.324E-02
DAV:  22    -0.160177066236E+03   -0.98953E-03   -0.14687E-05  3632   0.119E-02    0.259E-02
DAV:  23    -0.160177684360E+03   -0.61812E-03   -0.10473E-05  3480   0.101E-02    0.168E-02
DAV:  24    -0.160178220321E+03   -0.53596E-03   -0.83294E-06  3376   0.717E-03    0.127E-02
DAV:  25    -0.160178484093E+03   -0.26377E-03   -0.25395E-06  2648   0.524E-03    0.437E-03
DAV:  26    -0.160178728978E+03   -0.24489E-03   -0.40684E-06  2944   0.366E-03    0.344E-03
DAV:  27    -0.160178923270E+03   -0.19429E-03   -0.26543E-06  2664   0.295E-03    0.346E-03
DAV:  28    -0.160178993109E+03   -0.69838E-04   -0.66639E-07  2368   0.287E-03    0.498E-03
DAV:  29    -0.160179087223E+03   -0.94114E-04   -0.24992E-06  2688   0.347E-03    0.273E-03
DAV:  30    -0.160179118901E+03   -0.31677E-04   -0.69410E-07  2336   0.224E-03    0.188E-03
DAV:  31    -0.160179131574E+03   -0.12674E-04   -0.44638E-07  2144   0.176E-03    0.168E-03
DAV:  32    -0.160179135866E+03   -0.42911E-05   -0.26919E-07  2200   0.150E-03    0.155E-03
DAV:  33    -0.160179137689E+03   -0.18231E-05   -0.20078E-07  2096   0.125E-03    0.809E-04
DAV:  34    -0.160179138661E+03   -0.97253E-06   -0.16405E-07  2128   0.969E-04
   2 F= -.16017914E+03 E0= -.16016272E+03  d E =-.410004E+00  mag=    23.0000
       N       E                     dE             d eps       ncg     rms          rms(c)
DAV:   1    -0.160194142221E+03   -0.15005E-01   -0.51073E-01  3160   0.135E+00    0.484E-01
DAV:   2    -0.160198516298E+03   -0.43741E-02   -0.36821E-02  4288   0.615E-01    0.560E-01
DAV:   3    -0.160202215598E+03   -0.36993E-02   -0.35268E-02  4272   0.764E-01    0.119E+00
DAV:   4    -0.160197863083E+03    0.43525E-02   -0.12138E-02  4504   0.466E-01    0.223E-01
DAV:   5    -0.160197832141E+03    0.30942E-04   -0.12948E-03  4776   0.139E-01    0.172E-01
DAV:   6    -0.160197536591E+03    0.29555E-03   -0.25424E-04  4448   0.676E-02    0.945E-02
DAV:   7    -0.160197038703E+03    0.49789E-03   -0.16836E-04  4432   0.488E-02    0.778E-02
DAV:   8    -0.160197001144E+03    0.37560E-04   -0.78368E-05  4640   0.462E-02    0.200E-02
DAV:   9    -0.160197201735E+03   -0.20059E-03   -0.16563E-05  3352   0.196E-02    0.204E-02
DAV:  10    -0.160197424356E+03   -0.22262E-03   -0.73011E-06  3072   0.110E-02    0.933E-03
DAV:  11    -0.160197695804E+03   -0.27145E-03   -0.30759E-06  2648   0.493E-03    0.488E-03
DAV:  12    -0.160197933554E+03   -0.23775E-03   -0.25882E-06  2680   0.394E-03    0.400E-03
DAV:  13    -0.160198114888E+03   -0.18133E-03   -0.15045E-06  2456   0.348E-03    0.284E-03
DAV:  14    -0.160198284779E+03   -0.16989E-03   -0.20836E-06  2616   0.341E-03    0.177E-03
DAV:  15    -0.160198409613E+03   -0.12483E-03   -0.12564E-06  2344   0.256E-03    0.176E-03
DAV:  16    -0.160198511333E+03   -0.10172E-03   -0.14181E-06  2424   0.240E-03    0.150E-03
DAV:  17    -0.160198622353E+03   -0.11102E-03   -0.27545E-06  2688   0.271E-03    0.948E-04
DAV:  18    -0.160198651082E+03   -0.28729E-04   -0.47219E-07  2320   0.170E-03    0.854E-04
DAV:  19    -0.160198661558E+03   -0.10476E-04   -0.28084E-07  2168   0.138E-03    0.434E-04
DAV:  20    -0.160198667681E+03   -0.61232E-05   -0.24603E-07  2128   0.121E-03    0.583E-04
DAV:  21    -0.160198668841E+03   -0.11599E-05   -0.11102E-07  1976   0.108E-03    0.210E-04
DAV:  22    -0.160198669674E+03   -0.83297E-06   -0.78221E-08  2008   0.644E-04
   3 F= -.16019867E+03 E0= -.16018211E+03  d E =-.429535E+00  mag=    23.0000
       N       E                     dE             d eps       ncg     rms          rms(c)
DAV:   1    -0.160211407732E+03   -0.12739E-01   -0.20429E+00  3096   0.271E+00    0.962E-01
DAV:   2    -0.160230168364E+03   -0.18761E-01   -0.15135E-01  4408   0.128E+00    0.119E+00
DAV:   3    -0.160243014038E+03   -0.12846E-01   -0.16575E-01  4352   0.157E+00    0.250E+00
DAV:   4    -0.160227144810E+03    0.15869E-01   -0.57941E-02  4664   0.924E-01    0.464E-01
DAV:   5    -0.160227164316E+03   -0.19506E-04   -0.60806E-03  4728   0.293E-01    0.325E-01
DAV:   6    -0.160226318395E+03    0.84592E-03   -0.10491E-03  4488   0.135E-01    0.189E-01
DAV:   7    -0.160225038909E+03    0.12795E-02   -0.62521E-04  4376   0.948E-02    0.144E-01
DAV:   8    -0.160224996866E+03    0.42042E-04   -0.27678E-04  4664   0.875E-02    0.421E-02
DAV:   9    -0.160225614534E+03   -0.61767E-03   -0.59485E-05  4392   0.401E-02    0.327E-02
DAV:  10    -0.160226234532E+03   -0.62000E-03   -0.16027E-05  3800   0.172E-02    0.204E-02
DAV:  11    -0.160227045241E+03   -0.81071E-03   -0.10460E-05  3608   0.961E-03    0.101E-02
DAV:  12    -0.160227704415E+03   -0.65917E-03   -0.64172E-06  3384   0.577E-03    0.758E-03
DAV:  13    -0.160228229462E+03   -0.52505E-03   -0.43151E-06  2952   0.467E-03    0.389E-03
DAV:  14    -0.160228833938E+03   -0.60448E-03   -0.79176E-06  3112   0.428E-03    0.333E-03
DAV:  15    -0.160229178120E+03   -0.34418E-03   -0.37059E-06  2960   0.302E-03    0.332E-03
DAV:  16    -0.160229453043E+03   -0.27492E-03   -0.41440E-06  2936   0.331E-03    0.166E-03
DAV:  17    -0.160229582812E+03   -0.12977E-03   -0.20046E-06  2680   0.234E-03    0.862E-04
DAV:  18    -0.160229636385E+03   -0.53573E-04   -0.93511E-07  2328   0.212E-03    0.117E-03
DAV:  19    -0.160229656766E+03   -0.20381E-04   -0.60505E-07  2272   0.205E-03    0.721E-04
DAV:  20    -0.160229663695E+03   -0.69285E-05   -0.41034E-07  2160   0.162E-03    0.416E-04
DAV:  21    -0.160229665609E+03   -0.19139E-05   -0.21925E-07  2104   0.137E-03    0.283E-04
DAV:  22    -0.160229666017E+03   -0.40809E-06   -0.10830E-07  1968   0.951E-04
   4 F= -.16022967E+03 E0= -.16021282E+03  d E =-.460531E+00  mag=    23.0000
       N       E                     dE             d eps       ncg     rms          rms(c)
DAV:   1    -0.160186609516E+03    0.43056E-01   -0.81678E+00  3104   0.544E+00    0.192E+00
DAV:   2    -0.160269490645E+03   -0.82881E-01   -0.65066E-01  4416   0.283E+00    0.267E+00
DAV:   3    -0.160303261632E+03   -0.33771E-01   -0.74665E-01  4560   0.326E+00    0.493E+00
DAV:   4    -0.160253054783E+03    0.50207E-01   -0.28217E-01  4760   0.178E+00    0.695E-01
DAV:   5    -0.160254361085E+03   -0.13063E-02   -0.36757E-02  4728   0.679E-01    0.927E-01
DAV:   6    -0.160251079763E+03    0.32813E-02   -0.14771E-02  4816   0.507E-01    0.393E-01
DAV:   7    -0.160247846052E+03    0.32337E-02   -0.32376E-03  4368   0.194E-01    0.314E-01
DAV:   8    -0.160247792369E+03    0.53683E-04   -0.15909E-03  4688   0.188E-01    0.888E-02
DAV:   9    -0.160249544784E+03   -0.17524E-02   -0.28003E-04  4504   0.861E-02    0.734E-02
DAV:  10    -0.160251399001E+03   -0.18542E-02   -0.10350E-04  4304   0.400E-02    0.493E-02
DAV:  11    -0.160253816763E+03   -0.24178E-02   -0.41442E-05  4064   0.214E-02    0.200E-02
DAV:  12    -0.160255695215E+03   -0.18785E-02   -0.21799E-05  3800   0.116E-02    0.181E-02
DAV:  13    -0.160257175629E+03   -0.14804E-02   -0.14197E-05  3728   0.962E-03    0.970E-03
DAV:  14    -0.160258813721E+03   -0.16381E-02   -0.22441E-05  3344   0.893E-03    0.811E-03
DAV:  15    -0.160259878678E+03   -0.10650E-02   -0.13955E-05  3312   0.628E-03    0.550E-03
DAV:  16    -0.160260580240E+03   -0.70156E-03   -0.95011E-06  3272   0.457E-03    0.428E-03
DAV:  17    -0.160261181844E+03   -0.60160E-03   -0.15407E-05  3064   0.528E-03    0.152E-03
DAV:  18    -0.160261315759E+03   -0.13392E-03   -0.31533E-06  2952   0.299E-03    0.108E-03
DAV:  19    -0.160261353949E+03   -0.38190E-04   -0.85477E-07  2360   0.214E-03    0.961E-04
DAV:  20    -0.160261360642E+03   -0.66928E-05   -0.35085E-07  2208   0.176E-03    0.572E-04
DAV:  21    -0.160261362511E+03   -0.18686E-05   -0.17946E-07  2048   0.119E-03    0.449E-04
DAV:  22    -0.160261364069E+03   -0.15578E-05   -0.11697E-07  2056   0.933E-04    0.311E-04
DAV:  23    -0.160261365056E+03   -0.98752E-06   -0.77733E-08  2104   0.744E-04
   5 F= -.16026137E+03 E0= -.16024400E+03  d E =-.492230E+00  mag=    23.0000
       N       E                     dE             d eps       ncg     rms          rms(c)
DAV:   1    -0.160255996456E+03    0.53676E-02   -0.86175E-01  3104   0.177E+00    0.631E-01
DAV:   2    -0.160264194439E+03   -0.81980E-02   -0.65873E-02  4400   0.837E-01    0.890E-01
DAV:   3    -0.160269148598E+03   -0.49542E-02   -0.79343E-02  4376   0.110E+00    0.165E+00
DAV:   4    -0.160262640156E+03    0.65084E-02   -0.24222E-02  4680   0.622E-01    0.423E-01
DAV:   5    -0.160262390300E+03    0.24986E-03   -0.29162E-03  4736   0.197E-01    0.183E-01
DAV:   6    -0.160261942543E+03    0.44776E-03   -0.32944E-04  4488   0.624E-02    0.120E-01
DAV:   7    -0.160261279711E+03    0.66283E-03   -0.24162E-04  4336   0.580E-02    0.863E-02
DAV:   8    -0.160261262052E+03    0.17659E-04   -0.11458E-04  4752   0.526E-02    0.248E-02
DAV:   9    -0.160261545432E+03   -0.28338E-03   -0.22607E-05  4144   0.227E-02    0.202E-02
DAV:  10    -0.160261859090E+03   -0.31366E-03   -0.58287E-06  2856   0.102E-02    0.108E-02
DAV:  11    -0.160262273042E+03   -0.41395E-03   -0.55783E-06  3240   0.602E-03    0.652E-03
DAV:  12    -0.160262575600E+03   -0.30256E-03   -0.22698E-06  2720   0.336E-03    0.473E-03
DAV:  13    -0.160262826947E+03   -0.25135E-03   -0.21142E-06  2600   0.337E-03    0.264E-03
DAV:  14    -0.160263045765E+03   -0.21882E-03   -0.22432E-06  2648   0.300E-03    0.233E-03
DAV:  15    -0.160263282656E+03   -0.23689E-03   -0.34088E-06  2936   0.305E-03    0.228E-03
DAV:  16    -0.160263426986E+03   -0.14433E-03   -0.18248E-06  2624   0.220E-03    0.132E-03
DAV:  17    -0.160263497312E+03   -0.70326E-04   -0.93968E-07  2352   0.198E-03    0.111E-03
DAV:  18    -0.160263542314E+03   -0.45003E-04   -0.11735E-06  2328   0.222E-03    0.647E-04
DAV:  19    -0.160263551513E+03   -0.91982E-05   -0.41241E-07  2248   0.192E-03    0.510E-04
DAV:  20    -0.160263555694E+03   -0.41812E-05   -0.29316E-07  2120   0.127E-03    0.271E-04
DAV:  21    -0.160263556586E+03   -0.89226E-06   -0.13402E-07  1968   0.121E-03
   6 F= -.16026356E+03 E0= -.16024603E+03  d E =-.494421E+00  mag=    23.0000
       N       E                     dE             d eps       ncg     rms          rms(c)
DAV:   1    -0.160213493620E+03    0.50062E-01   -0.13645E+01  3072   0.738E+00    0.273E+00
DAV:   2    -0.160328000011E+03   -0.11451E+00   -0.11353E+00  4328   0.397E+00    0.282E+00
DAV:   3    -0.160401707424E+03   -0.73707E-01   -0.98225E-01  4440   0.379E+00    0.577E+00
DAV:   4    -0.160320169549E+03    0.81538E-01   -0.45601E-01  4432   0.242E+00    0.781E-01
DAV:   5    -0.160322466550E+03   -0.22970E-02   -0.16941E-02  4664   0.421E-01    0.822E-01
DAV:   6    -0.160321825714E+03    0.64084E-03   -0.85772E-03  4816   0.414E-01    0.678E-01
DAV:   7    -0.160320852923E+03    0.97279E-03   -0.58243E-03  4376   0.260E-01    0.481E-01
DAV:   8    -0.160320385699E+03    0.46722E-03   -0.49662E-03  4616   0.266E-01    0.181E-01
DAV:   9    -0.160321018123E+03   -0.63242E-03   -0.48829E-04  4392   0.110E-01    0.919E-02
DAV:  10    -0.160321821619E+03   -0.80350E-03   -0.17796E-04  4632   0.550E-02    0.803E-02
DAV:  11    -0.160322939264E+03   -0.11176E-02   -0.95044E-05  4360   0.362E-02    0.615E-02
DAV:  12    -0.160323768811E+03   -0.82955E-03   -0.67246E-05  4272   0.304E-02    0.236E-02
DAV:  13    -0.160324220216E+03   -0.45140E-03   -0.64395E-06  3376   0.102E-02    0.916E-03
DAV:  14    -0.160324753113E+03   -0.53290E-03   -0.56885E-06  3032   0.639E-03    0.502E-03
DAV:  15    -0.160325160865E+03   -0.40775E-03   -0.35745E-06  2928   0.451E-03    0.409E-03
DAV:  16    -0.160325491026E+03   -0.33016E-03   -0.26438E-06  2736   0.337E-03    0.331E-03
DAV:  17    -0.160325917790E+03   -0.42676E-03   -0.67562E-06  3016   0.391E-03    0.232E-03
DAV:  18    -0.160326204877E+03   -0.28709E-03   -0.53906E-06  2960   0.350E-03    0.151E-03
DAV:  19    -0.160326309009E+03   -0.10413E-03   -0.17245E-06  2592   0.243E-03    0.123E-03
DAV:  20    -0.160326350054E+03   -0.41045E-04   -0.73416E-07  2296   0.208E-03    0.118E-03
DAV:  21    -0.160326356521E+03   -0.64677E-05   -0.25122E-07  1960   0.169E-03    0.532E-04
DAV:  22    -0.160326372368E+03   -0.15847E-04   -0.48904E-07  2104   0.113E-03    0.608E-04
DAV:  23    -0.160326377918E+03   -0.55498E-05   -0.21531E-07  2112   0.136E-03    0.201E-04
DAV:  24    -0.160326379639E+03   -0.17213E-05   -0.16345E-07  1912   0.945E-04    0.371E-04
DAV:  25    -0.160326380068E+03   -0.42939E-06   -0.75696E-08  1952   0.910E-04
   7 F= -.16032638E+03 E0= -.16030895E+03  d E =-.628235E-01  mag=    23.0000
       N       E                     dE             d eps       ncg     rms          rms(c)
DAV:   1    -0.160313393097E+03    0.12987E-01   -0.23380E+00  3056   0.305E+00    0.115E+00
DAV:   2    -0.160332134691E+03   -0.18742E-01   -0.19069E-01  4352   0.159E+00    0.128E+00
DAV:   3    -0.160347576012E+03   -0.15441E-01   -0.21570E-01  4480   0.169E+00    0.291E+00
DAV:   4    -0.160330807358E+03    0.16769E-01   -0.87923E-02  4488   0.106E+00    0.590E-01
DAV:   5    -0.160331413393E+03   -0.60604E-03   -0.10811E-02  4784   0.405E-01    0.516E-01
DAV:   6    -0.160330866848E+03    0.54655E-03   -0.13936E-03  4776   0.169E-01    0.262E-01
DAV:   7    -0.160330502568E+03    0.36428E-03   -0.12296E-03  4456   0.110E-01    0.170E-01
DAV:   8    -0.160330422126E+03    0.80443E-04   -0.42486E-04  4456   0.785E-02    0.572E-02
DAV:   9    -0.160330542312E+03   -0.12019E-03   -0.50457E-05  4624   0.309E-02    0.321E-02
DAV:  10    -0.160330775745E+03   -0.23343E-03   -0.16648E-05  4392   0.167E-02    0.270E-02
DAV:  11    -0.160331080048E+03   -0.30430E-03   -0.13385E-05  4232   0.131E-02    0.170E-02
DAV:  12    -0.160331278761E+03   -0.19871E-03   -0.47121E-06  3128   0.872E-03    0.608E-03
DAV:  13    -0.160331422994E+03   -0.14423E-03   -0.15647E-06  2448   0.453E-03    0.337E-03
DAV:  14    -0.160331564478E+03   -0.14148E-03   -0.16537E-06  2416   0.313E-03    0.223E-03
DAV:  15    -0.160331677351E+03   -0.11287E-03   -0.96602E-07  2256   0.229E-03    0.194E-03
DAV:  16    -0.160331812462E+03   -0.13511E-03   -0.16256E-06  2464   0.264E-03    0.208E-03
DAV:  17    -0.160331883185E+03   -0.70723E-04   -0.76241E-07  2248   0.198E-03    0.167E-03
DAV:  18    -0.160331972828E+03   -0.89643E-04   -0.18040E-06  2440   0.230E-03    0.124E-03
DAV:  19    -0.160332013180E+03   -0.40352E-04   -0.67805E-07  2288   0.196E-03    0.837E-04
DAV:  20    -0.160332034464E+03   -0.21284E-04   -0.50622E-07  2192   0.169E-03    0.512E-04
DAV:  21    -0.160332044252E+03   -0.97878E-05   -0.35603E-07  2048   0.155E-03    0.501E-04
DAV:  22    -0.160332048268E+03   -0.40165E-05   -0.24206E-07  1944   0.128E-03    0.266E-04
DAV:  23    -0.160332049885E+03   -0.16167E-05   -0.15876E-07  1944   0.106E-03    0.259E-04
DAV:  24    -0.160332050393E+03   -0.50856E-06   -0.92546E-08  1912   0.836E-04
   8 F= -.16033205E+03 E0= -.16031469E+03  d E =-.684938E-01  mag=    23.0000
       N       E                     dE             d eps       ncg     rms          rms(c)
DAV:   1    -0.160320144845E+03    0.11905E-01   -0.34801E+00  3096   0.369E+00    0.150E+00
DAV:   2    -0.160360227400E+03   -0.40083E-01   -0.40730E-01  4304   0.218E+00    0.335E+00
DAV:   3    -0.160363240858E+03   -0.30135E-02   -0.38554E-01  4448   0.252E+00    0.322E+00
DAV:   4    -0.160344220938E+03    0.19020E-01   -0.70207E-02  4400   0.109E+00    0.629E-01
DAV:   5    -0.160344135694E+03    0.85244E-04   -0.66065E-03  4736   0.258E-01    0.416E-01
DAV:   6    -0.160344052726E+03    0.82968E-04   -0.19451E-03  4488   0.182E-01    0.307E-01
DAV:   7    -0.160343434480E+03    0.61825E-03   -0.52982E-04  4312   0.811E-02    0.243E-01
DAV:   8    -0.160343101835E+03    0.33265E-03   -0.11988E-03  4392   0.118E-01    0.145E-01
DAV:   9    -0.160343456600E+03   -0.35477E-03   -0.28399E-04  4376   0.665E-02    0.732E-02
DAV:  10    -0.160343871563E+03   -0.41496E-03   -0.14559E-04  4352   0.396E-02    0.623E-02
DAV:  11    -0.160344436033E+03   -0.56447E-03   -0.41751E-05  4432   0.268E-02    0.133E-02
DAV:  12    -0.160344751543E+03   -0.31551E-03   -0.50947E-06  3256   0.711E-03    0.894E-03
DAV:  13    -0.160344995140E+03   -0.24360E-03   -0.17710E-06  2552   0.468E-03    0.486E-03
DAV:  14    -0.160345267961E+03   -0.27282E-03   -0.29601E-06  2872   0.496E-03    0.355E-03
DAV:  15    -0.160345486048E+03   -0.21809E-03   -0.18124E-06  2536   0.330E-03    0.288E-03
DAV:  16    -0.160345645979E+03   -0.15993E-03   -0.12520E-06  2344   0.283E-03    0.213E-03
DAV:  17    -0.160345784810E+03   -0.13883E-03   -0.14849E-06  2440   0.275E-03    0.176E-03
DAV:  18    -0.160346010541E+03   -0.22573E-03   -0.54954E-06  3032   0.354E-03    0.208E-03
DAV:  19    -0.160346090248E+03   -0.79708E-04   -0.12346E-06  2584   0.184E-03    0.904E-04
DAV:  20    -0.160346108037E+03   -0.17789E-04   -0.29709E-07  2216   0.162E-03    0.945E-04
DAV:  21    -0.160346119618E+03   -0.11581E-04   -0.28941E-07  2112   0.123E-03    0.938E-04
DAV:  22    -0.160346125891E+03   -0.62725E-05   -0.20546E-07  2112   0.127E-03    0.522E-04
DAV:  23    -0.160346129409E+03   -0.35181E-05   -0.17628E-07  2056   0.106E-03    0.438E-04
DAV:  24    -0.160346130542E+03   -0.11328E-05   -0.10717E-07  1960   0.980E-04    0.355E-04
DAV:  25    -0.160346130857E+03   -0.31497E-06   -0.58967E-08  1904   0.664E-04
   9 F= -.16034613E+03 E0= -.16032921E+03  d E =-.140805E-01  mag=    23.0000
       N       E                     dE             d eps       ncg     rms          rms(c)
DAV:   1    -0.160340741836E+03    0.53887E-02   -0.99370E-01  3088   0.197E+00    0.804E-01
DAV:   2    -0.160352503413E+03   -0.11762E-01   -0.11887E-01  4280   0.116E+00    0.201E+00
DAV:   3    -0.160353204733E+03   -0.70132E-03   -0.13525E-01  4432   0.139E+00    0.193E+00
DAV:   4    -0.160347520970E+03    0.56838E-02   -0.23120E-02  4376   0.592E-01    0.383E-01
DAV:   5    -0.160347436582E+03    0.84388E-04   -0.37625E-03  4672   0.218E-01    0.299E-01
DAV:   6    -0.160347254067E+03    0.18252E-03   -0.45507E-04  4824   0.951E-02    0.170E-01
DAV:   7    -0.160346946888E+03    0.30718E-03   -0.27400E-04  4352   0.537E-02    0.104E-01
DAV:   8    -0.160346881884E+03    0.65005E-04   -0.12353E-04  4312   0.388E-02    0.434E-02
DAV:   9    -0.160346993038E+03   -0.11115E-03   -0.25166E-05  4376   0.219E-02    0.188E-02
DAV:  10    -0.160347172354E+03   -0.17932E-03   -0.59810E-06  3192   0.858E-03    0.171E-02
DAV:  11    -0.160347387114E+03   -0.21476E-03   -0.43588E-06  2960   0.812E-03    0.114E-02
DAV:  12    -0.160347525046E+03   -0.13793E-03   -0.24655E-06  2616   0.553E-03    0.466E-03
DAV:  13    -0.160347615869E+03   -0.90823E-04   -0.87549E-07  2184   0.329E-03    0.339E-03
DAV:  14    -0.160347705259E+03   -0.89389E-04   -0.89405E-07  2256   0.291E-03    0.183E-03
DAV:  15    -0.160347818688E+03   -0.11343E-03   -0.15709E-06  2408   0.282E-03    0.211E-03
DAV:  16    -0.160347899950E+03   -0.81262E-04   -0.86482E-07  2328   0.236E-03    0.119E-03
DAV:  17    -0.160347955402E+03   -0.55452E-04   -0.71757E-07  2120   0.210E-03    0.118E-03
DAV:  18    -0.160348002940E+03   -0.47538E-04   -0.76264E-07  2296   0.205E-03    0.879E-04
DAV:  19    -0.160348040675E+03   -0.37735E-04   -0.75437E-07  2184   0.205E-03    0.145E-03
DAV:  20    -0.160348069448E+03   -0.28773E-04   -0.11094E-06  2368   0.214E-03    0.594E-04
DAV:  21    -0.160348077263E+03   -0.78155E-05   -0.38726E-07  2224   0.168E-03    0.521E-04
DAV:  22    -0.160348078496E+03   -0.12328E-05   -0.17648E-07  1952   0.122E-03    0.214E-04
DAV:  23    -0.160348079371E+03   -0.87484E-06   -0.10110E-07  1944   0.840E-04
  10 F= -.16034808E+03 E0= -.16033141E+03  d E =-.160290E-01  mag=    23.0000
       N       E                     dE             d eps       ncg     rms          rms(c)
DAV:   1    -0.160343219813E+03    0.48587E-02   -0.14307E+00  3056   0.231E+00    0.919E-01
DAV:   2    -0.160369777515E+03   -0.26558E-01   -0.25042E-01  4504   0.163E+00    0.320E+00
DAV:   3    -0.160354853260E+03    0.14924E-01   -0.21627E-01  4392   0.175E+00    0.151E+00
DAV:   4    -0.160354947121E+03   -0.93860E-04   -0.22066E-02  4736   0.630E-01    0.784E-01
DAV:   5    -0.160352924254E+03    0.20229E-02   -0.15474E-02  4392   0.456E-01    0.263E-01
DAV:   6    -0.160352978910E+03   -0.54656E-04   -0.93569E-04  4432   0.897E-02    0.166E-01
DAV:   7    -0.160352990259E+03   -0.11349E-04   -0.98335E-04  4768   0.106E-01    0.133E-01
DAV:   8    -0.160353023387E+03   -0.33128E-04   -0.34366E-04  4472   0.671E-02    0.411E-02
DAV:   9    -0.160353069142E+03   -0.45755E-04   -0.49425E-05  4728   0.244E-02    0.172E-02
DAV:  10    -0.160353100646E+03   -0.31505E-04   -0.16258E-05  2792   0.174E-02    0.248E-02
DAV:  11    -0.160353130656E+03   -0.30009E-04   -0.47520E-06  2864   0.924E-03    0.147E-02
DAV:  12    -0.160353148841E+03   -0.18185E-04   -0.20326E-06  2304   0.453E-03    0.726E-03
DAV:  13    -0.160353161426E+03   -0.12585E-04   -0.55610E-07  2000   0.342E-03    0.679E-03
DAV:  14    -0.160353178378E+03   -0.16952E-04   -0.71063E-07  2136   0.262E-03    0.178E-03
DAV:  15    -0.160353192042E+03   -0.13664E-04   -0.37774E-07  2136   0.182E-03    0.106E-03
DAV:  16    -0.160353199689E+03   -0.76463E-05   -0.16485E-07  2032   0.149E-03    0.808E-04
DAV:  17    -0.160353206728E+03   -0.70396E-05   -0.13475E-07  2096   0.110E-03    0.641E-04
DAV:  18    -0.160353216155E+03   -0.94266E-05   -0.20208E-07  2112   0.942E-04    0.630E-04
DAV:  19    -0.160353223213E+03   -0.70582E-05   -0.19267E-07  2168   0.981E-04    0.646E-04
DAV:  20    -0.160353225729E+03   -0.25164E-05   -0.89613E-08  2040   0.839E-04    0.512E-04
DAV:  21    -0.160353227187E+03   -0.14579E-05   -0.69221E-08  1976   0.639E-04    0.392E-04
DAV:  22    -0.160353228022E+03   -0.83460E-06   -0.42326E-08  2040   0.565E-04
  11 F= -.16035323E+03 E0= -.16033681E+03  d E =-.514865E-02  mag=    23.0000
       N       E                     dE             d eps       ncg     rms          rms(c)
DAV:   1    -0.160339829348E+03    0.13398E-01   -0.22826E+00  3040   0.292E+00    0.116E+00
DAV:   2    -0.160382794389E+03   -0.42965E-01   -0.40756E-01  4512   0.206E+00    0.392E+00
DAV:   3    -0.160358372592E+03    0.24422E-01   -0.33760E-01  4392   0.219E+00    0.178E+00
DAV:   4    -0.160357903187E+03    0.46941E-03   -0.29402E-02  4704   0.729E-01    0.868E-01
DAV:   5    -0.160355512174E+03    0.23910E-02   -0.20239E-02  4328   0.525E-01    0.351E-01
DAV:   6    -0.160355489632E+03    0.22542E-04   -0.14571E-03  4432   0.121E-01    0.209E-01
DAV:   7    -0.160355499704E+03   -0.10072E-04   -0.13475E-03  4800   0.125E-01    0.159E-01
DAV:   8    -0.160355551881E+03   -0.52177E-04   -0.54205E-04  4592   0.827E-02    0.447E-02
DAV:   9    -0.160355617772E+03   -0.65891E-04   -0.50008E-05  4448   0.263E-02    0.199E-02
DAV:  10    -0.160355661774E+03   -0.44002E-04   -0.20927E-05  3600   0.193E-02    0.333E-02
DAV:  11    -0.160355699495E+03   -0.37721E-04   -0.70032E-06  2744   0.118E-02    0.184E-02
DAV:  12    -0.160355735061E+03   -0.35565E-04   -0.41717E-06  2744   0.578E-03    0.732E-03
DAV:  13    -0.160355754989E+03   -0.19929E-04   -0.10193E-06  2216   0.459E-03    0.590E-03
DAV:  14    -0.160355774420E+03   -0.19431E-04   -0.69971E-07  2128   0.297E-03    0.228E-03
DAV:  15    -0.160355792708E+03   -0.18288E-04   -0.49006E-07  2160   0.221E-03    0.150E-03
DAV:  16    -0.160355803249E+03   -0.10540E-04   -0.22802E-07  2096   0.183E-03    0.119E-03
DAV:  17    -0.160355813996E+03   -0.10748E-04   -0.21576E-07  2136   0.134E-03    0.860E-04
DAV:  18    -0.160355828687E+03   -0.14690E-04   -0.34339E-07  2144   0.122E-03    0.820E-04
DAV:  19    -0.160355836643E+03   -0.79566E-05   -0.23887E-07  2184   0.119E-03    0.973E-04
DAV:  20    -0.160355840736E+03   -0.40929E-05   -0.16194E-07  2120   0.990E-04    0.429E-04
DAV:  21    -0.160355842530E+03   -0.17935E-05   -0.86596E-08  2008   0.772E-04    0.347E-04
DAV:  22    -0.160355843959E+03   -0.14295E-05   -0.81915E-08  2080   0.648E-04    0.326E-04
DAV:  23    -0.160355844664E+03   -0.70476E-06   -0.47522E-08  1984   0.566E-04
  12 F= -.16035584E+03 E0= -.16033974E+03  d E =-.776529E-02  mag=    23.0000
       N       E                     dE             d eps       ncg     rms          rms(c)
DAV:   1    -0.160344968993E+03    0.10875E-01   -0.19584E+00  3040   0.262E+00    0.977E-01
DAV:   2    -0.160377272865E+03   -0.32304E-01   -0.27857E-01  4648   0.176E+00    0.317E+00
DAV:   3    -0.160360371281E+03    0.16902E-01   -0.25886E-01  4512   0.181E+00    0.152E+00
DAV:   4    -0.160362108125E+03   -0.17368E-02   -0.25164E-02  4784   0.660E-01    0.889E-01
DAV:   5    -0.160359443956E+03    0.26642E-02   -0.20112E-02  4624   0.539E-01    0.336E-01
DAV:   6    -0.160359470085E+03   -0.26129E-04   -0.15056E-03  4488   0.116E-01    0.162E-01
DAV:   7    -0.160359479045E+03   -0.89602E-05   -0.13571E-03  4416   0.130E-01    0.138E-01
DAV:   8    -0.160359531414E+03   -0.52369E-04   -0.33029E-04  4624   0.650E-02    0.481E-02
DAV:   9    -0.160359603069E+03   -0.71655E-04   -0.83688E-05  4664   0.289E-02    0.178E-02
DAV:  10    -0.160359664302E+03   -0.61233E-04   -0.81618E-06  2832   0.136E-02    0.140E-02
DAV:  11    -0.160359722027E+03   -0.57725E-04   -0.29820E-06  2568   0.648E-03    0.124E-02
DAV:  12    -0.160359771578E+03   -0.49552E-04   -0.13513E-06  2104   0.480E-03    0.803E-03
DAV:  13    -0.160359823674E+03   -0.52096E-04   -0.12441E-06  2176   0.359E-03    0.352E-03
DAV:  14    -0.160359872161E+03   -0.48486E-04   -0.11659E-06  2176   0.326E-03    0.179E-03
DAV:  15    -0.160359894750E+03   -0.22590E-04   -0.50095E-07  1976   0.259E-03    0.145E-03
DAV:  16    -0.160359923792E+03   -0.29042E-04   -0.50822E-07  2128   0.199E-03    0.142E-03
DAV:  17    -0.160359940793E+03   -0.17001E-04   -0.33573E-07  1976   0.162E-03    0.101E-03
DAV:  18    -0.160359972319E+03   -0.31526E-04   -0.73912E-07  2184   0.165E-03    0.107E-03
DAV:  19    -0.160359984037E+03   -0.11718E-04   -0.34965E-07  2088   0.171E-03    0.533E-04
DAV:  20    -0.160359992076E+03   -0.80394E-05   -0.34706E-07  2080   0.124E-03    0.731E-04
DAV:  21    -0.160359994477E+03   -0.24007E-05   -0.16461E-07  1960   0.127E-03    0.429E-04
DAV:  22    -0.160359995461E+03   -0.98425E-06   -0.10523E-07  1960   0.744E-04
  13 F= -.16036000E+03 E0= -.16034413E+03  d E =-.415080E-02  mag=    23.0000
       N       E                     dE             d eps       ncg     rms          rms(c)
DAV:   1    -0.160337358498E+03    0.22636E-01   -0.31863E+00  3040   0.335E+00    0.124E+00
DAV:   2    -0.160389584795E+03   -0.52226E-01   -0.44675E-01  4648   0.223E+00    0.382E+00
DAV:   3    -0.160362996208E+03    0.26589E-01   -0.41147E-01  4512   0.232E+00    0.184E+00
DAV:   4    -0.160364043933E+03   -0.10477E-02   -0.32056E-02  4600   0.738E-01    0.939E-01
DAV:   5    -0.160361172808E+03    0.28711E-02   -0.24545E-02  4496   0.604E-01    0.447E-01
DAV:   6    -0.160361077937E+03    0.94871E-04   -0.23387E-03  4480   0.159E-01    0.200E-01
DAV:   7    -0.160361128088E+03   -0.50150E-04   -0.16599E-03  4480   0.146E-01    0.159E-01
DAV:   8    -0.160361224141E+03   -0.96053E-04   -0.44158E-04  4616   0.753E-02    0.478E-02
DAV:   9    -0.160361330570E+03   -0.10643E-03   -0.88378E-05  4776   0.318E-02    0.218E-02
DAV:  10    -0.160361416420E+03   -0.85850E-04   -0.11636E-05  3184   0.159E-02    0.177E-02
DAV:  11    -0.160361499070E+03   -0.82650E-04   -0.37566E-06  2848   0.777E-03    0.135E-02
DAV:  12    -0.160361583028E+03   -0.83958E-04   -0.19640E-06  2264   0.494E-03    0.818E-03
DAV:  13    -0.160361658505E+03   -0.75477E-04   -0.15539E-06  2224   0.440E-03    0.420E-03
DAV:  14    -0.160361724401E+03   -0.65896E-04   -0.16621E-06  2288   0.392E-03    0.257E-03
DAV:  15    -0.160361759304E+03   -0.34903E-04   -0.77772E-07  2040   0.327E-03    0.155E-03
DAV:  16    -0.160361789822E+03   -0.30518E-04   -0.59026E-07  2072   0.201E-03    0.134E-03
DAV:  17    -0.160361837752E+03   -0.47930E-04   -0.10116E-06  2240   0.207E-03    0.113E-03
DAV:  18    -0.160361863870E+03   -0.26118E-04   -0.56008E-07  2136   0.194E-03    0.930E-04
DAV:  19    -0.160361884446E+03   -0.20576E-04   -0.64511E-07  2112   0.156E-03    0.569E-04
DAV:  20    -0.160361892680E+03   -0.82344E-05   -0.36140E-07  2088   0.156E-03    0.477E-04
DAV:  21    -0.160361895787E+03   -0.31067E-05   -0.22280E-07  1960   0.119E-03    0.515E-04
DAV:  22    -0.160361896859E+03   -0.10724E-05   -0.12947E-07  1976   0.104E-03    0.337E-04
DAV:  23    -0.160361897637E+03   -0.77794E-06   -0.84930E-08  1952   0.695E-04
  14 F= -.16036190E+03 E0= -.16034634E+03  d E =-.605297E-02  mag=    23.0000
       N       E                     dE             d eps       ncg     rms          rms(c)
DAV:   1    -0.160354143631E+03    0.77532E-02   -0.14935E+00  3040   0.227E+00    0.838E-01
DAV:   2    -0.160380208857E+03   -0.26065E-01   -0.23424E-01  4616   0.163E+00    0.300E+00
DAV:   3    -0.160364502324E+03    0.15707E-01   -0.20436E-01  4496   0.157E+00    0.116E+00
DAV:   4    -0.160366401522E+03   -0.18992E-02   -0.17755E-02  4744   0.558E-01    0.744E-01
DAV:   5    -0.160364424653E+03    0.19769E-02   -0.14086E-02  4576   0.461E-01    0.288E-01
DAV:   6    -0.160364429873E+03   -0.52206E-05   -0.95874E-04  4496   0.950E-02    0.151E-01
DAV:   7    -0.160364432233E+03   -0.23594E-05   -0.79546E-04  4360   0.104E-01    0.113E-01
DAV:   8    -0.160364478618E+03   -0.46385E-04   -0.21377E-04  4720   0.536E-02    0.568E-02
DAV:   9    -0.160364518623E+03   -0.40005E-04   -0.95612E-05  4616   0.295E-02    0.205E-02
DAV:  10    -0.160364549341E+03   -0.30717E-04   -0.10521E-05  2720   0.149E-02    0.107E-02
DAV:  11    -0.160364576134E+03   -0.26794E-04   -0.14025E-06  2072   0.514E-03    0.888E-03
DAV:  12    -0.160364609970E+03   -0.33836E-04   -0.11463E-06  2016   0.412E-03    0.667E-03
DAV:  13    -0.160364636884E+03   -0.26915E-04   -0.82387E-07  2032   0.341E-03    0.263E-03
DAV:  14    -0.160364659458E+03   -0.22573E-04   -0.56526E-07  1992   0.245E-03    0.132E-03
DAV:  15    -0.160364672359E+03   -0.12902E-04   -0.24212E-07  1944   0.188E-03    0.109E-03
DAV:  16    -0.160364692130E+03   -0.19771E-04   -0.28494E-07  2008   0.144E-03    0.859E-04
DAV:  17    -0.160364706710E+03   -0.14579E-04   -0.20960E-07  1960   0.121E-03    0.756E-04
DAV:  18    -0.160364719641E+03   -0.12931E-04   -0.20566E-07  1992   0.100E-03    0.558E-04
DAV:  19    -0.160364727658E+03   -0.80176E-05   -0.13250E-07  1952   0.931E-04    0.534E-04
DAV:  20    -0.160364733821E+03   -0.61630E-05   -0.12458E-07  1928   0.737E-04    0.261E-04
DAV:  21    -0.160364739692E+03   -0.58702E-05   -0.14467E-07  2016   0.791E-04    0.522E-04
DAV:  22    -0.160364741059E+03   -0.13676E-05   -0.71249E-08  1928   0.761E-04    0.151E-04
DAV:  23    -0.160364741432E+03   -0.37292E-06   -0.43647E-08  1920   0.520E-04
  15 F= -.16036474E+03 E0= -.16034935E+03  d E =-.284379E-02  mag=    23.0000
       N       E                     dE             d eps       ncg     rms          rms(c)
DAV:   1    -0.160324779240E+03    0.39962E-01   -0.58627E+00  3040   0.450E+00    0.164E+00
DAV:   2    -0.160424000527E+03   -0.99221E-01   -0.88400E-01  4624   0.322E+00    0.504E+00
DAV:   3    -0.160368878559E+03    0.55122E-01   -0.71201E-01  4424   0.319E+00    0.212E+00
DAV:   4    -0.160369120406E+03   -0.24185E-03   -0.40353E-02  4544   0.818E-01    0.974E-01
DAV:   5    -0.160366287413E+03    0.28330E-02   -0.30667E-02  4584   0.673E-01    0.590E-01
DAV:   6    -0.160365851585E+03    0.43583E-03   -0.32396E-03  4624   0.232E-01    0.277E-01
DAV:   7    -0.160365949559E+03   -0.97973E-04   -0.14665E-03  4496   0.143E-01    0.190E-01
DAV:   8    -0.160366174660E+03   -0.22510E-03   -0.52694E-04  4440   0.724E-02    0.658E-02
DAV:   9    -0.160366300535E+03   -0.12587E-03   -0.98848E-05  4328   0.330E-02    0.261E-02
DAV:  10    -0.160366377350E+03   -0.76815E-04   -0.88530E-06  3592   0.168E-02    0.208E-02
DAV:  11    -0.160366457461E+03   -0.80111E-04   -0.44781E-06  2400   0.111E-02    0.130E-02
DAV:  12    -0.160366569494E+03   -0.11203E-03   -0.63707E-06  3168   0.635E-03    0.654E-03
DAV:  13    -0.160366622232E+03   -0.52738E-04   -0.68214E-07  2024   0.351E-03    0.421E-03
DAV:  14    -0.160366688292E+03   -0.66060E-04   -0.91184E-07  2152   0.301E-03    0.270E-03
DAV:  15    -0.160366750540E+03   -0.62248E-04   -0.88653E-07  2104   0.270E-03    0.196E-03
DAV:  16    -0.160366778661E+03   -0.28121E-04   -0.48419E-07  2024   0.207E-03    0.126E-03
DAV:  17    -0.160366818567E+03   -0.39906E-04   -0.58416E-07  2144   0.189E-03    0.127E-03
DAV:  18    -0.160366843369E+03   -0.24802E-04   -0.38551E-07  2008   0.175E-03    0.907E-04
DAV:  19    -0.160366884109E+03   -0.40740E-04   -0.11162E-06  2304   0.167E-03    0.818E-04
DAV:  20    -0.160366896680E+03   -0.12571E-04   -0.33715E-07  2008   0.161E-03    0.454E-04
DAV:  21    -0.160366900426E+03   -0.37466E-05   -0.17611E-07  1952   0.109E-03    0.488E-04
DAV:  22    -0.160366901929E+03   -0.15024E-05   -0.11001E-07  1944   0.975E-04    0.274E-04
DAV:  23    -0.160366902883E+03   -0.95447E-06   -0.86305E-08  1936   0.672E-04
  16 F= -.16036690E+03 E0= -.16035181E+03  d E =-.500525E-02  mag=    23.0000
       N       E                     dE             d eps       ncg     rms          rms(c)
DAV:   1    -0.160358585244E+03    0.83167E-02   -0.14667E+00  3040   0.229E+00    0.870E-01
DAV:   2    -0.160386331597E+03   -0.27746E-01   -0.25507E-01  4648   0.164E+00    0.329E+00
DAV:   3    -0.160368803075E+03    0.17529E-01   -0.23934E-01  4488   0.166E+00    0.112E+00
DAV:   4    -0.160370185809E+03   -0.13827E-02   -0.13344E-02  4736   0.496E-01    0.642E-01
DAV:   5    -0.160368836448E+03    0.13494E-02   -0.10827E-02  4424   0.405E-01    0.299E-01
DAV:   6    -0.160368741294E+03    0.95155E-04   -0.83211E-04  4440   0.979E-02    0.154E-01
DAV:   7    -0.160368698326E+03    0.42967E-04   -0.61701E-04  4672   0.944E-02    0.101E-01
DAV:   8    -0.160368756728E+03   -0.58402E-04   -0.20159E-04  4776   0.551E-02    0.396E-02
DAV:   9    -0.160368828285E+03   -0.71557E-04   -0.60421E-05  4440   0.238E-02    0.237E-02
DAV:  10    -0.160368887318E+03   -0.59033E-04   -0.11824E-05  2688   0.162E-02    0.155E-02
DAV:  11    -0.160368950266E+03   -0.62948E-04   -0.17884E-06  2096   0.612E-03    0.124E-02
DAV:  12    -0.160369010725E+03   -0.60459E-04   -0.17896E-06  2232   0.475E-03    0.858E-03
DAV:  13    -0.160369054471E+03   -0.43746E-04   -0.10961E-06  1992   0.373E-03    0.424E-03
DAV:  14    -0.160369093968E+03   -0.39497E-04   -0.80725E-07  2096   0.268E-03    0.210E-03
DAV:  15    -0.160369123819E+03   -0.29851E-04   -0.47534E-07  1968   0.228E-03    0.167E-03
DAV:  16    -0.160369164943E+03   -0.41124E-04   -0.67322E-07  2192   0.197E-03    0.116E-03
DAV:  17    -0.160369185608E+03   -0.20666E-04   -0.37233E-07  1968   0.169E-03    0.897E-04
DAV:  18    -0.160369206944E+03   -0.21335E-04   -0.37863E-07  2024   0.137E-03    0.824E-04
DAV:  19    -0.160369224050E+03   -0.17106E-04   -0.33593E-07  2016   0.143E-03    0.829E-04
DAV:  20    -0.160369243379E+03   -0.19329E-04   -0.61219E-07  2208   0.139E-03    0.665E-04
DAV:  21    -0.160369248598E+03   -0.52188E-05   -0.27104E-07  2016   0.154E-03    0.713E-04
DAV:  22    -0.160369249766E+03   -0.11683E-05   -0.14728E-07  1920   0.969E-04    0.320E-04
DAV:  23    -0.160369250260E+03   -0.49405E-06   -0.84644E-08  1920   0.834E-04
  17 F= -.16036925E+03 E0= -.16035435E+03  d E =-.234738E-02  mag=    23.0000
       N       E                     dE             d eps       ncg     rms          rms(c)
DAV:   1    -0.160352235202E+03    0.17015E-01   -0.25003E+00  3040   0.299E+00    0.111E+00
DAV:   2    -0.160397100982E+03   -0.44866E-01   -0.40897E-01  4632   0.210E+00    0.394E+00
DAV:   3    -0.160370500421E+03    0.26601E-01   -0.38785E-01  4488   0.214E+00    0.140E+00
DAV:   4    -0.160371543297E+03   -0.10429E-02   -0.18124E-02  4600   0.574E-01    0.744E-01
DAV:   5    -0.160369887461E+03    0.16558E-02   -0.14554E-02  4464   0.467E-01    0.387E-01
DAV:   6    -0.160369685757E+03    0.20170E-03   -0.12871E-03  4536   0.137E-01    0.194E-01
DAV:   7    -0.160369667865E+03    0.17892E-04   -0.74982E-04  4672   0.107E-01    0.121E-01
DAV:   8    -0.160369776192E+03   -0.10833E-03   -0.28854E-04  4728   0.652E-02    0.443E-02
DAV:   9    -0.160369885101E+03   -0.10891E-03   -0.69946E-05  4384   0.277E-02    0.293E-02
DAV:  10    -0.160369968706E+03   -0.83605E-04   -0.12852E-05  2984   0.176E-02    0.197E-02
DAV:  11    -0.160370060081E+03   -0.91374E-04   -0.27172E-06  2232   0.815E-03    0.145E-02
DAV:  12    -0.160370154910E+03   -0.94830E-04   -0.29259E-06  2584   0.502E-03    0.972E-03
DAV:  13    -0.160370219036E+03   -0.64126E-04   -0.12285E-06  2088   0.389E-03    0.481E-03
DAV:  14    -0.160370275646E+03   -0.56610E-04   -0.98012E-07  2160   0.282E-03    0.206E-03
DAV:  15    -0.160370329913E+03   -0.54267E-04   -0.76600E-07  2072   0.266E-03    0.167E-03
DAV:  16    -0.160370376800E+03   -0.46887E-04   -0.72165E-07  2144   0.214E-03    0.139E-03
DAV:  17    -0.160370413436E+03   -0.36636E-04   -0.62527E-07  2024   0.195E-03    0.101E-03
DAV:  18    -0.160370441472E+03   -0.28036E-04   -0.50523E-07  2040   0.184E-03    0.101E-03
DAV:  19    -0.160370471064E+03   -0.29592E-04   -0.72086E-07  2184   0.162E-03    0.843E-04
DAV:  20    -0.160370494906E+03   -0.23843E-04   -0.88707E-07  2328   0.177E-03    0.784E-04
DAV:  21    -0.160370499003E+03   -0.40968E-05   -0.30841E-07  1968   0.164E-03    0.582E-04
DAV:  22    -0.160370499881E+03   -0.87842E-06   -0.16843E-07  1920   0.103E-03
  18 F= -.16037050E+03 E0= -.16035582E+03  d E =-.359700E-02  mag=    23.0000
       N       E                     dE             d eps       ncg     rms          rms(c)
DAV:   1    -0.160361924354E+03    0.85746E-02   -0.14077E+00  3040   0.230E+00    0.842E-01
DAV:   2    -0.160382158827E+03   -0.20234E-01   -0.18331E-01  4568   0.143E+00    0.245E+00
DAV:   3    -0.160374910074E+03    0.72488E-02   -0.20994E-01  4456   0.155E+00    0.129E+00
DAV:   4    -0.160373238701E+03    0.16714E-02   -0.12112E-02  4472   0.439E-01    0.455E-01
DAV:   5    -0.160372732506E+03    0.50620E-03   -0.42400E-03  4968   0.237E-01    0.254E-01
DAV:   6    -0.160372672051E+03    0.60455E-04   -0.48908E-04  4720   0.982E-02    0.142E-01
DAV:   7    -0.160372658195E+03    0.13856E-04   -0.20837E-04  4264   0.457E-02    0.870E-02
DAV:   8    -0.160372649215E+03    0.89807E-05   -0.99289E-05  4552   0.394E-02    0.336E-02
DAV:   9    -0.160372663578E+03   -0.14363E-04   -0.23107E-05  4416   0.234E-02    0.157E-02
DAV:  10    -0.160372700860E+03   -0.37283E-04   -0.29847E-06  2480   0.811E-03    0.148E-02
DAV:  11    -0.160372745405E+03   -0.44545E-04   -0.13835E-06  2240   0.545E-03    0.109E-02
DAV:  12    -0.160372789262E+03   -0.43857E-04   -0.14303E-06  2296   0.388E-03    0.533E-03
DAV:  13    -0.160372816785E+03   -0.27523E-04   -0.80920E-07  2200   0.313E-03    0.208E-03
DAV:  14    -0.160372835285E+03   -0.18500E-04   -0.39660E-07  2024   0.257E-03    0.155E-03
DAV:  15    -0.160372849846E+03   -0.14561E-04   -0.26604E-07  2064   0.157E-03    0.116E-03
DAV:  16    -0.160372873002E+03   -0.23155E-04   -0.29668E-07  2096   0.157E-03    0.871E-04
DAV:  17    -0.160372886880E+03   -0.13878E-04   -0.19028E-07  2072   0.133E-03    0.686E-04
DAV:  18    -0.160372900724E+03   -0.13844E-04   -0.20079E-07  2072   0.110E-03    0.614E-04
DAV:  19    -0.160372911532E+03   -0.10808E-04   -0.17169E-07  2032   0.108E-03    0.514E-04
DAV:  20    -0.160372924452E+03   -0.12920E-04   -0.30211E-07  2208   0.100E-03    0.639E-04
DAV:  21    -0.160372930851E+03   -0.63988E-05   -0.17725E-07  2120   0.110E-03    0.518E-04
DAV:  22    -0.160372932581E+03   -0.17299E-05   -0.10827E-07  1992   0.861E-04    0.354E-04
DAV:  23    -0.160372933369E+03   -0.78845E-06   -0.65894E-08  1952   0.733E-04
  19 F= -.16037293E+03 E0= -.16035838E+03  d E =-.243349E-02  mag=    23.0000
       N       E                     dE             d eps       ncg     rms          rms(c)
DAV:   1    -0.160342558088E+03    0.30374E-01   -0.40826E+00  3040   0.391E+00    0.141E+00
DAV:   2    -0.160397783190E+03   -0.55225E-01   -0.48675E-01  4552   0.238E+00    0.364E+00
DAV:   3    -0.160382140428E+03    0.15643E-01   -0.57176E-01  4448   0.260E+00    0.205E+00
DAV:   4    -0.160375550329E+03    0.65901E-02   -0.30584E-02  4656   0.755E-01    0.756E-01
DAV:   5    -0.160374104464E+03    0.14459E-02   -0.70235E-03  4856   0.262E-01    0.288E-01
DAV:   6    -0.160374339562E+03   -0.23510E-03   -0.13589E-03  4704   0.170E-01    0.272E-01
DAV:   7    -0.160374205745E+03    0.13382E-03   -0.19326E-03  5064   0.202E-01    0.161E-01
DAV:   8    -0.160374182404E+03    0.23341E-04   -0.75559E-04  4408   0.100E-01    0.101E-01
DAV:   9    -0.160374226811E+03   -0.44407E-04   -0.11953E-04  4664   0.435E-02    0.411E-02
DAV:  10    -0.160374322648E+03   -0.95837E-04   -0.12142E-05  3536   0.181E-02    0.322E-02
DAV:  11    -0.160374398941E+03   -0.76294E-04   -0.39284E-06  2520   0.993E-03    0.196E-02
DAV:  12    -0.160374504662E+03   -0.10572E-03   -0.64733E-06  3216   0.761E-03    0.559E-03
DAV:  13    -0.160374549764E+03   -0.45102E-04   -0.88912E-07  2296   0.451E-03    0.453E-03
DAV:  14    -0.160374586593E+03   -0.36829E-04   -0.51498E-07  2152   0.262E-03    0.227E-03
DAV:  15    -0.160374639442E+03   -0.52849E-04   -0.78342E-07  2304   0.232E-03    0.235E-03
DAV:  16    -0.160374681295E+03   -0.41853E-04   -0.50703E-07  2208   0.229E-03    0.149E-03
DAV:  17    -0.160374705355E+03   -0.24060E-04   -0.38420E-07  2136   0.154E-03    0.103E-03
DAV:  18    -0.160374740401E+03   -0.35046E-04   -0.51692E-07  2248   0.170E-03    0.125E-03
DAV:  19    -0.160374767037E+03   -0.26636E-04   -0.48808E-07  2216   0.178E-03    0.867E-04
DAV:  20    -0.160374790270E+03   -0.23233E-04   -0.70700E-07  2240   0.166E-03    0.627E-04
DAV:  21    -0.160374796785E+03   -0.65150E-05   -0.31438E-07  2120   0.160E-03    0.427E-04
DAV:  22    -0.160374798170E+03   -0.13859E-05   -0.16137E-07  1960   0.111E-03    0.311E-04
DAV:  23    -0.160374799321E+03   -0.11507E-05   -0.10136E-07  2000   0.862E-04    0.233E-04
DAV:  24    -0.160374800573E+03   -0.12522E-05   -0.87181E-08  2016   0.669E-04    0.211E-04
DAV:  25    -0.160374801108E+03   -0.53452E-06   -0.51111E-08  1960   0.605E-04
  20 F= -.16037480E+03 E0= -.16036043E+03  d E =-.430123E-02  mag=    23.0000
       N       E                     dE             d eps       ncg     rms          rms(c)
DAV:   1    -0.160362983957E+03    0.11817E-01   -0.14674E+00  3040   0.237E+00    0.824E-01
DAV:   2    -0.160378953409E+03   -0.15969E-01   -0.12562E-01  4568   0.124E+00    0.155E+00
DAV:   3    -0.160381514609E+03   -0.25612E-02   -0.18031E-01  4448   0.148E+00    0.152E+00
DAV:   4    -0.160376125940E+03    0.53887E-02   -0.25745E-02  4496   0.622E-01    0.333E-01
DAV:   5    -0.160375992369E+03    0.13357E-03   -0.21349E-03  4800   0.133E-01    0.122E-01
DAV:   6    -0.160376080034E+03   -0.87665E-04   -0.36885E-04  4472   0.681E-02    0.138E-01
DAV:   7    -0.160376142358E+03   -0.62323E-04   -0.66104E-04  4792   0.126E-01    0.143E-01
DAV:   8    -0.160376132714E+03    0.96439E-05   -0.53424E-04  5040   0.990E-02    0.500E-02
DAV:   9    -0.160376188968E+03   -0.56255E-04   -0.37696E-05  4400   0.195E-02    0.213E-02
DAV:  10    -0.160376241256E+03   -0.52287E-04   -0.11146E-05  2336   0.126E-02    0.103E-02
DAV:  11    -0.160376301502E+03   -0.60246E-04   -0.18359E-06  2248   0.612E-03    0.587E-03
DAV:  12    -0.160376351564E+03   -0.50062E-04   -0.16884E-06  2232   0.470E-03    0.245E-03
DAV:  13    -0.160376387211E+03   -0.35647E-04   -0.92108E-07  2056   0.371E-03    0.275E-03
DAV:  14    -0.160376411130E+03   -0.23919E-04   -0.51779E-07  1952   0.237E-03    0.154E-03
DAV:  15    -0.160376439330E+03   -0.28200E-04   -0.46619E-07  2072   0.181E-03    0.101E-03
DAV:  16    -0.160376467801E+03   -0.28471E-04   -0.41357E-07  2080   0.163E-03    0.977E-04
DAV:  17    -0.160376493477E+03   -0.25676E-04   -0.46127E-07  2072   0.158E-03    0.880E-04
DAV:  18    -0.160376513009E+03   -0.19533E-04   -0.43580E-07  2032   0.150E-03    0.726E-04
DAV:  19    -0.160376527770E+03   -0.14761E-04   -0.43619E-07  2104   0.145E-03    0.604E-04
DAV:  20    -0.160376535530E+03   -0.77597E-05   -0.34346E-07  2080   0.136E-03    0.507E-04
DAV:  21    -0.160376537517E+03   -0.19874E-05   -0.18620E-07  1936   0.118E-03    0.365E-04
DAV:  22    -0.160376538216E+03   -0.69862E-06   -0.11646E-07  1912   0.842E-04
  21 F= -.16037654E+03 E0= -.16036223E+03  d E =-.173711E-02  mag=    23.0000
       N       E                     dE             d eps       ncg     rms          rms(c)
DAV:   1    -0.160371094529E+03    0.54430E-02   -0.62220E-01  3048   0.154E+00    0.537E-01
DAV:   2    -0.160377660276E+03   -0.65657E-02   -0.52729E-02  4568   0.806E-01    0.990E-01
DAV:   3    -0.160378963835E+03   -0.13036E-02   -0.75202E-02  4440   0.957E-01    0.101E+00
DAV:   4    -0.160376556838E+03    0.24070E-02   -0.12366E-02  4440   0.417E-01    0.186E-01
DAV:   5    -0.160376554652E+03    0.21859E-05   -0.92659E-04  4896   0.972E-02    0.947E-02
DAV:   6    -0.160376574369E+03   -0.19717E-04   -0.16503E-04  4712   0.627E-02    0.754E-02
DAV:   7    -0.160376581797E+03   -0.74273E-05   -0.14724E-04  4336   0.402E-02    0.696E-02
DAV:   8    -0.160376604824E+03   -0.23028E-04   -0.14128E-04  4688   0.391E-02    0.198E-02
DAV:   9    -0.160376637433E+03   -0.32609E-04   -0.10327E-05  3296   0.139E-02    0.623E-03
DAV:  10    -0.160376669545E+03   -0.32111E-04   -0.14165E-06  2040   0.701E-03    0.673E-03
DAV:  11    -0.160376697543E+03   -0.27999E-04   -0.77969E-07  2064   0.334E-03    0.507E-03
DAV:  12    -0.160376721827E+03   -0.24283E-04   -0.63298E-07  1992   0.299E-03    0.222E-03
DAV:  13    -0.160376742970E+03   -0.21143E-04   -0.40817E-07  2032   0.191E-03    0.169E-03
DAV:  14    -0.160376757303E+03   -0.14333E-04   -0.22849E-07  1912   0.158E-03    0.848E-04
DAV:  15    -0.160376775552E+03   -0.18249E-04   -0.28710E-07  2000   0.127E-03    0.718E-04
DAV:  16    -0.160376789576E+03   -0.14025E-04   -0.21169E-07  1984   0.126E-03    0.588E-04
DAV:  17    -0.160376801457E+03   -0.11881E-04   -0.21023E-07  2000   0.106E-03    0.483E-04
DAV:  18    -0.160376810426E+03   -0.89695E-05   -0.17603E-07  1968   0.103E-03    0.422E-04
DAV:  19    -0.160376817894E+03   -0.74675E-05   -0.19282E-07  2024   0.936E-04    0.376E-04
DAV:  20    -0.160376822340E+03   -0.44460E-05   -0.14916E-07  1944   0.954E-04    0.350E-04
DAV:  21    -0.160376824291E+03   -0.19516E-05   -0.12356E-07  1936   0.813E-04    0.280E-04
DAV:  22    -0.160376824734E+03   -0.44256E-06   -0.66244E-08  1936   0.724E-04
  22 F= -.16037682E+03 E0= -.16036255E+03  d E =-.202363E-02  mag=    23.0000
       N       E                     dE             d eps       ncg     rms          rms(c)
DAV:   1    -0.160364591967E+03    0.12232E-01   -0.16219E+00  3040   0.246E+00    0.831E-01
DAV:   2    -0.160380507187E+03   -0.15915E-01   -0.12917E-01  4544   0.128E+00    0.131E+00
DAV:   3    -0.160385090967E+03   -0.45838E-02   -0.17508E-01  4368   0.150E+00    0.159E+00
DAV:   4    -0.160377728214E+03    0.73628E-02   -0.33546E-02  4336   0.705E-01    0.315E-01
DAV:   5    -0.160377754942E+03   -0.26728E-04   -0.16652E-03  4768   0.120E-01    0.152E-01
DAV:   6    -0.160377845825E+03   -0.90883E-04   -0.59338E-04  4960   0.118E-01    0.185E-01
DAV:   7    -0.160377773281E+03    0.72544E-04   -0.56139E-04  4776   0.109E-01    0.125E-01
DAV:   8    -0.160377706562E+03    0.66719E-04   -0.51849E-04  4976   0.729E-02    0.434E-02
DAV:   9    -0.160377759232E+03   -0.52670E-04   -0.34831E-05  4328   0.246E-02    0.200E-02
DAV:  10    -0.160377816265E+03   -0.57032E-04   -0.87617E-06  2560   0.142E-02    0.839E-03
DAV:  11    -0.160377879701E+03   -0.63436E-04   -0.19647E-06  2416   0.474E-03    0.589E-03
DAV:  12    -0.160377929931E+03   -0.50230E-04   -0.11573E-06  2296   0.482E-03    0.273E-03
DAV:  13    -0.160377966630E+03   -0.36699E-04   -0.76555E-07  2112   0.258E-03    0.211E-03
DAV:  14    -0.160377991060E+03   -0.24430E-04   -0.40273E-07  2048   0.236E-03    0.140E-03
DAV:  15    -0.160378025124E+03   -0.34063E-04   -0.48237E-07  2120   0.183E-03    0.999E-04
DAV:  16    -0.160378046880E+03   -0.21756E-04   -0.31207E-07  2096   0.173E-03    0.808E-04
DAV:  17    -0.160378069937E+03   -0.23057E-04   -0.36880E-07  2112   0.145E-03    0.903E-04
DAV:  18    -0.160378084981E+03   -0.15044E-04   -0.27358E-07  2056   0.147E-03    0.607E-04
DAV:  19    -0.160378106501E+03   -0.21521E-04   -0.60854E-07  2136   0.135E-03    0.680E-04
DAV:  20    -0.160378112049E+03   -0.55472E-05   -0.22488E-07  2072   0.150E-03    0.363E-04
DAV:  21    -0.160378113930E+03   -0.18815E-05   -0.13438E-07  1928   0.855E-04    0.351E-04
DAV:  22    -0.160378115028E+03   -0.10978E-05   -0.76166E-08  1952   0.834E-04    0.218E-04
DAV:  23    -0.160378115979E+03   -0.95145E-06   -0.64018E-08  1928   0.513E-04
  23 F= -.16037812E+03 E0= -.16036392E+03  d E =-.129125E-02  mag=    23.0000
       N       E                     dE             d eps       ncg     rms          rms(c)
DAV:   1    -0.160362849945E+03    0.15265E-01   -0.18614E+00  3040   0.263E+00    0.887E-01
DAV:   2    -0.160380676333E+03   -0.17826E-01   -0.14327E-01  4536   0.136E+00    0.129E+00
DAV:   3    -0.160386757938E+03   -0.60816E-02   -0.19040E-01  4376   0.159E+00    0.166E+00
DAV:   4    -0.160377896422E+03    0.88615E-02   -0.41273E-02  4296   0.786E-01    0.311E-01
DAV:   5    -0.160378038156E+03   -0.14173E-03   -0.17920E-03  4568   0.135E-01    0.173E-01
DAV:   6    -0.160378093039E+03   -0.54883E-04   -0.69814E-04  4984   0.130E-01    0.178E-01
DAV:   7    -0.160378038594E+03    0.54446E-04   -0.56311E-04  4632   0.987E-02    0.131E-01
DAV:   8    -0.160377969267E+03    0.69327E-04   -0.52220E-04  4944   0.739E-02    0.392E-02
DAV:   9    -0.160378027107E+03   -0.57840E-04   -0.37881E-05  4376   0.266E-02    0.209E-02
DAV:  10    -0.160378085973E+03   -0.58866E-04   -0.11978E-05  2600   0.167E-02    0.888E-03
DAV:  11    -0.160378152727E+03   -0.66754E-04   -0.19387E-06  2384   0.518E-03    0.650E-03
DAV:  12    -0.160378211866E+03   -0.59139E-04   -0.14525E-06  2352   0.508E-03    0.309E-03
DAV:  13    -0.160378254539E+03   -0.42673E-04   -0.90351E-07  2128   0.293E-03    0.193E-03
DAV:  14    -0.160378279351E+03   -0.24812E-04   -0.46498E-07  2048   0.231E-03    0.129E-03
DAV:  15    -0.160378317094E+03   -0.37743E-04   -0.52415E-07  2128   0.191E-03    0.101E-03
DAV:  16    -0.160378341634E+03   -0.24540E-04   -0.35296E-07  2104   0.183E-03    0.858E-04
DAV:  17    -0.160378363888E+03   -0.22254E-04   -0.36593E-07  2072   0.152E-03    0.779E-04
DAV:  18    -0.160378378676E+03   -0.14788E-04   -0.26703E-07  2072   0.145E-03    0.637E-04
DAV:  19    -0.160378398317E+03   -0.19641E-04   -0.44908E-07  2128   0.130E-03    0.726E-04
DAV:  20    -0.160378410186E+03   -0.11868E-04   -0.34092E-07  2160   0.147E-03    0.483E-04
DAV:  21    -0.160378413163E+03   -0.29778E-05   -0.18917E-07  1992   0.121E-03    0.440E-04
DAV:  22    -0.160378414129E+03   -0.96531E-06   -0.10222E-07  1896   0.898E-04
  24 F= -.16037841E+03 E0= -.16036428E+03  d E =-.158939E-02  mag=    23.0000
       N       E                     dE             d eps       ncg     rms          rms(c)
DAV:   1    -0.160370488417E+03    0.79247E-02   -0.13075E+00  3040   0.221E+00    0.697E-01
DAV:   2    -0.160382159788E+03   -0.11671E-01   -0.11213E-01  4504   0.118E+00    0.129E+00
DAV:   3    -0.160382465853E+03   -0.30606E-03   -0.12093E-01  4456   0.126E+00    0.111E+00
DAV:   4    -0.160379083714E+03    0.33821E-02   -0.19074E-02  4288   0.545E-01    0.227E-01
DAV:   5    -0.160379125467E+03   -0.41753E-04   -0.84304E-04  4528   0.113E-01    0.153E-01
DAV:   6    -0.160379146058E+03   -0.20591E-04   -0.51220E-04  4936   0.104E-01    0.143E-01
DAV:   7    -0.160379131885E+03    0.14173E-04   -0.31952E-04  4688   0.724E-02    0.664E-02
DAV:   8    -0.160379171056E+03   -0.39171E-04   -0.10255E-04  4400   0.277E-02    0.265E-02
DAV:   9    -0.160379192328E+03   -0.21272E-04   -0.10065E-05  3608   0.169E-02    0.966E-03
DAV:  10    -0.160379214114E+03   -0.21786E-04   -0.19733E-06  2200   0.736E-03    0.104E-02
DAV:  11    -0.160379236053E+03   -0.21939E-04   -0.10118E-06  2048   0.532E-03    0.664E-03
DAV:  12    -0.160379255959E+03   -0.19905E-04   -0.10254E-06  2080   0.363E-03    0.303E-03
DAV:  13    -0.160379270557E+03   -0.14599E-04   -0.59397E-07  1984   0.311E-03    0.165E-03
DAV:  14    -0.160379278136E+03   -0.75788E-05   -0.24521E-07  1936   0.193E-03    0.120E-03
DAV:  15    -0.160379289886E+03   -0.11750E-04   -0.19227E-07  1976   0.143E-03    0.831E-04
DAV:  16    -0.160379301155E+03   -0.11269E-04   -0.14460E-07  2000   0.106E-03    0.634E-04
DAV:  17    -0.160379307977E+03   -0.68220E-05   -0.87446E-08  1968   0.100E-03    0.517E-04
DAV:  18    -0.160379312863E+03   -0.48859E-05   -0.71644E-08  1968   0.752E-04    0.439E-04
DAV:  19    -0.160379316817E+03   -0.39540E-05   -0.61481E-08  1960   0.614E-04    0.435E-04
DAV:  20    -0.160379323935E+03   -0.71180E-05   -0.16866E-07  2096   0.696E-04    0.454E-04
DAV:  21    -0.160379324714E+03   -0.77925E-06   -0.39991E-08  1952   0.716E-04
  25 F= -.16037932E+03 E0= -.16036522E+03  d E =-.910586E-03  mag=    23.0000
       N       E                     dE             d eps       ncg     rms          rms(c)
DAV:   1    -0.160376880335E+03    0.24436E-02   -0.38069E-01  3088   0.119E+00    0.375E-01
DAV:   2    -0.160380095640E+03   -0.32153E-02   -0.31759E-02  4472   0.627E-01    0.655E-01
DAV:   3    -0.160380425684E+03   -0.33004E-03   -0.33466E-02  4424   0.673E-01    0.619E-01
DAV:   4    -0.160379318064E+03    0.11076E-02   -0.64348E-03  4240   0.309E-01    0.103E-01
DAV:   5    -0.160379359935E+03   -0.41871E-04   -0.21578E-04  4464   0.466E-02    0.777E-02
DAV:   6    -0.160379377159E+03   -0.17224E-04   -0.99873E-05  4736   0.501E-02    0.797E-02
DAV:   7    -0.160379375311E+03    0.18485E-05   -0.16329E-04  4928   0.544E-02    0.431E-02
DAV:   8    -0.160379383605E+03   -0.82938E-05   -0.53235E-05  4688   0.232E-02    0.106E-02
DAV:   9    -0.160379393670E+03   -0.10065E-04   -0.25297E-06  2320   0.783E-03    0.535E-03
DAV:  10    -0.160379403834E+03   -0.10165E-04   -0.97356E-07  1992   0.537E-03    0.412E-03
DAV:  11    -0.160379413300E+03   -0.94656E-05   -0.61734E-07  2016   0.291E-03    0.339E-03
DAV:  12    -0.160379419572E+03   -0.62721E-05   -0.28857E-07  1928   0.255E-03    0.187E-03
DAV:  13    -0.160379425535E+03   -0.59627E-05   -0.16544E-07  1944   0.131E-03    0.135E-03
DAV:  14    -0.160379430579E+03   -0.50437E-05   -0.68832E-08  1928   0.116E-03    0.863E-04
DAV:  15    -0.160379436254E+03   -0.56754E-05   -0.72387E-08  1920   0.671E-04    0.536E-04
DAV:  16    -0.160379439874E+03   -0.36196E-05   -0.38923E-08  1944   0.703E-04    0.337E-04
DAV:  17    -0.160379441810E+03   -0.19366E-05   -0.25959E-08  1928   0.439E-04    0.255E-04
DAV:  18    -0.160379444003E+03   -0.21925E-05   -0.21093E-08  1920   0.411E-04    0.207E-04
DAV:  19    -0.160379446530E+03   -0.25268E-05   -0.27414E-08  1928   0.357E-04    0.244E-04
DAV:  20    -0.160379449212E+03   -0.26825E-05   -0.43666E-08  1936   0.405E-04    0.212E-04
DAV:  21    -0.160379449825E+03   -0.61241E-06   -0.21154E-08  1936   0.404E-04
  26 F= -.16037945E+03 E0= -.16036536E+03  d E =-.103570E-02  mag=    23.0000
       N       E                     dE             d eps       ncg     rms          rms(c)
DAV:   1    -0.160376439675E+03    0.30095E-02   -0.51381E-01  3064   0.142E+00    0.441E-01
DAV:   2    -0.160381055893E+03   -0.46162E-02   -0.47407E-02  4400   0.808E-01    0.796E-01
DAV:   3    -0.160381228551E+03   -0.17266E-03   -0.46843E-02  4432   0.803E-01    0.702E-01
DAV:   4    -0.160379807439E+03    0.14211E-02   -0.78116E-03  4408   0.345E-01    0.136E-01
DAV:   5    -0.160379804442E+03    0.29974E-05   -0.29592E-04  4496   0.594E-02    0.940E-02
DAV:   6    -0.160379790688E+03    0.13754E-04   -0.17640E-04  4952   0.649E-02    0.943E-02
DAV:   7    -0.160379679331E+03    0.11136E-03   -0.21700E-04  4760   0.648E-02    0.492E-02
DAV:   8    -0.160379675279E+03    0.40517E-05   -0.46885E-05  4496   0.214E-02    0.152E-02
DAV:   9    -0.160379718276E+03   -0.42997E-04   -0.48591E-06  2648   0.808E-03    0.767E-03
DAV:  10    -0.160379789811E+03   -0.71535E-04   -0.15521E-06  2160   0.687E-03    0.587E-03
DAV:  11    -0.160379843850E+03   -0.54039E-04   -0.13906E-06  2208   0.518E-03    0.301E-03
DAV:  12    -0.160379885705E+03   -0.41856E-04   -0.92986E-07  2120   0.325E-03    0.240E-03
DAV:  13    -0.160379917395E+03   -0.31689E-04   -0.53861E-07  1992   0.253E-03    0.148E-03
DAV:  14    -0.160379955581E+03   -0.38186E-04   -0.56794E-07  2072   0.199E-03    0.137E-03
DAV:  15    -0.160379993975E+03   -0.38394E-04   -0.59928E-07  2184   0.203E-03    0.109E-03
DAV:  16    -0.160380011874E+03   -0.17899E-04   -0.35264E-07  1984   0.179E-03    0.873E-04
DAV:  17    -0.160380022512E+03   -0.10639E-04   -0.23593E-07  1912   0.128E-03    0.665E-04
DAV:  18    -0.160380039525E+03   -0.17013E-04   -0.29067E-07  2040   0.119E-03    0.637E-04
DAV:  19    -0.160380054728E+03   -0.15203E-04   -0.30165E-07  2080   0.128E-03    0.644E-04
DAV:  20    -0.160380065867E+03   -0.11139E-04   -0.35244E-07  2152   0.130E-03    0.586E-04
DAV:  21    -0.160380069402E+03   -0.35347E-05   -0.21185E-07  1960   0.131E-03    0.466E-04
DAV:  22    -0.160380070119E+03   -0.71710E-06   -0.11582E-07  1936   0.893E-04
  27 F= -.16038007E+03 E0= -.16036598E+03  d E =-.620294E-03  mag=    23.0000
