       N       E                     dE             d eps       ncg     rms          rms(c)
DAV:   1     0.467331523002E+04    0.46733E+04   -0.13850E+05  6504   0.933E+02
DAV:   2     0.943664276488E+03   -0.37297E+04   -0.34720E+04  7692   0.252E+02
DAV:   3    -0.281630996062E+03   -0.12253E+04   -0.11851E+04  9480   0.142E+02
DAV:   4    -0.387135880924E+03   -0.10550E+03   -0.10388E+03  9924   0.578E+01
DAV:   5    -0.389201368192E+03   -0.20655E+01   -0.19985E+01  9996   0.112E+01    0.611E+01
DAV:   6    -0.365535711084E+03    0.23666E+02   -0.33343E+02  9312   0.633E+01    0.628E+01
DAV:   7    -0.350943996149E+03    0.14592E+02   -0.52719E+01  9252   0.567E+01    0.299E+01
DAV:   8    -0.352061920562E+03   -0.11179E+01   -0.12670E+01  8196   0.575E+00    0.138E+01
DAV:   9    -0.351462744902E+03    0.59918E+00   -0.25599E+00  9348   0.855E+00    0.423E+00
DAV:  10    -0.351478973876E+03   -0.16229E-01   -0.55404E-01  9186   0.249E+00    0.199E+00
DAV:  11    -0.351508690497E+03   -0.29717E-01   -0.35456E-02  9018   0.832E-01    0.821E-01
DAV:  12    -0.351559810051E+03   -0.51120E-01   -0.16793E-02  8850   0.315E-01    0.432E-01
DAV:  13    -0.351587573916E+03   -0.27764E-01   -0.18908E-03  8496   0.114E-01    0.173E-01
DAV:  14    -0.351605205950E+03   -0.17632E-01   -0.55703E-04  8484   0.493E-02    0.119E-01
DAV:  15    -0.351622378835E+03   -0.17173E-01   -0.34611E-04  7554   0.283E-02    0.552E-02
DAV:  16    -0.351633977514E+03   -0.11599E-01   -0.25806E-04  9078   0.471E-02    0.475E-02
DAV:  17    -0.351637498043E+03   -0.35205E-02   -0.45860E-05  7980   0.154E-02    0.310E-02
DAV:  18    -0.351645042757E+03   -0.75447E-02   -0.24139E-04  6666   0.197E-02    0.312E-02
DAV:  19    -0.351646012086E+03   -0.96933E-03   -0.34655E-05  7968   0.118E-02    0.127E-02
DAV:  20    -0.351646164547E+03   -0.15246E-03   -0.11737E-05  7548   0.610E-03    0.736E-03
DAV:  21    -0.351646400760E+03   -0.23621E-03   -0.35355E-06  5364   0.359E-03    0.505E-03
DAV:  22    -0.351646558810E+03   -0.15805E-03   -0.26464E-06  5598   0.205E-03    0.231E-03
DAV:  23    -0.351646637971E+03   -0.79161E-04   -0.98420E-07  5076   0.159E-03    0.199E-03
DAV:  24    -0.351646712629E+03   -0.74658E-04   -0.19289E-06  5226   0.193E-03    0.219E-03
DAV:  25    -0.351646735225E+03   -0.22596E-04   -0.34226E-07  4452   0.178E-03    0.101E-03
DAV:  26    -0.351646751077E+03   -0.15852E-04   -0.19976E-07  3756   0.717E-04    0.839E-04
DAV:  27    -0.351646778785E+03   -0.27708E-04   -0.36195E-07  4248   0.904E-04    0.920E-04
DAV:  28    -0.351646790646E+03   -0.11861E-04   -0.28395E-07  3954   0.833E-04    0.864E-04
DAV:  29    -0.351646794584E+03   -0.39375E-05   -0.13314E-07  3618   0.695E-04    0.482E-04
DAV:  30    -0.351646797281E+03   -0.26973E-05   -0.10749E-07  3522   0.573E-04    0.496E-04
DAV:  31    -0.351646798896E+03   -0.16147E-05   -0.75015E-08  3528   0.440E-04    0.289E-04
DAV:  32    -0.351646800252E+03   -0.13568E-05   -0.25980E-08  3588   0.323E-04    0.192E-04
DAV:  33    -0.351646801694E+03   -0.14420E-05   -0.16162E-08  3606   0.230E-04    0.132E-04
DAV:  34    -0.351646802566E+03   -0.87189E-06   -0.37888E-09  3504   0.216E-04
   1 F= -.36472642E+03 E0= -.36472642E+03  d E =-.364726E+03  mag=    54.0000
       N       E                     dE             d eps       ncg     rms          rms(c)
DAV:   1    -0.351640109474E+03    0.66922E-02   -0.87873E-01  6408   0.126E+00    0.635E-01
DAV:   2    -0.351645846076E+03   -0.57366E-02   -0.67796E-02  8958   0.695E-01    0.396E-01
DAV:   3    -0.351645520076E+03    0.32600E-03   -0.17094E-03  8502   0.196E-01    0.238E-01
DAV:   4    -0.351645430875E+03    0.89201E-04   -0.18897E-04  9354   0.529E-02    0.196E-01
DAV:   5    -0.351645360673E+03    0.70202E-04   -0.42060E-04  7182   0.318E-02    0.107E-01
DAV:   6    -0.351645380383E+03   -0.19710E-04   -0.13199E-04  8928   0.477E-02    0.228E-02
DAV:   7    -0.351645394210E+03   -0.13826E-04   -0.12502E-05  7062   0.709E-03    0.188E-02
DAV:   8    -0.351645403261E+03   -0.90512E-05   -0.11460E-06  3564   0.303E-03    0.180E-02
DAV:   9    -0.351645416231E+03   -0.12970E-04   -0.26006E-06  4032   0.312E-03    0.763E-03
DAV:  10    -0.351645422452E+03   -0.62211E-05   -0.72409E-07  3576   0.233E-03    0.644E-03
DAV:  11    -0.351645427235E+03   -0.47828E-05   -0.48315E-07  3684   0.226E-03    0.247E-03
DAV:  12    -0.351645433291E+03   -0.60563E-05   -0.31860E-07  3582   0.128E-03    0.148E-03
DAV:  13    -0.351645435380E+03   -0.20892E-05   -0.10450E-07  3660   0.116E-03    0.584E-04
DAV:  14    -0.351645439516E+03   -0.41358E-05   -0.39519E-08  3558   0.547E-04    0.235E-04
DAV:  15    -0.351645442517E+03   -0.30008E-05   -0.13099E-08  3570   0.436E-04    0.386E-04
DAV:  16    -0.351645443784E+03   -0.12666E-05   -0.94512E-10  3606   0.279E-04    0.202E-04
DAV:  17    -0.351645447046E+03   -0.32619E-05   -0.57524E-09  3552   0.207E-04    0.103E-04
DAV:  18    -0.351645447978E+03   -0.93207E-06    0.13861E-09  3570   0.190E-04
   2 F= -.36473417E+03 E0= -.36473417E+03  d E =-.774932E-02  mag=    54.0000
       N       E                     dE             d eps       ncg     rms          rms(c)
DAV:   1    -0.351628011638E+03    0.17435E-01   -0.16420E+00  6426   0.173E+00    0.871E-01
DAV:   2    -0.351638745191E+03   -0.10734E-01   -0.12678E-01  8904   0.949E-01    0.541E-01
DAV:   3    -0.351638123325E+03    0.62187E-03   -0.32073E-03  8508   0.269E-01    0.326E-01
DAV:   4    -0.351637961960E+03    0.16136E-03   -0.35409E-04  9330   0.727E-02    0.269E-01
DAV:   5    -0.351637828331E+03    0.13363E-03   -0.78608E-04  7188   0.434E-02    0.147E-01
DAV:   6    -0.351637857169E+03   -0.28839E-04   -0.24895E-04  8922   0.658E-02    0.311E-02
DAV:   7    -0.351637878965E+03   -0.21796E-04   -0.23394E-05  7686   0.964E-03    0.256E-02
DAV:   8    -0.351637892836E+03   -0.13871E-04   -0.20731E-06  3672   0.392E-03    0.247E-02
DAV:   9    -0.351637913154E+03   -0.20318E-04   -0.60058E-06  5322   0.440E-03    0.114E-02
DAV:  10    -0.351637920339E+03   -0.71853E-05   -0.90281E-07  3570   0.212E-03    0.818E-03
DAV:  11    -0.351637932162E+03   -0.11823E-04   -0.49805E-07  3564   0.250E-03    0.291E-03
DAV:  12    -0.351637940363E+03   -0.82002E-05   -0.46909E-07  3630   0.132E-03    0.130E-03
DAV:  13    -0.351637942215E+03   -0.18525E-05   -0.10668E-07  3708   0.122E-03    0.571E-04
DAV:  14    -0.351637946252E+03   -0.40370E-05   -0.31801E-08  3546   0.489E-04    0.227E-04
DAV:  15    -0.351637952337E+03   -0.60847E-05   -0.13227E-08  3558   0.455E-04    0.388E-04
DAV:  16    -0.351637956653E+03   -0.43165E-05   -0.81016E-09  3558   0.277E-04    0.238E-04
DAV:  17    -0.351637959612E+03   -0.29583E-05   -0.37068E-09  3558   0.230E-04    0.232E-04
DAV:  18    -0.351637961141E+03   -0.15299E-05   -0.18563E-10  3570   0.198E-04    0.107E-04
DAV:  19    -0.351637962246E+03   -0.11043E-05   -0.41825E-09  3690   0.177E-04    0.132E-04
DAV:  20    -0.351637962229E+03    0.17117E-07    0.28921E-09  3570   0.181E-04
   3 F= -.36473910E+03 E0= -.36473910E+03  d E =-.126838E-01  mag=    54.0000
       N       E                     dE             d eps       ncg     rms          rms(c)
DAV:   1    -0.351634645459E+03    0.33168E-02   -0.93594E-02  6396   0.412E-01    0.206E-01
DAV:   2    -0.351635254990E+03   -0.60953E-03   -0.72644E-03  8964   0.227E-01    0.129E-01
DAV:   3    -0.351635230704E+03    0.24286E-04   -0.18109E-04  8484   0.637E-02    0.774E-02
DAV:   4    -0.351635220430E+03    0.10274E-04   -0.20252E-05  9120   0.171E-02    0.639E-02
DAV:   5    -0.351635213308E+03    0.71228E-05   -0.45309E-05  6942   0.105E-02    0.344E-02
DAV:   6    -0.351635217260E+03   -0.39521E-05   -0.14004E-05  8910   0.154E-02    0.736E-03
DAV:   7    -0.351635220221E+03   -0.29618E-05   -0.10264E-06  3672   0.237E-03    0.631E-03
DAV:   8    -0.351635222264E+03   -0.20423E-05   -0.31552E-07  3600   0.177E-03    0.661E-03
DAV:   9    -0.351635224910E+03   -0.26460E-05   -0.11912E-07  3492   0.157E-03    0.159E-03
DAV:  10    -0.351635226793E+03   -0.18835E-05   -0.17326E-07  3516   0.882E-04    0.844E-04
DAV:  11    -0.351635227272E+03   -0.47842E-06   -0.61827E-08  3708   0.905E-04
   4 F= -.36473933E+03 E0= -.36473933E+03  d E =-.129102E-01  mag=    54.0000
       N       E                     dE             d eps       ncg     rms          rms(c)
DAV:   1    -0.351631940307E+03    0.32865E-02   -0.43438E-01  6546   0.882E-01    0.311E-01
DAV:   2    -0.351634318221E+03   -0.23779E-02   -0.28435E-02  8964   0.367E-01    0.169E-01
DAV:   3    -0.351634221315E+03    0.96905E-04   -0.40287E-04  8760   0.782E-02    0.116E-01
DAV:   4    -0.351634200034E+03    0.21282E-04   -0.53050E-05  9342   0.225E-02    0.922E-02
DAV:   5    -0.351634172525E+03    0.27508E-04   -0.92849E-05  6864   0.147E-02    0.546E-02
DAV:   6    -0.351634174471E+03   -0.19450E-05   -0.35874E-05  9084   0.153E-02    0.194E-02
DAV:   7    -0.351634175786E+03   -0.13157E-05   -0.22898E-06  4038   0.352E-03    0.329E-03
DAV:   8    -0.351634176680E+03   -0.89384E-06   -0.70924E-07  3552   0.232E-03
   5 F= -.36474177E+03 E0= -.36474177E+03  d E =-.243831E-02  mag=    54.0000
