       N       E                     dE             d eps       ncg     rms          rms(c)
DAV:   1     0.214633791613E+04    0.21463E+04   -0.64970E+04  3096   0.914E+02
DAV:   2     0.423731541729E+03   -0.17226E+04   -0.16074E+04  3664   0.243E+02
DAV:   3    -0.110648937131E+03   -0.53438E+03   -0.51990E+03  4488   0.139E+02
DAV:   4    -0.151623196713E+03   -0.40974E+02   -0.40425E+02  4552   0.542E+01
DAV:   5    -0.152557570559E+03   -0.93437E+00   -0.93107E+00  4568   0.991E+00    0.424E+01
DAV:   6    -0.166943889969E+03   -0.14386E+02   -0.19267E+02  4960   0.678E+01    0.927E+01
DAV:   7    -0.146126360649E+03    0.20818E+02   -0.20443E+01  4784   0.293E+01    0.322E+01
DAV:   8    -0.143875277575E+03    0.22511E+01   -0.22383E+01  3688   0.720E+01    0.548E+01
DAV:   9    -0.144546077128E+03   -0.67080E+00   -0.20701E+01  5136   0.340E+01    0.213E+01
DAV:  10    -0.144616198266E+03   -0.70121E-01   -0.29993E+00  4648   0.944E+00    0.118E+01
DAV:  11    -0.144024657587E+03    0.59154E+00   -0.10914E+00  4416   0.996E+00    0.899E+00
DAV:  12    -0.143786083622E+03    0.23857E+00   -0.40253E-01  4760   0.393E+00    0.733E+00
DAV:  13    -0.143548076446E+03    0.23801E+00   -0.31673E-01  5352   0.386E+00    0.488E+00
DAV:  14    -0.143491603586E+03    0.56473E-01   -0.27167E-01  5104   0.270E+00    0.230E+00
DAV:  15    -0.143455320769E+03    0.36283E-01   -0.92725E-02  4416   0.153E+00    0.201E+00
DAV:  16    -0.143459469479E+03   -0.41487E-02   -0.40983E-02  4560   0.135E+00    0.163E+00
DAV:  17    -0.143544682013E+03   -0.85213E-01   -0.44570E-02  4712   0.943E-01    0.265E+00
DAV:  18    -0.143548642166E+03   -0.39602E-02   -0.14873E-02  4600   0.763E-01    0.199E+00
DAV:  19    -0.143603608053E+03   -0.54966E-01   -0.24878E-02  4280   0.741E-01    0.598E-01
DAV:  20    -0.143697606009E+03   -0.93998E-01   -0.10555E-02  4200   0.339E-01    0.288E-01
DAV:  21    -0.143808635952E+03   -0.11103E+00   -0.10668E-02  4016   0.316E-01    0.209E-01
DAV:  22    -0.143856194488E+03   -0.47559E-01   -0.21179E-03  4344   0.182E-01    0.279E-01
DAV:  23    -0.143901842113E+03   -0.45648E-01   -0.11945E-03  3904   0.991E-02    0.159E-01
DAV:  24    -0.143980831781E+03   -0.78990E-01   -0.33253E-03  3960   0.161E-01    0.101E-01
DAV:  25    -0.144006051249E+03   -0.25219E-01   -0.79639E-04  4184   0.813E-02    0.102E-01
DAV:  26    -0.144028982438E+03   -0.22931E-01   -0.72056E-04  4152   0.976E-02    0.489E-02
DAV:  27    -0.144043382734E+03   -0.14400E-01   -0.62871E-04  3480   0.458E-02    0.188E-02
DAV:  28    -0.144045133221E+03   -0.17505E-02   -0.93623E-05  4376   0.281E-02    0.312E-02
DAV:  29    -0.144045508182E+03   -0.37496E-03   -0.18540E-05  3768   0.214E-02    0.877E-03
DAV:  30    -0.144045862042E+03   -0.35386E-03   -0.11599E-05  3048   0.938E-03    0.503E-03
DAV:  31    -0.144046005703E+03   -0.14366E-03   -0.48322E-06  2944   0.489E-03    0.301E-03
DAV:  32    -0.144046075257E+03   -0.69554E-04   -0.14563E-06  2328   0.364E-03    0.388E-03
DAV:  33    -0.144046128279E+03   -0.53023E-04   -0.14374E-06  2400   0.294E-03    0.396E-03
DAV:  34    -0.144046189206E+03   -0.60927E-04   -0.19514E-06  2576   0.303E-03    0.426E-03
DAV:  35    -0.144046229353E+03   -0.40147E-04   -0.11689E-06  2328   0.328E-03    0.159E-03
DAV:  36    -0.144046244740E+03   -0.15387E-04   -0.59414E-07  2280   0.249E-03    0.155E-03
DAV:  37    -0.144046253545E+03   -0.88042E-05   -0.36109E-07  2184   0.175E-03    0.182E-03
DAV:  38    -0.144046265541E+03   -0.11996E-04   -0.39137E-07  2248   0.165E-03    0.187E-03
DAV:  39    -0.144046272964E+03   -0.74233E-05   -0.37986E-07  2256   0.163E-03    0.800E-04
DAV:  40    -0.144046275283E+03   -0.23193E-05   -0.20134E-07  2088   0.141E-03    0.830E-04
DAV:  41    -0.144046276554E+03   -0.12702E-05   -0.10813E-07  1936   0.942E-04    0.619E-04
DAV:  42    -0.144046277630E+03   -0.10765E-05   -0.66971E-08  2016   0.744E-04    0.253E-04
DAV:  43    -0.144046278404E+03   -0.77364E-06   -0.38755E-08  1904   0.550E-04
   1 F= -.15003912E+03 E0= -.15003912E+03  d E =-.150039E+03  mag=    24.0000
       N       E                     dE             d eps       ncg     rms          rms(c)
DAV:   1    -0.143890112879E+03    0.15616E+00   -0.51979E+01  3056   0.145E+01    0.527E+00
DAV:   2    -0.144470543647E+03   -0.58043E+00   -0.49811E+00  4424   0.875E+00    0.605E+00
DAV:   3    -0.144789291245E+03   -0.31875E+00   -0.32780E+00  4288   0.782E+00    0.162E+01
DAV:   4    -0.144396160311E+03    0.39313E+00   -0.23386E+00  4552   0.399E+00    0.167E+00
DAV:   5    -0.144405623612E+03   -0.94633E-02   -0.48403E-02  4536   0.108E+00    0.138E+00
DAV:   6    -0.144398912898E+03    0.67107E-02   -0.11492E-02  4288   0.341E-01    0.123E+00
DAV:   7    -0.144387013762E+03    0.11899E-01   -0.16564E-02  4480   0.600E-01    0.493E-01
DAV:   8    -0.144394857006E+03   -0.78432E-02   -0.56060E-03  4568   0.403E-01    0.286E-01
DAV:   9    -0.144402149929E+03   -0.72929E-02   -0.14314E-03  4648   0.296E-01    0.231E-01
DAV:  10    -0.144414441999E+03   -0.12292E-01   -0.69520E-04  4280   0.111E-01    0.103E-01
DAV:  11    -0.144424993399E+03   -0.10551E-01   -0.25261E-04  4384   0.716E-02    0.523E-02
DAV:  12    -0.144432171167E+03   -0.71778E-02   -0.13106E-04  4456   0.408E-02    0.572E-02
DAV:  13    -0.144437309786E+03   -0.51386E-02   -0.71748E-05  4056   0.250E-02    0.317E-02
DAV:  14    -0.144440946959E+03   -0.36372E-02   -0.39463E-05  3952   0.180E-02    0.156E-02
DAV:  15    -0.144444524715E+03   -0.35778E-02   -0.42713E-05  3632   0.176E-02    0.130E-02
DAV:  16    -0.144447713882E+03   -0.31892E-02   -0.53812E-05  3208   0.117E-02    0.105E-02
DAV:  17    -0.144449698347E+03   -0.19845E-02   -0.41393E-05  3312   0.951E-03    0.766E-03
DAV:  18    -0.144450678190E+03   -0.97984E-03   -0.27446E-05  3264   0.763E-03    0.270E-03
DAV:  19    -0.144450895585E+03   -0.21739E-03   -0.65676E-06  3328   0.446E-03    0.162E-03
DAV:  20    -0.144450931662E+03   -0.36077E-04   -0.58404E-07  2400   0.201E-03    0.150E-03
DAV:  21    -0.144450942809E+03   -0.11146E-04   -0.32723E-07  2264   0.201E-03    0.111E-03
DAV:  22    -0.144450951211E+03   -0.84024E-05   -0.42270E-07  2328   0.142E-03    0.109E-03
DAV:  23    -0.144450953938E+03   -0.27274E-05   -0.23522E-07  2232   0.145E-03    0.905E-04
DAV:  24    -0.144450954575E+03   -0.63615E-06   -0.12393E-07  2032   0.109E-03
   2 F= -.15042274E+03 E0= -.15042274E+03  d E =-.383618E+00  mag=    24.0000
       N       E                     dE             d eps       ncg     rms          rms(c)
DAV:   1    -0.144236409782E+03    0.21454E+00   -0.29937E+01  3064   0.110E+01    0.407E+00
DAV:   2    -0.144577471382E+03   -0.34106E+00   -0.27695E+00  4560   0.650E+00    0.540E+00
DAV:   3    -0.144764439505E+03   -0.18697E+00   -0.21794E+00  4280   0.689E+00    0.121E+01
DAV:   4    -0.144514611493E+03    0.24983E+00   -0.12749E+00  4640   0.355E+00    0.126E+00
DAV:   5    -0.144523210335E+03   -0.85988E-02   -0.30051E-02  4592   0.945E-01    0.997E-01
DAV:   6    -0.144519557664E+03    0.36527E-02   -0.63410E-03  4368   0.254E-01    0.860E-01
DAV:   7    -0.144513164597E+03    0.63931E-02   -0.75853E-03  4544   0.405E-01    0.336E-01
DAV:   8    -0.144517087558E+03   -0.39230E-02   -0.32322E-03  4704   0.311E-01    0.223E-01
DAV:   9    -0.144521085630E+03   -0.39981E-02   -0.92665E-04  4584   0.237E-01    0.178E-01
DAV:  10    -0.144527092481E+03   -0.60069E-02   -0.38871E-04  4224   0.791E-02    0.604E-02
DAV:  11    -0.144532239046E+03   -0.51466E-02   -0.95837E-05  4416   0.456E-02    0.437E-02
DAV:  12    -0.144536809046E+03   -0.45700E-02   -0.79055E-05  4352   0.324E-02    0.480E-02
DAV:  13    -0.144539965446E+03   -0.31564E-02   -0.49633E-05  4136   0.232E-02    0.146E-02
DAV:  14    -0.144541747502E+03   -0.17821E-02   -0.16875E-05  3648   0.106E-02    0.112E-02
DAV:  15    -0.144544071469E+03   -0.23240E-02   -0.28951E-05  3376   0.118E-02    0.771E-03
DAV:  16    -0.144545896449E+03   -0.18250E-02   -0.31251E-05  3280   0.854E-03    0.596E-03
DAV:  17    -0.144546933112E+03   -0.10367E-02   -0.20654E-05  3264   0.643E-03    0.438E-03
DAV:  18    -0.144547477401E+03   -0.54429E-03   -0.16328E-05  3232   0.531E-03    0.257E-03
DAV:  19    -0.144547560095E+03   -0.82694E-04   -0.21440E-06  2776   0.312E-03    0.150E-03
DAV:  20    -0.144547573485E+03   -0.13390E-04   -0.42496E-07  2320   0.223E-03    0.132E-03
DAV:  21    -0.144547577433E+03   -0.39488E-05   -0.23182E-07  2216   0.156E-03    0.976E-04
DAV:  22    -0.144547581505E+03   -0.40716E-05   -0.20457E-07  2240   0.126E-03    0.796E-04
DAV:  23    -0.144547583742E+03   -0.22365E-05   -0.16358E-07  2232   0.128E-03    0.547E-04
DAV:  24    -0.144547584548E+03   -0.80609E-06   -0.98315E-08  2072   0.104E-03
   3 F= -.15050280E+03 E0= -.15050279E+03  d E =-.463677E+00  mag=    24.0000
       N       E                     dE             d eps       ncg     rms          rms(c)
DAV:   1    -0.144478570735E+03    0.69013E-01   -0.21394E+01  3040   0.930E+00    0.324E+00
DAV:   2    -0.144719201955E+03   -0.24063E+00   -0.20601E+00  4568   0.575E+00    0.551E+00
DAV:   3    -0.144740401200E+03   -0.21199E-01   -0.11385E+00  4264   0.605E+00    0.699E+00
DAV:   4    -0.144642013352E+03    0.98388E-01   -0.51534E-01  4584   0.309E+00    0.138E+00
DAV:   5    -0.144645876018E+03   -0.38627E-02   -0.19529E-02  4504   0.757E-01    0.122E+00
DAV:   6    -0.144641374810E+03    0.45012E-02   -0.51328E-03  4800   0.281E-01    0.754E-01
DAV:   7    -0.144637485653E+03    0.38892E-02   -0.68306E-03  4408   0.284E-01    0.307E-01
DAV:   8    -0.144639146728E+03   -0.16611E-02   -0.22034E-03  4432   0.235E-01    0.222E-01
DAV:   9    -0.144640513270E+03   -0.13665E-02   -0.65934E-04  4464   0.117E-01    0.852E-02
DAV:  10    -0.144642542967E+03   -0.20297E-02   -0.16072E-04  4400   0.659E-02    0.697E-02
DAV:  11    -0.144644188155E+03   -0.16452E-02   -0.85870E-05  4592   0.528E-02    0.429E-02
DAV:  12    -0.144645651693E+03   -0.14635E-02   -0.33763E-05  4400   0.265E-02    0.306E-02
DAV:  13    -0.144646926170E+03   -0.12745E-02   -0.23571E-05  4176   0.177E-02    0.955E-03
DAV:  14    -0.144647843866E+03   -0.91770E-03   -0.95703E-06  3264   0.727E-03    0.755E-03
DAV:  15    -0.144648925738E+03   -0.10819E-02   -0.15683E-05  3144   0.658E-03    0.475E-03
DAV:  16    -0.144649508861E+03   -0.58312E-03   -0.77477E-06  3296   0.488E-03    0.321E-03
DAV:  17    -0.144650022569E+03   -0.51371E-03   -0.96224E-06  3104   0.444E-03    0.204E-03
DAV:  18    -0.144650331929E+03   -0.30936E-03   -0.96020E-06  3040   0.413E-03    0.120E-03
DAV:  19    -0.144650385816E+03   -0.53887E-04   -0.16003E-06  2640   0.233E-03    0.797E-04
DAV:  20    -0.144650391322E+03   -0.55055E-05   -0.25197E-07  2136   0.170E-03    0.650E-04
DAV:  21    -0.144650395692E+03   -0.43700E-05   -0.24353E-07  2168   0.115E-03    0.523E-04
DAV:  22    -0.144650397246E+03   -0.15545E-05   -0.14082E-07  1936   0.121E-03    0.408E-04
DAV:  23    -0.144650398128E+03   -0.88221E-06   -0.11613E-07  2040   0.816E-04
   4 F= -.15059430E+03 E0= -.15059430E+03  d E =-.915026E-01  mag=    24.0000
       N       E                     dE             d eps       ncg     rms          rms(c)
DAV:   1    -0.144648449070E+03    0.19482E-02   -0.90904E-01  3088   0.191E+00    0.709E-01
DAV:   2    -0.144658337775E+03   -0.98887E-02   -0.83599E-02  4552   0.115E+00    0.126E+00
DAV:   3    -0.144659617962E+03   -0.12802E-02   -0.52044E-02  4304   0.124E+00    0.145E+00
DAV:   4    -0.144654532990E+03    0.50850E-02   -0.14548E-02  4464   0.673E-01    0.225E-01
DAV:   5    -0.144654827926E+03   -0.29494E-03   -0.10115E-03  4632   0.128E-01    0.248E-01
DAV:   6    -0.144654539496E+03    0.28843E-03   -0.24917E-04  4808   0.772E-02    0.149E-01
DAV:   7    -0.144654194763E+03    0.34473E-03   -0.26933E-04  4504   0.595E-02    0.568E-02
DAV:   8    -0.144654272713E+03   -0.77950E-04   -0.75291E-05  4560   0.449E-02    0.477E-02
DAV:   9    -0.144654379043E+03   -0.10633E-03   -0.29331E-05  4368   0.274E-02    0.205E-02
DAV:  10    -0.144654577387E+03   -0.19834E-03   -0.59761E-06  2944   0.130E-02    0.120E-02
DAV:  11    -0.144654778937E+03   -0.20155E-03   -0.64367E-06  3288   0.727E-03    0.575E-03
DAV:  12    -0.144654889833E+03   -0.11090E-03   -0.11550E-06  2376   0.339E-03    0.477E-03
DAV:  13    -0.144654994786E+03   -0.10495E-03   -0.10478E-06  2368   0.398E-03    0.199E-03
DAV:  14    -0.144655065913E+03   -0.71127E-04   -0.85537E-07  2296   0.261E-03    0.192E-03
DAV:  15    -0.144655176263E+03   -0.11035E-03   -0.19804E-06  2616   0.243E-03    0.185E-03
DAV:  16    -0.144655221952E+03   -0.45688E-04   -0.38444E-07  2360   0.178E-03    0.109E-03
DAV:  17    -0.144655289549E+03   -0.67598E-04   -0.11285E-06  2352   0.200E-03    0.144E-03
DAV:  18    -0.144655318429E+03   -0.28880E-04   -0.56484E-07  2368   0.197E-03    0.688E-04
DAV:  19    -0.144655337662E+03   -0.19233E-04   -0.58331E-07  2296   0.161E-03    0.654E-04
DAV:  20    -0.144655342124E+03   -0.44627E-05   -0.25283E-07  1984   0.170E-03    0.341E-04
DAV:  21    -0.144655345378E+03   -0.32538E-05   -0.19731E-07  2136   0.933E-04    0.248E-04
DAV:  22    -0.144655347871E+03   -0.24924E-05   -0.15146E-07  2088   0.110E-03    0.317E-04
DAV:  23    -0.144655348437E+03   -0.56655E-06   -0.99022E-08  1936   0.799E-04
   5 F= -.15059689E+03 E0= -.15059688E+03  d E =-.940872E-01  mag=    24.0000
       N       E                     dE             d eps       ncg     rms          rms(c)
DAV:   1    -0.144649164580E+03    0.61833E-02   -0.19504E+00  3056   0.283E+00    0.977E-01
DAV:   2    -0.144663713829E+03   -0.14549E-01   -0.15068E-01  4336   0.143E+00    0.771E-01
DAV:   3    -0.144670773499E+03   -0.70597E-02   -0.41072E-02  4536   0.118E+00    0.176E+00
DAV:   4    -0.144662321062E+03    0.84524E-02   -0.24798E-02  4264   0.821E-01    0.407E-01
DAV:   5    -0.144662774223E+03   -0.45316E-03   -0.14845E-03  4544   0.251E-01    0.238E-01
DAV:   6    -0.144662262727E+03    0.51150E-03   -0.43981E-04  4384   0.633E-02    0.182E-01
DAV:   7    -0.144661700329E+03    0.56240E-03   -0.61300E-04  4544   0.141E-01    0.902E-02
DAV:   8    -0.144661968276E+03   -0.26795E-03   -0.21585E-04  4752   0.993E-02    0.609E-02
DAV:   9    -0.144662254768E+03   -0.28649E-03   -0.70637E-05  4712   0.513E-02    0.331E-02
DAV:  10    -0.144662690836E+03   -0.43607E-03   -0.13174E-05  3648   0.158E-02    0.160E-02
DAV:  11    -0.144663029863E+03   -0.33903E-03   -0.42658E-06  3120   0.722E-03    0.873E-03
DAV:  12    -0.144663351248E+03   -0.32139E-03   -0.37814E-06  2936   0.672E-03    0.550E-03
DAV:  13    -0.144663620275E+03   -0.26903E-03   -0.29649E-06  2832   0.471E-03    0.261E-03
DAV:  14    -0.144663763811E+03   -0.14354E-03   -0.94792E-07  2384   0.334E-03    0.226E-03
DAV:  15    -0.144663884597E+03   -0.12079E-03   -0.11317E-06  2400   0.282E-03    0.247E-03
DAV:  16    -0.144664090715E+03   -0.20612E-03   -0.42959E-06  2992   0.403E-03    0.169E-03
DAV:  17    -0.144664202004E+03   -0.11129E-03   -0.20716E-06  2656   0.297E-03    0.131E-03
DAV:  18    -0.144664217278E+03   -0.15275E-04   -0.34108E-07  2392   0.216E-03    0.684E-04
DAV:  19    -0.144664235047E+03   -0.17769E-04   -0.38362E-07  2232   0.133E-03    0.742E-04
DAV:  20    -0.144664246581E+03   -0.11534E-04   -0.30701E-07  2248   0.158E-03    0.534E-04
DAV:  21    -0.144664250626E+03   -0.40444E-05   -0.23418E-07  2224   0.126E-03    0.356E-04
DAV:  22    -0.144664251603E+03   -0.97742E-06   -0.13175E-07  2032   0.110E-03
   6 F= -.15060774E+03 E0= -.15060774E+03  d E =-.108564E-01  mag=    24.0000
       N       E                     dE             d eps       ncg     rms          rms(c)
DAV:   1    -0.144655292354E+03    0.89583E-02   -0.13117E+00  3056   0.232E+00    0.805E-01
DAV:   2    -0.144665047393E+03   -0.97550E-02   -0.10084E-01  4272   0.117E+00    0.672E-01
DAV:   3    -0.144671077669E+03   -0.60303E-02   -0.33204E-02  4392   0.102E+00    0.163E+00
DAV:   4    -0.144663812923E+03    0.72647E-02   -0.19508E-02  4192   0.723E-01    0.320E-01
DAV:   5    -0.144664294827E+03   -0.48190E-03   -0.11119E-03  4512   0.206E-01    0.197E-01
DAV:   6    -0.144663944506E+03    0.35032E-03   -0.31709E-04  4432   0.581E-02    0.153E-01
DAV:   7    -0.144663512423E+03    0.43208E-03   -0.43140E-04  4640   0.115E-01    0.813E-02
DAV:   8    -0.144663692330E+03   -0.17991E-03   -0.16536E-04  4736   0.815E-02    0.550E-02
DAV:   9    -0.144663909738E+03   -0.21741E-03   -0.50912E-05  4656   0.416E-02    0.242E-02
DAV:  10    -0.144664229165E+03   -0.31943E-03   -0.78940E-06  3368   0.113E-02    0.141E-02
DAV:  11    -0.144664495000E+03   -0.26583E-03   -0.29299E-06  2720   0.584E-03    0.700E-03
DAV:  12    -0.144664760642E+03   -0.26564E-03   -0.39381E-06  3016   0.608E-03    0.425E-03
DAV:  13    -0.144664926294E+03   -0.16565E-03   -0.12671E-06  2432   0.362E-03    0.238E-03
DAV:  14    -0.144665038630E+03   -0.11234E-03   -0.90900E-07  2344   0.333E-03    0.220E-03
DAV:  15    -0.144665124480E+03   -0.85849E-04   -0.10179E-06  2320   0.255E-03    0.207E-03
DAV:  16    -0.144665299107E+03   -0.17463E-03   -0.39081E-06  2904   0.366E-03    0.150E-03
DAV:  17    -0.144665371973E+03   -0.72865E-04   -0.10545E-06  2424   0.256E-03    0.128E-03
DAV:  18    -0.144665386032E+03   -0.14059E-04   -0.36081E-07  2264   0.215E-03    0.965E-04
DAV:  19    -0.144665405940E+03   -0.19908E-04   -0.50246E-07  2248   0.151E-03    0.943E-04
DAV:  20    -0.144665413291E+03   -0.73508E-05   -0.26022E-07  2224   0.165E-03    0.636E-04
DAV:  21    -0.144665418362E+03   -0.50719E-05   -0.28165E-07  2200   0.110E-03    0.538E-04
DAV:  22    -0.144665419442E+03   -0.10791E-05   -0.13719E-07  2048   0.126E-03    0.341E-04
DAV:  23    -0.144665419662E+03   -0.22090E-06   -0.73297E-08  1928   0.627E-04
   7 F= -.15061056E+03 E0= -.15061056E+03  d E =-.136755E-01  mag=    24.0000
       N       E                     dE             d eps       ncg     rms          rms(c)
DAV:   1    -0.144652549114E+03    0.12870E-01   -0.17332E+00  3056   0.268E+00    0.899E-01
DAV:   2    -0.144667534008E+03   -0.14985E-01   -0.13296E-01  4280   0.136E+00    0.103E+00
DAV:   3    -0.144678138203E+03   -0.10604E-01   -0.67401E-02  4416   0.139E+00    0.229E+00
DAV:   4    -0.144665558738E+03    0.12579E-01   -0.37768E-02  4160   0.951E-01    0.329E-01
DAV:   5    -0.144666702760E+03   -0.11440E-02   -0.17181E-03  4504   0.227E-01    0.207E-01
DAV:   6    -0.144666738577E+03   -0.35817E-04   -0.38073E-04  4744   0.769E-02    0.173E-01
DAV:   7    -0.144666740034E+03   -0.14566E-05   -0.49809E-04  4736   0.994E-02    0.974E-02
DAV:   8    -0.144666778199E+03   -0.38165E-04   -0.20103E-04  4776   0.743E-02    0.504E-02
DAV:   9    -0.144666818178E+03   -0.39980E-04   -0.44956E-05  4704   0.337E-02    0.175E-02
DAV:  10    -0.144666866227E+03   -0.48049E-04   -0.60187E-06  3032   0.107E-02    0.997E-03
DAV:  11    -0.144666903871E+03   -0.37644E-04   -0.21690E-06  2352   0.542E-03    0.569E-03
DAV:  12    -0.144666935108E+03   -0.31237E-04   -0.12626E-06  2224   0.482E-03    0.311E-03
DAV:  13    -0.144666958834E+03   -0.23727E-04   -0.91190E-07  2216   0.427E-03    0.299E-03
DAV:  14    -0.144666972068E+03   -0.13234E-04   -0.50545E-07  1984   0.264E-03    0.147E-03
DAV:  15    -0.144666988219E+03   -0.16152E-04   -0.32135E-07  2160   0.223E-03    0.129E-03
DAV:  16    -0.144667003788E+03   -0.15569E-04   -0.28884E-07  2112   0.155E-03    0.803E-04
DAV:  17    -0.144667021508E+03   -0.17720E-04   -0.37591E-07  2192   0.138E-03    0.103E-03
DAV:  18    -0.144667028773E+03   -0.72647E-05   -0.20323E-07  2064   0.136E-03    0.583E-04
DAV:  19    -0.144667034468E+03   -0.56957E-05   -0.19617E-07  2160   0.971E-04    0.362E-04
DAV:  20    -0.144667038750E+03   -0.42817E-05   -0.15358E-07  2056   0.100E-03    0.375E-04
DAV:  21    -0.144667040816E+03   -0.20658E-05   -0.11156E-07  2000   0.782E-04    0.260E-04
DAV:  22    -0.144667042319E+03   -0.15025E-05   -0.88917E-08  2120   0.752E-04    0.289E-04
DAV:  23    -0.144667042812E+03   -0.49351E-06   -0.54204E-08  1976   0.619E-04
   8 F= -.15061703E+03 E0= -.15061702E+03  d E =-.646482E-02  mag=    24.0000
       N       E                     dE             d eps       ncg     rms          rms(c)
DAV:   1    -0.144630633488E+03    0.36409E-01   -0.35376E+00  3040   0.382E+00    0.129E+00
DAV:   2    -0.144662055040E+03   -0.31422E-01   -0.27220E-01  4272   0.194E+00    0.153E+00
DAV:   3    -0.144684832174E+03   -0.22777E-01   -0.15250E-01  4408   0.204E+00    0.351E+00
DAV:   4    -0.144656779877E+03    0.28052E-01   -0.94382E-02  4128   0.138E+00    0.505E-01
DAV:   5    -0.144659651224E+03   -0.28713E-02   -0.36978E-03  4592   0.358E-01    0.302E-01
DAV:   6    -0.144659749008E+03   -0.97784E-04   -0.88185E-04  4696   0.124E-01    0.252E-01
DAV:   7    -0.144659728056E+03    0.20952E-04   -0.10245E-03  4744   0.140E-01    0.138E-01
DAV:   8    -0.144659811434E+03   -0.83377E-04   -0.45653E-04  4760   0.107E-01    0.800E-02
DAV:   9    -0.144659870153E+03   -0.58720E-04   -0.11355E-04  4760   0.516E-02    0.240E-02
DAV:  10    -0.144659955027E+03   -0.84873E-04   -0.15070E-05  4080   0.149E-02    0.146E-02
DAV:  11    -0.144660010751E+03   -0.55725E-04   -0.25446E-06  2552   0.628E-03    0.929E-03
DAV:  12    -0.144660073825E+03   -0.63074E-04   -0.36319E-06  2800   0.815E-03    0.462E-03
DAV:  13    -0.144660116173E+03   -0.42348E-04   -0.14484E-06  2352   0.472E-03    0.382E-03
DAV:  14    -0.144660136729E+03   -0.20557E-04   -0.62087E-07  2056   0.329E-03    0.200E-03
DAV:  15    -0.144660165484E+03   -0.28754E-04   -0.50999E-07  2216   0.234E-03    0.200E-03
DAV:  16    -0.144660186608E+03   -0.21125E-04   -0.35547E-07  2160   0.199E-03    0.129E-03
DAV:  17    -0.144660215967E+03   -0.29359E-04   -0.62617E-07  2312   0.183E-03    0.162E-03
DAV:  18    -0.144660229560E+03   -0.13593E-04   -0.32423E-07  2200   0.187E-03    0.762E-04
DAV:  19    -0.144660240561E+03   -0.11001E-04   -0.34450E-07  2224   0.117E-03    0.486E-04
DAV:  20    -0.144660247920E+03   -0.73595E-05   -0.24761E-07  2200   0.129E-03    0.548E-04
DAV:  21    -0.144660250089E+03   -0.21687E-05   -0.12749E-07  2000   0.941E-04    0.318E-04
DAV:  22    -0.144660252878E+03   -0.27896E-05   -0.13273E-07  2144   0.804E-04    0.370E-04
DAV:  23    -0.144660254249E+03   -0.13705E-05   -0.95319E-08  2088   0.778E-04    0.188E-04
DAV:  24    -0.144660254560E+03   -0.31075E-06   -0.49891E-08  1976   0.591E-04
   9 F= -.15063589E+03 E0= -.15063588E+03  d E =-.253246E-01  mag=    24.0000
       N       E                     dE             d eps       ncg     rms          rms(c)
DAV:   1    -0.144495183251E+03    0.16507E+00   -0.14153E+01  3040   0.765E+00    0.260E+00
DAV:   2    -0.144626060848E+03   -0.13088E+00   -0.11010E+00  4256   0.390E+00    0.321E+00
DAV:   3    -0.144732191794E+03   -0.10613E+00   -0.85888E-01  4344   0.430E+00    0.853E+00
DAV:   4    -0.144601811224E+03    0.13038E+00   -0.64633E-01  4192   0.281E+00    0.123E+00
DAV:   5    -0.144612529366E+03   -0.10718E-01   -0.18530E-02  4816   0.912E-01    0.658E-01
DAV:   6    -0.144613091043E+03   -0.56168E-03   -0.49573E-03  4600   0.313E-01    0.511E-01
DAV:   7    -0.144612980120E+03    0.11092E-03   -0.34248E-03  4576   0.250E-01    0.296E-01
DAV:   8    -0.144613348579E+03   -0.36846E-03   -0.20613E-03  4592   0.242E-01    0.214E-01
DAV:   9    -0.144613452084E+03   -0.10350E-03   -0.80701E-04  4664   0.132E-01    0.596E-02
DAV:  10    -0.144613666426E+03   -0.21434E-03   -0.11514E-04  4440   0.452E-02    0.388E-02
DAV:  11    -0.144613788601E+03   -0.12217E-03   -0.23117E-05  4096   0.169E-02    0.228E-02
DAV:  12    -0.144613940058E+03   -0.15146E-03   -0.93111E-06  3520   0.116E-02    0.195E-02
DAV:  13    -0.144614097249E+03   -0.15719E-03   -0.78591E-06  3288   0.103E-02    0.671E-03
DAV:  14    -0.144614175025E+03   -0.77776E-04   -0.16386E-06  2432   0.478E-03    0.587E-03
DAV:  15    -0.144614235530E+03   -0.60505E-04   -0.11670E-06  2336   0.417E-03    0.336E-03
DAV:  16    -0.144614296607E+03   -0.61077E-04   -0.10521E-06  2392   0.295E-03    0.254E-03
DAV:  17    -0.144614368120E+03   -0.71513E-04   -0.13501E-06  2408   0.261E-03    0.175E-03
DAV:  18    -0.144614432844E+03   -0.64724E-04   -0.17279E-06  2456   0.238E-03    0.160E-03
DAV:  19    -0.144614445855E+03   -0.13011E-04   -0.30206E-07  2264   0.191E-03    0.964E-04
DAV:  20    -0.144614456989E+03   -0.11134E-04   -0.24450E-07  2152   0.119E-03    0.929E-04
DAV:  21    -0.144614468845E+03   -0.11856E-04   -0.26287E-07  2200   0.129E-03    0.559E-04
DAV:  22    -0.144614480686E+03   -0.11841E-04   -0.40376E-07  2304   0.126E-03    0.838E-04
DAV:  23    -0.144614484649E+03   -0.39635E-05   -0.21448E-07  2232   0.141E-03    0.515E-04
DAV:  24    -0.144614485316E+03   -0.66708E-06   -0.10756E-07  2000   0.836E-04
  10 F= -.15070788E+03 E0= -.15070788E+03  d E =-.973220E-01  mag=    24.0000
       N       E                     dE             d eps       ncg     rms          rms(c)
DAV:   1    -0.144621528675E+03   -0.70440E-02   -0.15275E+00  3040   0.251E+00    0.859E-01
DAV:   2    -0.144636113636E+03   -0.14585E-01   -0.12112E-01  4416   0.134E+00    0.131E+00
DAV:   3    -0.144644446617E+03   -0.83330E-02   -0.78352E-02  4456   0.140E+00    0.215E+00
DAV:   4    -0.144632783182E+03    0.11663E-01   -0.25912E-02  4088   0.931E-01    0.276E-01
DAV:   5    -0.144633883555E+03   -0.11004E-02   -0.15639E-03  4520   0.160E-01    0.199E-01
DAV:   6    -0.144633983106E+03   -0.99551E-04   -0.43636E-04  4552   0.922E-02    0.168E-01
DAV:   7    -0.144633972734E+03    0.10372E-04   -0.36786E-04  4408   0.644E-02    0.589E-02
DAV:   8    -0.144634025844E+03   -0.53110E-04   -0.73736E-05  4432   0.380E-02    0.199E-02
DAV:   9    -0.144634062671E+03   -0.36827E-04   -0.10790E-05  4328   0.167E-02    0.146E-02
DAV:  10    -0.144634102674E+03   -0.40003E-04   -0.19908E-06  2328   0.929E-03    0.138E-02
DAV:  11    -0.144634146927E+03   -0.44253E-04   -0.48657E-06  2584   0.992E-03    0.775E-03
DAV:  12    -0.144634166363E+03   -0.19437E-04   -0.20620E-06  2208   0.714E-03    0.430E-03
DAV:  13    -0.144634185548E+03   -0.19185E-04   -0.10083E-06  2168   0.449E-03    0.189E-03
DAV:  14    -0.144634204132E+03   -0.18584E-04   -0.58187E-07  2184   0.330E-03    0.189E-03
DAV:  15    -0.144634226888E+03   -0.22756E-04   -0.56162E-07  2200   0.259E-03    0.141E-03
DAV:  16    -0.144634238020E+03   -0.11132E-04   -0.37483E-07  2216   0.185E-03    0.100E-03
DAV:  17    -0.144634246260E+03   -0.82399E-05   -0.25878E-07  2072   0.129E-03    0.870E-04
DAV:  18    -0.144634249254E+03   -0.29941E-05   -0.12747E-07  1968   0.119E-03    0.486E-04
DAV:  19    -0.144634256298E+03   -0.70437E-05   -0.19468E-07  2128   0.873E-04    0.553E-04
DAV:  20    -0.144634260978E+03   -0.46798E-05   -0.13194E-07  2152   0.105E-03    0.540E-04
DAV:  21    -0.144634263053E+03   -0.20752E-05   -0.10653E-07  2008   0.753E-04    0.284E-04
DAV:  22    -0.144634263776E+03   -0.72345E-06   -0.57925E-08  1960   0.747E-04
  11 F= -.15071879E+03 E0= -.15071879E+03  d E =-.108229E+00  mag=    24.0000
       N       E                     dE             d eps       ncg     rms          rms(c)
DAV:   1    -0.144632384189E+03    0.18789E-02   -0.18552E-02  3152   0.276E-01    0.959E-02
DAV:   2    -0.144632540068E+03   -0.15588E-03   -0.14142E-03  4376   0.143E-01    0.134E-01
DAV:   3    -0.144632680614E+03   -0.14055E-03   -0.96044E-04  4488   0.156E-01    0.260E-01
DAV:   4    -0.144632509033E+03    0.17158E-03   -0.41976E-04  4040   0.104E-01    0.349E-02
DAV:   5    -0.144632536897E+03   -0.27865E-04   -0.19320E-05  3856   0.233E-02    0.209E-02
DAV:   6    -0.144632542250E+03   -0.53525E-05   -0.45519E-06  2488   0.844E-03    0.185E-02
DAV:   7    -0.144632544892E+03   -0.26423E-05   -0.12535E-05  4048   0.140E-02    0.141E-02
DAV:   8    -0.144632546533E+03   -0.16406E-05   -0.29889E-06  2384   0.915E-03    0.678E-03
DAV:   9    -0.144632547288E+03   -0.75485E-06   -0.71253E-07  2024   0.482E-03
  12 F= -.15071914E+03 E0= -.15071914E+03  d E =-.351819E-03  mag=    24.0000
       N       E                     dE             d eps       ncg     rms          rms(c)
DAV:   1    -0.144632397296E+03    0.14924E-03   -0.13635E-04  3056   0.239E-02    0.941E-03
DAV:   2    -0.144632398075E+03   -0.77812E-06   -0.10633E-05  4072   0.108E-02    0.414E-03
DAV:   3    -0.144632399296E+03   -0.12215E-05   -0.12456E-06  1936   0.705E-03    0.936E-03
DAV:   4    -0.144632399148E+03    0.14777E-06   -0.12214E-06  1984   0.627E-03
  13 F= -.15071915E+03 E0= -.15071914E+03  d E =-.354930E-03  mag=    24.0000
       N       E                     dE             d eps       ncg     rms          rms(c)
DAV:   1    -0.144632919388E+03   -0.52009E-03   -0.84857E-04  3168   0.601E-02    0.219E-02
DAV:   2    -0.144632918077E+03    0.13107E-05   -0.56069E-05  4264   0.255E-02    0.146E-02
DAV:   3    -0.144632926326E+03   -0.82493E-05   -0.17831E-05  2728   0.223E-02    0.410E-02
DAV:   4    -0.144632920307E+03    0.60195E-05   -0.12705E-05  2360   0.191E-02    0.623E-03
DAV:   5    -0.144632920803E+03   -0.49670E-06   -0.83418E-07  2024   0.336E-03
  14 F= -.15071962E+03 E0= -.15071962E+03  d E =-.478248E-03  mag=    24.0000
       N       E                     dE             d eps       ncg     rms          rms(c)
DAV:   1    -0.144634403016E+03   -0.14827E-02   -0.75372E-03  3200   0.179E-01    0.619E-02
DAV:   2    -0.144634423067E+03   -0.20051E-04   -0.49536E-04  4296   0.800E-02    0.603E-02
DAV:   3    -0.144634484678E+03   -0.61611E-04   -0.27525E-04  4456   0.838E-02    0.152E-01
DAV:   4    -0.144634417872E+03    0.66806E-04   -0.16459E-04  3944   0.657E-02    0.196E-02
DAV:   5    -0.144634422059E+03   -0.41872E-05   -0.64876E-06  2648   0.993E-03    0.172E-02
DAV:   6    -0.144634409084E+03    0.12975E-04   -0.33574E-06  2328   0.933E-03    0.136E-02
DAV:   7    -0.144634389269E+03    0.19815E-04   -0.69022E-06  3312   0.650E-03    0.127E-02
DAV:   8    -0.144634391236E+03   -0.19670E-05   -0.17944E-06  2056   0.624E-03    0.347E-03
DAV:   9    -0.144634401564E+03   -0.10329E-04   -0.65913E-07  2016   0.500E-03    0.600E-03
DAV:  10    -0.144634418964E+03   -0.17399E-04   -0.41772E-07  2176   0.286E-03    0.217E-03
DAV:  11    -0.144634430532E+03   -0.11569E-04   -0.30984E-07  2120   0.172E-03    0.206E-03
DAV:  12    -0.144634435631E+03   -0.50984E-05   -0.13706E-07  2000   0.142E-03    0.868E-04
DAV:  13    -0.144634439720E+03   -0.40894E-05   -0.71354E-08  2008   0.103E-03    0.855E-04
DAV:  14    -0.144634446545E+03   -0.68246E-05   -0.68671E-08  2120   0.970E-04    0.643E-04
DAV:  15    -0.144634454805E+03   -0.82597E-05   -0.10450E-07  2144   0.709E-04    0.584E-04
DAV:  16    -0.144634461360E+03   -0.65555E-05   -0.86015E-08  2152   0.707E-04    0.315E-04
DAV:  17    -0.144634465032E+03   -0.36724E-05   -0.54416E-08  1984   0.644E-04    0.327E-04
DAV:  18    -0.144634468799E+03   -0.37668E-05   -0.59879E-08  2112   0.541E-04    0.222E-04
DAV:  19    -0.144634472062E+03   -0.32626E-05   -0.58479E-08  2112   0.591E-04    0.272E-04
DAV:  20    -0.144634474217E+03   -0.21552E-05   -0.57443E-08  2112   0.551E-04    0.185E-04
DAV:  21    -0.144634474703E+03   -0.48620E-06   -0.29589E-08  1992   0.518E-04
  15 F= -.15072104E+03 E0= -.15072104E+03  d E =-.189677E-02  mag=    24.0000
       N       E                     dE             d eps       ncg     rms          rms(c)
DAV:   1    -0.144637157235E+03   -0.26830E-02   -0.30345E-02  3184   0.359E-01    0.128E-01
DAV:   2    -0.144637310372E+03   -0.15314E-03   -0.20112E-03  4280   0.159E-01    0.106E-01
DAV:   3    -0.144637546446E+03   -0.23607E-03   -0.93187E-04  4512   0.156E-01    0.289E-01
DAV:   4    -0.144637323304E+03    0.22314E-03   -0.60310E-04  4168   0.126E-01    0.389E-02
DAV:   5    -0.144637338340E+03   -0.15036E-04   -0.27239E-05  4120   0.219E-02    0.320E-02
DAV:   6    -0.144637308884E+03    0.29456E-04   -0.81991E-06  2568   0.147E-02    0.236E-02
DAV:   7    -0.144637256209E+03    0.52675E-04   -0.15488E-05  4096   0.104E-02    0.133E-02
DAV:   8    -0.144637254792E+03    0.14165E-05   -0.23145E-06  2160   0.725E-03    0.710E-03
DAV:   9    -0.144637274012E+03   -0.19219E-04   -0.14030E-06  2168   0.650E-03    0.687E-03
DAV:  10    -0.144637307835E+03   -0.33823E-04   -0.78206E-07  2184   0.322E-03    0.492E-03
DAV:  11    -0.144637321785E+03   -0.13950E-04   -0.41949E-07  2080   0.249E-03    0.384E-03
DAV:  12    -0.144637337191E+03   -0.15406E-04   -0.25393E-07  2200   0.243E-03    0.225E-03
DAV:  13    -0.144637352026E+03   -0.14835E-04   -0.24379E-07  2128   0.185E-03    0.132E-03
DAV:  14    -0.144637370545E+03   -0.18519E-04   -0.29295E-07  2168   0.147E-03    0.106E-03
DAV:  15    -0.144637381464E+03   -0.10919E-04   -0.17245E-07  2160   0.124E-03    0.489E-04
DAV:  16    -0.144637392450E+03   -0.10985E-04   -0.16203E-07  2208   0.102E-03    0.807E-04
DAV:  17    -0.144637401522E+03   -0.90726E-05   -0.14415E-07  2144   0.991E-04    0.387E-04
DAV:  18    -0.144637408517E+03   -0.69949E-05   -0.13685E-07  2152   0.847E-04    0.555E-04
DAV:  19    -0.144637414444E+03   -0.59266E-05   -0.13195E-07  2208   0.894E-04    0.362E-04
DAV:  20    -0.144637417200E+03   -0.27556E-05   -0.97152E-08  2088   0.803E-04    0.329E-04
DAV:  21    -0.144637418583E+03   -0.13839E-05   -0.67574E-08  2048   0.670E-04    0.266E-04
DAV:  22    -0.144637419483E+03   -0.89975E-06   -0.49284E-08  2072   0.559E-04
  16 F= -.15072370E+03 E0= -.15072369E+03  d E =-.454854E-02  mag=    24.0000
       N       E                     dE             d eps       ncg     rms          rms(c)
DAV:   1    -0.144641658010E+03   -0.42394E-02   -0.12138E-01  3160   0.719E-01    0.256E-01
DAV:   2    -0.144642418639E+03   -0.76063E-03   -0.80665E-03  4288   0.319E-01    0.212E-01
DAV:   3    -0.144643262955E+03   -0.84432E-03   -0.36691E-03  4496   0.310E-01    0.571E-01
DAV:   4    -0.144642429611E+03    0.83334E-03   -0.23380E-03  4296   0.252E-01    0.778E-02
DAV:   5    -0.144642471846E+03   -0.42235E-04   -0.11158E-04  4320   0.435E-02    0.637E-02
DAV:   6    -0.144642389519E+03    0.82328E-04   -0.39135E-05  4688   0.290E-02    0.458E-02
DAV:   7    -0.144642256961E+03    0.13256E-03   -0.28937E-05  4296   0.166E-02    0.226E-02
DAV:   8    -0.144642266383E+03   -0.94212E-05   -0.96022E-06  3304   0.127E-02    0.142E-02
DAV:   9    -0.144642321286E+03   -0.54903E-04   -0.56419E-06  2392   0.121E-02    0.142E-02
DAV:  10    -0.144642410686E+03   -0.89400E-04   -0.23513E-06  2480   0.512E-03    0.870E-03
DAV:  11    -0.144642464182E+03   -0.53497E-04   -0.86053E-07  2312   0.430E-03    0.437E-03
DAV:  12    -0.144642508917E+03   -0.44735E-04   -0.72040E-07  2264   0.335E-03    0.200E-03
DAV:  13    -0.144642548368E+03   -0.39451E-04   -0.60281E-07  2264   0.226E-03    0.197E-03
DAV:  14    -0.144642585238E+03   -0.36870E-04   -0.46217E-07  2256   0.210E-03    0.135E-03
DAV:  15    -0.144642637112E+03   -0.51874E-04   -0.81662E-07  2344   0.214E-03    0.148E-03
DAV:  16    -0.144642665946E+03   -0.28834E-04   -0.47692E-07  2312   0.232E-03    0.964E-04
DAV:  17    -0.144642683558E+03   -0.17612E-04   -0.43349E-07  2208   0.159E-03    0.104E-03
DAV:  18    -0.144642693990E+03   -0.10432E-04   -0.28166E-07  2168   0.144E-03    0.476E-04
DAV:  19    -0.144642704847E+03   -0.10857E-04   -0.29452E-07  2224   0.118E-03    0.667E-04
DAV:  20    -0.144642712348E+03   -0.75007E-05   -0.25933E-07  2256   0.131E-03    0.431E-04
DAV:  21    -0.144642714617E+03   -0.22690E-05   -0.16284E-07  2168   0.106E-03    0.278E-04
DAV:  22    -0.144642715677E+03   -0.10596E-05   -0.10178E-07  1968   0.854E-04    0.150E-04
DAV:  23    -0.144642715961E+03   -0.28466E-06   -0.55021E-08  1960   0.647E-04
  17 F= -.15072832E+03 E0= -.15072832E+03  d E =-.917745E-02  mag=    24.0000
       N       E                     dE             d eps       ncg     rms          rms(c)
DAV:   1    -0.144646684742E+03   -0.39691E-02   -0.48550E-01  3072   0.144E+00    0.510E-01
DAV:   2    -0.144650075696E+03   -0.33910E-02   -0.32378E-02  4288   0.643E-01    0.426E-01
DAV:   3    -0.144653213346E+03   -0.31377E-02   -0.14266E-02  4528   0.616E-01    0.112E+00
DAV:   4    -0.144650003860E+03    0.32095E-02   -0.88207E-03  4296   0.505E-01    0.155E-01
DAV:   5    -0.144650216276E+03   -0.21242E-03   -0.42108E-04  4376   0.851E-02    0.126E-01
DAV:   6    -0.144649990983E+03    0.22529E-03   -0.15241E-04  4896   0.577E-02    0.909E-02
DAV:   7    -0.144649678772E+03    0.31221E-03   -0.11356E-04  4288   0.329E-02    0.442E-02
DAV:   8    -0.144649728383E+03   -0.49611E-04   -0.40698E-05  4552   0.251E-02    0.284E-02
DAV:   9    -0.144649874937E+03   -0.14655E-03   -0.21047E-05  4024   0.211E-02    0.263E-02
DAV:  10    -0.144650093343E+03   -0.21841E-03   -0.43234E-06  2704   0.790E-03    0.124E-02
DAV:  11    -0.144650299442E+03   -0.20610E-03   -0.32632E-06  2872   0.730E-03    0.733E-03
DAV:  12    -0.144650440439E+03   -0.14100E-03   -0.19166E-06  2456   0.613E-03    0.304E-03
DAV:  13    -0.144650539679E+03   -0.99240E-04   -0.13987E-06  2376   0.406E-03    0.250E-03
DAV:  14    -0.144650652317E+03   -0.11264E-03   -0.16861E-06  2520   0.319E-03    0.220E-03
DAV:  15    -0.144650776630E+03   -0.12431E-03   -0.17738E-06  2600   0.295E-03    0.159E-03
DAV:  16    -0.144650845592E+03   -0.68962E-04   -0.84560E-07  2384   0.308E-03    0.162E-03
DAV:  17    -0.144650892223E+03   -0.46631E-04   -0.94990E-07  2344   0.238E-03    0.115E-03
DAV:  18    -0.144650906784E+03   -0.14561E-04   -0.44051E-07  2312   0.183E-03    0.779E-04
DAV:  19    -0.144650918607E+03   -0.11823E-04   -0.30809E-07  2208   0.144E-03    0.513E-04
DAV:  20    -0.144650933639E+03   -0.15032E-04   -0.46304E-07  2248   0.144E-03    0.589E-04
DAV:  21    -0.144650937701E+03   -0.40613E-05   -0.25067E-07  2304   0.152E-03    0.392E-04
DAV:  22    -0.144650939040E+03   -0.13394E-05   -0.15723E-07  1984   0.100E-03    0.234E-04
DAV:  23    -0.144650939627E+03   -0.58712E-06   -0.90031E-08  1976   0.862E-04
  18 F= -.15073494E+03 E0= -.15073494E+03  d E =-.157934E-01  mag=    24.0000
       N       E                     dE             d eps       ncg     rms          rms(c)
DAV:   1    -0.144640849162E+03    0.10090E-01   -0.19416E+00  3040   0.288E+00    0.102E+00
DAV:   2    -0.144655365986E+03   -0.14517E-01   -0.13062E-01  4296   0.131E+00    0.860E-01
DAV:   3    -0.144666953274E+03   -0.11587E-01   -0.54019E-02  4576   0.121E+00    0.213E+00
DAV:   4    -0.144655164114E+03    0.11789E-01   -0.31586E-02  4232   0.101E+00    0.313E-01
DAV:   5    -0.144655856171E+03   -0.69206E-03   -0.16831E-03  4360   0.167E-01    0.247E-01
DAV:   6    -0.144655237200E+03    0.61897E-03   -0.59704E-04  4928   0.117E-01    0.180E-01
DAV:   7    -0.144654469782E+03    0.76742E-03   -0.44769E-04  4288   0.668E-02    0.848E-02
DAV:   8    -0.144654673849E+03   -0.20407E-03   -0.15210E-04  4552   0.492E-02    0.553E-02
DAV:   9    -0.144655099453E+03   -0.42560E-03   -0.79315E-05  4384   0.416E-02    0.518E-02
DAV:  10    -0.144655702653E+03   -0.60320E-03   -0.17799E-05  3968   0.157E-02    0.220E-02
DAV:  11    -0.144656239874E+03   -0.53722E-03   -0.82046E-06  3560   0.133E-02    0.137E-02
DAV:  12    -0.144656656659E+03   -0.41679E-03   -0.60034E-06  3200   0.104E-02    0.550E-03
DAV:  13    -0.144657022826E+03   -0.36617E-03   -0.45687E-06  3136   0.677E-03    0.425E-03
DAV:  14    -0.144657397396E+03   -0.37457E-03   -0.45800E-06  3016   0.463E-03    0.366E-03
DAV:  15    -0.144657654384E+03   -0.25699E-03   -0.30861E-06  2824   0.389E-03    0.213E-03
DAV:  16    -0.144657843537E+03   -0.18915E-03   -0.30148E-06  2864   0.326E-03    0.133E-03
DAV:  17    -0.144657922135E+03   -0.78598E-04   -0.10657E-06  2464   0.211E-03    0.945E-04
DAV:  18    -0.144657955280E+03   -0.33145E-04   -0.59434E-07  2280   0.207E-03    0.872E-04
DAV:  19    -0.144657968356E+03   -0.13076E-04   -0.42800E-07  2288   0.181E-03    0.550E-04
DAV:  20    -0.144657976344E+03   -0.79883E-05   -0.35285E-07  2216   0.159E-03    0.552E-04
DAV:  21    -0.144657979689E+03   -0.33444E-05   -0.23150E-07  2088   0.135E-03    0.290E-04
DAV:  22    -0.144657982677E+03   -0.29884E-05   -0.21156E-07  2200   0.110E-03    0.427E-04
DAV:  23    -0.144657983575E+03   -0.89775E-06   -0.12580E-07  2016   0.109E-03
  19 F= -.15073801E+03 E0= -.15073801E+03  d E =-.188678E-01  mag=    24.0000
       N       E                     dE             d eps       ncg     rms          rms(c)
DAV:   1    -0.144656173237E+03    0.18094E-02   -0.13335E-01  3168   0.753E-01    0.269E-01
DAV:   2    -0.144657002271E+03   -0.82903E-03   -0.87258E-03  4208   0.327E-01    0.216E-01
DAV:   3    -0.144657938925E+03   -0.93665E-03   -0.40862E-03  4528   0.325E-01    0.606E-01
DAV:   4    -0.144657008365E+03    0.93056E-03   -0.27631E-03  4320   0.261E-01    0.821E-02
DAV:   5    -0.144657081639E+03   -0.73275E-04   -0.11604E-04  4392   0.473E-02    0.674E-02
DAV:   6    -0.144656999527E+03    0.82112E-04   -0.39099E-05  4752   0.288E-02    0.462E-02
DAV:   7    -0.144656861679E+03    0.13785E-03   -0.30879E-05  4200   0.162E-02    0.264E-02
DAV:   8    -0.144656867160E+03   -0.54810E-05   -0.12332E-05  3456   0.142E-02    0.151E-02
DAV:   9    -0.144656926012E+03   -0.58853E-04   -0.64261E-06  2416   0.130E-02    0.149E-02
DAV:  10    -0.144657019878E+03   -0.93866E-04   -0.26185E-06  2552   0.549E-03    0.950E-03
DAV:  11    -0.144657075121E+03   -0.55243E-04   -0.95669E-07  2256   0.452E-03    0.445E-03
DAV:  12    -0.144657125126E+03   -0.50004E-04   -0.80185E-07  2224   0.350E-03    0.211E-03
DAV:  13    -0.144657160062E+03   -0.34937E-04   -0.54171E-07  2144   0.233E-03    0.190E-03
DAV:  14    -0.144657197713E+03   -0.37650E-04   -0.43340E-07  2144   0.192E-03    0.143E-03
DAV:  15    -0.144657257057E+03   -0.59345E-04   -0.90380E-07  2304   0.206E-03    0.157E-03
DAV:  16    -0.144657286827E+03   -0.29770E-04   -0.48296E-07  2296   0.209E-03    0.860E-04
DAV:  17    -0.144657306727E+03   -0.19900E-04   -0.43235E-07  2128   0.141E-03    0.780E-04
DAV:  18    -0.144657314555E+03   -0.78284E-05   -0.21150E-07  1952   0.142E-03    0.452E-04
DAV:  19    -0.144657328222E+03   -0.13667E-04   -0.31211E-07  2208   0.104E-03    0.553E-04
DAV:  20    -0.144657338699E+03   -0.10477E-04   -0.28640E-07  2240   0.132E-03    0.437E-04
DAV:  21    -0.144657340814E+03   -0.21145E-05   -0.14781E-07  1944   0.109E-03    0.267E-04
DAV:  22    -0.144657342398E+03   -0.15847E-05   -0.11000E-07  1984   0.803E-04    0.195E-04
DAV:  23    -0.144657342970E+03   -0.57177E-06   -0.63755E-08  1936   0.708E-04
  20 F= -.15073849E+03 E0= -.15073848E+03  d E =-.193396E-01  mag=    24.0000
       N       E                     dE             d eps       ncg     rms          rms(c)
DAV:   1    -0.144658403293E+03   -0.10609E-02   -0.16426E-02  3200   0.248E-01    0.873E-02
DAV:   2    -0.144658531342E+03   -0.12805E-03   -0.11689E-03  4648   0.130E-01    0.178E-01
DAV:   3    -0.144658526941E+03    0.44011E-05   -0.84151E-04  4120   0.152E-01    0.174E-01
DAV:   4    -0.144658470463E+03    0.56478E-04   -0.20366E-04  4000   0.783E-02    0.298E-02
DAV:   5    -0.144658485477E+03   -0.15014E-04   -0.95862E-06  3536   0.169E-02    0.261E-02
DAV:   6    -0.144658480693E+03    0.47838E-05   -0.36798E-06  2512   0.592E-03    0.204E-02
DAV:   7    -0.144658474513E+03    0.61797E-05   -0.55256E-06  3224   0.125E-02    0.106E-02
DAV:   8    -0.144658474192E+03    0.32090E-06   -0.21781E-06  2312   0.116E-02
  21 F= -.15073904E+03 E0= -.15073903E+03  d E =-.550995E-03  mag=    24.0000
       N       E                     dE             d eps       ncg     rms          rms(c)
DAV:   1    -0.144660666541E+03   -0.21920E-02   -0.14757E-01  3040   0.745E-01    0.262E-01
DAV:   2    -0.144661936088E+03   -0.12695E-02   -0.10403E-02  4568   0.387E-01    0.517E-01
DAV:   3    -0.144661928567E+03    0.75215E-05   -0.74348E-03  4176   0.458E-01    0.536E-01
DAV:   4    -0.144661356682E+03    0.57189E-03   -0.19481E-03  4248   0.238E-01    0.865E-02
DAV:   5    -0.144661444521E+03   -0.87839E-04   -0.95004E-05  4432   0.459E-02    0.793E-02
DAV:   6    -0.144661415012E+03    0.29508E-04   -0.20010E-05  4392   0.165E-02    0.555E-02
DAV:   7    -0.144661390211E+03    0.24802E-04   -0.32743E-05  4552   0.292E-02    0.179E-02
DAV:   8    -0.144661404525E+03   -0.14314E-04   -0.89878E-06  3632   0.231E-02    0.120E-02
DAV:   9    -0.144661422686E+03   -0.18162E-04   -0.35749E-06  2472   0.109E-02    0.991E-03
DAV:  10    -0.144661443118E+03   -0.20432E-04   -0.12304E-06  2032   0.603E-03    0.335E-03
DAV:  11    -0.144661471515E+03   -0.28397E-04   -0.84367E-07  2240   0.262E-03    0.321E-03
DAV:  12    -0.144661481562E+03   -0.10047E-04   -0.28105E-07  1944   0.227E-03    0.222E-03
DAV:  13    -0.144661492668E+03   -0.11106E-04   -0.20489E-07  1984   0.161E-03    0.146E-03
DAV:  14    -0.144661505016E+03   -0.12348E-04   -0.20797E-07  2056   0.154E-03    0.109E-03
DAV:  15    -0.144661515157E+03   -0.10141E-04   -0.17508E-07  2000   0.140E-03    0.870E-04
DAV:  16    -0.144661524866E+03   -0.97087E-05   -0.19772E-07  2056   0.106E-03    0.586E-04
DAV:  17    -0.144661529661E+03   -0.47958E-05   -0.10496E-07  1936   0.109E-03    0.500E-04
DAV:  18    -0.144661532100E+03   -0.24385E-05   -0.67939E-08  1904   0.697E-04    0.308E-04
DAV:  19    -0.144661538139E+03   -0.60395E-05   -0.11597E-07  2144   0.638E-04    0.404E-04
DAV:  20    -0.144661543594E+03   -0.54549E-05   -0.14993E-07  2152   0.791E-04    0.215E-04
DAV:  21    -0.144661544437E+03   -0.84308E-06   -0.65275E-08  1952   0.781E-04
  22 F= -.15073983E+03 E0= -.15073983E+03  d E =-.134686E-02  mag=    24.0000
       N       E                     dE             d eps       ncg     rms          rms(c)
DAV:   1    -0.144661957893E+03   -0.41430E-03   -0.86883E-03  3200   0.187E-01    0.652E-02
DAV:   2    -0.144662039023E+03   -0.81130E-04   -0.71475E-04  4592   0.106E-01    0.139E-01
DAV:   3    -0.144662039713E+03   -0.69002E-06   -0.50725E-04  4296   0.116E-01    0.136E-01
DAV:   4    -0.144662004033E+03    0.35681E-04   -0.11014E-04  4032   0.571E-02    0.193E-02
DAV:   5    -0.144662013740E+03   -0.97071E-05   -0.58595E-06  2648   0.915E-03    0.183E-02
DAV:   6    -0.144662013690E+03    0.50171E-07   -0.24899E-06  2176   0.742E-03
  23 F= -.15074021E+03 E0= -.15074020E+03  d E =-.375730E-03  mag=    24.0000
       N       E                     dE             d eps       ncg     rms          rms(c)
DAV:   1    -0.144662726910E+03   -0.71317E-03   -0.77555E-02  3112   0.558E-01    0.193E-01
DAV:   2    -0.144663578088E+03   -0.85118E-03   -0.64957E-03  4648   0.321E-01    0.436E-01
DAV:   3    -0.144663462631E+03    0.11546E-03   -0.44506E-03  4344   0.347E-01    0.380E-01
DAV:   4    -0.144663207968E+03    0.25466E-03   -0.87949E-04  4432   0.160E-01    0.571E-02
DAV:   5    -0.144663250448E+03   -0.42480E-04   -0.54527E-05  4432   0.239E-02    0.549E-02
DAV:   6    -0.144663244795E+03    0.56529E-05   -0.15049E-05  4040   0.186E-02    0.300E-02
DAV:   7    -0.144663241641E+03    0.31543E-05   -0.10733E-05  4104   0.104E-02    0.838E-03
DAV:   8    -0.144663246323E+03   -0.46823E-05   -0.11305E-06  2200   0.737E-03    0.425E-03
DAV:   9    -0.144663251257E+03   -0.49334E-05   -0.68445E-07  1904   0.477E-03    0.501E-03
DAV:  10    -0.144663256840E+03   -0.55829E-05   -0.43721E-07  1848   0.333E-03    0.282E-03
DAV:  11    -0.144663263589E+03   -0.67496E-05   -0.24080E-07  1888   0.269E-03    0.257E-03
DAV:  12    -0.144663267709E+03   -0.41204E-05   -0.13680E-07  1944   0.194E-03    0.147E-03
DAV:  13    -0.144663271760E+03   -0.40503E-05   -0.10977E-07  1952   0.121E-03    0.172E-03
DAV:  14    -0.144663277429E+03   -0.56692E-05   -0.12647E-07  2024   0.107E-03    0.871E-04
DAV:  15    -0.144663280677E+03   -0.32480E-05   -0.96826E-08  1936   0.114E-03    0.745E-04
DAV:  16    -0.144663282219E+03   -0.15423E-05   -0.55238E-08  1912   0.895E-04    0.235E-04
DAV:  17    -0.144663283362E+03   -0.11427E-05   -0.43320E-08  1912   0.498E-04    0.391E-04
DAV:  18    -0.144663283813E+03   -0.45038E-06   -0.18558E-08  1936   0.396E-04
  24 F= -.15074111E+03 E0= -.15074111E+03  d E =-.127895E-02  mag=    24.0000
       N       E                     dE             d eps       ncg     rms          rms(c)
DAV:   1    -0.144662855470E+03    0.42789E-03   -0.31281E-01  3048   0.112E+00    0.390E-01
DAV:   2    -0.144666247830E+03   -0.33924E-02   -0.25718E-02  4632   0.636E-01    0.818E-01
DAV:   3    -0.144666219705E+03    0.28125E-04   -0.17779E-02  4344   0.701E-01    0.820E-01
DAV:   4    -0.144664858709E+03    0.13610E-02   -0.42279E-03  4424   0.342E-01    0.112E-01
DAV:   5    -0.144665051384E+03   -0.19267E-03   -0.24335E-04  4424   0.456E-02    0.111E-01
DAV:   6    -0.144665034441E+03    0.16943E-04   -0.83566E-05  4680   0.431E-02    0.615E-02
DAV:   7    -0.144665023394E+03    0.11047E-04   -0.51041E-05  4672   0.298E-02    0.252E-02
DAV:   8    -0.144665031619E+03   -0.82250E-05   -0.12268E-05  3992   0.234E-02    0.113E-02
DAV:   9    -0.144665041751E+03   -0.10132E-04   -0.23118E-06  2184   0.990E-03    0.108E-02
DAV:  10    -0.144665055324E+03   -0.13573E-04   -0.15769E-06  1960   0.606E-03    0.540E-03
DAV:  11    -0.144665072705E+03   -0.17381E-04   -0.72716E-07  2152   0.370E-03    0.326E-03
DAV:  12    -0.144665084634E+03   -0.11929E-04   -0.42101E-07  1952   0.280E-03    0.194E-03
DAV:  13    -0.144665093340E+03   -0.87054E-05   -0.29079E-07  2048   0.281E-03    0.202E-03
DAV:  14    -0.144665098602E+03   -0.52620E-05   -0.19485E-07  1976   0.162E-03    0.116E-03
DAV:  15    -0.144665105789E+03   -0.71871E-05   -0.17851E-07  1936   0.135E-03    0.108E-03
DAV:  16    -0.144665111113E+03   -0.53236E-05   -0.11706E-07  1912   0.141E-03    0.663E-04
DAV:  17    -0.144665115941E+03   -0.48279E-05   -0.12551E-07  2008   0.903E-04    0.732E-04
DAV:  18    -0.144665117375E+03   -0.14347E-05   -0.61142E-08  1952   0.780E-04    0.261E-04
DAV:  19    -0.144665119356E+03   -0.19812E-05   -0.46558E-08  1856   0.502E-04    0.455E-04
DAV:  20    -0.144665122267E+03   -0.29106E-05   -0.55154E-08  2008   0.592E-04    0.298E-04
DAV:  21    -0.144665125376E+03   -0.31092E-05   -0.96999E-08  2080   0.584E-04    0.361E-04
DAV:  22    -0.144665126215E+03   -0.83933E-06   -0.51159E-08  1928   0.636E-04
  25 F= -.15074191E+03 E0= -.15074191E+03  d E =-.208034E-02  mag=    24.0000
       N       E                     dE             d eps       ncg     rms          rms(c)
DAV:   1    -0.144665268055E+03   -0.14268E-03   -0.63395E-03  3184   0.159E-01    0.557E-02
DAV:   2    -0.144665324820E+03   -0.56765E-04   -0.52025E-04  4680   0.901E-02    0.118E-01
DAV:   3    -0.144665326055E+03   -0.12351E-05   -0.37358E-04  4328   0.995E-02    0.116E-01
DAV:   4    -0.144665301073E+03    0.24982E-04   -0.81176E-05  3896   0.490E-02    0.164E-02
DAV:   5    -0.144665308299E+03   -0.72264E-05   -0.42692E-06  2528   0.782E-03    0.156E-02
DAV:   6    -0.144665308240E+03    0.59523E-07   -0.18226E-06  1984   0.664E-03
  26 F= -.15074192E+03 E0= -.15074192E+03  d E =-.208810E-02  mag=    24.0000
       N       E                     dE             d eps       ncg     rms          rms(c)
DAV:   1    -0.144665475876E+03   -0.16758E-03   -0.69262E-03  3208   0.160E-01    0.506E-02
DAV:   2    -0.144665524468E+03   -0.48592E-04   -0.42998E-04  4712   0.877E-02    0.137E-01
DAV:   3    -0.144665498092E+03    0.26376E-04   -0.30665E-04  4392   0.887E-02    0.740E-02
DAV:   4    -0.144665502544E+03   -0.44520E-05   -0.40897E-05  3472   0.337E-02    0.108E-02
DAV:   5    -0.144665500058E+03    0.24862E-05   -0.26066E-06  2312   0.566E-03    0.117E-02
DAV:   6    -0.144665491865E+03    0.81924E-05   -0.26980E-06  2256   0.926E-03    0.894E-03
DAV:   7    -0.144665487339E+03    0.45264E-05   -0.22326E-06  2200   0.654E-03    0.470E-03
DAV:   8    -0.144665489628E+03   -0.22886E-05   -0.10212E-06  1888   0.459E-03    0.340E-03
DAV:   9    -0.144665493807E+03   -0.41791E-05   -0.39820E-07  1904   0.299E-03    0.172E-03
DAV:  10    -0.144665499996E+03   -0.61898E-05   -0.19471E-07  1936   0.219E-03    0.173E-03
DAV:  11    -0.144665506301E+03   -0.63045E-05   -0.12393E-07  1968   0.176E-03    0.548E-04
DAV:  12    -0.144665509797E+03   -0.34966E-05   -0.10764E-07  1976   0.883E-04    0.712E-04
DAV:  13    -0.144665511894E+03   -0.20968E-05   -0.40311E-08  1904   0.958E-04    0.379E-04
DAV:  14    -0.144665512984E+03   -0.10897E-05   -0.20003E-08  1928   0.472E-04    0.423E-04
DAV:  15    -0.144665514741E+03   -0.17573E-05   -0.18629E-08  1888   0.376E-04    0.242E-04
DAV:  16    -0.144665517389E+03   -0.26481E-05   -0.22048E-08  1896   0.360E-04    0.270E-04
DAV:  17    -0.144665520351E+03   -0.29620E-05   -0.32024E-08  1968   0.440E-04    0.222E-04
DAV:  18    -0.144665522434E+03   -0.20828E-05   -0.32812E-08  1952   0.428E-04    0.213E-04
DAV:  19    -0.144665522987E+03   -0.55321E-06   -0.15699E-08  1960   0.397E-04
  27 F= -.15074218E+03 E0= -.15074217E+03  d E =-.254624E-03  mag=    24.0000
       N       E                     dE             d eps       ncg     rms          rms(c)
DAV:   1    -0.144665652895E+03   -0.13046E-03   -0.62831E-02  3088   0.483E-01    0.151E-01
DAV:   2    -0.144666106484E+03   -0.45359E-03   -0.35036E-03  4608   0.236E-01    0.335E-01
DAV:   3    -0.144666075402E+03    0.31082E-04   -0.26359E-03  4440   0.259E-01    0.285E-01
DAV:   4    -0.144665956576E+03    0.11883E-03   -0.57589E-04  4512   0.124E-01    0.332E-02
DAV:   5    -0.144665963877E+03   -0.73009E-05   -0.30198E-05  4264   0.150E-02    0.356E-02
DAV:   6    -0.144665929832E+03    0.34045E-04   -0.22441E-05  3472   0.254E-02    0.326E-02
DAV:   7    -0.144665907694E+03    0.22139E-04   -0.83686E-06  3464   0.182E-02    0.141E-02
DAV:   8    -0.144665910113E+03   -0.24197E-05   -0.42137E-06  2856   0.813E-03    0.484E-03
DAV:   9    -0.144665923303E+03   -0.13190E-04   -0.91367E-07  2016   0.456E-03    0.396E-03
DAV:  10    -0.144665944574E+03   -0.21271E-04   -0.47537E-07  2080   0.334E-03    0.317E-03
DAV:  11    -0.144665965636E+03   -0.21061E-04   -0.37574E-07  2008   0.193E-03    0.238E-03
DAV:  12    -0.144665982734E+03   -0.17099E-04   -0.21227E-07  2096   0.181E-03    0.159E-03
DAV:  13    -0.144665996312E+03   -0.13578E-04   -0.18901E-07  1968   0.142E-03    0.114E-03
DAV:  14    -0.144666005972E+03   -0.96594E-05   -0.13457E-07  1928   0.142E-03    0.969E-04
DAV:  15    -0.144666016547E+03   -0.10575E-04   -0.14050E-07  2008   0.128E-03    0.916E-04
DAV:  16    -0.144666029473E+03   -0.12926E-04   -0.18141E-07  2128   0.107E-03    0.645E-04
DAV:  17    -0.144666044533E+03   -0.15060E-04   -0.30829E-07  2216   0.120E-03    0.853E-04
DAV:  18    -0.144666047302E+03   -0.27688E-05   -0.10669E-07  1976   0.120E-03    0.326E-04
DAV:  19    -0.144666051087E+03   -0.37853E-05   -0.10036E-07  1880   0.655E-04    0.519E-04
DAV:  20    -0.144666053879E+03   -0.27914E-05   -0.67636E-08  1912   0.715E-04    0.258E-04
DAV:  21    -0.144666057283E+03   -0.34046E-05   -0.99577E-08  2144   0.549E-04    0.293E-04
DAV:  22    -0.144666058518E+03   -0.12351E-05   -0.58105E-08  1936   0.713E-04    0.159E-04
DAV:  23    -0.144666058850E+03   -0.33162E-06   -0.37490E-08  1920   0.419E-04
  28 F= -.15074283E+03 E0= -.15074282E+03  d E =-.906552E-03  mag=    24.0000
       N       E                     dE             d eps       ncg     rms          rms(c)
DAV:   1    -0.144665041387E+03    0.10171E-02   -0.25134E-01  3080   0.966E-01    0.302E-01
DAV:   2    -0.144667071421E+03   -0.20300E-02   -0.14207E-02  4608   0.476E-01    0.677E-01
DAV:   3    -0.144666873166E+03    0.19825E-03   -0.10592E-02  4424   0.522E-01    0.566E-01
DAV:   4    -0.144666351680E+03    0.52149E-03   -0.23402E-03  4544   0.244E-01    0.666E-02
DAV:   5    -0.144666386549E+03   -0.34869E-04   -0.11881E-04  4464   0.322E-02    0.722E-02
DAV:   6    -0.144666311194E+03    0.75355E-04   -0.83379E-05  4728   0.512E-02    0.596E-02
DAV:   7    -0.144666247880E+03    0.63314E-04   -0.28688E-05  4704   0.316E-02    0.319E-02
DAV:   8    -0.144666257563E+03   -0.96828E-05   -0.11204E-05  3576   0.138E-02    0.864E-03
DAV:   9    -0.144666302592E+03   -0.45029E-04   -0.25565E-06  2536   0.889E-03    0.734E-03
DAV:  10    -0.144666375618E+03   -0.73026E-04   -0.14648E-06  2256   0.671E-03    0.650E-03
DAV:  11    -0.144666425033E+03   -0.49415E-04   -0.12473E-06  2224   0.388E-03    0.446E-03
DAV:  12    -0.144666471495E+03   -0.46462E-04   -0.88793E-07  2136   0.386E-03    0.249E-03
DAV:  13    -0.144666500454E+03   -0.28959E-04   -0.55925E-07  2040   0.324E-03    0.217E-03
DAV:  14    -0.144666542435E+03   -0.41980E-04   -0.74007E-07  2296   0.208E-03    0.172E-03
DAV:  15    -0.144666583576E+03   -0.41141E-04   -0.74507E-07  2288   0.179E-03    0.116E-03
DAV:  16    -0.144666604551E+03   -0.20975E-04   -0.35208E-07  2064   0.192E-03    0.899E-04
DAV:  17    -0.144666617869E+03   -0.13318E-04   -0.27941E-07  2032   0.134E-03    0.688E-04
DAV:  18    -0.144666631824E+03   -0.13955E-04   -0.27054E-07  2184   0.123E-03    0.569E-04
DAV:  19    -0.144666645566E+03   -0.13742E-04   -0.34168E-07  2208   0.122E-03    0.493E-04
DAV:  20    -0.144666653017E+03   -0.74511E-05   -0.26719E-07  2144   0.127E-03    0.372E-04
DAV:  21    -0.144666655763E+03   -0.27466E-05   -0.18050E-07  2000   0.108E-03    0.277E-04
DAV:  22    -0.144666656118E+03   -0.35449E-06   -0.89034E-08  1992   0.879E-04
  29 F= -.15074364E+03 E0= -.15074364E+03  d E =-.171915E-02  mag=    24.0000
       N       E                     dE             d eps       ncg     rms          rms(c)
DAV:   1    -0.144659500755E+03    0.71550E-02   -0.10055E+00  3048   0.193E+00    0.605E-01
DAV:   2    -0.144668289631E+03   -0.87889E-02   -0.58296E-02  4624   0.968E-01    0.138E+00
DAV:   3    -0.144666900378E+03    0.13893E-02   -0.42785E-02  4416   0.106E+00    0.113E+00
DAV:   4    -0.144665025996E+03    0.18744E-02   -0.96928E-03  4608   0.479E-01    0.136E-01
DAV:   5    -0.144665174884E+03   -0.14889E-03   -0.47912E-04  4704   0.793E-02    0.149E-01
DAV:   6    -0.144664995657E+03    0.17923E-03   -0.22533E-04  4888   0.898E-02    0.926E-02
DAV:   7    -0.144664830136E+03    0.16552E-03   -0.12377E-04  4432   0.484E-02    0.656E-02
DAV:   8    -0.144664889971E+03   -0.59835E-04   -0.51322E-05  4448   0.294E-02    0.175E-02
DAV:   9    -0.144665022804E+03   -0.13283E-03   -0.10335E-05  4192   0.154E-02    0.149E-02
DAV:  10    -0.144665195767E+03   -0.17296E-03   -0.21628E-06  2408   0.826E-03    0.110E-02
DAV:  11    -0.144665360565E+03   -0.16480E-03   -0.38079E-06  2872   0.594E-03    0.496E-03
DAV:  12    -0.144665506127E+03   -0.14556E-03   -0.18673E-06  2368   0.374E-03    0.306E-03
DAV:  13    -0.144665611733E+03   -0.10561E-03   -0.11335E-06  2368   0.401E-03    0.261E-03
DAV:  14    -0.144665719275E+03   -0.10754E-03   -0.15041E-06  2368   0.349E-03    0.232E-03
DAV:  15    -0.144665792017E+03   -0.72742E-04   -0.11806E-06  2344   0.273E-03    0.161E-03
DAV:  16    -0.144665830120E+03   -0.38102E-04   -0.57576E-07  2136   0.207E-03    0.119E-03
DAV:  17    -0.144665877145E+03   -0.47025E-04   -0.75987E-07  2328   0.203E-03    0.128E-03
DAV:  18    -0.144665922463E+03   -0.45318E-04   -0.95994E-07  2352   0.198E-03    0.102E-03
DAV:  19    -0.144665948093E+03   -0.25631E-04   -0.70166E-07  2312   0.222E-03    0.110E-03
DAV:  20    -0.144665959163E+03   -0.11069E-04   -0.47011E-07  2216   0.190E-03    0.623E-04
DAV:  21    -0.144665963458E+03   -0.42952E-05   -0.30410E-07  2000   0.145E-03    0.594E-04
DAV:  22    -0.144665965359E+03   -0.19011E-05   -0.20084E-07  2048   0.120E-03    0.360E-04
DAV:  23    -0.144665966108E+03   -0.74932E-06   -0.12972E-07  2024   0.987E-04
  30 F= -.15074331E+03 E0= -.15074330E+03  d E =-.138541E-02  mag=    24.0000
       N       E                     dE             d eps       ncg     rms          rms(c)
DAV:   1    -0.144664172182E+03    0.17932E-02   -0.39495E-01  3080   0.121E+00    0.377E-01
DAV:   2    -0.144667297932E+03   -0.31257E-02   -0.21882E-02  4608   0.585E-01    0.841E-01
DAV:   3    -0.144667161547E+03    0.13638E-03   -0.17683E-02  4488   0.643E-01    0.713E-01
DAV:   4    -0.144666310476E+03    0.85107E-03   -0.35379E-03  4496   0.317E-01    0.852E-02
DAV:   5    -0.144666346844E+03   -0.36368E-04   -0.18354E-04  4296   0.403E-02    0.844E-02
DAV:   6    -0.144666228736E+03    0.11811E-03   -0.77828E-05  4768   0.400E-02    0.503E-02
DAV:   7    -0.144666140440E+03    0.88297E-04   -0.41524E-05  4368   0.249E-02    0.184E-02
DAV:   8    -0.144666180107E+03   -0.39667E-04   -0.95857E-06  3904   0.224E-02    0.189E-02
DAV:   9    -0.144666236472E+03   -0.56365E-04   -0.50083E-06  2528   0.118E-02    0.945E-03
DAV:  10    -0.144666332028E+03   -0.95556E-04   -0.26182E-06  2400   0.703E-03    0.602E-03
DAV:  11    -0.144666416243E+03   -0.84215E-04   -0.14252E-06  2400   0.461E-03    0.294E-03
DAV:  12    -0.144666459179E+03   -0.42936E-04   -0.64394E-07  2304   0.318E-03    0.262E-03
DAV:  13    -0.144666517904E+03   -0.58724E-04   -0.78717E-07  2272   0.314E-03    0.239E-03
DAV:  14    -0.144666560440E+03   -0.42537E-04   -0.70117E-07  2312   0.207E-03    0.171E-03
DAV:  15    -0.144666605333E+03   -0.44893E-04   -0.60017E-07  2272   0.212E-03    0.136E-03
DAV:  16    -0.144666636811E+03   -0.31478E-04   -0.51736E-07  2288   0.207E-03    0.967E-04
DAV:  17    -0.144666654628E+03   -0.17817E-04   -0.40533E-07  2184   0.162E-03    0.827E-04
DAV:  18    -0.144666668139E+03   -0.13511E-04   -0.30524E-07  2200   0.151E-03    0.782E-04
DAV:  19    -0.144666677096E+03   -0.89570E-05   -0.23024E-07  2080   0.127E-03    0.601E-04
DAV:  20    -0.144666688458E+03   -0.11362E-04   -0.32053E-07  2216   0.125E-03    0.648E-04
DAV:  21    -0.144666693194E+03   -0.47364E-05   -0.21749E-07  2248   0.139E-03    0.400E-04
DAV:  22    -0.144666694531E+03   -0.13369E-05   -0.14336E-07  1992   0.953E-04    0.313E-04
DAV:  23    -0.144666695065E+03   -0.53325E-06   -0.82612E-08  1936   0.806E-04
  31 F= -.15074382E+03 E0= -.15074382E+03  d E =-.190324E-02  mag=    24.0000
       N       E                     dE             d eps       ncg     rms          rms(c)
DAV:   1    -0.144666446071E+03    0.24846E-03   -0.17528E-02  3200   0.262E-01    0.828E-02
DAV:   2    -0.144666590214E+03   -0.14414E-03   -0.11225E-03  4568   0.134E-01    0.152E-01
DAV:   3    -0.144666639593E+03   -0.49379E-04   -0.81137E-04  4520   0.141E-01    0.194E-01
DAV:   4    -0.144666554279E+03    0.85314E-04   -0.25465E-04  4144   0.807E-02    0.215E-02
DAV:   5    -0.144666571597E+03   -0.17318E-04   -0.11837E-05  3648   0.139E-02    0.181E-02
DAV:   6    -0.144666574297E+03   -0.27000E-05   -0.46989E-06  2464   0.116E-02    0.151E-02
DAV:   7    -0.144666574629E+03   -0.33237E-06   -0.47894E-06  2960   0.547E-03
  32 F= -.15074415E+03 E0= -.15074415E+03  d E =-.322836E-03  mag=    24.0000
       N       E                     dE             d eps       ncg     rms          rms(c)
DAV:   1    -0.144664922252E+03    0.16520E-02   -0.15767E-01  3136   0.786E-01    0.248E-01
DAV:   2    -0.144666299875E+03   -0.13776E-02   -0.10012E-02  4520   0.397E-01    0.441E-01
DAV:   3    -0.144666762029E+03   -0.46215E-03   -0.73332E-03  4504   0.421E-01    0.601E-01
DAV:   4    -0.144665946931E+03    0.81510E-03   -0.25148E-03  4304   0.246E-01    0.673E-02
DAV:   5    -0.144666081274E+03   -0.13434E-03   -0.11999E-04  4696   0.483E-02    0.543E-02
DAV:   6    -0.144666094429E+03   -0.13155E-04   -0.34093E-05  4488   0.278E-02    0.403E-02
DAV:   7    -0.144666097514E+03   -0.30846E-05   -0.19125E-05  3712   0.109E-02    0.267E-02
DAV:   8    -0.144666096472E+03    0.10414E-05   -0.13517E-05  3152   0.151E-02    0.136E-02
DAV:   9    -0.144666102767E+03   -0.62950E-05   -0.33757E-06  2288   0.912E-03    0.410E-03
DAV:  10    -0.144666111216E+03   -0.84490E-05   -0.73326E-07  2048   0.368E-03    0.431E-03
DAV:  11    -0.144666117052E+03   -0.58355E-05   -0.27784E-07  2000   0.263E-03    0.372E-03
DAV:  12    -0.144666123089E+03   -0.60368E-05   -0.21872E-07  2088   0.198E-03    0.153E-03
DAV:  13    -0.144666129668E+03   -0.65793E-05   -0.15747E-07  2120   0.131E-03    0.130E-03
DAV:  14    -0.144666133658E+03   -0.39904E-05   -0.76953E-08  2040   0.147E-03    0.728E-04
DAV:  15    -0.144666137427E+03   -0.37686E-05   -0.75937E-08  2112   0.895E-04    0.781E-04
DAV:  16    -0.144666139644E+03   -0.22166E-05   -0.48788E-08  1992   0.694E-04    0.422E-04
DAV:  17    -0.144666141325E+03   -0.16814E-05   -0.28639E-08  2008   0.494E-04    0.334E-04
DAV:  18    -0.144666142724E+03   -0.13990E-05   -0.19630E-08  2032   0.460E-04    0.207E-04
DAV:  19    -0.144666144694E+03   -0.19704E-05   -0.28749E-08  2112   0.353E-04    0.278E-04
DAV:  20    -0.144666145999E+03   -0.13050E-05   -0.21097E-08  2040   0.390E-04    0.156E-04
DAV:  21    -0.144666146493E+03   -0.49362E-06   -0.12444E-08  1976   0.298E-04
  33 F= -.15074478E+03 E0= -.15074478E+03  d E =-.956110E-03  mag=    24.0000
       N       E                     dE             d eps       ncg     rms          rms(c)
DAV:   1    -0.144659973146E+03    0.61729E-02   -0.63114E-01  3040   0.157E+00    0.498E-01
DAV:   2    -0.144665973856E+03   -0.60007E-02   -0.41371E-02  4552   0.813E-01    0.946E-01
DAV:   3    -0.144667280805E+03   -0.13069E-02   -0.31277E-02  4488   0.861E-01    0.120E+00
DAV:   4    -0.144664330479E+03    0.29503E-02   -0.10471E-02  4352   0.480E-01    0.147E-01
DAV:   5    -0.144664701218E+03   -0.37074E-03   -0.47292E-04  4784   0.111E-01    0.108E-01
DAV:   6    -0.144664736878E+03   -0.35660E-04   -0.11624E-04  4496   0.442E-02    0.773E-02
DAV:   7    -0.144664746762E+03   -0.98839E-05   -0.75716E-05  4000   0.246E-02    0.373E-02
DAV:   8    -0.144664749425E+03   -0.26634E-05   -0.24311E-05  4624   0.206E-02    0.106E-02
DAV:   9    -0.144664762193E+03   -0.12768E-04   -0.21916E-06  2416   0.685E-03    0.957E-03
DAV:  10    -0.144664779862E+03   -0.17668E-04   -0.99264E-07  2080   0.376E-03    0.633E-03
DAV:  11    -0.144664794180E+03   -0.14318E-04   -0.57734E-07  2104   0.334E-03    0.329E-03
DAV:  12    -0.144664807948E+03   -0.13768E-04   -0.45891E-07  2152   0.265E-03    0.200E-03
DAV:  13    -0.144664818515E+03   -0.10567E-04   -0.26826E-07  2160   0.215E-03    0.147E-03
DAV:  14    -0.144664827254E+03   -0.87390E-05   -0.16514E-07  2152   0.187E-03    0.126E-03
DAV:  15    -0.144664835585E+03   -0.83306E-05   -0.17358E-07  2152   0.146E-03    0.134E-03
DAV:  16    -0.144664842839E+03   -0.72545E-05   -0.12616E-07  2168   0.104E-03    0.567E-04
DAV:  17    -0.144664847298E+03   -0.44588E-05   -0.72540E-08  2072   0.957E-04    0.636E-04
DAV:  18    -0.144664848780E+03   -0.14818E-05   -0.37924E-08  1976   0.682E-04    0.319E-04
DAV:  19    -0.144664853342E+03   -0.45619E-05   -0.63084E-08  2160   0.523E-04    0.438E-04
DAV:  20    -0.144664857841E+03   -0.44991E-05   -0.68558E-08  2216   0.599E-04    0.273E-04
DAV:  21    -0.144664860097E+03   -0.22562E-05   -0.50221E-08  2152   0.580E-04    0.205E-04
DAV:  22    -0.144664860764E+03   -0.66738E-06   -0.26714E-08  1992   0.498E-04
  34 F= -.15074496E+03 E0= -.15074495E+03  d E =-.113067E-02  mag=    24.0000
       N       E                     dE             d eps       ncg     rms          rms(c)
DAV:   1    -0.144664668679E+03    0.19142E-03   -0.41503E-02  3144   0.382E-01    0.115E-01
DAV:   2    -0.144665011710E+03   -0.34303E-03   -0.27261E-03  4576   0.215E-01    0.276E-01
DAV:   3    -0.144664934304E+03    0.77406E-04   -0.17376E-03  4488   0.202E-01    0.216E-01
DAV:   4    -0.144664862620E+03    0.71684E-04   -0.35958E-04  4384   0.927E-02    0.323E-02
DAV:   5    -0.144664877596E+03   -0.14976E-04   -0.20086E-05  4320   0.214E-02    0.316E-02
DAV:   6    -0.144664877862E+03   -0.26592E-06   -0.46120E-06  2648   0.111E-02
  35 F= -.15074535E+03 E0= -.15074535E+03  d E =-.391830E-03  mag=    24.0000
       N       E                     dE             d eps       ncg     rms          rms(c)
DAV:   1    -0.144662787991E+03    0.20896E-02   -0.37186E-01  3112   0.114E+00    0.342E-01
DAV:   2    -0.144666230682E+03   -0.34427E-02   -0.25399E-02  4600   0.664E-01    0.886E-01
DAV:   3    -0.144665103695E+03    0.11270E-02   -0.15735E-02  4432   0.612E-01    0.596E-01
DAV:   4    -0.144664596182E+03    0.50751E-03   -0.28481E-03  4480   0.255E-01    0.103E-01
DAV:   5    -0.144664681956E+03   -0.85774E-04   -0.16636E-04  4792   0.703E-02    0.935E-02
DAV:   6    -0.144664675703E+03    0.62528E-05   -0.43565E-05  4552   0.264E-02    0.647E-02
DAV:   7    -0.144664678034E+03   -0.23314E-05   -0.45936E-05  4408   0.249E-02    0.290E-02
DAV:   8    -0.144664695563E+03   -0.17529E-04   -0.13601E-05  4312   0.146E-02    0.154E-02
DAV:   9    -0.144664708542E+03   -0.12979E-04   -0.15411E-06  2352   0.538E-03    0.796E-03
DAV:  10    -0.144664721968E+03   -0.13425E-04   -0.76316E-07  2320   0.341E-03    0.434E-03
DAV:  11    -0.144664731789E+03   -0.98209E-05   -0.40401E-07  2048   0.269E-03    0.289E-03
DAV:  12    -0.144664739680E+03   -0.78918E-05   -0.23815E-07  2032   0.208E-03    0.180E-03
DAV:  13    -0.144664747172E+03   -0.74917E-05   -0.15804E-07  2152   0.166E-03    0.139E-03
DAV:  14    -0.144664754753E+03   -0.75805E-05   -0.10449E-07  2080   0.198E-03    0.106E-03
DAV:  15    -0.144664762391E+03   -0.76383E-05   -0.12360E-07  2136   0.112E-03    0.121E-03
DAV:  16    -0.144664766085E+03   -0.36940E-05   -0.73231E-08  2056   0.105E-03    0.561E-04
DAV:  17    -0.144664768127E+03   -0.20415E-05   -0.34999E-08  1960   0.717E-04    0.476E-04
DAV:  18    -0.144664769804E+03   -0.16772E-05   -0.24842E-08  2000   0.568E-04    0.331E-04
DAV:  19    -0.144664773811E+03   -0.40077E-05   -0.48650E-08  2184   0.386E-04    0.283E-04
DAV:  20    -0.144664776432E+03   -0.26204E-05   -0.32778E-08  2144   0.418E-04    0.254E-04
DAV:  21    -0.144664776861E+03   -0.42959E-06   -0.11732E-08  1992   0.348E-04
  36 F= -.15074637E+03 E0= -.15074637E+03  d E =-.141196E-02  mag=    24.0000
       N       E                     dE             d eps       ncg     rms          rms(c)
DAV:   1    -0.144655607290E+03    0.91691E-02   -0.14945E+00  3040   0.229E+00    0.696E-01
DAV:   2    -0.144669584477E+03   -0.13977E-01   -0.10361E-01  4616   0.133E+00    0.174E+00
DAV:   3    -0.144665618333E+03    0.39661E-02   -0.66568E-02  4488   0.125E+00    0.129E+00
DAV:   4    -0.144663137677E+03    0.24807E-02   -0.14084E-02  4552   0.543E-01    0.217E-01
DAV:   5    -0.144663447298E+03   -0.30962E-03   -0.70890E-04  4824   0.164E-01    0.190E-01
DAV:   6    -0.144663425712E+03    0.21587E-04   -0.19828E-04  4504   0.503E-02    0.128E-01
DAV:   7    -0.144663425619E+03    0.92223E-07   -0.15247E-04  4680   0.532E-02    0.599E-02
DAV:   8    -0.144663469486E+03   -0.43866E-04   -0.82364E-05  4576   0.399E-02    0.474E-02
DAV:   9    -0.144663494798E+03   -0.25312E-04   -0.33001E-05  3880   0.271E-02    0.134E-02
DAV:  10    -0.144663517775E+03   -0.22977E-04   -0.47144E-06  2680   0.134E-02    0.137E-02
DAV:  11    -0.144663543798E+03   -0.26023E-04   -0.29101E-06  2256   0.853E-03    0.529E-03
DAV:  12    -0.144663569127E+03   -0.25329E-04   -0.18325E-06  2320   0.443E-03    0.322E-03
DAV:  13    -0.144663580041E+03   -0.10914E-04   -0.51731E-07  2248   0.325E-03    0.210E-03
DAV:  14    -0.144663593494E+03   -0.13453E-04   -0.26291E-07  2160   0.214E-03    0.189E-03
DAV:  15    -0.144663610501E+03   -0.17008E-04   -0.23631E-07  2232   0.153E-03    0.151E-03
DAV:  16    -0.144663618867E+03   -0.83651E-05   -0.14366E-07  2104   0.134E-03    0.762E-04
DAV:  17    -0.144663622517E+03   -0.36507E-05   -0.66805E-08  1992   0.956E-04    0.548E-04
DAV:  18    -0.144663624556E+03   -0.20387E-05   -0.39419E-08  1976   0.650E-04    0.461E-04
DAV:  19    -0.144663631062E+03   -0.65060E-05   -0.60104E-08  2184   0.643E-04    0.478E-04
DAV:  20    -0.144663638595E+03   -0.75331E-05   -0.98611E-08  2216   0.640E-04    0.407E-04
DAV:  21    -0.144663640993E+03   -0.23977E-05   -0.43407E-08  2096   0.627E-04    0.283E-04
DAV:  22    -0.144663641905E+03   -0.91168E-06   -0.24508E-08  1976   0.418E-04
  37 F= -.15074746E+03 E0= -.15074746E+03  d E =-.250572E-02  mag=    24.0000
       N       E                     dE             d eps       ncg     rms          rms(c)
DAV:   1    -0.144661843982E+03    0.17970E-02   -0.19986E-01  3072   0.839E-01    0.254E-01
DAV:   2    -0.144663656229E+03   -0.18122E-02   -0.13877E-02  4608   0.486E-01    0.648E-01
DAV:   3    -0.144663143085E+03    0.51314E-03   -0.93272E-03  4464   0.453E-01    0.464E-01
DAV:   4    -0.144662811761E+03    0.33132E-03   -0.17576E-03  4464   0.196E-01    0.742E-02
DAV:   5    -0.144662870788E+03   -0.59028E-04   -0.96091E-05  4816   0.508E-02    0.692E-02
DAV:   6    -0.144662869575E+03    0.12134E-05   -0.24899E-05  4472   0.208E-02    0.457E-02
DAV:   7    -0.144662868336E+03    0.12385E-05   -0.24058E-05  4304   0.169E-02    0.219E-02
DAV:   8    -0.144662875370E+03   -0.70338E-05   -0.57419E-06  3280   0.101E-02    0.103E-02
DAV:   9    -0.144662881847E+03   -0.64772E-05   -0.16487E-06  2384   0.463E-03    0.618E-03
DAV:  10    -0.144662887936E+03   -0.60891E-05   -0.56572E-07  2128   0.337E-03    0.420E-03
DAV:  11    -0.144662893677E+03   -0.57409E-05   -0.30494E-07  2200   0.247E-03    0.222E-03
DAV:  12    -0.144662898207E+03   -0.45293E-05   -0.14794E-07  2008   0.150E-03    0.162E-03
DAV:  13    -0.144662902134E+03   -0.39276E-05   -0.80451E-08  1984   0.111E-03    0.107E-03
DAV:  14    -0.144662906502E+03   -0.43682E-05   -0.59805E-08  2128   0.120E-03    0.805E-04
DAV:  15    -0.144662910390E+03   -0.38881E-05   -0.65135E-08  2000   0.768E-04    0.715E-04
DAV:  16    -0.144662912140E+03   -0.17499E-05   -0.29843E-08  1984   0.741E-04    0.409E-04
DAV:  17    -0.144662913730E+03   -0.15894E-05   -0.16711E-08  1968   0.462E-04    0.209E-04
DAV:  18    -0.144662914889E+03   -0.11597E-05   -0.12276E-08  1992   0.344E-04    0.257E-04
DAV:  19    -0.144662916840E+03   -0.19507E-05   -0.17495E-08  2136   0.280E-04    0.194E-04
DAV:  20    -0.144662918161E+03   -0.13214E-05   -0.14738E-08  1984   0.330E-04    0.173E-04
DAV:  21    -0.144662918428E+03   -0.26661E-06   -0.68340E-09  1960   0.264E-04
  38 F= -.15074755E+03 E0= -.15074755E+03  d E =-.259276E-02  mag=    24.0000
       N       E                     dE             d eps       ncg     rms          rms(c)
DAV:   1    -0.144663455748E+03   -0.53759E-03   -0.28452E-02  3168   0.341E-01    0.119E-01
DAV:   2    -0.144663606459E+03   -0.15071E-03   -0.14853E-03  4224   0.125E-01    0.112E-01
DAV:   3    -0.144663846003E+03   -0.23954E-03   -0.14258E-03  4264   0.172E-01    0.320E-01
DAV:   4    -0.144663580679E+03    0.26532E-03   -0.87912E-04  4256   0.139E-01    0.354E-02
DAV:   5    -0.144663604678E+03   -0.23999E-04   -0.31112E-05  4080   0.168E-02    0.394E-02
DAV:   6    -0.144663559196E+03    0.45482E-04   -0.21621E-05  3064   0.201E-02    0.201E-02
DAV:   7    -0.144663518436E+03    0.40760E-04   -0.93048E-06  3776   0.903E-03    0.925E-03
DAV:   8    -0.144663524938E+03   -0.65020E-05   -0.17345E-06  2200   0.700E-03    0.750E-03
DAV:   9    -0.144663538665E+03   -0.13726E-04   -0.11195E-06  2016   0.643E-03    0.448E-03
DAV:  10    -0.144663571875E+03   -0.33210E-04   -0.66489E-07  2144   0.203E-03    0.307E-03
DAV:  11    -0.144663591324E+03   -0.19449E-04   -0.23724E-07  1960   0.242E-03    0.251E-03
DAV:  12    -0.144663609565E+03   -0.18241E-04   -0.22806E-07  2088   0.144E-03    0.106E-03
DAV:  13    -0.144663627583E+03   -0.18018E-04   -0.20337E-07  2048   0.130E-03    0.110E-03
DAV:  14    -0.144663643670E+03   -0.16087E-04   -0.19898E-07  2088   0.127E-03    0.856E-04
DAV:  15    -0.144663659639E+03   -0.15969E-04   -0.24946E-07  2144   0.113E-03    0.666E-04
DAV:  16    -0.144663669744E+03   -0.10105E-04   -0.15214E-07  1976   0.110E-03    0.494E-04
DAV:  17    -0.144663680123E+03   -0.10379E-04   -0.18496E-07  2176   0.912E-04    0.409E-04
DAV:  18    -0.144663688927E+03   -0.88035E-05   -0.17034E-07  2064   0.101E-03    0.468E-04
DAV:  19    -0.144663693488E+03   -0.45613E-05   -0.13510E-07  1992   0.902E-04    0.288E-04
DAV:  20    -0.144663696589E+03   -0.31015E-05   -0.11924E-07  2096   0.850E-04    0.300E-04
DAV:  21    -0.144663698206E+03   -0.16163E-05   -0.10031E-07  2032   0.785E-04    0.157E-04
DAV:  22    -0.144663698524E+03   -0.31849E-06   -0.56332E-08  1952   0.683E-04
  39 F= -.15074824E+03 E0= -.15074824E+03  d E =-.694686E-03  mag=    24.0000
       N       E                     dE             d eps       ncg     rms          rms(c)
DAV:   1    -0.144664058647E+03   -0.36044E-03   -0.56850E-02  3104   0.482E-01    0.169E-01
DAV:   2    -0.144664387438E+03   -0.32879E-03   -0.29648E-03  4192   0.177E-01    0.157E-01
DAV:   3    -0.144664847317E+03   -0.45988E-03   -0.28048E-03  4240   0.243E-01    0.451E-01
DAV:   4    -0.144664331694E+03    0.51562E-03   -0.17408E-03  4264   0.195E-01    0.495E-02
DAV:   5    -0.144664377119E+03   -0.45425E-04   -0.62360E-05  4208   0.230E-02    0.559E-02
DAV:   6    -0.144664298874E+03    0.78245E-04   -0.49848E-05  4160   0.296E-02    0.309E-02
DAV:   7    -0.144664240143E+03    0.58731E-04   -0.14555E-05  4128   0.129E-02    0.102E-02
DAV:   8    -0.144664253491E+03   -0.13348E-04   -0.23511E-06  2448   0.965E-03    0.103E-02
DAV:   9    -0.144664274693E+03   -0.21202E-04   -0.19566E-06  2080   0.875E-03    0.577E-03
DAV:  10    -0.144664325610E+03   -0.50917E-04   -0.11135E-06  2248   0.295E-03    0.427E-03
DAV:  11    -0.144664364426E+03   -0.38815E-04   -0.51589E-07  2160   0.436E-03    0.348E-03
DAV:  12    -0.144664398186E+03   -0.33761E-04   -0.58925E-07  2168   0.183E-03    0.158E-03
DAV:  13    -0.144664428767E+03   -0.30581E-04   -0.31987E-07  2112   0.176E-03    0.161E-03
DAV:  14    -0.144664455695E+03   -0.26928E-04   -0.36744E-07  2208   0.178E-03    0.113E-03
DAV:  15    -0.144664479809E+03   -0.24114E-04   -0.35446E-07  2160   0.148E-03    0.102E-03
DAV:  16    -0.144664498739E+03   -0.18930E-04   -0.30531E-07  2104   0.137E-03    0.598E-04
DAV:  17    -0.144664515445E+03   -0.16706E-04   -0.30579E-07  2176   0.131E-03    0.559E-04
DAV:  18    -0.144664528717E+03   -0.13272E-04   -0.30591E-07  2176   0.129E-03    0.549E-04
DAV:  19    -0.144664535523E+03   -0.68056E-05   -0.21389E-07  2064   0.120E-03    0.517E-04
DAV:  20    -0.144664539730E+03   -0.42065E-05   -0.17086E-07  2048   0.102E-03    0.308E-04
DAV:  21    -0.144664542543E+03   -0.28129E-05   -0.14939E-07  2088   0.945E-04    0.317E-04
DAV:  22    -0.144664543287E+03   -0.74437E-06   -0.86175E-08  1944   0.820E-04
  40 F= -.15074861E+03 E0= -.15074861E+03  d E =-.106220E-02  mag=    24.0000
       N       E                     dE             d eps       ncg     rms          rms(c)
DAV:   1    -0.144664610897E+03   -0.68354E-04   -0.36861E-02  3192   0.389E-01    0.134E-01
DAV:   2    -0.144664840733E+03   -0.22984E-03   -0.26043E-03  4304   0.184E-01    0.841E-02
DAV:   3    -0.144665022708E+03   -0.18198E-03   -0.66110E-04  4224   0.119E-01    0.229E-01
DAV:   4    -0.144664876520E+03    0.14619E-03   -0.40837E-04  4088   0.991E-02    0.349E-02
DAV:   5    -0.144664903018E+03   -0.26497E-04   -0.20182E-05  3952   0.136E-02    0.311E-02
DAV:   6    -0.144664895036E+03    0.79818E-05   -0.17856E-05  3776   0.196E-02    0.293E-02
DAV:   7    -0.144664883482E+03    0.11553E-04   -0.99698E-06  3808   0.132E-02    0.880E-03
DAV:   8    -0.144664886164E+03   -0.26815E-05   -0.21795E-06  2200   0.530E-03    0.729E-03
DAV:   9    -0.144664890669E+03   -0.45054E-05   -0.10120E-06  2072   0.574E-03    0.267E-03
DAV:  10    -0.144664898771E+03   -0.81017E-05   -0.33723E-07  2000   0.217E-03    0.247E-03
DAV:  11    -0.144664903677E+03   -0.49055E-05   -0.14803E-07  1920   0.163E-03    0.160E-03
DAV:  12    -0.144664907466E+03   -0.37890E-05   -0.78530E-08  1912   0.136E-03    0.102E-03
DAV:  13    -0.144664912716E+03   -0.52505E-05   -0.97097E-08  2016   0.108E-03    0.140E-03
DAV:  14    -0.144664916678E+03   -0.39623E-05   -0.80041E-08  1984   0.995E-04    0.575E-04
DAV:  15    -0.144664918769E+03   -0.20911E-05   -0.46542E-08  1936   0.674E-04    0.330E-04
DAV:  16    -0.144664921076E+03   -0.23065E-05   -0.33562E-08  1920   0.533E-04    0.334E-04
DAV:  17    -0.144664922668E+03   -0.15925E-05   -0.24591E-08  1912   0.490E-04    0.253E-04
DAV:  18    -0.144664924685E+03   -0.20161E-05   -0.26549E-08  1960   0.407E-04    0.226E-04
DAV:  19    -0.144664926522E+03   -0.18375E-05   -0.28037E-08  1984   0.398E-04    0.156E-04
DAV:  20    -0.144664927819E+03   -0.12972E-05   -0.26336E-08  1976   0.366E-04    0.134E-04
DAV:  21    -0.144664928479E+03   -0.66021E-06   -0.18421E-08  1920   0.370E-04
  41 F= -.15074909E+03 E0= -.15074909E+03  d E =-.484707E-03  mag=    24.0000
       N       E                     dE             d eps       ncg     rms          rms(c)
DAV:   1    -0.144663507243E+03    0.14206E-02   -0.20126E-01  3048   0.909E-01    0.313E-01
DAV:   2    -0.144664958662E+03   -0.14514E-02   -0.14233E-02  4296   0.431E-01    0.197E-01
DAV:   3    -0.144665815582E+03   -0.85692E-03   -0.36379E-03  4232   0.279E-01    0.541E-01
DAV:   4    -0.144665051613E+03    0.76397E-03   -0.22765E-03  4152   0.232E-01    0.815E-02
DAV:   5    -0.144665162422E+03   -0.11081E-03   -0.11107E-04  4248   0.324E-02    0.726E-02
DAV:   6    -0.144665133100E+03    0.29321E-04   -0.94634E-05  4568   0.450E-02    0.667E-02
DAV:   7    -0.144665093558E+03    0.39542E-04   -0.45388E-05  4792   0.285E-02    0.212E-02
DAV:   8    -0.144665105117E+03   -0.11559E-04   -0.10395E-05  3312   0.108E-02    0.173E-02
DAV:   9    -0.144665121503E+03   -0.16386E-04   -0.56285E-06  2496   0.117E-02    0.805E-03
DAV:  10    -0.144665146038E+03   -0.24535E-04   -0.11585E-06  2064   0.426E-03    0.426E-03
DAV:  11    -0.144665167009E+03   -0.20971E-04   -0.62628E-07  2024   0.396E-03    0.426E-03
DAV:  12    -0.144665185324E+03   -0.18315E-04   -0.77125E-07  2184   0.355E-03    0.282E-03
DAV:  13    -0.144665200589E+03   -0.15265E-04   -0.45074E-07  2080   0.218E-03    0.172E-03
DAV:  14    -0.144665209100E+03   -0.85117E-05   -0.21172E-07  1976   0.166E-03    0.115E-03
DAV:  15    -0.144665218045E+03   -0.89442E-05   -0.14553E-07  1984   0.126E-03    0.665E-04
DAV:  16    -0.144665230024E+03   -0.11979E-04   -0.18912E-07  2192   0.106E-03    0.763E-04
DAV:  17    -0.144665235918E+03   -0.58943E-05   -0.10708E-07  1960   0.114E-03    0.465E-04
DAV:  18    -0.144665240846E+03   -0.49279E-05   -0.93600E-08  2000   0.674E-04    0.339E-04
DAV:  19    -0.144665245768E+03   -0.49225E-05   -0.76812E-08  1976   0.722E-04    0.328E-04
DAV:  20    -0.144665249610E+03   -0.38418E-05   -0.76628E-08  2072   0.640E-04    0.252E-04
DAV:  21    -0.144665253978E+03   -0.43683E-05   -0.10675E-07  2080   0.710E-04    0.291E-04
DAV:  22    -0.144665255357E+03   -0.13789E-05   -0.65010E-08  1936   0.735E-04    0.201E-04
DAV:  23    -0.144665255878E+03   -0.52076E-06   -0.41355E-08  1936   0.511E-04
  42 F= -.15074957E+03 E0= -.15074957E+03  d E =-.958446E-03  mag=    24.0000
       N       E                     dE             d eps       ncg     rms          rms(c)
DAV:   1    -0.144665221732E+03    0.33625E-04   -0.34409E-02  3176   0.373E-01    0.117E-01
DAV:   2    -0.144665449074E+03   -0.22734E-03   -0.24702E-03  4240   0.169E-01    0.110E-01
DAV:   3    -0.144665702633E+03   -0.25356E-03   -0.13583E-03  4488   0.168E-01    0.320E-01
DAV:   4    -0.144665417318E+03    0.28531E-03   -0.63441E-04  4320   0.122E-01    0.395E-02
DAV:   5    -0.144665458774E+03   -0.41456E-04   -0.28888E-05  4072   0.171E-02    0.240E-02
DAV:   6    -0.144665448239E+03    0.10535E-04   -0.12310E-05  3216   0.143E-02    0.335E-02
DAV:   7    -0.144665410416E+03    0.37823E-04   -0.14187E-05  4144   0.151E-02    0.656E-03
DAV:   8    -0.144665414823E+03   -0.44073E-05   -0.16479E-06  2416   0.575E-03    0.326E-03
DAV:   9    -0.144665430049E+03   -0.15225E-04   -0.73436E-07  2240   0.501E-03    0.362E-03
DAV:  10    -0.144665438892E+03   -0.88433E-05   -0.33132E-07  2064   0.396E-03    0.373E-03
DAV:  11    -0.144665451308E+03   -0.12417E-04   -0.43367E-07  2176   0.262E-03    0.220E-03
DAV:  12    -0.144665460538E+03   -0.92300E-05   -0.18456E-07  2016   0.189E-03    0.147E-03
DAV:  13    -0.144665465391E+03   -0.48522E-05   -0.91153E-08  1952   0.105E-03    0.107E-03
DAV:  14    -0.144665474294E+03   -0.89038E-05   -0.88273E-08  2120   0.955E-04    0.105E-03
DAV:  15    -0.144665486327E+03   -0.12033E-04   -0.13891E-07  2168   0.833E-04    0.555E-04
DAV:  16    -0.144665495364E+03   -0.90370E-05   -0.12024E-07  2224   0.927E-04    0.750E-04
DAV:  17    -0.144665497260E+03   -0.18964E-05   -0.54884E-08  2008   0.826E-04    0.393E-04
DAV:  18    -0.144665501661E+03   -0.44004E-05   -0.71345E-08  2040   0.527E-04    0.383E-04
DAV:  19    -0.144665504113E+03   -0.24522E-05   -0.38261E-08  1968   0.611E-04    0.206E-04
DAV:  20    -0.144665509006E+03   -0.48925E-05   -0.10613E-07  2176   0.524E-04    0.326E-04
DAV:  21    -0.144665510023E+03   -0.10175E-05   -0.37360E-08  2040   0.663E-04    0.141E-04
DAV:  22    -0.144665510299E+03   -0.27604E-06   -0.20173E-08  1944   0.290E-04
  43 F= -.15074999E+03 E0= -.15074999E+03  d E =-.425000E-03  mag=    24.0000
       N       E                     dE             d eps       ncg     rms          rms(c)
DAV:   1    -0.144663113592E+03    0.23964E-02   -0.30966E-01  3056   0.112E+00    0.350E-01
DAV:   2    -0.144665435636E+03   -0.23220E-02   -0.22211E-02  4192   0.507E-01    0.324E-01
DAV:   3    -0.144667540362E+03   -0.21047E-02   -0.11963E-02  4448   0.502E-01    0.969E-01
DAV:   4    -0.144665157000E+03    0.23834E-02   -0.58586E-03  4328   0.362E-01    0.119E-01
DAV:   5    -0.144665398181E+03   -0.24118E-03   -0.26465E-04  4344   0.471E-02    0.714E-02
DAV:   6    -0.144665365173E+03    0.33008E-04   -0.16106E-04  4528   0.502E-02    0.119E-01
DAV:   7    -0.144665192670E+03    0.17250E-03   -0.12709E-04  4872   0.490E-02    0.212E-02
DAV:   8    -0.144665221118E+03   -0.28448E-04   -0.14994E-05  4208   0.164E-02    0.100E-02
DAV:   9    -0.144665282849E+03   -0.61731E-04   -0.22108E-06  2328   0.716E-03    0.739E-03
DAV:  10    -0.144665384723E+03   -0.10187E-03   -0.30478E-06  2528   0.986E-03    0.776E-03
DAV:  11    -0.144665445979E+03   -0.61256E-04   -0.15087E-06  2336   0.681E-03    0.693E-03
DAV:  12    -0.144665505685E+03   -0.59706E-04   -0.15482E-06  2328   0.580E-03    0.285E-03
DAV:  13    -0.144665537953E+03   -0.32268E-04   -0.85722E-07  2160   0.342E-03    0.185E-03
DAV:  14    -0.144665587331E+03   -0.49378E-04   -0.78011E-07  2248   0.276E-03    0.210E-03
DAV:  15    -0.144665649274E+03   -0.61943E-04   -0.14223E-06  2536   0.298E-03    0.171E-03
DAV:  16    -0.144665671551E+03   -0.22277E-04   -0.43791E-07  2320   0.215E-03    0.827E-04
DAV:  17    -0.144665676901E+03   -0.53497E-05   -0.20233E-07  2040   0.136E-03    0.663E-04
DAV:  18    -0.144665689525E+03   -0.12625E-04   -0.20201E-07  2168   0.961E-04    0.589E-04
DAV:  19    -0.144665699445E+03   -0.99192E-05   -0.13258E-07  2184   0.105E-03    0.584E-04
DAV:  20    -0.144665716619E+03   -0.17175E-04   -0.41958E-07  2232   0.113E-03    0.503E-04
DAV:  21    -0.144665718919E+03   -0.22997E-05   -0.13800E-07  2128   0.131E-03    0.296E-04
DAV:  22    -0.144665719873E+03   -0.95385E-06   -0.77912E-08  1968   0.590E-04
  44 F= -.15075069E+03 E0= -.15075069E+03  d E =-.112399E-02  mag=    24.0000
       N       E                     dE             d eps       ncg     rms          rms(c)
DAV:   1    -0.144665351727E+03    0.36719E-03   -0.31284E-02  3216   0.355E-01    0.111E-01
DAV:   2    -0.144665555784E+03   -0.20406E-03   -0.22501E-03  4224   0.161E-01    0.107E-01
DAV:   3    -0.144665789053E+03   -0.23327E-03   -0.12406E-03  4456   0.163E-01    0.307E-01
DAV:   4    -0.144665522992E+03    0.26606E-03   -0.57306E-04  4264   0.117E-01    0.380E-02
DAV:   5    -0.144665560660E+03   -0.37668E-04   -0.26878E-05  4072   0.165E-02    0.229E-02
DAV:   6    -0.144665550927E+03    0.97328E-05   -0.11420E-05  3040   0.141E-02    0.326E-02
DAV:   7    -0.144665516731E+03    0.34197E-04   -0.13401E-05  4144   0.144E-02    0.637E-03
DAV:   8    -0.144665521381E+03   -0.46503E-05   -0.14322E-06  2288   0.500E-03    0.324E-03
DAV:   9    -0.144665535673E+03   -0.14293E-04   -0.60802E-07  2256   0.588E-03    0.390E-03
DAV:  10    -0.144665544036E+03   -0.83624E-05   -0.38594E-07  2040   0.409E-03    0.305E-03
DAV:  11    -0.144665556681E+03   -0.12645E-04   -0.37417E-07  2168   0.242E-03    0.195E-03
DAV:  12    -0.144665566470E+03   -0.97894E-05   -0.21643E-07  2048   0.194E-03    0.148E-03
DAV:  13    -0.144665570918E+03   -0.44485E-05   -0.94274E-08  1960   0.112E-03    0.988E-04
DAV:  14    -0.144665579566E+03   -0.86471E-05   -0.88455E-08  2104   0.101E-03    0.962E-04
DAV:  15    -0.144665590516E+03   -0.10951E-04   -0.12433E-07  2168   0.791E-04    0.586E-04
DAV:  16    -0.144665600295E+03   -0.97784E-05   -0.12473E-07  2224   0.965E-04    0.707E-04
DAV:  17    -0.144665602678E+03   -0.23833E-05   -0.59923E-08  2040   0.852E-04    0.355E-04
DAV:  18    -0.144665606245E+03   -0.35674E-05   -0.64455E-08  2040   0.529E-04    0.396E-04
DAV:  19    -0.144665609006E+03   -0.27608E-05   -0.40905E-08  1976   0.605E-04    0.205E-04
DAV:  20    -0.144665613495E+03   -0.44889E-05   -0.96343E-08  2184   0.532E-04    0.369E-04
DAV:  21    -0.144665614547E+03   -0.10520E-05   -0.38593E-08  2024   0.666E-04    0.146E-04
DAV:  22    -0.144665614909E+03   -0.36232E-06   -0.22901E-08  1936   0.312E-04
  45 F= -.15075074E+03 E0= -.15075074E+03  d E =-.116807E-02  mag=    24.0000
       N       E                     dE             d eps       ncg     rms          rms(c)
DAV:   1    -0.144665574951E+03    0.39596E-04   -0.43484E-02  3152   0.409E-01    0.110E-01
DAV:   2    -0.144665841965E+03   -0.26701E-03   -0.30487E-03  4280   0.184E-01    0.169E-01
DAV:   3    -0.144665995579E+03   -0.15361E-03   -0.15154E-03  4216   0.187E-01    0.283E-01
DAV:   4    -0.144665807255E+03    0.18832E-03   -0.55470E-04  4128   0.118E-01    0.340E-02
DAV:   5    -0.144665847765E+03   -0.40510E-04   -0.23443E-05  4144   0.208E-02    0.276E-02
DAV:   6    -0.144665844686E+03    0.30787E-05   -0.43414E-06  2960   0.790E-03    0.191E-02
DAV:   7    -0.144665836511E+03    0.81749E-05   -0.90739E-06  4216   0.118E-02    0.109E-02
DAV:   8    -0.144665838051E+03   -0.15393E-05   -0.22319E-06  2312   0.100E-02    0.737E-03
DAV:   9    -0.144665842216E+03   -0.41651E-05   -0.15224E-06  2072   0.561E-03    0.535E-03
DAV:  10    -0.144665846715E+03   -0.44996E-05   -0.53819E-07  1904   0.407E-03    0.171E-03
DAV:  11    -0.144665849911E+03   -0.31953E-05   -0.17544E-07  1912   0.170E-03    0.136E-03
DAV:  12    -0.144665852367E+03   -0.24564E-05   -0.91806E-08  1912   0.132E-03    0.142E-03
DAV:  13    -0.144665855271E+03   -0.29044E-05   -0.62044E-08  1904   0.103E-03    0.746E-04
DAV:  14    -0.144665861092E+03   -0.58204E-05   -0.10049E-07  2152   0.720E-04    0.673E-04
DAV:  15    -0.144665862533E+03   -0.14416E-05   -0.38892E-08  1944   0.799E-04    0.350E-04
DAV:  16    -0.144665863199E+03   -0.66576E-06   -0.20375E-08  1928   0.377E-04
  46 F= -.15075104E+03 E0= -.15075103E+03  d E =-.298733E-03  mag=    24.0000
       N       E                     dE             d eps       ncg     rms          rms(c)
DAV:   1    -0.144665683518E+03    0.17902E-03   -0.60600E-02  3120   0.482E-01    0.130E-01
DAV:   2    -0.144666067488E+03   -0.38397E-03   -0.42477E-03  4264   0.218E-01    0.199E-01
DAV:   3    -0.144666265836E+03   -0.19835E-03   -0.20884E-03  4168   0.221E-01    0.333E-01
DAV:   4    -0.144666008545E+03    0.25729E-03   -0.76967E-04  4096   0.140E-01    0.402E-02
DAV:   5    -0.144666059291E+03   -0.50746E-04   -0.32659E-05  4232   0.246E-02    0.326E-02
DAV:   6    -0.144666053863E+03    0.54278E-05   -0.63313E-06  3240   0.920E-03    0.224E-02
DAV:   7    -0.144666045149E+03    0.87139E-05   -0.10795E-05  4272   0.137E-02    0.127E-02
DAV:   8    -0.144666048809E+03   -0.36604E-05   -0.29597E-06  2464   0.121E-02    0.881E-03
DAV:   9    -0.144666055710E+03   -0.69000E-05   -0.21190E-06  2032   0.652E-03    0.605E-03
DAV:  10    -0.144666062792E+03   -0.70826E-05   -0.73530E-07  1920   0.474E-03    0.199E-03
DAV:  11    -0.144666067754E+03   -0.49622E-05   -0.24853E-07  1904   0.194E-03    0.161E-03
DAV:  12    -0.144666071373E+03   -0.36191E-05   -0.12491E-07  1928   0.153E-03    0.175E-03
DAV:  13    -0.144666075969E+03   -0.45957E-05   -0.93338E-08  1920   0.130E-03    0.985E-04
DAV:  14    -0.144666085424E+03   -0.94550E-05   -0.18001E-07  2168   0.868E-04    0.807E-04
DAV:  15    -0.144666086588E+03   -0.11642E-05   -0.50104E-08  1984   0.909E-04    0.541E-04
DAV:  16    -0.144666087982E+03   -0.13934E-05   -0.27847E-08  1888   0.460E-04    0.269E-04
DAV:  17    -0.144666089868E+03   -0.18863E-05   -0.22656E-08  1904   0.437E-04    0.284E-04
DAV:  18    -0.144666092233E+03   -0.23651E-05   -0.28237E-08  1888   0.360E-04    0.170E-04
DAV:  19    -0.144666094880E+03   -0.26474E-05   -0.40963E-08  2064   0.409E-04    0.172E-04
DAV:  20    -0.144666095392E+03   -0.51175E-06   -0.16350E-08  1952   0.386E-04
  47 F= -.15075112E+03 E0= -.15075112E+03  d E =-.388236E-03  mag=    24.0000
       N       E                     dE             d eps       ncg     rms          rms(c)
DAV:   1    -0.144666003469E+03    0.91412E-04   -0.51085E-03  3296   0.140E-01    0.376E-02
DAV:   2    -0.144666027464E+03   -0.23995E-04   -0.35785E-04  4224   0.632E-02    0.577E-02
DAV:   3    -0.144666050510E+03   -0.23045E-04   -0.17676E-04  4104   0.641E-02    0.959E-02
DAV:   4    -0.144666027139E+03    0.23371E-04   -0.62835E-05  3440   0.409E-02    0.119E-02
DAV:   5    -0.144666035413E+03   -0.82737E-05   -0.24396E-06  2384   0.797E-03    0.962E-03
DAV:   6    -0.144666035584E+03   -0.17127E-06   -0.13984E-06  2056   0.398E-03
  48 F= -.15075114E+03 E0= -.15075113E+03  d E =-.398842E-03  mag=    24.0000
       N       E                     dE             d eps       ncg     rms          rms(c)
DAV:   1    -0.144665775628E+03    0.25978E-03   -0.30994E-02  3192   0.356E-01    0.111E-01
DAV:   2    -0.144665962689E+03   -0.18706E-03   -0.21668E-03  4224   0.158E-01    0.114E-01
DAV:   3    -0.144666210774E+03   -0.24809E-03   -0.11797E-03  4440   0.161E-01    0.296E-01
DAV:   4    -0.144665978065E+03    0.23271E-03   -0.61587E-04  4168   0.121E-01    0.278E-02
DAV:   5    -0.144666019464E+03   -0.41398E-04   -0.23177E-05  3608   0.122E-02    0.259E-02
DAV:   6    -0.144666014414E+03    0.50494E-05   -0.19912E-05  2880   0.194E-02    0.359E-02
DAV:   7    -0.144665994084E+03    0.20330E-04   -0.13883E-05  3984   0.154E-02    0.919E-03
DAV:   8    -0.144665994905E+03   -0.82083E-06   -0.18791E-06  2376   0.577E-03
  49 F= -.15075134E+03 E0= -.15075134E+03  d E =-.205701E-03  mag=    24.0000
       N       E                     dE             d eps       ncg     rms          rms(c)
DAV:   1    -0.144663335288E+03    0.26588E-02   -0.27646E-01  3072   0.106E+00    0.327E-01
DAV:   2    -0.144665270182E+03   -0.19349E-02   -0.19092E-02  4200   0.466E-01    0.318E-01
DAV:   3    -0.144667088889E+03   -0.18187E-02   -0.97731E-03  4448   0.461E-01    0.876E-01
DAV:   4    -0.144665213122E+03    0.18758E-02   -0.54592E-03  4248   0.350E-01    0.849E-02
DAV:   5    -0.144665446540E+03   -0.23342E-03   -0.20312E-04  4264   0.407E-02    0.792E-02
DAV:   6    -0.144665423290E+03    0.23249E-04   -0.13390E-04  4328   0.522E-02    0.890E-02
DAV:   7    -0.144665349568E+03    0.73722E-04   -0.55866E-05  4712   0.321E-02    0.519E-02
DAV:   8    -0.144665362382E+03   -0.12814E-04   -0.29824E-05  4352   0.209E-02    0.145E-02
DAV:   9    -0.144665402966E+03   -0.40584E-04   -0.51837E-06  2480   0.108E-02    0.124E-02
DAV:  10    -0.144665468439E+03   -0.65472E-04   -0.19769E-06  2400   0.475E-03    0.123E-02
DAV:  11    -0.144665507135E+03   -0.38696E-04   -0.10935E-06  2128   0.481E-03    0.724E-03
DAV:  12    -0.144665553812E+03   -0.46678E-04   -0.10016E-06  2184   0.336E-03    0.311E-03
DAV:  13    -0.144665581407E+03   -0.27595E-04   -0.47334E-07  2120   0.278E-03    0.220E-03
DAV:  14    -0.144665602368E+03   -0.20961E-04   -0.35031E-07  2088   0.209E-03    0.142E-03
DAV:  15    -0.144665628517E+03   -0.26149E-04   -0.32750E-07  2088   0.147E-03    0.170E-03
DAV:  16    -0.144665668046E+03   -0.39528E-04   -0.49466E-07  2240   0.196E-03    0.137E-03
DAV:  17    -0.144665686869E+03   -0.18823E-04   -0.29573E-07  2048   0.180E-03    0.890E-04
DAV:  18    -0.144665704187E+03   -0.17318E-04   -0.32436E-07  2168   0.129E-03    0.107E-03
DAV:  19    -0.144665715055E+03   -0.10868E-04   -0.21666E-07  1968   0.134E-03    0.349E-04
DAV:  20    -0.144665724786E+03   -0.97309E-05   -0.21968E-07  2112   0.102E-03    0.743E-04
DAV:  21    -0.144665737035E+03   -0.12249E-04   -0.33685E-07  2256   0.121E-03    0.360E-04
DAV:  22    -0.144665739431E+03   -0.23955E-05   -0.14475E-07  1960   0.116E-03    0.413E-04
DAV:  23    -0.144665740767E+03   -0.13358E-05   -0.99413E-08  1936   0.714E-04    0.125E-04
DAV:  24    -0.144665741475E+03   -0.70827E-06   -0.58827E-08  1936   0.692E-04
  50 F= -.15075180E+03 E0= -.15075180E+03  d E =-.668241E-03  mag=    24.0000
