 running   16 mpi-ranks, with    1 threads/rank, on    1 nodes
 distrk:  each k-point on   16 cores,    1 groups
 distr:  one band on    4 cores,    4 groups
 vasp.6.5.1 10Mar25 (build Jan 13 2026 20:43:53) complex                         
 POSCAR found type information on POSCAR CrClH 
 POSCAR found :  3 types and      33 ions
 scaLAPACK will be used
 LDA part: xc-table for (Slater+PW92), standard interpolation
 POSCAR, INCAR and KPOINTS ok, starting setup
 FFT: planning ... GRIDC
 FFT: planning ... GRID_SOFT
 FFT: planning ... GRID
 WAVECAR not read
 entering main loop
       N       E                     dE             d eps       ncg     rms          rms(c)
DAV:   1     0.206904124878E+04    0.20690E+04   -0.61603E+04  2952   0.918E+02
DAV:   2     0.408896759128E+03   -0.16601E+04   -0.15384E+04  3480   0.248E+02
DAV:   3    -0.126626985234E+03   -0.53552E+03   -0.51905E+03  4192   0.139E+02
DAV:   4    -0.173073666903E+03   -0.46447E+02   -0.45566E+02  4560   0.572E+01
DAV:   5    -0.173914406575E+03   -0.84074E+00   -0.81214E+00  4416   0.103E+01    0.419E+01
DAV:   6    -0.168030891056E+03    0.58835E+01   -0.17990E+02  4208   0.661E+01    0.461E+01
DAV:   7    -0.156612981473E+03    0.11418E+02   -0.34005E+01  4112   0.678E+01    0.210E+01
DAV:   8    -0.157575473207E+03   -0.96249E+00   -0.13689E+01  4248   0.145E+01    0.126E+01
DAV:   9    -0.157051482716E+03    0.52399E+00   -0.28857E+00  4136   0.114E+01    0.707E+00
DAV:  10    -0.156832215193E+03    0.21927E+00   -0.91239E-01  4080   0.510E+00    0.284E+00
DAV:  11    -0.156935545931E+03   -0.10333E+00   -0.26255E-01  3816   0.186E+00    0.159E+00
DAV:  12    -0.157030474155E+03   -0.94928E-01   -0.13218E-01  4064   0.208E+00    0.838E-01
DAV:  13    -0.157072998124E+03   -0.42524E-01   -0.16908E-02  4176   0.787E-01    0.509E-01
DAV:  14    -0.157117597457E+03   -0.44599E-01   -0.10390E-02  4232   0.543E-01    0.314E-01
DAV:  15    -0.157143810613E+03   -0.26213E-01   -0.30360E-03  4112   0.279E-01    0.167E-01
DAV:  16    -0.157153003923E+03   -0.91933E-02   -0.41067E-04  4104   0.134E-01    0.123E-01
DAV:  17    -0.157168016878E+03   -0.15013E-01   -0.73947E-04  3984   0.907E-02    0.653E-02
DAV:  18    -0.157179385931E+03   -0.11369E-01   -0.35583E-04  3720   0.534E-02    0.603E-02
DAV:  19    -0.157184407093E+03   -0.50212E-02   -0.12099E-04  3592   0.233E-02    0.439E-02
DAV:  20    -0.157190549460E+03   -0.61424E-02   -0.29403E-04  3232   0.306E-02    0.248E-02
DAV:  21    -0.157193577201E+03   -0.30277E-02   -0.19863E-04  3264   0.248E-02    0.302E-02
DAV:  22    -0.157194174328E+03   -0.59713E-03   -0.45848E-05  3464   0.139E-02    0.168E-02
DAV:  23    -0.157194280824E+03   -0.10650E-03   -0.15142E-05  3680   0.941E-03    0.384E-03
DAV:  24    -0.157194335059E+03   -0.54235E-04   -0.10594E-06  2184   0.315E-03    0.223E-03
DAV:  25    -0.157194391703E+03   -0.56644E-04   -0.14664E-06  2240   0.320E-03    0.164E-03
DAV:  26    -0.157194418427E+03   -0.26725E-04   -0.47840E-07  1768   0.217E-03    0.149E-03
DAV:  27    -0.157194433319E+03   -0.14892E-04   -0.21706E-07  1632   0.146E-03    0.132E-03
DAV:  28    -0.157194456939E+03   -0.23620E-04   -0.38580E-07  1912   0.149E-03    0.994E-04
DAV:  29    -0.157194464257E+03   -0.73179E-05   -0.49581E-07  1976   0.193E-03    0.969E-04
DAV:  30    -0.157194465915E+03   -0.16579E-05   -0.26351E-07  1720   0.168E-03    0.107E-03
DAV:  31    -0.157194468707E+03   -0.27917E-05   -0.11762E-07  1648   0.102E-03    0.749E-04
DAV:  32    -0.157194472861E+03   -0.41537E-05   -0.67851E-08  1600   0.728E-04    0.322E-04
DAV:  33    -0.157194474291E+03   -0.14302E-05   -0.25729E-08  1648   0.516E-04    0.204E-04
DAV:  34    -0.157194475037E+03   -0.74624E-06   -0.12042E-08  1616   0.346E-04
   1 F= -.16093723E+03 E0= -.16093723E+03  d E =-.160937E+03  mag=    23.0000
 curvature:   0.00 expect dE= 0.000E+00 dE for cont linesearch  0.000E+00
 trial: gam= 0.00000 g(F)=  0.392E-02 g(S)=  0.000E+00 ort = 0.000E+00 (trialstep = 0.100E+01)
 search vector abs. value=  0.392E-02
 bond charge predicted
       N       E                     dE             d eps       ncg     rms          rms(c)
DAV:   1    -0.157192449725E+03    0.20246E-02   -0.36039E-01  2912   0.126E+00    0.424E-01
DAV:   2    -0.157194622310E+03   -0.21726E-02   -0.21935E-02  4064   0.516E-01    0.217E-01
DAV:   3    -0.157195166469E+03   -0.54416E-03   -0.84658E-04  4184   0.148E-01    0.121E-01
DAV:   4    -0.157195044602E+03    0.12187E-03   -0.78380E-05  4312   0.473E-02    0.901E-02
DAV:   5    -0.157194868204E+03    0.17640E-03   -0.85457E-05  4000   0.285E-02    0.552E-02
DAV:   6    -0.157194754222E+03    0.11398E-03   -0.59271E-05  4000   0.228E-02    0.194E-02
DAV:   7    -0.157194798555E+03   -0.44333E-04   -0.89819E-06  3712   0.115E-02    0.127E-02
DAV:   8    -0.157194888027E+03   -0.89472E-04   -0.11851E-06  2040   0.704E-03    0.877E-03
DAV:   9    -0.157194991980E+03   -0.10395E-03   -0.40459E-06  2784   0.660E-03    0.361E-03
DAV:  10    -0.157195074353E+03   -0.82373E-04   -0.14034E-06  1992   0.397E-03    0.192E-03
DAV:  11    -0.157195111151E+03   -0.36798E-04   -0.58054E-07  1696   0.325E-03    0.172E-03
DAV:  12    -0.157195159243E+03   -0.48093E-04   -0.57113E-07  1832   0.213E-03    0.124E-03
DAV:  13    -0.157195223152E+03   -0.63909E-04   -0.77554E-07  2032   0.213E-03    0.121E-03
DAV:  14    -0.157195279642E+03   -0.56490E-04   -0.10561E-06  2096   0.206E-03    0.101E-03
DAV:  15    -0.157195307930E+03   -0.28288E-04   -0.51069E-07  1880   0.183E-03    0.923E-04
DAV:  16    -0.157195321443E+03   -0.13513E-04   -0.34874E-07  1672   0.158E-03    0.648E-04
DAV:  17    -0.157195332213E+03   -0.10770E-04   -0.36334E-07  1872   0.142E-03    0.561E-04
DAV:  18    -0.157195336070E+03   -0.38569E-05   -0.23299E-07  1696   0.144E-03    0.537E-04
DAV:  19    -0.157195337395E+03   -0.13253E-05   -0.15258E-07  1616   0.102E-03    0.220E-04
DAV:  20    -0.157195337756E+03   -0.36149E-06   -0.78757E-08  1656   0.834E-04
   2 F= -.16094009E+03 E0= -.16094009E+03  d E =-.285835E-02  mag=    23.0000
 trial-energy change:   -0.002858  1 .order   -0.002869   -0.003924   -0.001814
 step:   1.9123(harm=  1.8599)  dis= 0.00565  next Energy=  -160.940907 (dE=-0.368E-02)
 bond charge predicted
       N       E                     dE             d eps       ncg     rms          rms(c)
DAV:   1    -0.157191885998E+03    0.34514E-02   -0.29994E-01  2904   0.115E+00    0.387E-01
DAV:   2    -0.157193675329E+03   -0.17893E-02   -0.18229E-02  4008   0.469E-01    0.197E-01
DAV:   3    -0.157194139042E+03   -0.46371E-03   -0.69928E-04  4200   0.134E-01    0.110E-01
DAV:   4    -0.157194033830E+03    0.10521E-03   -0.64593E-05  4320   0.429E-02    0.819E-02
DAV:   5    -0.157193881171E+03    0.15266E-03   -0.69732E-05  4024   0.258E-02    0.504E-02
DAV:   6    -0.157193777327E+03    0.10384E-03   -0.49468E-05  3992   0.208E-02    0.178E-02
DAV:   7    -0.157193815365E+03   -0.38037E-04   -0.73491E-06  3416   0.106E-02    0.115E-02
DAV:   8    -0.157193894910E+03   -0.79545E-04   -0.11581E-06  1992   0.662E-03    0.793E-03
DAV:   9    -0.157193982123E+03   -0.87213E-04   -0.29782E-06  2440   0.595E-03    0.352E-03
DAV:  10    -0.157194058802E+03   -0.76679E-04   -0.19725E-06  2120   0.429E-03    0.186E-03
DAV:  11    -0.157194086281E+03   -0.27479E-04   -0.47133E-07  1664   0.297E-03    0.155E-03
DAV:  12    -0.157194125516E+03   -0.39235E-04   -0.40981E-07  1736   0.178E-03    0.110E-03
DAV:  13    -0.157194187826E+03   -0.62310E-04   -0.74790E-07  2024   0.198E-03    0.115E-03
DAV:  14    -0.157194230459E+03   -0.42633E-04   -0.63696E-07  1944   0.196E-03    0.971E-04
DAV:  15    -0.157194254509E+03   -0.24050E-04   -0.49389E-07  1736   0.178E-03    0.796E-04
DAV:  16    -0.157194268966E+03   -0.14457E-04   -0.40026E-07  1712   0.165E-03    0.688E-04
DAV:  17    -0.157194280264E+03   -0.11298E-04   -0.44137E-07  1896   0.151E-03    0.535E-04
DAV:  18    -0.157194283751E+03   -0.34870E-05   -0.24770E-07  1664   0.151E-03    0.528E-04
DAV:  19    -0.157194284905E+03   -0.11543E-05   -0.15216E-07  1608   0.999E-04    0.228E-04
DAV:  20    -0.157194285369E+03   -0.46454E-06   -0.83989E-08  1680   0.832E-04
   3 F= -.16094086E+03 E0= -.16094086E+03  d E =-.362707E-02  mag=    23.0000
 curvature:  -0.93 expect dE=-0.204E-02 dE for cont linesearch -0.234E-05
 trial: gam= 0.58702 g(F)=  0.220E-02 g(S)=  0.000E+00 ort =-0.995E-04 (trialstep = 0.118E+01)
 search vector abs. value=  0.344E-02
 bond charge predicted
       N       E                     dE             d eps       ncg     rms          rms(c)
DAV:   1    -0.157190874736E+03    0.34102E-02   -0.41966E-01  2928   0.131E+00    0.350E-01
DAV:   2    -0.157193182186E+03   -0.23074E-02   -0.28320E-02  4040   0.563E-01    0.190E-01
DAV:   3    -0.157193235274E+03   -0.53088E-04   -0.57519E-04  4120   0.130E-01    0.123E-01
DAV:   4    -0.157193157896E+03    0.77378E-04   -0.59236E-05  4296   0.393E-02    0.978E-02
DAV:   5    -0.157193028925E+03    0.12897E-03   -0.78646E-05  3864   0.225E-02    0.619E-02
DAV:   6    -0.157192974782E+03    0.54143E-04   -0.48991E-05  4168   0.204E-02    0.215E-02
DAV:   7    -0.157192995006E+03   -0.20224E-04   -0.45406E-06  3040   0.997E-03    0.107E-02
DAV:   8    -0.157193047286E+03   -0.52280E-04   -0.13169E-06  2040   0.735E-03    0.727E-03
DAV:   9    -0.157193107193E+03   -0.59907E-04   -0.11709E-06  1976   0.522E-03    0.441E-03
DAV:  10    -0.157193167015E+03   -0.59822E-04   -0.18489E-06  2144   0.380E-03    0.213E-03
DAV:  11    -0.157193192121E+03   -0.25105E-04   -0.56422E-07  1648   0.272E-03    0.161E-03
DAV:  12    -0.157193220651E+03   -0.28530E-04   -0.40200E-07  1712   0.217E-03    0.120E-03
DAV:  13    -0.157193262818E+03   -0.42167E-04   -0.51145E-07  1976   0.210E-03    0.982E-04
DAV:  14    -0.157193287937E+03   -0.25120E-04   -0.37927E-07  1744   0.207E-03    0.921E-04
DAV:  15    -0.157193301026E+03   -0.13089E-04   -0.28975E-07  1648   0.155E-03    0.601E-04
DAV:  16    -0.157193314870E+03   -0.13844E-04   -0.27624E-07  1832   0.125E-03    0.593E-04
DAV:  17    -0.157193328835E+03   -0.13966E-04   -0.32220E-07  1832   0.135E-03    0.671E-04
DAV:  18    -0.157193336923E+03   -0.80877E-05   -0.31102E-07  1824   0.138E-03    0.559E-04
DAV:  19    -0.157193338257E+03   -0.13343E-05   -0.15498E-07  1664   0.121E-03    0.300E-04
DAV:  20    -0.157193339009E+03   -0.75186E-06   -0.95598E-08  1616   0.743E-04
   4 F= -.16094292E+03 E0= -.16094292E+03  d E =-.206523E-02  mag=    23.0000
 trial-energy change:   -0.002065  1 .order   -0.002078   -0.002537   -0.001619
 step:   4.1332(harm=  3.2689)  dis= 0.01329  next Energy=  -160.944742 (dE=-0.389E-02)
 bond charge predicted
       N       E                     dE             d eps       ncg     rms          rms(c)
DAV:   1    -0.157171572460E+03    0.21766E-01   -0.26126E+00  2912   0.326E+00    0.866E-01
DAV:   2    -0.157186592529E+03   -0.15020E-01   -0.17755E-01  4024   0.142E+00    0.484E-01
DAV:   3    -0.157186665651E+03   -0.73122E-04   -0.35919E-03  4120   0.326E-01    0.305E-01
DAV:   4    -0.157186308028E+03    0.35762E-03   -0.37270E-04  4288   0.967E-02    0.243E-01
DAV:   5    -0.157185796848E+03    0.51118E-03   -0.51129E-04  3880   0.578E-02    0.152E-01
DAV:   6    -0.157185661154E+03    0.13569E-03   -0.29282E-04  4160   0.488E-02    0.525E-02
DAV:   7    -0.157185752106E+03   -0.90952E-04   -0.31902E-05  4256   0.237E-02    0.248E-02
DAV:   8    -0.157185953203E+03   -0.20110E-03   -0.73608E-06  3672   0.166E-02    0.176E-02
DAV:   9    -0.157186189226E+03   -0.23602E-03   -0.59535E-06  3360   0.114E-02    0.105E-02
DAV:  10    -0.157186394923E+03   -0.20570E-03   -0.64585E-06  3136   0.682E-03    0.348E-03
DAV:  11    -0.157186541498E+03   -0.14658E-03   -0.11638E-06  2080   0.330E-03    0.190E-03
DAV:  12    -0.157186656314E+03   -0.11482E-03   -0.94547E-07  2032   0.272E-03    0.174E-03
DAV:  13    -0.157186769712E+03   -0.11340E-03   -0.12726E-06  2224   0.233E-03    0.134E-03
DAV:  14    -0.157186878524E+03   -0.10881E-03   -0.12226E-06  2232   0.235E-03    0.128E-03
DAV:  15    -0.157186959474E+03   -0.80949E-04   -0.11736E-06  2216   0.220E-03    0.736E-04
DAV:  16    -0.157187006473E+03   -0.46999E-04   -0.92209E-07  2088   0.200E-03    0.565E-04
DAV:  17    -0.157187027980E+03   -0.21507E-04   -0.61130E-07  1968   0.197E-03    0.556E-04
DAV:  18    -0.157187033930E+03   -0.59503E-05   -0.36241E-07  1688   0.171E-03    0.266E-04
DAV:  19    -0.157187035584E+03   -0.16545E-05   -0.21588E-07  1648   0.131E-03    0.206E-04
DAV:  20    -0.157187036091E+03   -0.50692E-06   -0.12630E-07  1648   0.101E-03
   5 F= -.16094407E+03 E0= -.16094407E+03  d E =-.321015E-02  mag=    23.0000
 curvature:  -2.17 expect dE=-0.412E-02 dE for cont linesearch -0.211E-03
 ZBRENT: interpolating
 opt :   3.2569  next Energy=  -160.944319 (dE=-0.346E-02)
 bond charge predicted
       N       E                     dE             d eps       ncg     rms          rms(c)
DAV:   1    -0.157188137831E+03   -0.11022E-02   -0.23052E-01  2912   0.967E-01    0.264E-01
DAV:   2    -0.157189391768E+03   -0.12539E-02   -0.15435E-02  4032   0.414E-01    0.139E-01
DAV:   3    -0.157189437460E+03   -0.45692E-04   -0.31711E-04  4128   0.966E-02    0.918E-02
DAV:   4    -0.157189393382E+03    0.44078E-04   -0.32420E-05  4296   0.300E-02    0.732E-02
DAV:   5    -0.157189313886E+03    0.79496E-04   -0.40640E-05  3832   0.162E-02    0.472E-02
DAV:   6    -0.157189272867E+03    0.41019E-04   -0.27640E-05  4176   0.157E-02    0.165E-02
DAV:   7    -0.157189284123E+03   -0.11257E-04   -0.18851E-06  1992   0.781E-03    0.899E-03
DAV:   8    -0.157189318045E+03   -0.33922E-04   -0.13086E-06  1896   0.627E-03    0.565E-03
DAV:   9    -0.157189355659E+03   -0.37614E-04   -0.10059E-06  1816   0.405E-03    0.349E-03
DAV:  10    -0.157189387550E+03   -0.31890E-04   -0.79438E-07  1752   0.302E-03    0.212E-03
DAV:  11    -0.157189408001E+03   -0.20452E-04   -0.46634E-07  1624   0.217E-03    0.171E-03
DAV:  12    -0.157189434650E+03   -0.26649E-04   -0.44887E-07  1800   0.201E-03    0.112E-03
DAV:  13    -0.157189454323E+03   -0.19673E-04   -0.30777E-07  1720   0.183E-03    0.922E-04
DAV:  14    -0.157189466518E+03   -0.12195E-04   -0.24184E-07  1608   0.154E-03    0.701E-04
DAV:  15    -0.157189474386E+03   -0.78679E-05   -0.17714E-07  1712   0.119E-03    0.538E-04
DAV:  16    -0.157189484884E+03   -0.10498E-04   -0.20823E-07  1704   0.990E-04    0.585E-04
DAV:  17    -0.157189492230E+03   -0.73456E-05   -0.17739E-07  1672   0.104E-03    0.357E-04
DAV:  18    -0.157189497004E+03   -0.47745E-05   -0.18793E-07  1736   0.963E-04    0.633E-04
DAV:  19    -0.157189497667E+03   -0.66315E-06   -0.90187E-08  1672   0.947E-04
   6 F= -.16094433E+03 E0= -.16094433E+03  d E =-.347033E-02  mag=    23.0000
 curvature:  -2.60 expect dE=-0.295E-02 dE for cont linesearch -0.125E-07
 trial: gam= 0.46109 g(F)=  0.113E-02 g(S)=  0.000E+00 ort = 0.407E-05 (trialstep = 0.160E+01)
 search vector abs. value=  0.187E-02
 bond charge predicted
       N       E                     dE             d eps       ncg     rms          rms(c)
DAV:   1    -0.157186707350E+03    0.27897E-02   -0.36352E-01  2880   0.124E+00    0.355E-01
DAV:   2    -0.157188933856E+03   -0.22265E-02   -0.23748E-02  3888   0.534E-01    0.185E-01
DAV:   3    -0.157189165814E+03   -0.23196E-03   -0.72793E-04  4112   0.144E-01    0.114E-01
DAV:   4    -0.157189122678E+03    0.43136E-04   -0.72369E-05  4288   0.431E-02    0.881E-02
DAV:   5    -0.157189078278E+03    0.44400E-04   -0.66335E-05  3864   0.208E-02    0.564E-02
DAV:   6    -0.157189064687E+03    0.13590E-04   -0.52621E-05  3968   0.200E-02    0.166E-02
DAV:   7    -0.157189079293E+03   -0.14606E-04   -0.60191E-06  3328   0.117E-02    0.934E-03
DAV:   8    -0.157189104513E+03   -0.25220E-04   -0.13576E-06  1984   0.679E-03    0.717E-03
DAV:   9    -0.157189125816E+03   -0.21303E-04   -0.95410E-07  1672   0.466E-03    0.386E-03
DAV:  10    -0.157189152439E+03   -0.26623E-04   -0.13190E-06  1872   0.383E-03    0.213E-03
DAV:  11    -0.157189165706E+03   -0.13267E-04   -0.64076E-07  1664   0.345E-03    0.139E-03
DAV:  12    -0.157189181999E+03   -0.16293E-04   -0.43524E-07  1704   0.217E-03    0.100E-03
DAV:  13    -0.157189192780E+03   -0.10781E-04   -0.21451E-07  1656   0.184E-03    0.686E-04
DAV:  14    -0.157189205069E+03   -0.12288E-04   -0.21849E-07  1784   0.113E-03    0.696E-04
DAV:  15    -0.157189213332E+03   -0.82632E-05   -0.14492E-07  1680   0.118E-03    0.537E-04
DAV:  16    -0.157189221603E+03   -0.82710E-05   -0.20828E-07  1792   0.888E-04    0.476E-04
DAV:  17    -0.157189222776E+03   -0.11734E-05   -0.73333E-08  1680   0.973E-04    0.344E-04
DAV:  18    -0.157189226782E+03   -0.40059E-05   -0.12129E-07  1640   0.538E-04    0.340E-04
DAV:  19    -0.157189227667E+03   -0.88454E-06   -0.40998E-08  1656   0.713E-04
   7 F= -.16094556E+03 E0= -.16094556E+03  d E =-.123196E-02  mag=    23.0000
 trial-energy change:   -0.001232  1 .order   -0.001221   -0.001815   -0.000626
 step:   2.3722(harm=  2.4387)  dis= 0.00558  next Energy=  -160.945711 (dE=-0.139E-02)
 bond charge predicted
       N       E                     dE             d eps       ncg     rms          rms(c)
DAV:   1    -0.157188076786E+03    0.11500E-02   -0.85551E-02  2888   0.600E-01    0.171E-01
DAV:   2    -0.157188575632E+03   -0.49885E-03   -0.56108E-03  3904   0.261E-01    0.908E-02
DAV:   3    -0.157188652129E+03   -0.76497E-04   -0.16826E-04  4096   0.699E-02    0.551E-02
DAV:   4    -0.157188638749E+03    0.13379E-04   -0.17050E-05  4288   0.208E-02    0.427E-02
DAV:   5    -0.157188624106E+03    0.14644E-04   -0.16272E-05  3760   0.103E-02    0.270E-02
DAV:   6    -0.157188617090E+03    0.70159E-05   -0.12095E-05  3816   0.973E-03    0.788E-03
DAV:   7    -0.157188621876E+03   -0.47860E-05   -0.94540E-07  1680   0.563E-03    0.465E-03
DAV:   8    -0.157188631399E+03   -0.95230E-05   -0.66073E-07  1728   0.488E-03    0.388E-03
DAV:   9    -0.157188639055E+03   -0.76556E-05   -0.45567E-07  1640   0.284E-03    0.219E-03
DAV:  10    -0.157188645559E+03   -0.65047E-05   -0.28539E-07  1616   0.219E-03    0.140E-03
DAV:  11    -0.157188651177E+03   -0.56175E-05   -0.16625E-07  1656   0.138E-03    0.104E-03
DAV:  12    -0.157188658849E+03   -0.76725E-05   -0.14831E-07  1712   0.129E-03    0.521E-04
DAV:  13    -0.157188662354E+03   -0.35044E-05   -0.81847E-08  1656   0.104E-03    0.470E-04
DAV:  14    -0.157188665301E+03   -0.29475E-05   -0.58042E-08  1632   0.661E-04    0.316E-04
DAV:  15    -0.157188669187E+03   -0.38861E-05   -0.60972E-08  1648   0.652E-04    0.350E-04
DAV:  16    -0.157188672046E+03   -0.28582E-05   -0.64910E-08  1720   0.584E-04    0.288E-04
DAV:  17    -0.157188672902E+03   -0.85666E-06   -0.33529E-08  1640   0.560E-04
   8 F= -.16094573E+03 E0= -.16094573E+03  d E =-.139954E-02  mag=    23.0000
 curvature:  -1.99 expect dE=-0.112E-02 dE for cont linesearch -0.808E-06
 trial: gam= 0.47561 g(F)=  0.560E-03 g(S)=  0.000E+00 ort = 0.275E-04 (trialstep = 0.175E+01)
 search vector abs. value=  0.101E-02
 bond charge predicted
       N       E                     dE             d eps       ncg     rms          rms(c)
DAV:   1    -0.157187586571E+03    0.10855E-02   -0.16596E-01  2880   0.845E-01    0.271E-01
DAV:   2    -0.157188644953E+03   -0.10584E-02   -0.11453E-02  3888   0.412E-01    0.154E-01
DAV:   3    -0.157188853394E+03   -0.20844E-03   -0.52470E-04  4136   0.142E-01    0.898E-02
DAV:   4    -0.157188795390E+03    0.58004E-04   -0.44839E-05  4376   0.485E-02    0.695E-02
DAV:   5    -0.157188715127E+03    0.80262E-04   -0.41553E-05  3976   0.185E-02    0.469E-02
DAV:   6    -0.157188657857E+03    0.57270E-04   -0.30789E-05  4264   0.220E-02    0.156E-02
DAV:   7    -0.157188682604E+03   -0.24747E-04   -0.35513E-06  2664   0.962E-03    0.818E-03
DAV:   8    -0.157188730111E+03   -0.47508E-04   -0.13381E-06  1976   0.575E-03    0.581E-03
DAV:   9    -0.157188783231E+03   -0.53120E-04   -0.11229E-06  1952   0.484E-03    0.380E-03
DAV:  10    -0.157188816455E+03   -0.33223E-04   -0.79825E-07  1784   0.364E-03    0.236E-03
DAV:  11    -0.157188845705E+03   -0.29250E-04   -0.57775E-07  1720   0.222E-03    0.213E-03
DAV:  12    -0.157188890898E+03   -0.45193E-04   -0.62860E-07  1960   0.222E-03    0.124E-03
DAV:  13    -0.157188917852E+03   -0.26955E-04   -0.43547E-07  1720   0.189E-03    0.854E-04
DAV:  14    -0.157188934349E+03   -0.16496E-04   -0.30562E-07  1688   0.158E-03    0.647E-04
DAV:  15    -0.157188943555E+03   -0.92057E-05   -0.19793E-07  1680   0.127E-03    0.589E-04
DAV:  16    -0.157188966802E+03   -0.23247E-04   -0.52181E-07  2008   0.126E-03    0.784E-04
DAV:  17    -0.157188974022E+03   -0.72205E-05   -0.21533E-07  1728   0.135E-03    0.326E-04
DAV:  18    -0.157188976737E+03   -0.27146E-05   -0.14266E-07  1648   0.901E-04    0.574E-04
DAV:  19    -0.157188977423E+03   -0.68629E-06   -0.67265E-08  1664   0.829E-04
   9 F= -.16094640E+03 E0= -.16094640E+03  d E =-.670671E-03  mag=    23.0000
 trial-energy change:   -0.000671  1 .order   -0.000658   -0.001004   -0.000312
 step:   2.4419(harm=  2.5436)  dis= 0.00262  next Energy=  -160.946459 (dE=-0.733E-03)
 bond charge predicted
       N       E                     dE             d eps       ncg     rms          rms(c)
DAV:   1    -0.157188690974E+03    0.28576E-03   -0.25692E-02  2888   0.332E-01    0.106E-01
DAV:   2    -0.157188827133E+03   -0.13616E-03   -0.17821E-03  3896   0.163E-01    0.614E-02
DAV:   3    -0.157188878175E+03   -0.51041E-04   -0.79270E-05  4088   0.557E-02    0.353E-02
DAV:   4    -0.157188864204E+03    0.13970E-04   -0.52133E-06  3104   0.190E-02    0.281E-02
DAV:   5    -0.157188844263E+03    0.19941E-04   -0.10835E-05  3312   0.856E-03    0.188E-02
DAV:   6    -0.157188827693E+03    0.16570E-04   -0.35147E-06  2640   0.924E-03    0.586E-03
DAV:   7    -0.157188834113E+03   -0.64199E-05   -0.11051E-06  1648   0.577E-03    0.427E-03
DAV:   8    -0.157188840769E+03   -0.66562E-05   -0.10827E-06  1616   0.383E-03    0.266E-03
DAV:   9    -0.157188854623E+03   -0.13854E-04   -0.49580E-07  1616   0.312E-03    0.219E-03
DAV:  10    -0.157188865680E+03   -0.11057E-04   -0.21126E-07  1672   0.184E-03    0.146E-03
DAV:  11    -0.157188876570E+03   -0.10890E-04   -0.16230E-07  1664   0.129E-03    0.122E-03
DAV:  12    -0.157188887048E+03   -0.10478E-04   -0.16680E-07  1696   0.107E-03    0.440E-04
DAV:  13    -0.157188893107E+03   -0.60593E-05   -0.97987E-08  1648   0.102E-03    0.466E-04
DAV:  14    -0.157188897401E+03   -0.42939E-05   -0.78803E-08  1664   0.786E-04    0.251E-04
DAV:  15    -0.157188898598E+03   -0.11964E-05   -0.37439E-08  1680   0.658E-04    0.300E-04
DAV:  16    -0.157188901991E+03   -0.33930E-05   -0.44566E-08  1616   0.438E-04    0.188E-04
DAV:  17    -0.157188906199E+03   -0.42079E-05   -0.57831E-08  1664   0.560E-04    0.215E-04
DAV:  18    -0.157188908734E+03   -0.25357E-05   -0.58661E-08  1608   0.579E-04    0.256E-04
DAV:  19    -0.157188909148E+03   -0.41428E-06   -0.28506E-08  1672   0.528E-04
  10 F= -.16094647E+03 E0= -.16094647E+03  d E =-.745192E-03  mag=    23.0000
 curvature:  -2.20 expect dE=-0.961E-03 dE for cont linesearch -0.107E-05
 trial: gam= 0.77289 g(F)=  0.436E-03 g(S)=  0.000E+00 ort = 0.222E-04 (trialstep = 0.178E+01)
 search vector abs. value=  0.107E-02
 bond charge predicted
       N       E                     dE             d eps       ncg     rms          rms(c)
DAV:   1    -0.157188334897E+03    0.57384E-03   -0.83550E-02  2880   0.543E-01    0.149E-01
DAV:   2    -0.157188984963E+03   -0.65007E-03   -0.55523E-03  3640   0.226E-01    0.670E-02
DAV:   3    -0.157189178402E+03   -0.19344E-03   -0.22724E-04  3664   0.713E-02    0.457E-02
DAV:   4    -0.157189166635E+03    0.11767E-04   -0.14392E-05  4168   0.224E-02    0.332E-02
DAV:   5    -0.157189139895E+03    0.26740E-04   -0.10881E-05  3144   0.894E-03    0.234E-02
DAV:   6    -0.157189122125E+03    0.17770E-04   -0.13995E-05  3576   0.924E-03    0.723E-03
DAV:   7    -0.157189136782E+03   -0.14657E-04   -0.11038E-06  1816   0.455E-03    0.350E-03
DAV:   8    -0.157189158454E+03   -0.21673E-04   -0.57675E-07  1760   0.342E-03    0.274E-03
DAV:   9    -0.157189175482E+03   -0.17028E-04   -0.35823E-07  1640   0.223E-03    0.167E-03
DAV:  10    -0.157189194263E+03   -0.18781E-04   -0.29905E-07  1704   0.173E-03    0.131E-03
DAV:  11    -0.157189209916E+03   -0.15653E-04   -0.20570E-07  1672   0.153E-03    0.841E-04
DAV:  12    -0.157189230993E+03   -0.21077E-04   -0.28133E-07  1760   0.132E-03    0.702E-04
DAV:  13    -0.157189242627E+03   -0.11634E-04   -0.18742E-07  1672   0.141E-03    0.562E-04
DAV:  14    -0.157189249421E+03   -0.67935E-05   -0.14839E-07  1680   0.100E-03    0.395E-04
DAV:  15    -0.157189255468E+03   -0.60469E-05   -0.11577E-07  1688   0.946E-04    0.453E-04
DAV:  16    -0.157189264318E+03   -0.88507E-05   -0.22336E-07  1800   0.889E-04    0.400E-04
DAV:  17    -0.157189265725E+03   -0.14072E-05   -0.88848E-08  1664   0.102E-03    0.229E-04
DAV:  18    -0.157189266743E+03   -0.10172E-05   -0.64958E-08  1600   0.482E-04    0.220E-04
DAV:  19    -0.157189267107E+03   -0.36415E-06   -0.30176E-08  1664   0.569E-04
  11 F= -.16094725E+03 E0= -.16094725E+03  d E =-.782760E-03  mag=    23.0000
 ZBRENT: can't locate minimum, use default step
 trial-energy change:   -0.000783  1 .order   -0.000783   -0.000806   -0.000760
 step:   7.1072(harm= 30.9874)  dis= 0.00590  next Energy=  -160.953499 (dE=-0.703E-02)
 bond charge predicted
       N       E                     dE             d eps       ncg     rms          rms(c)
DAV:   1    -0.157181739744E+03    0.75270E-02   -0.75079E-01  2880   0.163E+00    0.449E-01
DAV:   2    -0.157188142066E+03   -0.64023E-02   -0.49704E-02  3640   0.675E-01    0.202E-01
DAV:   3    -0.157189547564E+03   -0.14055E-02   -0.20318E-03  3712   0.214E-01    0.137E-01
DAV:   4    -0.157189501604E+03    0.45961E-04   -0.13138E-04  4280   0.684E-02    0.990E-02
DAV:   5    -0.157189405048E+03    0.96556E-04   -0.90835E-05  3464   0.258E-02    0.711E-02
DAV:   6    -0.157189363168E+03    0.41880E-04   -0.11677E-04  3672   0.270E-02    0.229E-02
DAV:   7    -0.157189431364E+03   -0.68196E-04   -0.13085E-05  3928   0.142E-02    0.955E-03
DAV:   8    -0.157189516057E+03   -0.84694E-04   -0.18962E-06  2280   0.641E-03    0.689E-03
DAV:   9    -0.157189604166E+03   -0.88108E-04   -0.12010E-06  2080   0.434E-03    0.442E-03
DAV:  10    -0.157189728975E+03   -0.12481E-03   -0.31054E-06  2552   0.381E-03    0.196E-03
DAV:  11    -0.157189789833E+03   -0.60858E-04   -0.51939E-07  1784   0.235E-03    0.158E-03
DAV:  12    -0.157189825606E+03   -0.35774E-04   -0.27497E-07  1688   0.197E-03    0.116E-03
DAV:  13    -0.157189882059E+03   -0.56452E-04   -0.48776E-07  1992   0.153E-03    0.886E-04
DAV:  14    -0.157189938406E+03   -0.56347E-04   -0.53625E-07  1992   0.168E-03    0.724E-04
DAV:  15    -0.157189971686E+03   -0.33281E-04   -0.39652E-07  1768   0.163E-03    0.663E-04
DAV:  16    -0.157190012427E+03   -0.40740E-04   -0.93181E-07  2120   0.172E-03    0.712E-04
DAV:  17    -0.157190027580E+03   -0.15153E-04   -0.39947E-07  1880   0.161E-03    0.518E-04
DAV:  18    -0.157190032441E+03   -0.48614E-05   -0.26590E-07  1656   0.129E-03    0.328E-04
DAV:  19    -0.157190033334E+03   -0.89266E-06   -0.13279E-07  1664   0.112E-03
  12 F= -.16094930E+03 E0= -.16094930E+03  d E =-.282796E-02  mag=    23.0000
 curvature: -12.16 expect dE=-0.602E-02 dE for cont linesearch -0.129E-02
 ZBRENT: increasing intervall
 opt :  17.7680  next Energy=  -160.951947 (dE=-0.548E-02)
 bond charge predicted
       N       E                     dE             d eps       ncg     rms          rms(c)
DAV:   1    -0.157158357135E+03    0.31675E-01   -0.29864E+00  2880   0.326E+00    0.898E-01
DAV:   2    -0.157183524434E+03   -0.25167E-01   -0.19471E-01  3648   0.133E+00    0.404E-01
DAV:   3    -0.157188631575E+03   -0.51071E-02   -0.80534E-03  3768   0.424E-01    0.273E-01
DAV:   4    -0.157188518263E+03    0.11331E-03   -0.52743E-04  4272   0.137E-01    0.196E-01
DAV:   5    -0.157188311434E+03    0.20683E-03   -0.32221E-04  3608   0.494E-02    0.144E-01
DAV:   6    -0.157188253844E+03    0.57590E-04   -0.43473E-04  3608   0.530E-02    0.502E-02
DAV:   7    -0.157188418289E+03   -0.16444E-03   -0.56261E-05  4024   0.298E-02    0.185E-02
DAV:   8    -0.157188629542E+03   -0.21125E-03   -0.90968E-06  3480   0.136E-02    0.126E-02
DAV:   9    -0.157188854208E+03   -0.22467E-03   -0.28317E-06  2704   0.649E-03    0.832E-03
DAV:  10    -0.157189162221E+03   -0.30801E-03   -0.69493E-06  3104   0.591E-03    0.414E-03
DAV:  11    -0.157189297204E+03   -0.13498E-03   -0.93417E-07  1952   0.306E-03    0.231E-03
DAV:  12    -0.157189457641E+03   -0.16044E-03   -0.13170E-06  2256   0.314E-03    0.206E-03
DAV:  13    -0.157189577328E+03   -0.11969E-03   -0.96145E-07  2080   0.244E-03    0.154E-03
DAV:  14    -0.157189703755E+03   -0.12643E-03   -0.15713E-06  2360   0.235E-03    0.117E-03
DAV:  15    -0.157189818838E+03   -0.11508E-03   -0.16398E-06  2416   0.209E-03    0.761E-04
DAV:  16    -0.157189870421E+03   -0.51583E-04   -0.65960E-07  2088   0.170E-03    0.507E-04
DAV:  17    -0.157189895094E+03   -0.24672E-04   -0.57111E-07  1944   0.178E-03    0.562E-04
DAV:  18    -0.157189901158E+03   -0.60646E-05   -0.30711E-07  1728   0.168E-03    0.341E-04
DAV:  19    -0.157189902996E+03   -0.18374E-05   -0.20062E-07  1616   0.118E-03    0.217E-04
DAV:  20    -0.157189903419E+03   -0.42309E-06   -0.10154E-07  1672   0.102E-03
  13 F= -.16095174E+03 E0= -.16095174E+03  d E =-.527398E-02  mag=    23.0000
 curvature: -24.88 expect dE=-0.433E-01 dE for cont linesearch -0.293E-03
 ZBRENT: extrapolating
 opt :  23.0811  next Energy=  -160.952044 (dE=-0.557E-02)
 bond charge predicted
       N       E                     dE             d eps       ncg     rms          rms(c)
DAV:   1    -0.157181141786E+03    0.87612E-02   -0.74281E-01  2880   0.163E+00    0.441E-01
DAV:   2    -0.157187251228E+03   -0.61094E-02   -0.47641E-02  3632   0.660E-01    0.193E-01
DAV:   3    -0.157188513072E+03   -0.12618E-02   -0.17988E-03  3672   0.192E-01    0.130E-01
DAV:   4    -0.157188462480E+03    0.50592E-04   -0.12096E-04  4248   0.614E-02    0.950E-02
DAV:   5    -0.157188355573E+03    0.10691E-03   -0.84945E-05  3520   0.253E-02    0.685E-02
DAV:   6    -0.157188300639E+03    0.54934E-04   -0.10398E-04  3640   0.257E-02    0.223E-02
DAV:   7    -0.157188356148E+03   -0.55509E-04   -0.11635E-05  3760   0.134E-02    0.836E-03
DAV:   8    -0.157188426276E+03   -0.70128E-04   -0.14530E-06  2176   0.586E-03    0.614E-03
DAV:   9    -0.157188499337E+03   -0.73061E-04   -0.93973E-07  1960   0.433E-03    0.424E-03
DAV:  10    -0.157188593788E+03   -0.94451E-04   -0.24035E-06  2400   0.369E-03    0.213E-03
DAV:  11    -0.157188639783E+03   -0.45995E-04   -0.52065E-07  1720   0.243E-03    0.134E-03
DAV:  12    -0.157188673424E+03   -0.33641E-04   -0.31031E-07  1728   0.196E-03    0.986E-04
DAV:  13    -0.157188728401E+03   -0.54978E-04   -0.51186E-07  2000   0.171E-03    0.745E-04
DAV:  14    -0.157188769267E+03   -0.40865E-04   -0.39158E-07  1784   0.180E-03    0.637E-04
DAV:  15    -0.157188798903E+03   -0.29636E-04   -0.40403E-07  1800   0.160E-03    0.502E-04
DAV:  16    -0.157188826988E+03   -0.28085E-04   -0.54755E-07  2000   0.158E-03    0.393E-04
DAV:  17    -0.157188845540E+03   -0.18552E-04   -0.55177E-07  1944   0.164E-03    0.505E-04
DAV:  18    -0.157188850957E+03   -0.54169E-05   -0.28988E-07  1696   0.149E-03    0.240E-04
DAV:  19    -0.157188851983E+03   -0.10259E-05   -0.15440E-07  1640   0.109E-03    0.193E-04
DAV:  20    -0.157188852237E+03   -0.25390E-06   -0.77553E-08  1648   0.791E-04
  14 F= -.16095199E+03 E0= -.16095199E+03  d E =-.551619E-02  mag=    23.0000
 curvature: -25.37 expect dE=-0.740E-01 dE for cont linesearch -0.115E-04
 trial: gam= 6.73089 g(F)=  0.292E-02 g(S)=  0.000E+00 ort =-0.221E-04 (trialstep = 0.126E+00)
 search vector abs. value=  0.513E-01
 bond charge predicted
       N       E                     dE             d eps       ncg     rms          rms(c)
DAV:   1    -0.157188734629E+03    0.11735E-03   -0.18787E-02  2912   0.259E-01    0.706E-02
DAV:   2    -0.157188824957E+03   -0.90329E-04   -0.10480E-03  3520   0.908E-02    0.302E-02
DAV:   3    -0.157188913316E+03   -0.88358E-04   -0.46157E-05  3064   0.228E-02    0.166E-02
DAV:   4    -0.157188905808E+03    0.75077E-05   -0.20817E-06  2440   0.552E-03    0.131E-02
DAV:   5    -0.157188890630E+03    0.15178E-04   -0.42148E-06  2704   0.651E-03    0.958E-03
DAV:   6    -0.157188876769E+03    0.13861E-04   -0.28318E-06  2448   0.620E-03    0.294E-03
DAV:   7    -0.157188882417E+03   -0.56479E-05   -0.58774E-07  1656   0.410E-03    0.258E-03
DAV:   8    -0.157188890955E+03   -0.85386E-05   -0.22850E-07  1616   0.197E-03    0.140E-03
DAV:   9    -0.157188903751E+03   -0.12795E-04   -0.19224E-07  1648   0.138E-03    0.102E-03
DAV:  10    -0.157188912620E+03   -0.88698E-05   -0.13009E-07  1656   0.985E-04    0.449E-04
DAV:  11    -0.157188917833E+03   -0.52122E-05   -0.67145E-08  1632   0.851E-04    0.372E-04
DAV:  12    -0.157188924310E+03   -0.64774E-05   -0.72010E-08  1672   0.692E-04    0.268E-04
DAV:  13    -0.157188929368E+03   -0.50581E-05   -0.59078E-08  1640   0.716E-04    0.292E-04
DAV:  14    -0.157188933074E+03   -0.37061E-05   -0.53600E-08  1640   0.589E-04    0.195E-04
DAV:  15    -0.157188937214E+03   -0.41395E-05   -0.63228E-08  1640   0.562E-04    0.239E-04
DAV:  16    -0.157188941252E+03   -0.40383E-05   -0.87797E-08  1648   0.627E-04    0.237E-04
DAV:  17    -0.157188942208E+03   -0.95554E-06   -0.49148E-08  1664   0.667E-04
  15 F= -.16095232E+03 E0= -.16095232E+03  d E =-.337880E-03  mag=    23.0000
 ZBRENT: can't locate minimum, use default step
 trial-energy change:   -0.000338  1 .order   -0.000340   -0.000350   -0.000329
 step:   0.5058(harm=  2.1493)  dis= 0.00196  next Energy=  -160.954960 (dE=-0.297E-02)
 bond charge predicted
       N       E                     dE             d eps       ncg     rms          rms(c)
DAV:   1    -0.157187213465E+03    0.17278E-02   -0.16902E-01  2880   0.777E-01    0.212E-01
DAV:   2    -0.157188376822E+03   -0.11634E-02   -0.94282E-03  3528   0.273E-01    0.912E-02
DAV:   3    -0.157188918972E+03   -0.54215E-03   -0.40288E-04  3120   0.667E-02    0.499E-02
DAV:   4    -0.157188883497E+03    0.35476E-04   -0.24605E-05  4184   0.164E-02    0.386E-02
DAV:   5    -0.157188804980E+03    0.78517E-04   -0.25100E-05  3704   0.148E-02    0.253E-02
DAV:   6    -0.157188765828E+03    0.39152E-04   -0.15465E-05  4088   0.148E-02    0.803E-03
DAV:   7    -0.157188794336E+03   -0.28508E-04   -0.11481E-06  2016   0.703E-03    0.602E-03
DAV:   8    -0.157188844043E+03   -0.49707E-04   -0.10823E-06  1968   0.440E-03    0.356E-03
DAV:   9    -0.157188902657E+03   -0.58614E-04   -0.15239E-06  2016   0.311E-03    0.205E-03
DAV:  10    -0.157188927706E+03   -0.25049E-04   -0.43118E-07  1664   0.240E-03    0.135E-03
DAV:  11    -0.157188951028E+03   -0.23322E-04   -0.27045E-07  1720   0.165E-03    0.103E-03
DAV:  12    -0.157188996512E+03   -0.45484E-04   -0.44216E-07  2000   0.186E-03    0.104E-03
DAV:  13    -0.157189024778E+03   -0.28266E-04   -0.37318E-07  1744   0.189E-03    0.865E-04
DAV:  14    -0.157189039753E+03   -0.14975E-04   -0.28413E-07  1640   0.143E-03    0.592E-04
DAV:  15    -0.157189056465E+03   -0.16712E-04   -0.27038E-07  1808   0.122E-03    0.565E-04
DAV:  16    -0.157189071667E+03   -0.15202E-04   -0.28911E-07  1736   0.127E-03    0.470E-04
DAV:  17    -0.157189084472E+03   -0.12805E-04   -0.42337E-07  1928   0.136E-03    0.618E-04
DAV:  18    -0.157189086196E+03   -0.17237E-05   -0.16286E-07  1672   0.132E-03    0.255E-04
DAV:  19    -0.157189087105E+03   -0.90915E-06   -0.96036E-08  1600   0.660E-04
  16 F= -.16095321E+03 E0= -.16095321E+03  d E =-.122727E-02  mag=    23.0000
 curvature:  -6.77 expect dE=-0.140E-01 dE for cont linesearch -0.590E-03
 ZBRENT: increasing intervall
 opt :   1.2646  next Energy=  -160.954447 (dE=-0.246E-02)
 bond charge predicted
       N       E                     dE             d eps       ncg     rms          rms(c)
DAV:   1    -0.157181334231E+03    0.77520E-02   -0.67538E-01  2880   0.155E+00    0.423E-01
DAV:   2    -0.157186531057E+03   -0.51968E-02   -0.37671E-02  3496   0.547E-01    0.185E-01
DAV:   3    -0.157188304379E+03   -0.17733E-02   -0.15648E-03  3136   0.130E-01    0.996E-02
DAV:   4    -0.157188213603E+03    0.90776E-04   -0.99569E-05  4184   0.324E-02    0.767E-02
DAV:   5    -0.157188034553E+03    0.17905E-03   -0.10156E-04  3712   0.293E-02    0.489E-02
DAV:   6    -0.157187964682E+03    0.69871E-04   -0.54512E-05  4112   0.288E-02    0.152E-02
DAV:   7    -0.157188043493E+03   -0.78811E-04   -0.60183E-06  3392   0.141E-02    0.108E-02
DAV:   8    -0.157188162096E+03   -0.11860E-03   -0.21131E-06  2408   0.717E-03    0.615E-03
DAV:   9    -0.157188318167E+03   -0.15607E-03   -0.34939E-06  2608   0.471E-03    0.307E-03
DAV:  10    -0.157188414405E+03   -0.96239E-04   -0.70104E-07  1904   0.284E-03    0.208E-03
DAV:  11    -0.157188501114E+03   -0.86709E-04   -0.72517E-07  2072   0.297E-03    0.186E-03
DAV:  12    -0.157188582907E+03   -0.81793E-04   -0.11603E-06  2136   0.233E-03    0.110E-03
DAV:  13    -0.157188637465E+03   -0.54559E-04   -0.44524E-07  1832   0.202E-03    0.893E-04
DAV:  14    -0.157188692290E+03   -0.54824E-04   -0.61282E-07  1992   0.184E-03    0.806E-04
DAV:  15    -0.157188757978E+03   -0.65688E-04   -0.13577E-06  2288   0.210E-03    0.603E-04
DAV:  16    -0.157188787064E+03   -0.29087E-04   -0.57529E-07  1968   0.171E-03    0.645E-04
DAV:  17    -0.157188796405E+03   -0.93404E-05   -0.32295E-07  1736   0.154E-03    0.359E-04
DAV:  18    -0.157188800126E+03   -0.37210E-05   -0.21577E-07  1632   0.125E-03    0.428E-04
DAV:  19    -0.157188801370E+03   -0.12441E-05   -0.13334E-07  1688   0.105E-03    0.201E-04
DAV:  20    -0.157188801557E+03   -0.18704E-06   -0.68614E-08  1672   0.769E-04
  17 F= -.16095442E+03 E0= -.16095442E+03  d E =-.243472E-02  mag=    23.0000
 curvature: -14.13 expect dE=-0.177E-01 dE for cont linesearch -0.328E-03
 ZBRENT: increasing intervall
 opt :   2.7821  next Energy=  -160.954523 (dE=-0.254E-02)
 bond charge predicted
       N       E                     dE             d eps       ncg     rms          rms(c)
DAV:   1    -0.157156393702E+03    0.32408E-01   -0.26920E+00  2880   0.311E+00    0.846E-01
DAV:   2    -0.157178226123E+03   -0.21832E-01   -0.15031E-01  3584   0.110E+00    0.384E-01
DAV:   3    -0.157184527661E+03   -0.63015E-02   -0.60638E-03  3072   0.252E-01    0.199E-01
DAV:   4    -0.157184277373E+03    0.25029E-03   -0.42135E-04  4112   0.633E-02    0.152E-01
DAV:   5    -0.157183835143E+03    0.44223E-03   -0.43385E-04  3528   0.587E-02    0.896E-02
DAV:   6    -0.157183770503E+03    0.64640E-04   -0.17975E-04  4096   0.520E-02    0.282E-02
DAV:   7    -0.157183976705E+03   -0.20620E-03   -0.23214E-05  3992   0.288E-02    0.196E-02
DAV:   8    -0.157184258388E+03   -0.28168E-03   -0.65570E-06  3408   0.133E-02    0.109E-02
DAV:   9    -0.157184622855E+03   -0.36447E-03   -0.63461E-06  3256   0.746E-03    0.639E-03
DAV:  10    -0.157184881642E+03   -0.25879E-03   -0.22042E-06  2448   0.366E-03    0.346E-03
DAV:  11    -0.157185162074E+03   -0.28043E-03   -0.25158E-06  2648   0.349E-03    0.229E-03
DAV:  12    -0.157185374646E+03   -0.21257E-03   -0.13715E-06  2296   0.258E-03    0.202E-03
DAV:  13    -0.157185486355E+03   -0.11171E-03   -0.66388E-07  1992   0.215E-03    0.160E-03
DAV:  14    -0.157185670831E+03   -0.18448E-03   -0.28868E-06  2752   0.281E-03    0.109E-03
DAV:  15    -0.157185784499E+03   -0.11367E-03   -0.15113E-06  2440   0.241E-03    0.112E-03
DAV:  16    -0.157185830297E+03   -0.45798E-04   -0.80375E-07  2080   0.198E-03    0.679E-04
DAV:  17    -0.157185841575E+03   -0.11278E-04   -0.30172E-07  1728   0.162E-03    0.351E-04
DAV:  18    -0.157185852265E+03   -0.10689E-04   -0.39935E-07  1880   0.128E-03    0.506E-04
DAV:  19    -0.157185854472E+03   -0.22074E-05   -0.18491E-07  1672   0.145E-03    0.204E-04
DAV:  20    -0.157185854877E+03   -0.40495E-06   -0.10296E-07  1624   0.817E-04
  18 F= -.16095449E+03 E0= -.16095449E+03  d E =-.250158E-02  mag=    23.0000
 curvature:  -4.36 expect dE=-0.516E-02 dE for cont linesearch -0.850E-04
 ZBRENT: bracketing found
 ZBRENT: interpolating
 opt :   2.0565  next Energy=  -160.954851 (dE=-0.286E-02)
 bond charge predicted
       N       E                     dE             d eps       ncg     rms          rms(c)
DAV:   1    -0.157180972900E+03    0.48816E-02   -0.61704E-01  2880   0.149E+00    0.401E-01
DAV:   2    -0.157185592442E+03   -0.46195E-02   -0.33429E-02  3504   0.516E-01    0.170E-01
DAV:   3    -0.157187260456E+03   -0.16680E-02   -0.13837E-03  3120   0.125E-01    0.922E-02
DAV:   4    -0.157187172622E+03    0.87834E-04   -0.84504E-05  4208   0.280E-02    0.729E-02
DAV:   5    -0.157186973224E+03    0.19940E-03   -0.10859E-04  3456   0.277E-02    0.423E-02
DAV:   6    -0.157186936916E+03    0.36308E-04   -0.49699E-05  3992   0.219E-02    0.130E-02
DAV:   7    -0.157187021211E+03   -0.84295E-04   -0.34020E-06  2664   0.107E-02    0.985E-03
DAV:   8    -0.157187128931E+03   -0.10772E-03   -0.26305E-06  2464   0.677E-03    0.564E-03
DAV:   9    -0.157187240991E+03   -0.11206E-03   -0.20490E-06  2264   0.502E-03    0.323E-03
DAV:  10    -0.157187322219E+03   -0.81228E-04   -0.11143E-06  1928   0.379E-03    0.201E-03
DAV:  11    -0.157187390805E+03   -0.68586E-04   -0.86773E-07  1824   0.323E-03    0.171E-03
DAV:  12    -0.157187467068E+03   -0.76263E-04   -0.10348E-06  2024   0.282E-03    0.144E-03
DAV:  13    -0.157187523594E+03   -0.56527E-04   -0.69753E-07  1848   0.217E-03    0.109E-03
DAV:  14    -0.157187575185E+03   -0.51590E-04   -0.74451E-07  1912   0.194E-03    0.926E-04
DAV:  15    -0.157187623965E+03   -0.48780E-04   -0.98107E-07  2096   0.197E-03    0.886E-04
DAV:  16    -0.157187646615E+03   -0.22650E-04   -0.50819E-07  1816   0.180E-03    0.568E-04
DAV:  17    -0.157187659036E+03   -0.12422E-04   -0.46245E-07  1872   0.169E-03    0.768E-04
DAV:  18    -0.157187662078E+03   -0.30411E-05   -0.24788E-07  1632   0.160E-03    0.318E-04
DAV:  19    -0.157187663281E+03   -0.12039E-05   -0.16090E-07  1640   0.100E-03    0.460E-04
DAV:  20    -0.157187663550E+03   -0.26872E-06   -0.81543E-08  1632   0.915E-04
  19 F= -.16095485E+03 E0= -.16095485E+03  d E =-.286353E-02  mag=    23.0000
 curvature: -18.61 expect dE=-0.179E-01 dE for cont linesearch -0.227E-08
 trial: gam=-0.00430 g(F)=  0.962E-03 g(S)=  0.000E+00 ort = 0.250E-05 (trialstep = 0.512E+00)
 search vector abs. value=  0.962E-03
 bond charge predicted
       N       E                     dE             d eps       ncg     rms          rms(c)
DAV:   1    -0.157187980347E+03   -0.31707E-03   -0.23130E-02  2944   0.311E-01    0.937E-02
DAV:   2    -0.157188101608E+03   -0.12126E-03   -0.16060E-03  3984   0.137E-01    0.462E-02
DAV:   3    -0.157188138862E+03   -0.37254E-04   -0.31988E-05  4008   0.314E-02    0.287E-02
DAV:   4    -0.157188137187E+03    0.16758E-05   -0.23506E-06  2280   0.103E-02    0.225E-02
DAV:   5    -0.157188137246E+03   -0.59204E-07   -0.77656E-06  3144   0.744E-03
  20 F= -.16095530E+03 E0= -.16095530E+03  d E =-.454093E-03  mag=    23.0000
 ZBRENT: can't locate minimum, use default step
 trial-energy change:   -0.000454  1 .order   -0.000458   -0.000493   -0.000424
 step:   2.0499(harm=  3.6534)  dis= 0.00161  next Energy=  -160.956607 (dE=-0.176E-02)
 bond charge predicted
       N       E                     dE             d eps       ncg     rms          rms(c)
DAV:   1    -0.157187730409E+03    0.40678E-03   -0.20743E-01  2896   0.932E-01    0.279E-01
DAV:   2    -0.157188973766E+03   -0.12434E-02   -0.14244E-02  4008   0.407E-01    0.137E-01
DAV:   3    -0.157189152748E+03   -0.17898E-03   -0.28434E-04  3976   0.928E-02    0.863E-02
DAV:   4    -0.157189136860E+03    0.15888E-04   -0.35227E-05  4224   0.307E-02    0.636E-02
DAV:   5    -0.157189135236E+03    0.16236E-05   -0.31068E-05  3920   0.174E-02    0.424E-02
DAV:   6    -0.157189147207E+03   -0.11970E-04   -0.29466E-05  4096   0.160E-02    0.135E-02
DAV:   7    -0.157189150197E+03   -0.29903E-05   -0.25468E-06  2088   0.937E-03    0.596E-03
DAV:   8    -0.157189152662E+03   -0.24645E-05   -0.98569E-07  1712   0.546E-03    0.425E-03
DAV:   9    -0.157189154291E+03   -0.16291E-05   -0.72823E-07  1608   0.316E-03    0.273E-03
DAV:  10    -0.157189155704E+03   -0.14136E-05   -0.33890E-07  1624   0.236E-03    0.201E-03
DAV:  11    -0.157189156809E+03   -0.11046E-05   -0.14491E-07  1600   0.169E-03    0.131E-03
DAV:  12    -0.157189158450E+03   -0.16411E-05   -0.78360E-08  1560   0.133E-03    0.733E-04
DAV:  13    -0.157189159453E+03   -0.10030E-05   -0.54153E-08  1640   0.116E-03    0.467E-04
DAV:  14    -0.157189160135E+03   -0.68251E-06   -0.32977E-08  1632   0.657E-04
  21 F= -.16095627E+03 E0= -.16095627E+03  d E =-.141761E-02  mag=    23.0000
 curvature:  -1.35 expect dE=-0.631E-03 dE for cont linesearch -0.243E-03
 ZBRENT: increasing intervall
 opt :   5.1247  next Energy=  -160.956283 (dE=-0.143E-02)
 bond charge predicted
       N       E                     dE             d eps       ncg     rms          rms(c)
DAV:   1    -0.157183527985E+03    0.56315E-02   -0.83292E-01  2880   0.187E+00    0.567E-01
DAV:   2    -0.157188819369E+03   -0.52914E-02   -0.57644E-02  4016   0.819E-01    0.275E-01
DAV:   3    -0.157189333908E+03   -0.51454E-03   -0.11379E-03  4000   0.184E-01    0.173E-01
DAV:   4    -0.157189278983E+03    0.54925E-04   -0.14141E-04  4240   0.609E-02    0.127E-01
DAV:   5    -0.157189252621E+03    0.26362E-04   -0.11836E-04  3968   0.337E-02    0.859E-02
DAV:   6    -0.157189284571E+03   -0.31951E-04   -0.11816E-04  4096   0.316E-02    0.277E-02
DAV:   7    -0.157189293298E+03   -0.87272E-05   -0.14777E-05  4104   0.188E-02    0.968E-03
DAV:   8    -0.157189298884E+03   -0.55853E-05   -0.10532E-06  1936   0.806E-03    0.782E-03
DAV:   9    -0.157189302782E+03   -0.38982E-05   -0.88319E-07  1624   0.506E-03    0.446E-03
DAV:  10    -0.157189308046E+03   -0.52646E-05   -0.14481E-06  1712   0.338E-03    0.235E-03
DAV:  11    -0.157189310112E+03   -0.20658E-05   -0.54084E-07  1632   0.364E-03    0.147E-03
DAV:  12    -0.157189312383E+03   -0.22708E-05   -0.23420E-07  1608   0.189E-03    0.125E-03
DAV:  13    -0.157189313710E+03   -0.13265E-05   -0.92362E-08  1672   0.172E-03    0.787E-04
DAV:  14    -0.157189317094E+03   -0.33844E-05   -0.11571E-07  1616   0.908E-04    0.506E-04
DAV:  15    -0.157189318228E+03   -0.11340E-05   -0.33576E-08  1664   0.882E-04    0.420E-04
DAV:  16    -0.157189319175E+03   -0.94704E-06   -0.20477E-08  1616   0.449E-04
  22 F= -.16095631E+03 E0= -.16095631E+03  d E =-.145517E-02  mag=    23.0000
 curvature:  -0.08 expect dE=-0.166E-03 dE for cont linesearch -0.139E-04
 ZBRENT: bracketing found
 ZBRENT: interpolating
 opt :   3.6163  next Energy=  -160.956608 (dE=-0.176E-02)
 bond charge predicted
       N       E                     dE             d eps       ncg     rms          rms(c)
DAV:   1    -0.157188159642E+03    0.11586E-02   -0.20035E-01  2880   0.917E-01    0.273E-01
DAV:   2    -0.157189381720E+03   -0.12221E-02   -0.14002E-02  4040   0.409E-01    0.137E-01
DAV:   3    -0.157189555792E+03   -0.17407E-03   -0.28246E-04  4152   0.960E-02    0.841E-02
DAV:   4    -0.157189539325E+03    0.16467E-04   -0.35826E-05  4264   0.316E-02    0.617E-02
DAV:   5    -0.157189537142E+03    0.21834E-05   -0.31540E-05  3928   0.175E-02    0.408E-02
DAV:   6    -0.157189548776E+03   -0.11634E-04   -0.27360E-05  4088   0.156E-02    0.131E-02
DAV:   7    -0.157189551284E+03   -0.25078E-05   -0.22102E-06  1976   0.912E-03    0.602E-03
DAV:   8    -0.157189552931E+03   -0.16470E-05   -0.92184E-07  1632   0.530E-03    0.396E-03
DAV:   9    -0.157189554192E+03   -0.12614E-05   -0.66999E-07  1664   0.285E-03    0.282E-03
DAV:  10    -0.157189555129E+03   -0.93654E-06   -0.25504E-07  1600   0.210E-03
  23 F= -.16095660E+03 E0= -.16095660E+03  d E =-.175117E-02  mag=    23.0000
 curvature:  -1.81 expect dE=-0.165E-02 dE for cont linesearch -0.459E-06
 trial: gam= 0.92815 g(F)=  0.908E-03 g(S)=  0.000E+00 ort = 0.156E-04 (trialstep = 0.618E+00)
 search vector abs. value=  0.177E-02
 bond charge predicted
       N       E                     dE             d eps       ncg     rms          rms(c)
DAV:   1    -0.157189631902E+03   -0.77710E-04   -0.60705E-02  2880   0.504E-01    0.138E-01
DAV:   2    -0.157189956587E+03   -0.32468E-03   -0.40028E-03  3936   0.204E-01    0.667E-02
DAV:   3    -0.157190038123E+03   -0.81536E-04   -0.69780E-05  3920   0.357E-02    0.408E-02
DAV:   4    -0.157190029168E+03    0.89552E-05   -0.77839E-06  3832   0.101E-02    0.310E-02
DAV:   5    -0.157190011991E+03    0.17177E-04   -0.97996E-06  3456   0.874E-03    0.200E-02
DAV:   6    -0.157190002816E+03    0.91756E-05   -0.74667E-06  3336   0.748E-03    0.596E-03
DAV:   7    -0.157190009084E+03   -0.62685E-05   -0.61677E-07  1640   0.362E-03    0.327E-03
DAV:   8    -0.157190019648E+03   -0.10563E-04   -0.29609E-07  1648   0.318E-03    0.219E-03
DAV:   9    -0.157190026487E+03   -0.68389E-05   -0.20491E-07  1624   0.210E-03    0.865E-04
DAV:  10    -0.157190033126E+03   -0.66389E-05   -0.16767E-07  1648   0.143E-03    0.900E-04
DAV:  11    -0.157190037179E+03   -0.40539E-05   -0.81025E-08  1632   0.112E-03    0.526E-04
DAV:  12    -0.157190043494E+03   -0.63141E-05   -0.82764E-08  1664   0.762E-04    0.490E-04
DAV:  13    -0.157190048616E+03   -0.51229E-05   -0.66232E-08  1632   0.766E-04    0.357E-04
DAV:  14    -0.157190051210E+03   -0.25939E-05   -0.48120E-08  1648   0.603E-04    0.282E-04
DAV:  15    -0.157190053276E+03   -0.20661E-05   -0.36645E-08  1616   0.506E-04    0.238E-04
DAV:  16    -0.157190055569E+03   -0.22926E-05   -0.38798E-08  1576   0.438E-04    0.178E-04
DAV:  17    -0.157190057914E+03   -0.23449E-05   -0.47805E-08  1672   0.496E-04    0.282E-04
DAV:  18    -0.157190058538E+03   -0.62406E-06   -0.28104E-08  1664   0.502E-04
  24 F= -.16095712E+03 E0= -.16095712E+03  d E =-.521174E-03  mag=    23.0000
 ZBRENT: can't locate minimum, use default step
 trial-energy change:   -0.000521  1 .order   -0.000522   -0.000570   -0.000474
 step:   2.4702(harm=  3.6582)  dis= 0.00532  next Energy=  -160.958289 (dE=-0.169E-02)
 bond charge predicted
       N       E                     dE             d eps       ncg     rms          rms(c)
DAV:   1    -0.157187223146E+03    0.28348E-02   -0.54735E-01  2880   0.151E+00    0.418E-01
DAV:   2    -0.157190516973E+03   -0.32938E-02   -0.36067E-02  3960   0.611E-01    0.199E-01
DAV:   3    -0.157190971742E+03   -0.45477E-03   -0.62262E-04  3896   0.104E-01    0.121E-01
DAV:   4    -0.157190909189E+03    0.62552E-04   -0.72354E-05  4128   0.292E-02    0.918E-02
