33
Lattice="12.092548997049326 0.0 0.0 -6.046274498524663 10.47245462795275 0.0 0.0 0.0 20.0" Properties=species:S:1:pos:R:3:momenta:R:3 pbc="T T T"
Cr       0.01311874       3.44180465      10.00066049       0.00000000       0.00000000       0.00000000
Cr       2.97413089       1.73226349      10.00066049       0.00000000       0.00000000       0.00000000
Cr       6.08216211       3.52668615      10.00066049       0.00000000       0.00000000       0.00000000
Cr       9.06941175       1.74540910      10.03623546       0.00000000       0.00000000       0.00000000
Cr      -3.02313725       8.72704552      10.03623546       0.00000000       0.00000000       0.00000000
Cr       0.01311874       7.03064998      10.00066049       0.00000000       0.00000000       0.00000000
Cr       2.97413089       8.74019114      10.00066049       0.00000000       0.00000000       0.00000000
Cr       6.08216211       6.94576848      10.00066049       0.00000000       0.00000000       0.00000000
Cl      -0.85217015       5.23622731       8.70449062       0.00000000       0.00000000       0.00000000
Cl       4.96079095       1.88011266       8.70449062       0.00000000       0.00000000       0.00000000
Cl       1.92055872       3.32650529       8.59554271       0.00000000       0.00000000       0.00000000
Cl       1.16347535       5.23622731      11.33380813       0.00000000       0.00000000       0.00000000
Cl      -1.91781289       3.37633579      11.39045858       0.00000000       0.00000000       0.00000000
Cl       1.03911352       1.79979741      11.36703179       0.00000000       0.00000000       0.00000000
Cl       5.22829430       5.23622731       8.59554271       0.00000000       0.00000000       0.00000000
Cl      10.99030512       1.82218264       8.65606936       0.00000000       0.00000000       0.00000000
Cl       8.04247723       3.37056480       8.65606936       0.00000000       0.00000000       0.00000000
Cl       6.99118471       5.23622731      11.36703179       0.00000000       0.00000000       0.00000000
Cl       3.95296820       3.62571287      11.33380813       0.00000000       0.00000000       0.00000000
Cl       7.10432562       1.88718474      11.39045858       0.00000000       0.00000000       0.00000000
Cl      -3.91709611      10.42897475       8.65606936       0.00000000       0.00000000       0.00000000
Cl       1.92055872       7.14594934       8.59554271       0.00000000       0.00000000       0.00000000
Cl      -1.10224387       8.65027199       8.65606936       0.00000000       0.00000000       0.00000000
Cl       3.88289901       0.02729322      11.39045858       0.00000000       0.00000000       0.00000000
Cl       7.10432562       8.58526989      11.39045858       0.00000000       0.00000000       0.00000000
Cl      -1.91781289       7.09611883      11.39045858       0.00000000       0.00000000       0.00000000
Cl       8.17545289       0.04347988       8.65606936       0.00000000       0.00000000       0.00000000
Cl      -4.05007177       7.10188983       8.65606936       0.00000000       0.00000000       0.00000000
Cl       4.96079095       8.59234197       8.70449062       0.00000000       0.00000000       0.00000000
Cl       3.88289901      10.44516141      11.39045858       0.00000000       0.00000000       0.00000000
Cl       1.03911352       8.67265722      11.36703179       0.00000000       0.00000000       0.00000000
Cl       3.95296820       6.84674176      11.33380813       0.00000000       0.00000000       0.00000000
H        3.02313725       5.23622731      11.24177873       0.00000000       0.00000000       0.00000000
