       N       E                     dE             d eps       ncg     rms          rms(c)
DAV:   1     0.214462989598E+04    0.21446E+04   -0.64833E+04  3108   0.902E+02
DAV:   2     0.404835712725E+03   -0.17398E+04   -0.16246E+04  3766   0.240E+02
DAV:   3    -0.113480796596E+03   -0.51832E+03   -0.50434E+03  4312   0.135E+02
DAV:   4    -0.152258378402E+03   -0.38778E+02   -0.38422E+02  4396   0.556E+01
DAV:   5    -0.153157949220E+03   -0.89957E+00   -0.89863E+00  4746   0.910E+00    0.421E+01
DAV:   6    -0.172561513852E+03   -0.19404E+02   -0.22168E+02  4984   0.668E+01    0.935E+01
DAV:   7    -0.147059598289E+03    0.25502E+02   -0.14220E+02  4494   0.274E+01    0.323E+01
DAV:   8    -0.149659918209E+03   -0.26003E+01   -0.24675E+01  4046   0.700E+01    0.748E+01
DAV:   9    -0.147194790457E+03    0.24651E+01   -0.14405E+02  5474   0.232E+01    0.185E+01
DAV:  10    -0.147726621732E+03   -0.53183E+00   -0.35923E+00  4704   0.120E+01    0.135E+01
DAV:  11    -0.147121587009E+03    0.60503E+00   -0.82643E-01  3892   0.868E+00    0.117E+01
DAV:  12    -0.146476770496E+03    0.64482E+00   -0.30560E-01  5278   0.635E+00    0.106E+01
DAV:  13    -0.145654744526E+03    0.82203E+00   -0.32536E-01  5306   0.714E+00    0.899E+00
DAV:  14    -0.144532713894E+03    0.11220E+01   -0.78909E-01  4914   0.809E+00    0.522E+00
DAV:  15    -0.144400177059E+03    0.13254E+00   -0.39803E-01  4466   0.149E+00    0.351E+00
DAV:  16    -0.144418214371E+03   -0.18037E-01   -0.29689E-02  4438   0.641E-01    0.371E+00
DAV:  17    -0.144372664559E+03    0.45550E-01   -0.34119E-01  5250   0.197E+00    0.640E+00
DAV:  18    -0.144361863527E+03    0.10801E-01   -0.20743E-02  4186   0.475E-01    0.607E+00
DAV:  19    -0.144342338303E+03    0.19525E-01   -0.55646E-02  4760   0.808E-01    0.292E+00
DAV:  20    -0.144374786100E+03   -0.32448E-01   -0.15702E-02  4578   0.445E-01    0.309E+00
DAV:  21    -0.144388480422E+03   -0.13694E-01   -0.22243E-02  4788   0.457E-01    0.819E-01
DAV:  22    -0.144476603146E+03   -0.88123E-01   -0.28453E-02  4242   0.381E-01    0.139E+00
DAV:  23    -0.144518623050E+03   -0.42020E-01   -0.13301E-02  4774   0.195E-01    0.256E+00
DAV:  24    -0.144538034875E+03   -0.19412E-01   -0.17414E-02  4620   0.363E-01    0.687E-01
DAV:  25    -0.144599897776E+03   -0.61863E-01   -0.14173E-02  4536   0.310E-01    0.615E-01
DAV:  26    -0.144639627859E+03   -0.39730E-01   -0.36284E-03  4200   0.179E-01    0.125E-01
DAV:  27    -0.144665648766E+03   -0.26021E-01   -0.10333E-03  4172   0.108E-01    0.279E-01
DAV:  28    -0.144700698932E+03   -0.35050E-01   -0.10921E-03  3458   0.607E-02    0.252E-01
DAV:  29    -0.144722535261E+03   -0.21836E-01   -0.99833E-04  4116   0.740E-02    0.370E-02
DAV:  30    -0.144726253718E+03   -0.37185E-02   -0.22360E-04  4550   0.402E-02    0.136E-01
DAV:  31    -0.144727318925E+03   -0.10652E-02   -0.14146E-04  4662   0.357E-02    0.186E-02
DAV:  32    -0.144727691143E+03   -0.37222E-03   -0.16087E-05  3822   0.111E-02    0.369E-02
DAV:  33    -0.144727941324E+03   -0.25018E-03   -0.48712E-06  3136   0.485E-03    0.464E-02
DAV:  34    -0.144728228421E+03   -0.28710E-03   -0.39188E-05  3612   0.148E-02    0.209E-02
DAV:  35    -0.144728275588E+03   -0.47166E-04   -0.37349E-06  3164   0.562E-03    0.691E-03
DAV:  36    -0.144728298367E+03   -0.22779E-04   -0.50387E-07  2450   0.234E-03    0.332E-03
DAV:  37    -0.144728323051E+03   -0.24684E-04   -0.10842E-06  2296   0.251E-03    0.808E-03
DAV:  38    -0.144728356739E+03   -0.33689E-04   -0.21976E-06  2464   0.445E-03    0.114E-02
DAV:  39    -0.144728376678E+03   -0.19938E-04   -0.89172E-07  2450   0.343E-03    0.118E-03
DAV:  40    -0.144728397805E+03   -0.21127E-04   -0.69312E-07  2436   0.192E-03    0.348E-03
DAV:  41    -0.144728409454E+03   -0.11649E-04   -0.35854E-07  2380   0.211E-03    0.126E-03
DAV:  42    -0.144728413400E+03   -0.39454E-05   -0.20992E-07  2170   0.123E-03    0.791E-04
DAV:  43    -0.144728419331E+03   -0.59313E-05   -0.19801E-07  2282   0.115E-03    0.111E-03
DAV:  44    -0.144728422906E+03   -0.35751E-05   -0.19881E-07  2296   0.110E-03    0.336E-04
DAV:  45    -0.144728423692E+03   -0.78614E-06   -0.94572E-08  2184   0.883E-04
   1 F= -.15092921E+03 E0= -.15092919E+03  d E =-.150929E+03  mag=    24.0000
       N       E                     dE             d eps       ncg     rms          rms(c)
DAV:   1    -0.144700795773E+03    0.27627E-01   -0.61253E+01  3080   0.149E+01    0.523E+00
DAV:   2    -0.145741938543E+03   -0.10411E+01   -0.67224E+00  4802   0.897E+00    0.114E+01
DAV:   3    -0.145268059058E+03    0.47388E+00   -0.25181E+00  4396   0.109E+01    0.118E+01
DAV:   4    -0.145144402840E+03    0.12366E+00   -0.83134E-01  4732   0.329E+00    0.334E+00
DAV:   5    -0.145136438389E+03    0.79645E-02   -0.54670E-02  4690   0.893E-01    0.178E+00
DAV:   6    -0.145135520213E+03    0.91818E-03   -0.62203E-02  4984   0.732E-01    0.231E+00
DAV:   7    -0.145128341479E+03    0.71787E-02   -0.20132E-02  4942   0.670E-01    0.725E-01
DAV:   8    -0.145130724413E+03   -0.23829E-02   -0.21174E-03  4466   0.190E-01    0.104E+00
DAV:   9    -0.145131637602E+03   -0.91319E-03   -0.22838E-03  4732   0.161E-01    0.438E-01
DAV:  10    -0.145135120957E+03   -0.34834E-02   -0.12217E-03  4788   0.929E-02    0.901E-02
DAV:  11    -0.145139046562E+03   -0.39256E-02   -0.26914E-04  3948   0.514E-02    0.552E-02
DAV:  12    -0.145142367421E+03   -0.33209E-02   -0.10538E-04  4746   0.291E-02    0.592E-02
DAV:  13    -0.145144218703E+03   -0.18513E-02   -0.35666E-05  4564   0.229E-02    0.119E-02
DAV:  14    -0.145146163925E+03   -0.19452E-02   -0.22232E-05  3472   0.102E-02    0.113E-02
DAV:  15    -0.145147890002E+03   -0.17261E-02   -0.22916E-05  3416   0.789E-03    0.679E-03
DAV:  16    -0.145149296828E+03   -0.14068E-02   -0.27384E-05  3430   0.748E-03    0.738E-03
DAV:  17    -0.145150125219E+03   -0.82839E-03   -0.21910E-05  3346   0.623E-03    0.937E-03
DAV:  18    -0.145150347658E+03   -0.22244E-03   -0.63539E-06  3514   0.464E-03    0.214E-03
DAV:  19    -0.145150397996E+03   -0.50338E-04   -0.11229E-06  2618   0.201E-03    0.390E-03
DAV:  20    -0.145150411214E+03   -0.13218E-04   -0.45641E-07  2352   0.177E-03    0.813E-04
DAV:  21    -0.145150415934E+03   -0.47207E-05   -0.29591E-07  2380   0.141E-03    0.983E-04
DAV:  22    -0.145150418366E+03   -0.24315E-05   -0.20798E-07  2282   0.116E-03    0.556E-04
DAV:  23    -0.145150419292E+03   -0.92597E-06   -0.11303E-07  2142   0.988E-04
   2 F= -.15133348E+03 E0= -.15133347E+03  d E =-.404273E+00  mag=    24.0000
       N       E                     dE             d eps       ncg     rms          rms(c)
DAV:   1    -0.144999410133E+03    0.15101E+00   -0.35019E+01  3080   0.112E+01    0.386E+00
DAV:   2    -0.145509012163E+03   -0.50960E+00   -0.31782E+00  4732   0.639E+00    0.889E+00
DAV:   3    -0.145373923335E+03    0.13509E+00   -0.13949E+00  4424   0.763E+00    0.106E+01
DAV:   4    -0.145237144227E+03    0.13678E+00   -0.45257E-01  4690   0.278E+00    0.159E+00
DAV:   5    -0.145242703735E+03   -0.55595E-02   -0.24765E-02  4130   0.465E-01    0.132E+00
DAV:   6    -0.145241600378E+03    0.11034E-02   -0.29375E-02  5040   0.625E-01    0.169E+00
DAV:   7    -0.145238128268E+03    0.34721E-02   -0.96726E-03  4858   0.476E-01    0.798E-01
DAV:   8    -0.145237932211E+03    0.19606E-03   -0.12563E-03  5054   0.137E-01    0.365E-01
DAV:   9    -0.145239602056E+03   -0.16698E-02   -0.33125E-04  4410   0.731E-02    0.255E-01
DAV:  10    -0.145242027341E+03   -0.24253E-02   -0.24617E-04  4578   0.494E-02    0.103E-01
DAV:  11    -0.145244495676E+03   -0.24683E-02   -0.18359E-04  4452   0.397E-02    0.627E-02
DAV:  12    -0.145246535179E+03   -0.20395E-02   -0.66974E-05  3990   0.312E-02    0.137E-02
DAV:  13    -0.145247840341E+03   -0.13052E-02   -0.15147E-05  4102   0.945E-03    0.123E-02
DAV:  14    -0.145249133296E+03   -0.12930E-02   -0.11766E-05  3276   0.624E-03    0.926E-03
DAV:  15    -0.145250382050E+03   -0.12488E-02   -0.16013E-05  3458   0.643E-03    0.559E-03
DAV:  16    -0.145251320700E+03   -0.93865E-03   -0.15371E-05  3290   0.568E-03    0.571E-03
DAV:  17    -0.145251968469E+03   -0.64777E-03   -0.16581E-05  3318   0.529E-03    0.436E-03
DAV:  18    -0.145252123813E+03   -0.15534E-03   -0.40910E-06  3416   0.354E-03    0.211E-03
DAV:  19    -0.145252152265E+03   -0.28451E-04   -0.53588E-07  2464   0.174E-03    0.192E-03
DAV:  20    -0.145252159584E+03   -0.73195E-05   -0.23164E-07  2352   0.133E-03    0.763E-04
DAV:  21    -0.145252164842E+03   -0.52578E-05   -0.29400E-07  2296   0.127E-03    0.638E-04
DAV:  22    -0.145252166115E+03   -0.12726E-05   -0.14694E-07  2226   0.120E-03    0.604E-04
DAV:  23    -0.145252166647E+03   -0.53194E-06   -0.86269E-08  2100   0.819E-04
   3 F= -.15142119E+03 E0= -.15142119E+03  d E =-.491981E+00  mag=    24.0000
       N       E                     dE             d eps       ncg     rms          rms(c)
DAV:   1    -0.145220257469E+03    0.31909E-01   -0.30051E+01  3080   0.101E+01    0.320E+00
DAV:   2    -0.145630883191E+03   -0.41063E+00   -0.20920E+00  4830   0.637E+00    0.891E+00
DAV:   3    -0.145397766764E+03    0.23312E+00   -0.82242E-01  4592   0.630E+00    0.549E+00
DAV:   4    -0.145365845437E+03    0.31921E-01   -0.12936E-01  4844   0.195E+00    0.129E+00
DAV:   5    -0.145365142185E+03    0.70325E-03   -0.13835E-02  4228   0.316E-01    0.106E+00
DAV:   6    -0.145358717985E+03    0.64242E-02   -0.68557E-03  4760   0.347E-01    0.456E-01
DAV:   7    -0.145356237188E+03    0.24808E-02   -0.57101E-03  4788   0.245E-01    0.599E-01
DAV:   8    -0.145357916820E+03   -0.16796E-02   -0.13850E-03  4578   0.166E-01    0.151E-01
DAV:   9    -0.145359977883E+03   -0.20611E-02   -0.21079E-04  4256   0.545E-02    0.160E-01
DAV:  10    -0.145362728610E+03   -0.27507E-02   -0.10919E-04  4732   0.460E-02    0.646E-02
DAV:  11    -0.145365565501E+03   -0.28369E-02   -0.10844E-04  4522   0.347E-02    0.578E-02
DAV:  12    -0.145367127604E+03   -0.15621E-02   -0.31744E-05  4214   0.215E-02    0.141E-02
DAV:  13    -0.145368428923E+03   -0.13013E-02   -0.11956E-05  3542   0.690E-03    0.788E-03
DAV:  14    -0.145370044281E+03   -0.16154E-02   -0.21194E-05  3416   0.811E-03    0.514E-03
DAV:  15    -0.145370921936E+03   -0.87765E-03   -0.11468E-05  3514   0.605E-03    0.100E-02
DAV:  16    -0.145371664794E+03   -0.74286E-03   -0.13298E-05  3332   0.695E-03    0.514E-03
DAV:  17    -0.145372038258E+03   -0.37346E-03   -0.77677E-06  3500   0.438E-03    0.422E-03
DAV:  18    -0.145372203466E+03   -0.16521E-03   -0.33622E-06  3108   0.277E-03    0.137E-03
DAV:  19    -0.145372250895E+03   -0.47429E-04   -0.86149E-07  2646   0.197E-03    0.734E-04
DAV:  20    -0.145372259768E+03   -0.88730E-05   -0.28118E-07  2338   0.161E-03    0.704E-04
DAV:  21    -0.145372265081E+03   -0.53126E-05   -0.37993E-07  2492   0.138E-03    0.704E-04
DAV:  22    -0.145372265797E+03   -0.71608E-06   -0.16773E-07  2030   0.136E-03
   4 F= -.15153497E+03 E0= -.15153497E+03  d E =-.113784E+00  mag=    24.0000
       N       E                     dE             d eps       ncg     rms          rms(c)
DAV:   1    -0.145331203475E+03    0.41062E-01   -0.13295E+01  3080   0.665E+00    0.209E+00
DAV:   2    -0.145480957907E+03   -0.14975E+00   -0.79989E-01  4620   0.384E+00    0.577E+00
DAV:   3    -0.145419006953E+03    0.61951E-01   -0.32084E-01  4564   0.365E+00    0.443E+00
DAV:   4    -0.145392036526E+03    0.26970E-01   -0.55205E-02  4774   0.141E+00    0.602E-01
DAV:   5    -0.145392764064E+03   -0.72754E-03   -0.57295E-03  4578   0.202E-01    0.667E-01
DAV:   6    -0.145389995026E+03    0.27690E-02   -0.28105E-03  4620   0.249E-01    0.330E-01
DAV:   7    -0.145388739029E+03    0.12560E-02   -0.22404E-03  4522   0.151E-01    0.269E-01
DAV:   8    -0.145389709594E+03   -0.97056E-03   -0.31960E-04  4354   0.716E-02    0.116E-01
DAV:   9    -0.145390707580E+03   -0.99799E-03   -0.75151E-05  4690   0.301E-02    0.563E-02
DAV:  10    -0.145391932085E+03   -0.12245E-02   -0.26162E-05  4480   0.180E-02    0.385E-02
DAV:  11    -0.145393301846E+03   -0.13698E-02   -0.31349E-05  4410   0.186E-02    0.261E-02
DAV:  12    -0.145394214883E+03   -0.91304E-03   -0.12197E-05  3738   0.935E-03    0.158E-02
DAV:  13    -0.145394976352E+03   -0.76147E-03   -0.72006E-06  3374   0.710E-03    0.791E-03
DAV:  14    -0.145395703711E+03   -0.72736E-03   -0.83563E-06  3388   0.585E-03    0.517E-03
DAV:  15    -0.145396246470E+03   -0.54276E-03   -0.67944E-06  3346   0.400E-03    0.245E-03
DAV:  16    -0.145396712088E+03   -0.46562E-03   -0.89125E-06  3248   0.389E-03    0.229E-03
DAV:  17    -0.145396871404E+03   -0.15932E-03   -0.27488E-06  3178   0.275E-03    0.882E-04
DAV:  18    -0.145396949532E+03   -0.78129E-04   -0.14414E-06  2814   0.182E-03    0.109E-03
DAV:  19    -0.145396970552E+03   -0.21019E-04   -0.37646E-07  2478   0.152E-03    0.419E-04
DAV:  20    -0.145396976409E+03   -0.58571E-05   -0.23344E-07  2282   0.132E-03    0.443E-04
DAV:  21    -0.145396978179E+03   -0.17696E-05   -0.18389E-07  2170   0.120E-03    0.382E-04
DAV:  22    -0.145396978673E+03   -0.49473E-06   -0.10782E-07  1946   0.965E-04
   5 F= -.15155524E+03 E0= -.15155524E+03  d E =-.134054E+00  mag=    24.0000
       N       E                     dE             d eps       ncg     rms          rms(c)
DAV:   1    -0.145367314005E+03    0.29664E-01   -0.20431E+01  3080   0.719E+00    0.202E+00
DAV:   2    -0.145480249273E+03   -0.11294E+00   -0.81990E-01  4410   0.332E+00    0.425E+00
DAV:   3    -0.145504613243E+03   -0.24364E-01   -0.26358E-01  4676   0.321E+00    0.661E+00
DAV:   4    -0.145435417029E+03    0.69196E-01   -0.74874E-02  4648   0.157E+00    0.724E-01
DAV:   5    -0.145440796291E+03   -0.53793E-02   -0.66875E-03  4298   0.214E-01    0.480E-01
DAV:   6    -0.145442124648E+03   -0.13284E-02   -0.54246E-03  4536   0.351E-01    0.110E+00
DAV:   7    -0.145439131408E+03    0.29932E-02   -0.21580E-03  4942   0.253E-01    0.283E-01
DAV:   8    -0.145439782499E+03   -0.65109E-03   -0.58222E-04  4900   0.782E-02    0.575E-02
DAV:   9    -0.145440401912E+03   -0.61941E-03   -0.94735E-05  4480   0.440E-02    0.844E-02
DAV:  10    -0.145440978366E+03   -0.57645E-03   -0.31379E-05  4662   0.261E-02    0.184E-02
DAV:  11    -0.145441464745E+03   -0.48638E-03   -0.11299E-05  3892   0.945E-03    0.149E-02
DAV:  12    -0.145441967656E+03   -0.50291E-03   -0.60525E-06  3556   0.679E-03    0.498E-03
DAV:  13    -0.145442362719E+03   -0.39506E-03   -0.37680E-06  3248   0.464E-03    0.386E-03
DAV:  14    -0.145442696220E+03   -0.33350E-03   -0.28808E-06  3052   0.324E-03    0.339E-03
DAV:  15    -0.145442969810E+03   -0.27359E-03   -0.24221E-06  3010   0.279E-03    0.189E-03
DAV:  16    -0.145443187263E+03   -0.21745E-03   -0.24441E-06  2940   0.252E-03    0.139E-03
DAV:  17    -0.145443334988E+03   -0.14773E-03   -0.21879E-06  2870   0.240E-03    0.881E-04
DAV:  18    -0.145443396075E+03   -0.61087E-04   -0.83771E-07  2562   0.197E-03    0.130E-03
DAV:  19    -0.145443417719E+03   -0.21644E-04   -0.37329E-07  2324   0.179E-03    0.107E-03
DAV:  20    -0.145443432906E+03   -0.15187E-04   -0.43651E-07  2324   0.148E-03    0.718E-04
DAV:  21    -0.145443438364E+03   -0.54583E-05   -0.24607E-07  2254   0.154E-03    0.470E-04
DAV:  22    -0.145443440679E+03   -0.23144E-05   -0.20754E-07  2212   0.104E-03    0.480E-04
DAV:  23    -0.145443441184E+03   -0.50533E-06   -0.10075E-07  1988   0.107E-03
   6 F= -.15160725E+03 E0= -.15160725E+03  d E =-.520091E-01  mag=    24.0000
       N       E                     dE             d eps       ncg     rms          rms(c)
DAV:   1    -0.145400591135E+03    0.42850E-01   -0.14068E+01  3080   0.593E+00    0.167E+00
DAV:   2    -0.145468999784E+03   -0.68409E-01   -0.53656E-01  4396   0.257E+00    0.311E+00
DAV:   3    -0.145506914971E+03   -0.37915E-01   -0.15601E-01  4746   0.251E+00    0.613E+00
DAV:   4    -0.145444937820E+03    0.61977E-01   -0.43857E-02  4550   0.140E+00    0.682E-01
DAV:   5    -0.145450316229E+03   -0.53784E-02   -0.55953E-03  4256   0.197E-01    0.394E-01
DAV:   6    -0.145451949701E+03   -0.16335E-02   -0.42026E-03  4438   0.321E-01    0.106E+00
DAV:   7    -0.145449117459E+03    0.28322E-02   -0.16065E-03  4942   0.245E-01    0.195E-01
DAV:   8    -0.145449755164E+03   -0.63771E-03   -0.45733E-04  4480   0.655E-02    0.691E-02
DAV:   9    -0.145450224909E+03   -0.46974E-03   -0.72318E-05  4186   0.411E-02    0.524E-02
DAV:  10    -0.145450647327E+03   -0.42242E-03   -0.17170E-05  4550   0.183E-02    0.161E-02
DAV:  11    -0.145450995162E+03   -0.34784E-03   -0.60593E-06  3696   0.698E-03    0.136E-02
DAV:  12    -0.145451395549E+03   -0.40039E-03   -0.45697E-06  3332   0.650E-03    0.436E-03
DAV:  13    -0.145451692967E+03   -0.29742E-03   -0.29628E-06  3206   0.452E-03    0.345E-03
DAV:  14    -0.145451913798E+03   -0.22083E-03   -0.15200E-06  2618   0.279E-03    0.259E-03
DAV:  15    -0.145452131513E+03   -0.21771E-03   -0.20747E-06  2982   0.262E-03    0.185E-03
DAV:  16    -0.145452314192E+03   -0.18268E-03   -0.20193E-06  2828   0.244E-03    0.168E-03
DAV:  17    -0.145452433157E+03   -0.11896E-03   -0.16585E-06  2702   0.226E-03    0.961E-04
DAV:  18    -0.145452482330E+03   -0.49174E-04   -0.65068E-07  2422   0.196E-03    0.102E-03
DAV:  19    -0.145452498574E+03   -0.16243E-04   -0.31815E-07  2296   0.170E-03    0.868E-04
DAV:  20    -0.145452519513E+03   -0.20939E-04   -0.66177E-07  2478   0.142E-03    0.562E-04
DAV:  21    -0.145452522806E+03   -0.32929E-05   -0.16370E-07  2058   0.140E-03    0.231E-04
DAV:  22    -0.145452525878E+03   -0.30722E-05   -0.17008E-07  2282   0.775E-04    0.380E-04
DAV:  23    -0.145452526391E+03   -0.51294E-06   -0.65935E-08  1960   0.959E-04
   7 F= -.15162080E+03 E0= -.15162080E+03  d E =-.655608E-01  mag=    24.0000
       N       E                     dE             d eps       ncg     rms          rms(c)
DAV:   1    -0.145418593019E+03    0.33933E-01   -0.12755E+01  3080   0.572E+00    0.170E+00
DAV:   2    -0.145460946325E+03   -0.42353E-01   -0.32354E-01  4396   0.187E+00    0.130E+00
DAV:   3    -0.145522785067E+03   -0.61839E-01   -0.83700E-02  4732   0.182E+00    0.620E+00
DAV:   4    -0.145455821449E+03    0.66964E-01   -0.43923E-02  4592   0.139E+00    0.572E-01
DAV:   5    -0.145462539999E+03   -0.67186E-02   -0.49618E-03  3906   0.175E-01    0.315E-01
DAV:   6    -0.145463909765E+03   -0.13698E-02   -0.23522E-03  4424   0.228E-01    0.855E-01
DAV:   7    -0.145462534368E+03    0.13754E-02   -0.16383E-03  4620   0.240E-01    0.609E-02
DAV:   8    -0.145463288869E+03   -0.75450E-03   -0.30976E-04  3724   0.487E-02    0.698E-02
DAV:   9    -0.145463747346E+03   -0.45848E-03   -0.50327E-05  4326   0.375E-02    0.541E-02
DAV:  10    -0.145464175596E+03   -0.42825E-03   -0.19347E-05  4452   0.213E-02    0.155E-02
DAV:  11    -0.145464528104E+03   -0.35251E-03   -0.59677E-06  3458   0.844E-03    0.115E-02
DAV:  12    -0.145464915142E+03   -0.38704E-03   -0.49285E-06  3360   0.603E-03    0.983E-03
DAV:  13    -0.145465152767E+03   -0.23763E-03   -0.19769E-06  2898   0.440E-03    0.341E-03
DAV:  14    -0.145465288568E+03   -0.13580E-03   -0.88943E-07  2534   0.263E-03    0.309E-03
DAV:  15    -0.145465537762E+03   -0.24919E-03   -0.35820E-06  3178   0.390E-03    0.408E-03
DAV:  16    -0.145465774529E+03   -0.23677E-03   -0.51821E-06  3262   0.326E-03    0.211E-03
DAV:  17    -0.145465829472E+03   -0.54943E-04   -0.65987E-07  2562   0.158E-03    0.143E-03
DAV:  18    -0.145465847935E+03   -0.18464E-04   -0.30595E-07  2366   0.151E-03    0.757E-04
DAV:  19    -0.145465860163E+03   -0.12228E-04   -0.31288E-07  2324   0.119E-03    0.626E-04
DAV:  20    -0.145465872179E+03   -0.12016E-04   -0.59594E-07  2352   0.148E-03    0.424E-04
DAV:  21    -0.145465873500E+03   -0.13210E-05   -0.16500E-07  1988   0.130E-03    0.256E-04
DAV:  22    -0.145465874159E+03   -0.65863E-06   -0.10863E-07  2170   0.707E-04
   8 F= -.15164461E+03 E0= -.15164461E+03  d E =-.238083E-01  mag=    24.0000
       N       E                     dE             d eps       ncg     rms          rms(c)
DAV:   1    -0.145450368777E+03    0.15505E-01   -0.37030E+00  3080   0.307E+00    0.913E-01
DAV:   2    -0.145461450079E+03   -0.11081E-01   -0.89878E-02  4172   0.988E-01    0.470E-01
DAV:   3    -0.145464019715E+03   -0.25696E-02   -0.43096E-03  4634   0.298E-01    0.700E-01
DAV:   4    -0.145463246873E+03    0.77284E-03   -0.16594E-03  4676   0.254E-01    0.275E-01
DAV:   5    -0.145462984402E+03    0.26247E-03   -0.39383E-04  4620   0.114E-01    0.242E-01
DAV:   6    -0.145462550457E+03    0.43395E-03   -0.65021E-04  4354   0.721E-02    0.108E-01
DAV:   7    -0.145462707935E+03   -0.15748E-03   -0.15371E-04  4648   0.534E-02    0.697E-02
DAV:   8    -0.145462842469E+03   -0.13453E-03   -0.36309E-05  4438   0.323E-02    0.225E-02
DAV:   9    -0.145463018826E+03   -0.17636E-03   -0.56979E-06  3416   0.742E-03    0.136E-02
DAV:  10    -0.145463239670E+03   -0.22084E-03   -0.40845E-06  3136   0.778E-03    0.869E-03
DAV:  11    -0.145463423519E+03   -0.18385E-03   -0.36342E-06  3262   0.736E-03    0.291E-03
DAV:  12    -0.145463543117E+03   -0.11960E-03   -0.11768E-06  2604   0.331E-03    0.234E-03
DAV:  13    -0.145463618877E+03   -0.75760E-04   -0.57570E-07  2366   0.223E-03    0.198E-03
DAV:  14    -0.145463734375E+03   -0.11550E-03   -0.16633E-06  2758   0.235E-03    0.127E-03
DAV:  15    -0.145463820381E+03   -0.86006E-04   -0.10336E-06  2604   0.202E-03    0.121E-03
DAV:  16    -0.145463854793E+03   -0.34411E-04   -0.44446E-07  2422   0.195E-03    0.110E-03
DAV:  17    -0.145463876107E+03   -0.21315E-04   -0.40692E-07  2338   0.159E-03    0.723E-04
DAV:  18    -0.145463893310E+03   -0.17203E-04   -0.50688E-07  2436   0.155E-03    0.649E-04
DAV:  19    -0.145463898823E+03   -0.55129E-05   -0.26949E-07  2212   0.143E-03    0.322E-04
DAV:  20    -0.145463900993E+03   -0.21701E-05   -0.20218E-07  2142   0.109E-03    0.414E-04
DAV:  21    -0.145463901430E+03   -0.43699E-06   -0.92211E-08  1946   0.953E-04
   9 F= -.15164823E+03 E0= -.15164823E+03  d E =-.274313E-01  mag=    24.0000
       N       E                     dE             d eps       ncg     rms          rms(c)
DAV:   1    -0.145439382347E+03    0.24519E-01   -0.10162E+01  3080   0.506E+00    0.146E+00
DAV:   2    -0.145475925387E+03   -0.36543E-01   -0.30264E-01  4368   0.182E+00    0.186E+00
DAV:   3    -0.145526281297E+03   -0.50356E-01   -0.10961E-01  4466   0.211E+00    0.603E+00
DAV:   4    -0.145464035451E+03    0.62246E-01   -0.55338E-02  4410   0.146E+00    0.403E-01
DAV:   5    -0.145470068158E+03   -0.60327E-02   -0.50828E-03  4172   0.183E-01    0.359E-01
DAV:   6    -0.145471025610E+03   -0.95745E-03   -0.22317E-03  4522   0.245E-01    0.630E-01
DAV:   7    -0.145470252487E+03    0.77312E-03   -0.10875E-03  4970   0.174E-01    0.101E-01
DAV:   8    -0.145470466378E+03   -0.21389E-03   -0.19190E-04  4956   0.529E-02    0.823E-02
DAV:   9    -0.145470529358E+03   -0.62980E-04   -0.35414E-05  4452   0.283E-02    0.284E-02
DAV:  10    -0.145470571460E+03   -0.42103E-04   -0.69803E-06  3836   0.152E-02    0.125E-02
DAV:  11    -0.145470611421E+03   -0.39961E-04   -0.31895E-06  2618   0.624E-03    0.619E-03
DAV:  12    -0.145470645338E+03   -0.33917E-04   -0.11463E-06  2352   0.568E-03    0.813E-03
DAV:  13    -0.145470680586E+03   -0.35248E-04   -0.92682E-07  2226   0.435E-03    0.285E-03
DAV:  14    -0.145470711345E+03   -0.30759E-04   -0.78789E-07  2352   0.292E-03    0.225E-03
DAV:  15    -0.145470729487E+03   -0.18142E-04   -0.37332E-07  2002   0.261E-03    0.194E-03
DAV:  16    -0.145470753041E+03   -0.23554E-04   -0.38605E-07  2352   0.202E-03    0.119E-03
DAV:  17    -0.145470773973E+03   -0.20932E-04   -0.39789E-07  2366   0.166E-03    0.853E-04
DAV:  18    -0.145470785700E+03   -0.11728E-04   -0.28132E-07  2156   0.138E-03    0.766E-04
DAV:  19    -0.145470789484E+03   -0.37838E-05   -0.13729E-07  1960   0.115E-03    0.378E-04
DAV:  20    -0.145470795351E+03   -0.58670E-05   -0.15755E-07  2128   0.787E-04    0.334E-04
DAV:  21    -0.145470799122E+03   -0.37712E-05   -0.10978E-07  2002   0.891E-04    0.285E-04
DAV:  22    -0.145470800399E+03   -0.12763E-05   -0.65012E-08  1960   0.655E-04    0.195E-04
DAV:  23    -0.145470800876E+03   -0.47766E-06   -0.35501E-08  1960   0.531E-04
  10 F= -.15166379E+03 E0= -.15166379E+03  d E =-.155617E-01  mag=    24.0000
       N       E                     dE             d eps       ncg     rms          rms(c)
DAV:   1    -0.145453655890E+03    0.17145E-01   -0.47125E+00  3080   0.344E+00    0.987E-01
DAV:   2    -0.145468778352E+03   -0.15122E-01   -0.13720E-01  4368   0.121E+00    0.944E-01
DAV:   3    -0.145491439340E+03   -0.22661E-01   -0.42224E-02  4550   0.127E+00    0.374E+00
DAV:   4    -0.145465669436E+03    0.25770E-01   -0.24421E-02  4452   0.965E-01    0.266E-01
DAV:   5    -0.145467745616E+03   -0.20762E-02   -0.21638E-03  4158   0.117E-01    0.238E-01
DAV:   6    -0.145468164815E+03   -0.41920E-03   -0.10394E-03  4564   0.161E-01    0.422E-01
DAV:   7    -0.145467804204E+03    0.36061E-03   -0.54342E-04  4886   0.124E-01    0.419E-02
DAV:   8    -0.145467927306E+03   -0.12310E-03   -0.91285E-05  4900   0.340E-02    0.672E-02
DAV:   9    -0.145467954419E+03   -0.27113E-04   -0.18829E-05  4438   0.223E-02    0.145E-02
DAV:  10    -0.145467978335E+03   -0.23916E-04   -0.27627E-06  2856   0.908E-03    0.982E-03
DAV:  11    -0.145468003330E+03   -0.24995E-04   -0.22909E-06  2464   0.521E-03    0.401E-03
DAV:  12    -0.145468020877E+03   -0.17547E-04   -0.82188E-07  2100   0.436E-03    0.715E-03
DAV:  13    -0.145468037320E+03   -0.16443E-04   -0.49097E-07  2156   0.362E-03    0.171E-03
DAV:  14    -0.145468054630E+03   -0.17310E-04   -0.38185E-07  2184   0.202E-03    0.135E-03
DAV:  15    -0.145468066954E+03   -0.12325E-04   -0.19748E-07  2030   0.167E-03    0.978E-04
DAV:  16    -0.145468079419E+03   -0.12465E-04   -0.17363E-07  2114   0.117E-03    0.671E-04
DAV:  17    -0.145468087235E+03   -0.78153E-05   -0.12403E-07  2044   0.106E-03    0.546E-04
DAV:  18    -0.145468094793E+03   -0.75586E-05   -0.13436E-07  2114   0.894E-04    0.453E-04
DAV:  19    -0.145468099166E+03   -0.43723E-05   -0.96075E-08  2044   0.849E-04    0.273E-04
DAV:  20    -0.145468101984E+03   -0.28184E-05   -0.74585E-08  2002   0.704E-04    0.264E-04
DAV:  21    -0.145468103896E+03   -0.19123E-05   -0.59128E-08  1960   0.625E-04    0.169E-04
DAV:  22    -0.145468104713E+03   -0.81623E-06   -0.36389E-08  1946   0.498E-04
  11 F= -.15166693E+03 E0= -.15166693E+03  d E =-.186951E-01  mag=    24.0000
       N       E                     dE             d eps       ncg     rms          rms(c)
DAV:   1    -0.145437379908E+03    0.30724E-01   -0.67888E+00  3080   0.451E+00    0.139E+00
DAV:   2    -0.145462542175E+03   -0.25162E-01   -0.19054E-01  4284   0.142E+00    0.774E-01
DAV:   3    -0.145476381129E+03   -0.13839E-01   -0.17990E-02  4648   0.724E-01    0.202E+00
DAV:   4    -0.145468484625E+03    0.78965E-02   -0.99894E-03  4592   0.616E-01    0.316E-01
DAV:   5    -0.145468436319E+03    0.48306E-04   -0.97792E-04  4032   0.905E-02    0.229E-01
DAV:   6    -0.145467554262E+03    0.88206E-03   -0.92676E-04  4522   0.976E-02    0.225E-01
DAV:   7    -0.145467651008E+03   -0.96746E-04   -0.43345E-04  4774   0.102E-01    0.800E-02
DAV:   8    -0.145468192479E+03   -0.54147E-03   -0.63993E-05  4480   0.380E-02    0.268E-02
DAV:   9    -0.145468671671E+03   -0.47919E-03   -0.82925E-06  3738   0.101E-02    0.188E-02
DAV:  10    -0.145469135152E+03   -0.46348E-03   -0.48021E-06  3290   0.758E-03    0.150E-02
DAV:  11    -0.145469966103E+03   -0.83095E-03   -0.14914E-05  3626   0.876E-03    0.422E-03
DAV:  12    -0.145470194420E+03   -0.22832E-03   -0.18767E-06  2940   0.443E-03    0.389E-03
DAV:  13    -0.145470502976E+03   -0.30856E-03   -0.29682E-06  3080   0.332E-03    0.339E-03
DAV:  14    -0.145470803884E+03   -0.30091E-03   -0.30242E-06  3164   0.278E-03    0.184E-03
DAV:  15    -0.145471022886E+03   -0.21900E-03   -0.25603E-06  3094   0.241E-03    0.141E-03
DAV:  16    -0.145471141509E+03   -0.11862E-03   -0.15129E-06  2898   0.203E-03    0.145E-03
DAV:  17    -0.145471206409E+03   -0.64900E-04   -0.10103E-06  2646   0.187E-03    0.851E-04
DAV:  18    -0.145471223586E+03   -0.17177E-04   -0.31275E-07  2324   0.164E-03    0.908E-04
DAV:  19    -0.145471233036E+03   -0.94502E-05   -0.31753E-07  2380   0.138E-03    0.524E-04
DAV:  20    -0.145471235688E+03   -0.26521E-05   -0.17230E-07  2128   0.124E-03    0.553E-04
DAV:  21    -0.145471236349E+03   -0.66122E-06   -0.96955E-08  1918   0.853E-04
  12 F= -.15167365E+03 E0= -.15167365E+03  d E =-.671749E-02  mag=    24.0000
       N       E                     dE             d eps       ncg     rms          rms(c)
DAV:   1    -0.145470528802E+03    0.70689E-03   -0.79212E-02  3262   0.485E-01    0.149E-01
DAV:   2    -0.145470707253E+03   -0.17845E-03   -0.21540E-03  4284   0.151E-01    0.103E-01
DAV:   3    -0.145471119808E+03   -0.41255E-03   -0.48041E-04  4648   0.134E-01    0.354E-01
DAV:   4    -0.145470817076E+03    0.30273E-03   -0.27395E-04  4522   0.109E-01    0.311E-02
DAV:   5    -0.145470827532E+03   -0.10456E-04   -0.26529E-05  3738   0.128E-02    0.255E-02
DAV:   6    -0.145470796699E+03    0.30834E-04   -0.17353E-05  4382   0.197E-02    0.570E-02
DAV:   7    -0.145470765752E+03    0.30946E-04   -0.10013E-05  3724   0.168E-02    0.421E-03
DAV:   8    -0.145470783178E+03   -0.17425E-04   -0.22781E-06  2772   0.481E-03    0.869E-03
DAV:   9    -0.145470803281E+03   -0.20103E-04   -0.67218E-07  2268   0.492E-03    0.322E-03
DAV:  10    -0.145470820877E+03   -0.17596E-04   -0.22541E-07  1974   0.187E-03    0.215E-03
DAV:  11    -0.145470842005E+03   -0.21128E-04   -0.22352E-07  2142   0.139E-03    0.135E-03
DAV:  12    -0.145470861203E+03   -0.19198E-04   -0.20166E-07  2142   0.138E-03    0.116E-03
DAV:  13    -0.145470879411E+03   -0.18208E-04   -0.23347E-07  2114   0.143E-03    0.968E-04
DAV:  14    -0.145470888327E+03   -0.89159E-05   -0.16248E-07  1988   0.129E-03    0.566E-04
DAV:  15    -0.145470896376E+03   -0.80493E-05   -0.14918E-07  2100   0.876E-04    0.465E-04
DAV:  16    -0.145470907468E+03   -0.11092E-04   -0.20043E-07  2268   0.959E-04    0.457E-04
DAV:  17    -0.145470913173E+03   -0.57048E-05   -0.16506E-07  2114   0.102E-03    0.369E-04
DAV:  18    -0.145470914610E+03   -0.14375E-05   -0.92343E-08  1960   0.856E-04    0.222E-04
DAV:  19    -0.145470915098E+03   -0.48823E-06   -0.49890E-08  1946   0.582E-04
  13 F= -.15167371E+03 E0= -.15167371E+03  d E =-.677689E-02  mag=    24.0000
       N       E                     dE             d eps       ncg     rms          rms(c)
DAV:   1    -0.145467982510E+03    0.29321E-02   -0.10036E+00  3080   0.173E+00    0.509E-01
DAV:   2    -0.145472414529E+03   -0.44320E-02   -0.36078E-02  4410   0.661E-01    0.661E-01
DAV:   3    -0.145477564932E+03   -0.51504E-02   -0.13227E-02  4438   0.714E-01    0.159E+00
DAV:   4    -0.145471850893E+03    0.57140E-02   -0.63642E-03  4438   0.534E-01    0.165E-01
DAV:   5    -0.145472206160E+03   -0.35527E-03   -0.61875E-04  4004   0.630E-02    0.182E-01
DAV:   6    -0.145472080667E+03    0.12549E-03   -0.27136E-04  4536   0.866E-02    0.181E-01
DAV:   7    -0.145471903293E+03    0.17737E-03   -0.16815E-04  4760   0.562E-02    0.314E-02
DAV:   8    -0.145471924490E+03   -0.21196E-04   -0.26717E-05  4774   0.188E-02    0.336E-02
DAV:   9    -0.145471991733E+03   -0.67243E-04   -0.94595E-06  3766   0.150E-02    0.137E-02
DAV:  10    -0.145472055084E+03   -0.63351E-04   -0.15693E-06  2632   0.696E-03    0.115E-02
DAV:  11    -0.145472110920E+03   -0.55836E-04   -0.12573E-06  2464   0.494E-03    0.266E-03
DAV:  12    -0.145472159181E+03   -0.48261E-04   -0.11589E-06  2380   0.360E-03    0.276E-03
DAV:  13    -0.145472192149E+03   -0.32968E-04   -0.58176E-07  2240   0.344E-03    0.227E-03
DAV:  14    -0.145472227165E+03   -0.35016E-04   -0.52430E-07  2296   0.230E-03    0.135E-03
DAV:  15    -0.145472264259E+03   -0.37093E-04   -0.49861E-07  2324   0.191E-03    0.941E-04
DAV:  16    -0.145472293151E+03   -0.28892E-04   -0.45637E-07  2310   0.161E-03    0.701E-04
DAV:  17    -0.145472308241E+03   -0.15090E-04   -0.30534E-07  2156   0.153E-03    0.578E-04
DAV:  18    -0.145472320291E+03   -0.12050E-04   -0.29129E-07  2226   0.129E-03    0.608E-04
DAV:  19    -0.145472330111E+03   -0.98207E-05   -0.30698E-07  2254   0.128E-03    0.457E-04
DAV:  20    -0.145472332950E+03   -0.28389E-05   -0.17609E-07  2016   0.116E-03    0.227E-04
DAV:  21    -0.145472333774E+03   -0.82332E-06   -0.95698E-08  1946   0.830E-04
  14 F= -.15167516E+03 E0= -.15167516E+03  d E =-.145441E-02  mag=    24.0000
       N       E                     dE             d eps       ncg     rms          rms(c)
DAV:   1    -0.145472213021E+03    0.11993E-03   -0.35446E-02  3304   0.325E-01    0.963E-02
DAV:   2    -0.145472361892E+03   -0.14887E-03   -0.12773E-03  4396   0.126E-01    0.151E-01
DAV:   3    -0.145472534232E+03   -0.17234E-03   -0.52404E-04  4396   0.142E-01    0.308E-01
DAV:   4    -0.145472321905E+03    0.21233E-03   -0.21961E-04  4396   0.972E-02    0.284E-02
DAV:   5    -0.145472350227E+03   -0.28322E-04   -0.21250E-05  3822   0.119E-02    0.332E-02
DAV:   6    -0.145472341002E+03    0.92257E-05   -0.89511E-06  3290   0.159E-02    0.324E-02
DAV:   7    -0.145472327321E+03    0.13680E-04   -0.69106E-06  4046   0.109E-02    0.583E-03
DAV:   8    -0.145472328605E+03   -0.12835E-05   -0.82958E-07  2128   0.397E-03    0.528E-03
DAV:   9    -0.145472334852E+03   -0.62466E-05   -0.36763E-07  1988   0.339E-03    0.231E-03
DAV:  10    -0.145472339181E+03   -0.43295E-05   -0.17140E-07  1946   0.216E-03    0.335E-03
DAV:  11    -0.145472344473E+03   -0.52921E-05   -0.15178E-07  1932   0.156E-03    0.121E-03
DAV:  12    -0.145472346559E+03   -0.20862E-05   -0.45934E-08  1946   0.829E-04    0.105E-03
DAV:  13    -0.145472349638E+03   -0.30784E-05   -0.32383E-08  1974   0.859E-04    0.111E-03
DAV:  14    -0.145472354410E+03   -0.47723E-05   -0.50858E-08  2086   0.599E-04    0.534E-04
DAV:  15    -0.145472357640E+03   -0.32298E-05   -0.39766E-08  1918   0.512E-04    0.275E-04
DAV:  16    -0.145472359171E+03   -0.15310E-05   -0.21363E-08  1946   0.477E-04    0.227E-04
DAV:  17    -0.145472360208E+03   -0.10371E-05   -0.14735E-08  1932   0.339E-04    0.157E-04
DAV:  18    -0.145472361937E+03   -0.17296E-05   -0.18126E-08  1960   0.323E-04    0.163E-04
DAV:  19    -0.145472363288E+03   -0.13503E-05   -0.17565E-08  1932   0.348E-04    0.124E-04
DAV:  20    -0.145472363743E+03   -0.45558E-06   -0.10229E-08  1960   0.302E-04
  15 F= -.15167519E+03 E0= -.15167519E+03  d E =-.148968E-02  mag=    24.0000
       N       E                     dE             d eps       ncg     rms          rms(c)
DAV:   1    -0.145470199069E+03    0.21642E-02   -0.54754E-01  3080   0.130E+00    0.376E-01
DAV:   2    -0.145471974306E+03   -0.17752E-02   -0.15073E-02  4270   0.373E-01    0.182E-01
DAV:   3    -0.145472736092E+03   -0.76179E-03   -0.77373E-04  3990   0.112E-01    0.246E-01
DAV:   4    -0.145472603323E+03    0.13277E-03   -0.26961E-04  4494   0.981E-02    0.102E-01
DAV:   5    -0.145472471027E+03    0.13230E-03   -0.54641E-05  4676   0.332E-02    0.580E-02
DAV:   6    -0.145472212052E+03    0.25898E-03   -0.11648E-04  3850   0.272E-02    0.568E-02
DAV:   7    -0.145472234937E+03   -0.22886E-04   -0.23068E-05  4396   0.216E-02    0.115E-02
DAV:   8    -0.145472326768E+03   -0.91830E-04   -0.32041E-06  2744   0.661E-03    0.729E-03
DAV:   9    -0.145472428915E+03   -0.10215E-03   -0.15783E-06  2506   0.473E-03    0.481E-03
DAV:  10    -0.145472487655E+03   -0.58740E-04   -0.95787E-07  2170   0.382E-03    0.389E-03
DAV:  11    -0.145472567675E+03   -0.80021E-04   -0.12896E-06  2534   0.334E-03    0.240E-03
DAV:  12    -0.145472648645E+03   -0.80969E-04   -0.10734E-06  2590   0.299E-03    0.174E-03
DAV:  13    -0.145472722033E+03   -0.73388E-04   -0.88413E-07  2492   0.246E-03    0.114E-03
DAV:  14    -0.145472769305E+03   -0.47273E-04   -0.52092E-07  2408   0.192E-03    0.887E-04
DAV:  15    -0.145472824490E+03   -0.55185E-04   -0.10471E-06  2562   0.183E-03    0.832E-04
DAV:  16    -0.145472850588E+03   -0.26097E-04   -0.42864E-07  2366   0.151E-03    0.487E-04
DAV:  17    -0.145472860358E+03   -0.97700E-05   -0.24141E-07  2170   0.129E-03    0.378E-04
DAV:  18    -0.145472867191E+03   -0.68338E-05   -0.22548E-07  2100   0.110E-03    0.362E-04
DAV:  19    -0.145472869903E+03   -0.27112E-05   -0.13841E-07  2044   0.103E-03    0.199E-04
DAV:  20    -0.145472871042E+03   -0.11395E-05   -0.95508E-08  1904   0.750E-04    0.148E-04
DAV:  21    -0.145472871395E+03   -0.35258E-06   -0.53342E-08  1988   0.661E-04
  16 F= -.15167577E+03 E0= -.15167577E+03  d E =-.579788E-03  mag=    24.0000
