CrCl3 2x2 S2 (D3, U=3.29eV) from relaxed
   1.00000000000000     
    12.0925489970493256    0.0000000000000000    0.0000000000000000
    -6.0462744985246628   10.4724546279527502    0.0000000000000000
     0.0000000000000000    0.0000000000000000   20.0000000000000000
   Cr   Cl   Co
     8    24     1
Direct
     0.1617367802680361    0.3273807392133147    0.4990583411670550
     0.3273807392133147    0.1617367802680361    0.4990583411670550
     0.6726192607866854    0.3343560410547072    0.4990583411670550
     0.8333333333333286    0.1666666666666714    0.4982859020828411
     0.1666666666666714    0.8333333333333286    0.4982859020828411
     0.3343560410547072    0.6726192607866854    0.4990583411670550
     0.6656439589452928    0.8382632197319640    0.4990583411670550
     0.8382632197319640    0.6656439589452928    0.4990583411670550
     0.1785916192130160    0.5000000000000000    0.4336746667753081
     0.5000000000000000    0.1785916192130160    0.4336746667753081
     0.3234978326480989    0.3234978326480989    0.4337634872444703
     0.3200966551828654    0.5000000000000000    0.5736368778526437
     0.9984721102960277    0.3213245826225867    0.5672978469473344
     0.1723912106648667    0.1723912106648667    0.5680689449125937
     0.6765021673519013    0.5000000000000000    0.4337634872444703
     0.9959485703863928    0.1726403569014482    0.4299896583552376
     0.8273596430985518    0.3233082134849377    0.4299896583552376
     0.8276087893351332    0.5000000000000000    0.5680689449125937
     0.5000000000000000    0.3200966551828654    0.5736368778526437
     0.6786754173774133    0.1771475276734410    0.5672978469473344
     0.1726403569014482    0.9959485703863928    0.4299896583552376
     0.5000000000000000    0.6765021673519013    0.4337634872444703
     0.3233082134849377    0.8273596430985518    0.4299896583552376
     0.3213245826225867    0.9984721102960277    0.5672978469473344
     0.0015278897039724    0.8228524723265589    0.5672978469473344
     0.1771475276734410    0.6786754173774133    0.5672978469473344
     0.6766917865150625    0.0040514296136071    0.4299896583552376
     0.0040514296136071    0.6766917865150625    0.4299896583552376
     0.8214083807869841    0.8214083807869841    0.4336746667753081
     0.8228524723265589    0.0015278897039724    0.5672978469473344
     0.5000000000000000    0.8276087893351332    0.5680689449125937
     0.6799033448171347    0.6799033448171347    0.5736368778526437
     0.5000000000000000    0.5000000000000000    0.5929211866614860
 
  0.00000000E+00  0.00000000E+00  0.00000000E+00
  0.00000000E+00  0.00000000E+00  0.00000000E+00
  0.00000000E+00  0.00000000E+00  0.00000000E+00
  0.00000000E+00  0.00000000E+00  0.00000000E+00
  0.00000000E+00  0.00000000E+00  0.00000000E+00
  0.00000000E+00  0.00000000E+00  0.00000000E+00
  0.00000000E+00  0.00000000E+00  0.00000000E+00
  0.00000000E+00  0.00000000E+00  0.00000000E+00
  0.00000000E+00  0.00000000E+00  0.00000000E+00
  0.00000000E+00  0.00000000E+00  0.00000000E+00
  0.00000000E+00  0.00000000E+00  0.00000000E+00
  0.00000000E+00  0.00000000E+00  0.00000000E+00
  0.00000000E+00  0.00000000E+00  0.00000000E+00
  0.00000000E+00  0.00000000E+00  0.00000000E+00
  0.00000000E+00  0.00000000E+00  0.00000000E+00
  0.00000000E+00  0.00000000E+00  0.00000000E+00
  0.00000000E+00  0.00000000E+00  0.00000000E+00
  0.00000000E+00  0.00000000E+00  0.00000000E+00
  0.00000000E+00  0.00000000E+00  0.00000000E+00
  0.00000000E+00  0.00000000E+00  0.00000000E+00
  0.00000000E+00  0.00000000E+00  0.00000000E+00
  0.00000000E+00  0.00000000E+00  0.00000000E+00
  0.00000000E+00  0.00000000E+00  0.00000000E+00
  0.00000000E+00  0.00000000E+00  0.00000000E+00
  0.00000000E+00  0.00000000E+00  0.00000000E+00
  0.00000000E+00  0.00000000E+00  0.00000000E+00
  0.00000000E+00  0.00000000E+00  0.00000000E+00
  0.00000000E+00  0.00000000E+00  0.00000000E+00
  0.00000000E+00  0.00000000E+00  0.00000000E+00
  0.00000000E+00  0.00000000E+00  0.00000000E+00
  0.00000000E+00  0.00000000E+00  0.00000000E+00
  0.00000000E+00  0.00000000E+00  0.00000000E+00
  0.00000000E+00  0.00000000E+00  0.00000000E+00
