       N       E                     dE             d eps       ncg     rms          rms(c)
DAV:   1     0.213394771296E+04    0.21339E+04   -0.64737E+04  3120   0.911E+02
DAV:   2     0.412655740145E+03   -0.17213E+04   -0.16078E+04  3728   0.243E+02
DAV:   3    -0.115136616762E+03   -0.52779E+03   -0.51575E+03  4496   0.138E+02
DAV:   4    -0.153208295886E+03   -0.38072E+02   -0.37397E+02  4560   0.516E+01
DAV:   5    -0.153987638515E+03   -0.77934E+00   -0.77614E+00  4624   0.930E+00    0.408E+01
DAV:   6    -0.146252672178E+03    0.77350E+01   -0.14902E+02  5008   0.586E+01    0.363E+01
DAV:   7    -0.145172962804E+03    0.10797E+01   -0.16704E+01  4664   0.371E+01    0.198E+01
DAV:   8    -0.145738536525E+03   -0.56557E+00   -0.43568E+00  4608   0.707E+00    0.119E+01
DAV:   9    -0.149076420995E+03   -0.33379E+01   -0.91755E+00  4744   0.169E+01    0.206E+01
DAV:  10    -0.145491687873E+03    0.35847E+01   -0.43696E+00  4048   0.300E+01    0.734E+00
DAV:  11    -0.145856941019E+03   -0.36525E+00   -0.23198E+00  4904   0.654E+00    0.106E+01
DAV:  12    -0.145742181784E+03    0.11476E+00   -0.44796E-01  4760   0.347E+00    0.279E+00
DAV:  13    -0.145837159827E+03   -0.94978E-01   -0.68092E-02  4216   0.117E+00    0.239E+00
DAV:  14    -0.145863549254E+03   -0.26389E-01   -0.63155E-02  4296   0.739E-01    0.195E+00
DAV:  15    -0.145907914455E+03   -0.44365E-01   -0.41968E-02  4264   0.331E-01    0.166E+00
DAV:  16    -0.145946358172E+03   -0.38444E-01   -0.11749E-02  5120   0.328E-01    0.143E+00
DAV:  17    -0.145999701309E+03   -0.53343E-01   -0.38329E-03  4616   0.279E-01    0.116E+00
DAV:  18    -0.146025295263E+03   -0.25594E-01   -0.30690E-03  5256   0.252E-01    0.951E-01
DAV:  19    -0.146039428437E+03   -0.14133E-01   -0.23609E-03  4656   0.104E-01    0.818E-01
DAV:  20    -0.146056332093E+03   -0.16904E-01   -0.27025E-03  4416   0.161E-01    0.631E-01
DAV:  21    -0.146067681716E+03   -0.11350E-01   -0.31874E-03  4792   0.235E-01    0.423E-01
DAV:  22    -0.146070285916E+03   -0.26042E-02   -0.95584E-04  4536   0.866E-02    0.333E-01
DAV:  23    -0.146072983240E+03   -0.26973E-02   -0.13445E-03  4696   0.130E-01    0.179E-01
DAV:  24    -0.146075878012E+03   -0.28948E-02   -0.68336E-04  4432   0.797E-02    0.962E-02
DAV:  25    -0.146078088352E+03   -0.22103E-02   -0.15958E-04  3768   0.334E-02    0.716E-02
DAV:  26    -0.146078849375E+03   -0.76102E-03   -0.72972E-05  4744   0.325E-02    0.381E-02
DAV:  27    -0.146080298452E+03   -0.14491E-02   -0.36216E-05  3176   0.122E-02    0.323E-02
DAV:  28    -0.146081658357E+03   -0.13599E-02   -0.44993E-05  3448   0.102E-02    0.247E-02
DAV:  29    -0.146082103232E+03   -0.44487E-03   -0.15728E-05  3280   0.105E-02    0.155E-02
DAV:  30    -0.146082291285E+03   -0.18805E-03   -0.67721E-06  3144   0.711E-03    0.781E-03
DAV:  31    -0.146082378698E+03   -0.87413E-04   -0.31696E-06  2768   0.442E-03    0.333E-03
DAV:  32    -0.146082408698E+03   -0.29999E-04   -0.87407E-07  2312   0.261E-03    0.232E-03
DAV:  33    -0.146082414658E+03   -0.59600E-05   -0.24886E-07  2152   0.189E-03    0.242E-03
DAV:  34    -0.146082421553E+03   -0.68953E-05   -0.19834E-07  2184   0.166E-03    0.159E-03
DAV:  35    -0.146082426970E+03   -0.54173E-05   -0.19493E-07  2208   0.118E-03    0.855E-04
DAV:  36    -0.146082430483E+03   -0.35122E-05   -0.12626E-07  2056   0.100E-03    0.370E-04
DAV:  37    -0.146082433032E+03   -0.25491E-05   -0.93497E-08  2064   0.836E-04    0.280E-04
DAV:  38    -0.146082434903E+03   -0.18717E-05   -0.62888E-08  2024   0.645E-04    0.239E-04
DAV:  39    -0.146082436554E+03   -0.16502E-05   -0.61246E-08  2104   0.565E-04    0.198E-04
DAV:  40    -0.146082437238E+03   -0.68432E-06   -0.34487E-08  1920   0.530E-04
   1 F= -.15224519E+03 E0= -.15223339E+03  d E =-.152245E+03  mag=    27.0000
       N       E                     dE             d eps       ncg     rms          rms(c)
DAV:   1    -0.146110731286E+03   -0.28295E-01   -0.11375E+01  3040   0.668E+00    0.241E+00
DAV:   2    -0.146194376527E+03   -0.83645E-01   -0.95131E-01  4392   0.400E+00    0.168E+00
DAV:   3    -0.146192429288E+03    0.19472E-02   -0.26597E-02  4512   0.107E+00    0.906E-01
DAV:   4    -0.146190714819E+03    0.17145E-02   -0.45197E-03  4800   0.349E-01    0.723E-01
DAV:   5    -0.146189662216E+03    0.10526E-02   -0.59432E-03  5176   0.378E-01    0.511E-01
DAV:   6    -0.146189079187E+03    0.58303E-03   -0.44978E-03  4696   0.338E-01    0.212E-01
DAV:   7    -0.146189212332E+03   -0.13315E-03   -0.59534E-04  4512   0.160E-01    0.702E-02
DAV:   8    -0.146189345620E+03   -0.13329E-03   -0.56241E-05  4560   0.308E-02    0.610E-02
DAV:   9    -0.146189526444E+03   -0.18082E-03   -0.24704E-05  4064   0.332E-02    0.517E-02
DAV:  10    -0.146189732037E+03   -0.20559E-03   -0.17990E-05  4024   0.162E-02    0.329E-02
DAV:  11    -0.146189886297E+03   -0.15426E-03   -0.86565E-06  3888   0.782E-03    0.148E-02
DAV:  12    -0.146190031281E+03   -0.14498E-03   -0.20081E-06  2608   0.641E-03    0.462E-03
DAV:  13    -0.146190136546E+03   -0.10527E-03   -0.24607E-06  2696   0.415E-03    0.311E-03
DAV:  14    -0.146190205141E+03   -0.68595E-04   -0.78703E-07  2264   0.345E-03    0.157E-03
DAV:  15    -0.146190279202E+03   -0.74061E-04   -0.10924E-06  2400   0.268E-03    0.199E-03
DAV:  16    -0.146190360576E+03   -0.81375E-04   -0.15705E-06  2664   0.272E-03    0.214E-03
DAV:  17    -0.146190393849E+03   -0.33273E-04   -0.47758E-07  2272   0.196E-03    0.126E-03
DAV:  18    -0.146190415360E+03   -0.21511E-04   -0.36234E-07  2200   0.163E-03    0.131E-03
DAV:  19    -0.146190445893E+03   -0.30532E-04   -0.10524E-06  2448   0.194E-03    0.926E-04
DAV:  20    -0.146190455022E+03   -0.91298E-05   -0.41079E-07  2256   0.164E-03    0.496E-04
DAV:  21    -0.146190455854E+03   -0.83167E-06   -0.17655E-07  1968   0.132E-03
   2 F= -.15233680E+03 E0= -.15232439E+03  d E =-.916065E-01  mag=    27.0000
       N       E                     dE             d eps       ncg     rms          rms(c)
DAV:   1    -0.146137820804E+03    0.52634E-01   -0.15123E+01  3040   0.770E+00    0.276E+00
DAV:   2    -0.146248671537E+03   -0.11085E+00   -0.12572E+00  4376   0.460E+00    0.195E+00
DAV:   3    -0.146246044802E+03    0.26267E-02   -0.34734E-02  4480   0.122E+00    0.102E+00
DAV:   4    -0.146243741347E+03    0.23035E-02   -0.60334E-03  4792   0.396E-01    0.819E-01
DAV:   5    -0.146242432317E+03    0.13090E-02   -0.73167E-03  5240   0.427E-01    0.589E-01
DAV:   6    -0.146241595626E+03    0.83669E-03   -0.57612E-03  4704   0.374E-01    0.252E-01
DAV:   7    -0.146241777290E+03   -0.18166E-03   -0.81562E-04  4440   0.181E-01    0.823E-02
DAV:   8    -0.146241947301E+03   -0.17001E-03   -0.75680E-05  4608   0.359E-02    0.696E-02
DAV:   9    -0.146242171614E+03   -0.22431E-03   -0.31589E-05  4264   0.376E-02    0.597E-02
DAV:  10    -0.146242433401E+03   -0.26179E-03   -0.21203E-05  4048   0.177E-02    0.385E-02
DAV:  11    -0.146242627288E+03   -0.19389E-03   -0.11692E-05  4240   0.901E-03    0.178E-02
DAV:  12    -0.146242807830E+03   -0.18054E-03   -0.25948E-06  2736   0.693E-03    0.569E-03
DAV:  13    -0.146242951614E+03   -0.14378E-03   -0.30242E-06  2864   0.429E-03    0.290E-03
DAV:  14    -0.146243032114E+03   -0.80500E-04   -0.80043E-07  2312   0.328E-03    0.189E-03
DAV:  15    -0.146243119154E+03   -0.87040E-04   -0.11642E-06  2504   0.277E-03    0.209E-03
DAV:  16    -0.146243224747E+03   -0.10559E-03   -0.20752E-06  2736   0.285E-03    0.234E-03
DAV:  17    -0.146243259981E+03   -0.35234E-04   -0.42487E-07  2256   0.197E-03    0.137E-03
DAV:  18    -0.146243295618E+03   -0.35637E-04   -0.59764E-07  2320   0.175E-03    0.155E-03
DAV:  19    -0.146243327863E+03   -0.32245E-04   -0.10866E-06  2464   0.231E-03    0.939E-04
DAV:  20    -0.146243337162E+03   -0.92987E-05   -0.50598E-07  2256   0.188E-03    0.661E-04
DAV:  21    -0.146243338007E+03   -0.84484E-06   -0.23472E-07  1992   0.152E-03
   3 F= -.15237054E+03 E0= -.15235750E+03  d E =-.125348E+00  mag=    27.0000
       N       E                     dE             d eps       ncg     rms          rms(c)
DAV:   1    -0.146242358487E+03    0.97868E-03   -0.29938E-02  3192   0.341E-01    0.131E-01
DAV:   2    -0.146242557408E+03   -0.19892E-03   -0.23963E-03  4376   0.201E-01    0.842E-02
DAV:   3    -0.146242566973E+03   -0.95656E-05   -0.74168E-05  4488   0.588E-02    0.488E-02
DAV:   4    -0.146242561763E+03    0.52104E-05   -0.11998E-05  3976   0.197E-02    0.377E-02
DAV:   5    -0.146242557476E+03    0.42870E-05   -0.13716E-05  3920   0.182E-02    0.277E-02
DAV:   6    -0.146242554860E+03    0.26158E-05   -0.11624E-05  4160   0.164E-02    0.126E-02
DAV:   7    -0.146242556236E+03   -0.13763E-05   -0.13499E-06  2216   0.903E-03    0.463E-03
DAV:   8    -0.146242558179E+03   -0.19421E-05   -0.46594E-07  1920   0.264E-03    0.250E-03
DAV:   9    -0.146242560178E+03   -0.19990E-05   -0.18530E-07  1880   0.206E-03    0.296E-03
DAV:  10    -0.146242562273E+03   -0.20953E-05   -0.65300E-08  1872   0.113E-03    0.224E-03
DAV:  11    -0.146242564044E+03   -0.17713E-05   -0.33777E-08  1888   0.786E-04    0.183E-03
DAV:  12    -0.146242566385E+03   -0.23410E-05   -0.34879E-08  1880   0.619E-04    0.100E-03
DAV:  13    -0.146242567757E+03   -0.13720E-05   -0.29570E-08  1928   0.618E-04    0.528E-04
DAV:  14    -0.146242568547E+03   -0.79006E-06   -0.18258E-08  1896   0.530E-04
   4 F= -.15237063E+03 E0= -.15235761E+03  d E =-.125434E+00  mag=    27.0000
       N       E                     dE             d eps       ncg     rms          rms(c)
DAV:   1    -0.146237387759E+03    0.51800E-02   -0.13767E+00  3080   0.234E+00    0.873E-01
DAV:   2    -0.146245979435E+03   -0.85917E-02   -0.48936E-02  4240   0.772E-01    0.459E-01
DAV:   3    -0.146250026136E+03   -0.40467E-02   -0.49226E-03  4304   0.365E-01    0.208E-01
DAV:   4    -0.146249402033E+03    0.62410E-03   -0.94160E-04  5144   0.183E-01    0.140E-01
DAV:   5    -0.146248822651E+03    0.57938E-03   -0.32170E-04  4808   0.103E-01    0.922E-02
DAV:   6    -0.146247776497E+03    0.10462E-02   -0.37775E-04  4248   0.620E-02    0.357E-02
DAV:   7    -0.146248017222E+03   -0.24072E-03   -0.47118E-05  4224   0.277E-02    0.258E-02
DAV:   8    -0.146248453918E+03   -0.43670E-03   -0.12865E-05  3960   0.951E-03    0.169E-02
DAV:   9    -0.146248955404E+03   -0.50149E-03   -0.75777E-06  3320   0.970E-03    0.886E-03
DAV:  10    -0.146249544533E+03   -0.58913E-03   -0.85162E-06  3416   0.734E-03    0.469E-03
DAV:  11    -0.146249919087E+03   -0.37455E-03   -0.35913E-06  2968   0.589E-03    0.336E-03
DAV:  12    -0.146250255707E+03   -0.33662E-03   -0.36333E-06  3048   0.415E-03    0.277E-03
DAV:  13    -0.146250521450E+03   -0.26574E-03   -0.25673E-06  2808   0.270E-03    0.212E-03
DAV:  14    -0.146250750243E+03   -0.22879E-03   -0.28213E-06  2808   0.270E-03    0.144E-03
DAV:  15    -0.146250885925E+03   -0.13568E-03   -0.19129E-06  2688   0.237E-03    0.104E-03
DAV:  16    -0.146250945651E+03   -0.59726E-04   -0.88509E-07  2400   0.218E-03    0.983E-04
DAV:  17    -0.146250963185E+03   -0.17534E-04   -0.39606E-07  2224   0.197E-03    0.739E-04
DAV:  18    -0.146250974556E+03   -0.11370E-04   -0.35949E-07  2224   0.142E-03    0.460E-04
DAV:  19    -0.146250981223E+03   -0.66670E-05   -0.27143E-07  2224   0.143E-03    0.465E-04
DAV:  20    -0.146250983466E+03   -0.22429E-05   -0.18980E-07  2032   0.113E-03    0.150E-04
DAV:  21    -0.146250984179E+03   -0.71348E-06   -0.11073E-07  1936   0.970E-04
   5 F= -.15237636E+03 E0= -.15236292E+03  d E =-.573009E-02  mag=    27.0000
       N       E                     dE             d eps       ncg     rms          rms(c)
DAV:   1    -0.146251140660E+03   -0.15719E-03   -0.56609E-02  3216   0.474E-01    0.178E-01
DAV:   2    -0.146251366182E+03   -0.22552E-03   -0.19734E-03  4112   0.150E-01    0.900E-02
DAV:   3    -0.146251617233E+03   -0.25105E-03   -0.22256E-04  4272   0.767E-02    0.437E-02
DAV:   4    -0.146251569825E+03    0.47408E-04   -0.42988E-05  4928   0.399E-02    0.287E-02
DAV:   5    -0.146251517297E+03    0.52528E-04   -0.11697E-05  3760   0.197E-02    0.193E-02
DAV:   6    -0.146251391231E+03    0.12607E-03   -0.18859E-05  3944   0.121E-02    0.757E-03
DAV:   7    -0.146251403452E+03   -0.12221E-04   -0.16564E-06  2352   0.499E-03    0.518E-03
DAV:   8    -0.146251441846E+03   -0.38394E-04   -0.83523E-07  2160   0.368E-03    0.435E-03
DAV:   9    -0.146251492695E+03   -0.50849E-04   -0.10313E-06  2392   0.377E-03    0.228E-03
DAV:  10    -0.146251526919E+03   -0.34224E-04   -0.58661E-07  2128   0.270E-03    0.161E-03
DAV:  11    -0.146251561287E+03   -0.34368E-04   -0.46626E-07  2200   0.198E-03    0.131E-03
DAV:  12    -0.146251598070E+03   -0.36783E-04   -0.45923E-07  2248   0.191E-03    0.106E-03
DAV:  13    -0.146251628780E+03   -0.30710E-04   -0.49941E-07  2288   0.175E-03    0.968E-04
DAV:  14    -0.146251649354E+03   -0.20575E-04   -0.36887E-07  2136   0.161E-03    0.616E-04
DAV:  15    -0.146251664378E+03   -0.15023E-04   -0.31143E-07  2096   0.140E-03    0.620E-04
DAV:  16    -0.146251671510E+03   -0.71325E-05   -0.18752E-07  1936   0.125E-03    0.333E-04
DAV:  17    -0.146251686639E+03   -0.15128E-04   -0.40574E-07  2208   0.108E-03    0.526E-04
DAV:  18    -0.146251691063E+03   -0.44241E-05   -0.18497E-07  2080   0.131E-03    0.207E-04
DAV:  19    -0.146251693029E+03   -0.19668E-05   -0.13849E-07  1960   0.760E-04    0.228E-04
DAV:  20    -0.146251693680E+03   -0.65047E-06   -0.70493E-08  1904   0.844E-04
   6 F= -.15237652E+03 E0= -.15236300E+03  d E =-.589365E-02  mag=    27.0000
       N       E                     dE             d eps       ncg     rms          rms(c)
DAV:   1    -0.146250584708E+03    0.11083E-02   -0.59401E-01  3040   0.140E+00    0.475E-01
DAV:   2    -0.146253354417E+03   -0.27697E-02   -0.25997E-02  4240   0.568E-01    0.249E-01
DAV:   3    -0.146254684613E+03   -0.13302E-02   -0.13405E-03  4328   0.219E-01    0.142E-01
DAV:   4    -0.146254628905E+03    0.55708E-04   -0.22565E-04  5048   0.864E-02    0.974E-02
DAV:   5    -0.146254602344E+03    0.26561E-04   -0.12196E-04  4912   0.567E-02    0.722E-02
DAV:   6    -0.146254578933E+03    0.23411E-04   -0.15823E-04  4640   0.567E-02    0.302E-02
DAV:   7    -0.146254610868E+03   -0.31935E-04   -0.26747E-05  4472   0.272E-02    0.106E-02
DAV:   8    -0.146254656082E+03   -0.45214E-04   -0.26323E-06  2432   0.664E-03    0.755E-03
DAV:   9    -0.146254701757E+03   -0.45675E-04   -0.18828E-06  2296   0.561E-03    0.505E-03
DAV:  10    -0.146254729178E+03   -0.27421E-04   -0.14539E-06  2064   0.521E-03    0.270E-03
DAV:  11    -0.146254757817E+03   -0.28639E-04   -0.84772E-07  2072   0.363E-03    0.216E-03
DAV:  12    -0.146254782228E+03   -0.24411E-04   -0.50254E-07  2088   0.336E-03    0.111E-03
DAV:  13    -0.146254802098E+03   -0.19870E-04   -0.39257E-07  2072   0.204E-03    0.134E-03
DAV:  14    -0.146254815395E+03   -0.13296E-04   -0.25372E-07  1976   0.176E-03    0.780E-04
DAV:  15    -0.146254824147E+03   -0.87526E-05   -0.17020E-07  1928   0.118E-03    0.631E-04
DAV:  16    -0.146254830202E+03   -0.60551E-05   -0.10374E-07  1960   0.102E-03    0.541E-04
DAV:  17    -0.146254846188E+03   -0.15986E-04   -0.24403E-07  2216   0.894E-04    0.383E-04
DAV:  18    -0.146254855689E+03   -0.95008E-05   -0.19248E-07  2128   0.109E-03    0.463E-04
DAV:  19    -0.146254857638E+03   -0.19490E-05   -0.10086E-07  1960   0.897E-04    0.228E-04
DAV:  20    -0.146254858243E+03   -0.60490E-06   -0.52886E-08  1936   0.631E-04
   7 F= -.15237883E+03 E0= -.15236517E+03  d E =-.230933E-02  mag=    27.0000
       N       E                     dE             d eps       ncg     rms          rms(c)
DAV:   1    -0.146247980467E+03    0.68772E-02   -0.12999E+00  3040   0.207E+00    0.703E-01
DAV:   2    -0.146254466170E+03   -0.64857E-02   -0.57107E-02  4208   0.844E-01    0.368E-01
DAV:   3    -0.146257022330E+03   -0.25562E-02   -0.27097E-03  4304   0.307E-01    0.207E-01
DAV:   4    -0.146256916453E+03    0.10588E-03   -0.41768E-04  5016   0.114E-01    0.143E-01
DAV:   5    -0.146256894234E+03    0.22219E-04   -0.28771E-04  4928   0.865E-02    0.106E-01
DAV:   6    -0.146256882839E+03    0.11396E-04   -0.36286E-04  4816   0.907E-02    0.462E-02
DAV:   7    -0.146256939126E+03   -0.56288E-04   -0.63129E-05  4688   0.438E-02    0.155E-02
DAV:   8    -0.146257020370E+03   -0.81244E-04   -0.70380E-06  3288   0.959E-03    0.114E-02
DAV:   9    -0.146257093616E+03   -0.73246E-04   -0.19881E-06  2360   0.597E-03    0.650E-03
DAV:  10    -0.146257153823E+03   -0.60207E-04   -0.19766E-06  2208   0.662E-03    0.365E-03
DAV:  11    -0.146257209263E+03   -0.55439E-04   -0.16597E-06  2304   0.454E-03    0.254E-03
DAV:  12    -0.146257242932E+03   -0.33669E-04   -0.78923E-07  2064   0.406E-03    0.140E-03
DAV:  13    -0.146257269043E+03   -0.26111E-04   -0.48154E-07  2120   0.239E-03    0.142E-03
DAV:  14    -0.146257293163E+03   -0.24120E-04   -0.31411E-07  2024   0.195E-03    0.110E-03
DAV:  15    -0.146257314282E+03   -0.21119E-04   -0.26853E-07  2048   0.146E-03    0.785E-04
DAV:  16    -0.146257338818E+03   -0.24535E-04   -0.31195E-07  2080   0.139E-03    0.102E-03
DAV:  17    -0.146257363371E+03   -0.24553E-04   -0.44388E-07  2240   0.148E-03    0.505E-04
DAV:  18    -0.146257373689E+03   -0.10318E-04   -0.27977E-07  2120   0.146E-03    0.656E-04
DAV:  19    -0.146257377265E+03   -0.35757E-05   -0.17223E-07  1952   0.111E-03    0.272E-04
DAV:  20    -0.146257378874E+03   -0.16096E-05   -0.98281E-08  1928   0.860E-04    0.339E-04
DAV:  21    -0.146257380751E+03   -0.18766E-05   -0.74609E-08  1968   0.645E-04    0.139E-04
DAV:  22    -0.146257383208E+03   -0.24576E-05   -0.87153E-08  2120   0.654E-04    0.190E-04
DAV:  23    -0.146257383624E+03   -0.41605E-06   -0.48350E-08  1936   0.650E-04
   8 F= -.15238009E+03 E0= -.15236621E+03  d E =-.356705E-02  mag=    27.0000
       N       E                     dE             d eps       ncg     rms          rms(c)
DAV:   1    -0.146254329945E+03    0.30533E-02   -0.70872E-01  3072   0.149E+00    0.499E-01
DAV:   2    -0.146256963626E+03   -0.26337E-02   -0.27528E-02  4168   0.554E-01    0.245E-01
DAV:   3    -0.146258748671E+03   -0.17850E-02   -0.12935E-03  4064   0.169E-01    0.136E-01
DAV:   4    -0.146258706864E+03    0.41807E-04   -0.16416E-04  4896   0.682E-02    0.967E-02
DAV:   5    -0.146258728107E+03   -0.21243E-04   -0.14976E-04  4896   0.609E-02    0.743E-02
DAV:   6    -0.146258734454E+03   -0.63465E-05   -0.18682E-04  4696   0.687E-02    0.332E-02
DAV:   7    -0.146258751068E+03   -0.16615E-04   -0.35016E-05  4832   0.314E-02    0.121E-02
DAV:   8    -0.146258795097E+03   -0.44028E-04   -0.34422E-06  2712   0.900E-03    0.826E-03
DAV:   9    -0.146258835820E+03   -0.40724E-04   -0.34731E-06  2656   0.734E-03    0.536E-03
DAV:  10    -0.146258859587E+03   -0.23766E-04   -0.11459E-06  1984   0.529E-03    0.258E-03
DAV:  11    -0.146258885701E+03   -0.26114E-04   -0.72733E-07  2064   0.281E-03    0.182E-03
DAV:  12    -0.146258915628E+03   -0.29928E-04   -0.47043E-07  2184   0.274E-03    0.132E-03
DAV:  13    -0.146258928631E+03   -0.13002E-04   -0.27518E-07  1968   0.232E-03    0.122E-03
DAV:  14    -0.146258947053E+03   -0.18422E-04   -0.29323E-07  2136   0.158E-03    0.993E-04
DAV:  15    -0.146258962550E+03   -0.15497E-04   -0.26128E-07  2048   0.149E-03    0.899E-04
DAV:  16    -0.146258971892E+03   -0.93418E-05   -0.19673E-07  2016   0.131E-03    0.760E-04
DAV:  17    -0.146258979262E+03   -0.73701E-05   -0.18113E-07  2024   0.108E-03    0.487E-04
DAV:  18    -0.146258986146E+03   -0.68841E-05   -0.19164E-07  2032   0.104E-03    0.647E-04
DAV:  19    -0.146258988869E+03   -0.27228E-05   -0.12799E-07  1928   0.992E-04    0.241E-04
DAV:  20    -0.146258989415E+03   -0.54588E-06   -0.66574E-08  1968   0.700E-04
   9 F= -.15238122E+03 E0= -.15236734E+03  d E =-.113481E-02  mag=    27.0000
       N       E                     dE             d eps       ncg     rms          rms(c)
DAV:   1    -0.146258906830E+03    0.82039E-04   -0.34064E-02  3168   0.327E-01    0.109E-01
DAV:   2    -0.146258952292E+03   -0.45462E-04   -0.13234E-03  4216   0.123E-01    0.546E-02
DAV:   3    -0.146259108177E+03   -0.15588E-03   -0.70710E-05  4072   0.437E-02    0.312E-02
DAV:   4    -0.146259103904E+03    0.42729E-05   -0.11156E-05  3328   0.209E-02    0.223E-02
DAV:   5    -0.146259102074E+03    0.18294E-05   -0.83539E-06  3216   0.144E-02    0.166E-02
DAV:   6    -0.146259101043E+03    0.10310E-05   -0.10333E-05  3632   0.132E-02    0.685E-03
DAV:   7    -0.146259103096E+03   -0.20530E-05   -0.13329E-06  2104   0.564E-03    0.290E-03
DAV:   8    -0.146259107018E+03   -0.39217E-05   -0.40731E-07  1912   0.285E-03    0.255E-03
DAV:   9    -0.146259111989E+03   -0.49713E-05   -0.31221E-07  1912   0.220E-03    0.163E-03
DAV:  10    -0.146259114625E+03   -0.26354E-05   -0.12456E-07  1904   0.183E-03    0.114E-03
DAV:  11    -0.146259116438E+03   -0.18133E-05   -0.59585E-08  1888   0.929E-04    0.881E-04
DAV:  12    -0.146259119835E+03   -0.33972E-05   -0.44724E-08  1840   0.831E-04    0.636E-04
DAV:  13    -0.146259123158E+03   -0.33226E-05   -0.50483E-08  1976   0.689E-04    0.326E-04
DAV:  14    -0.146259124801E+03   -0.16430E-05   -0.30374E-08  1904   0.676E-04    0.324E-04
DAV:  15    -0.146259126237E+03   -0.14358E-05   -0.23984E-08  1888   0.434E-04    0.187E-04
DAV:  16    -0.146259127198E+03   -0.96120E-06   -0.15536E-08  1896   0.374E-04
  10 F= -.15238125E+03 E0= -.15236738E+03  d E =-.116828E-02  mag=    27.0000
       N       E                     dE             d eps       ncg     rms          rms(c)
DAV:   1    -0.146257018645E+03    0.21076E-02   -0.43692E-01  3040   0.118E+00    0.375E-01
DAV:   2    -0.146258517556E+03   -0.14989E-02   -0.16257E-02  4208   0.413E-01    0.190E-01
DAV:   3    -0.146259882741E+03   -0.13652E-02   -0.69732E-04  3832   0.111E-01    0.944E-02
DAV:   4    -0.146259853247E+03    0.29494E-04   -0.76903E-05  4608   0.414E-02    0.696E-02
DAV:   5    -0.146259838270E+03    0.14978E-04   -0.11854E-04  4720   0.515E-02    0.556E-02
DAV:   6    -0.146259807955E+03    0.30315E-04   -0.10096E-04  5168   0.553E-02    0.208E-02
DAV:   7    -0.146259835687E+03   -0.27732E-04   -0.13532E-05  3776   0.207E-02    0.792E-03
DAV:   8    -0.146259881557E+03   -0.45870E-04   -0.20646E-06  2288   0.534E-03    0.564E-03
DAV:   9    -0.146259920174E+03   -0.38617E-04   -0.12865E-06  2144   0.398E-03    0.400E-03
DAV:  10    -0.146259953417E+03   -0.33243E-04   -0.78962E-07  2016   0.404E-03    0.227E-03
DAV:  11    -0.146259987407E+03   -0.33991E-04   -0.73632E-07  2176   0.285E-03    0.161E-03
DAV:  12    -0.146260017252E+03   -0.29845E-04   -0.52846E-07  2160   0.259E-03    0.115E-03
DAV:  13    -0.146260033191E+03   -0.15939E-04   -0.29302E-07  1968   0.194E-03    0.950E-04
DAV:  14    -0.146260048720E+03   -0.15529E-04   -0.23998E-07  2056   0.143E-03    0.757E-04
DAV:  15    -0.146260066008E+03   -0.17288E-04   -0.24418E-07  2104   0.125E-03    0.640E-04
DAV:  16    -0.146260075599E+03   -0.95910E-05   -0.17026E-07  1968   0.116E-03    0.475E-04
DAV:  17    -0.146260086816E+03   -0.11217E-04   -0.20825E-07  2112   0.991E-04    0.440E-04
DAV:  18    -0.146260095074E+03   -0.82585E-05   -0.19680E-07  2136   0.110E-03    0.384E-04
DAV:  19    -0.146260097585E+03   -0.25107E-05   -0.11687E-07  1952   0.934E-04    0.188E-04
DAV:  20    -0.146260099154E+03   -0.15689E-05   -0.80298E-08  1928   0.713E-04    0.207E-04
DAV:  21    -0.146260100363E+03   -0.12087E-05   -0.62274E-08  1952   0.620E-04    0.950E-05
DAV:  22    -0.146260100924E+03   -0.56181E-06   -0.45260E-08  2048   0.541E-04
  11 F= -.15238203E+03 E0= -.15236820E+03  d E =-.773725E-03  mag=    27.0000
