Cr8Cl24Ni1                              
   1.00000000000000     
    12.0969953537000006    0.0000000000000000    0.0000000000000000
    -6.0484976768000003   10.4763052858000005    0.0000000000000000
     0.0000000000000000    0.0000000000000000   17.6700248717999990
   Cr   Cl   Ni
     8    24     1
Direct
     0.1634735607843609    0.8365466624913154    0.3383155603167154
     0.1607212145570358    0.3334504623701946    0.3399438225033506
     0.6630440548471910    0.8392632661285688    0.3402264078331569
     0.6665067601645589    0.3369986078030749    0.3400251732476676
     0.8328065507930731    0.6695264964903984    0.3402252372047059
     0.8300757203347047    0.1699080075122623    0.3383194907804281
     0.3305044346485033    0.6729567607991171    0.3401435623631599
     0.3270211859643553    0.1672162164716013    0.3398252996459306
     0.1743540622235429    0.0010401503347879    0.2624793836161814
     0.1777481491537856    0.5033105223487055    0.2663231148131544
     0.6762821871855351    0.0051714834107628    0.2627251889490552
     0.6756949972590647    0.5033713537564353    0.2656648245654480
     0.3171878082498125    0.8255607989619662    0.2626605678290517
     0.3177478234502260    0.3243062317495031    0.2653650552017055
     0.8158652908070039    0.8223437501335340    0.2665156719484898
     0.8191975079529570    0.3236738661792913    0.2626298807939662
     0.9987311864368351    0.6826917838172548    0.2627684215804891
     0.9946381962591104    0.1807915538800486    0.2625539050789953
     0.4968390755799845    0.6821109596703110    0.2657251180805176
     0.4968804682279355    0.1843835636255235    0.2661215431848376
     0.9978833591924641    0.8240881774931310    0.4153837674792769
     0.9958640086777493    0.3230660439055910    0.4152528469518728
     0.4967154798514741    0.8270203908531215    0.4161172683462055
     0.4966651990850508    0.3247893700183369    0.4218236572936291
     0.3167920663482988    0.0023956217060572    0.4151149915437102
     0.3182608237911779    0.5030783172499653    0.4219617677849854
     0.8175643385567639    0.0042970453209392    0.4154003362279468
     0.8205003115717631    0.5031390628170413    0.4160797130822829
     0.1760247073853236    0.6834623618734383    0.4153729224444760
     0.1728803170075679    0.1792632562359060    0.4157529882328035
     0.6752112487574777    0.6817035224754662    0.4221810247695217
     0.6768649739495345    0.1824540188405805    0.4152586474731095
     0.4967833259457706    0.5032852912757946    0.4216389118331563
 
  0.00000000E+00  0.00000000E+00  0.00000000E+00
  0.00000000E+00  0.00000000E+00  0.00000000E+00
  0.00000000E+00  0.00000000E+00  0.00000000E+00
  0.00000000E+00  0.00000000E+00  0.00000000E+00
  0.00000000E+00  0.00000000E+00  0.00000000E+00
  0.00000000E+00  0.00000000E+00  0.00000000E+00
  0.00000000E+00  0.00000000E+00  0.00000000E+00
  0.00000000E+00  0.00000000E+00  0.00000000E+00
  0.00000000E+00  0.00000000E+00  0.00000000E+00
  0.00000000E+00  0.00000000E+00  0.00000000E+00
  0.00000000E+00  0.00000000E+00  0.00000000E+00
  0.00000000E+00  0.00000000E+00  0.00000000E+00
  0.00000000E+00  0.00000000E+00  0.00000000E+00
  0.00000000E+00  0.00000000E+00  0.00000000E+00
  0.00000000E+00  0.00000000E+00  0.00000000E+00
  0.00000000E+00  0.00000000E+00  0.00000000E+00
  0.00000000E+00  0.00000000E+00  0.00000000E+00
  0.00000000E+00  0.00000000E+00  0.00000000E+00
  0.00000000E+00  0.00000000E+00  0.00000000E+00
  0.00000000E+00  0.00000000E+00  0.00000000E+00
  0.00000000E+00  0.00000000E+00  0.00000000E+00
  0.00000000E+00  0.00000000E+00  0.00000000E+00
  0.00000000E+00  0.00000000E+00  0.00000000E+00
  0.00000000E+00  0.00000000E+00  0.00000000E+00
  0.00000000E+00  0.00000000E+00  0.00000000E+00
  0.00000000E+00  0.00000000E+00  0.00000000E+00
  0.00000000E+00  0.00000000E+00  0.00000000E+00
  0.00000000E+00  0.00000000E+00  0.00000000E+00
  0.00000000E+00  0.00000000E+00  0.00000000E+00
  0.00000000E+00  0.00000000E+00  0.00000000E+00
  0.00000000E+00  0.00000000E+00  0.00000000E+00
  0.00000000E+00  0.00000000E+00  0.00000000E+00
  0.00000000E+00  0.00000000E+00  0.00000000E+00
