Cr8Cl24Ni1
1.0
     12.0969954       0.0000000       0.0000000
     -6.0484977      10.4763053       0.0000000
      0.0000000       0.0000000      17.6700249
  Cr    Cl    Ni  
  8     24    1   
Direct
      0.1634736       0.8365467       0.3383156
      0.1607212       0.3334505       0.3399438
      0.6630441       0.8392633       0.3402264
      0.6665068       0.3369986       0.3400252
      0.8328066       0.6695265       0.3402252
      0.8300757       0.1699080       0.3383195
      0.3305044       0.6729568       0.3401436
      0.3270212       0.1672162       0.3398253
      0.1743541       0.0010402       0.2624794
      0.1777481       0.5033105       0.2663231
      0.6762822       0.0051715       0.2627252
      0.6756950       0.5033714       0.2656648
      0.3171878       0.8255608       0.2626606
      0.3177478       0.3243062       0.2653651
      0.8158653       0.8223438       0.2665157
      0.8191975       0.3236739       0.2626299
      0.9987312       0.6826918       0.2627684
      0.9946382       0.1807916       0.2625539
      0.4968391       0.6821110       0.2657251
      0.4968805       0.1843836       0.2661215
      0.9978834       0.8240882       0.4153838
      0.9958640       0.3230660       0.4152528
      0.4967155       0.8270204       0.4161173
      0.4966652       0.3247894       0.4218237
      0.3167921       0.0023956       0.4151150
      0.3182608       0.5030783       0.4219618
      0.8175643       0.0042970       0.4154003
      0.8205003       0.5031391       0.4160797
      0.1760247       0.6834624       0.4153729
      0.1728803       0.1792633       0.4157530
      0.6752112       0.6817035       0.4221810
      0.6768650       0.1824540       0.4152586
      0.4967833       0.5032853       0.4216389
