Cr8Cl24                                 
   1.0000000000000000     
    12.1682323165561677    0.0016454480897831    0.0000000000000000
    -6.1314979671184711   10.5521182477466997    0.0000000000000000
     0.0000000000000000    0.0000000000000000   17.6887664794999999
   Cr   Cl   Ni
     8    24     1
Direct
  0.1549910534987004  0.3417274403273783  0.3374778159594641
  0.1553031535266297  0.8413416061380306  0.3374445624856900
  0.6611701753466459  0.3391937923743104  0.3386365250037254
  0.6566606588697861  0.8447787671543159  0.3355068230713750
  0.8257596250618333  0.1752534030113669  0.3375091419886061
  0.8263534496249553  0.6761664843390341  0.3356636814790439
  0.3242529298802315  0.1724426128747670  0.3400489859556981
  0.3239327885921339  0.6795049765688728  0.3359670116057987
  0.1680329553434780  0.5100799033654599  0.2621250035561091
  0.1683057756463660  0.0098727534097021  0.2620856141133068
  0.6521844487628387  0.5035053378387075  0.2586609301842095
  0.6699877421241635  0.0102999363475731  0.2601037455549030
  0.3323231913978934  0.3430384247191333  0.2636701827628857
  0.3122956069811230  0.8324986617891222  0.2607582694854427
  0.8160175740521778  0.3280157259289407  0.2600144603902115
  0.8104861370045106  0.8319372349172730  0.2605920293393141
  0.9902768355846601  0.1848713060474279  0.2590235430743251
  0.9979373199814316  0.6902422152008176  0.2566293943153560
  0.4877381508208219  0.1802149029291707  0.2653878329707673
  0.4893496460164456  0.6895874318442471  0.2572163183687857
  0.9883821581829589  0.3297047243695617  0.4163853047768516
  0.9940527986644516  0.8335923698070464  0.4155502541073146
  0.4879369707753641  0.3292873386808196  0.4208391980465317
  0.4903498680167231  0.8361659352957935  0.4104700264932640
  0.3312739179797478  0.5153168886218378  0.4104520148759928
  0.3097929261300869  0.0058578095995289  0.4158746314219198
  0.8143951928826206  0.5106237742209525  0.4118903961349118
  0.8126400283732945  0.0045850027805817  0.4124513302268384
  0.1675402837240085  0.1873286222305010  0.4132131985364126
  0.1684568748683413  0.6852389327934165  0.4131836369774767
  0.6729785072527459  0.1827892867308827  0.4165771356300628
  0.6473057672032897  0.6740035055096170  0.4108908367313769
  0.4983139848295643  0.4972986052338278  0.3409402073760505

  0.00000000E+00  0.00000000E+00  0.00000000E+00
  0.00000000E+00  0.00000000E+00  0.00000000E+00
  0.00000000E+00  0.00000000E+00  0.00000000E+00
  0.00000000E+00  0.00000000E+00  0.00000000E+00
  0.00000000E+00  0.00000000E+00  0.00000000E+00
  0.00000000E+00  0.00000000E+00  0.00000000E+00
  0.00000000E+00  0.00000000E+00  0.00000000E+00
  0.00000000E+00  0.00000000E+00  0.00000000E+00
  0.00000000E+00  0.00000000E+00  0.00000000E+00
  0.00000000E+00  0.00000000E+00  0.00000000E+00
  0.00000000E+00  0.00000000E+00  0.00000000E+00
  0.00000000E+00  0.00000000E+00  0.00000000E+00
  0.00000000E+00  0.00000000E+00  0.00000000E+00
  0.00000000E+00  0.00000000E+00  0.00000000E+00
  0.00000000E+00  0.00000000E+00  0.00000000E+00
  0.00000000E+00  0.00000000E+00  0.00000000E+00
  0.00000000E+00  0.00000000E+00  0.00000000E+00
  0.00000000E+00  0.00000000E+00  0.00000000E+00
  0.00000000E+00  0.00000000E+00  0.00000000E+00
  0.00000000E+00  0.00000000E+00  0.00000000E+00
  0.00000000E+00  0.00000000E+00  0.00000000E+00
  0.00000000E+00  0.00000000E+00  0.00000000E+00
  0.00000000E+00  0.00000000E+00  0.00000000E+00
  0.00000000E+00  0.00000000E+00  0.00000000E+00
  0.00000000E+00  0.00000000E+00  0.00000000E+00
  0.00000000E+00  0.00000000E+00  0.00000000E+00
  0.00000000E+00  0.00000000E+00  0.00000000E+00
  0.00000000E+00  0.00000000E+00  0.00000000E+00
  0.00000000E+00  0.00000000E+00  0.00000000E+00
  0.00000000E+00  0.00000000E+00  0.00000000E+00
  0.00000000E+00  0.00000000E+00  0.00000000E+00
  0.00000000E+00  0.00000000E+00  0.00000000E+00
  0.00000000E+00  0.00000000E+00  0.00000000E+00
