# Phase 1: Embedded Ni Clean (PBE + D3 BJ)
PREC     = Accurate
ENCUT    = 400.0
EDIFF    = 1.0E-06
NELM     = 100
ISMEAR   = 0
SIGMA    = 0.05
ISPIN    = 2
MAGMOM   = 8*3.0 24*0.0 1*2.0
LREAL    = Auto
NCORE    = 4
IVDW     = 12
IBRION   = 2
NSW      = 80
EDIFFG   = -0.025

# Phase 2 (+U) Add-On Tags (Council Reconciled - Fast & Damped)
LDAU     = .TRUE.
LDAUTYPE = 2
LDAUL    = 2 -1 -1
LDAUU    = 3.29 0.0 0.0
LDAUJ    = 0.0 0.0 0.0
LMAXMIX  = 4
ISTART   = 1
ALGO     = Fast
NELMIN   = 4
TIME     = 0.4
POTIM    = 0.25
NSW      = 60
EDIFFG   = -0.025
