 running on   32 total cores
 distrk:  each k-point on   32 cores,    1 groups
 distr:  one band on    4 cores,    8 groups
 vasp.6.2.0 18Jan21 (build Jul 28 2023 11:58:00) complex                         
 POSCAR found type information on POSCAR CrClNi
 POSCAR found :  3 types and      33 ions
 scaLAPACK will be used
 LDA part: xc-table for Pade appr. of Perdew
 POSCAR, INCAR and KPOINTS ok, starting setup
 FFT: planning ...
 WAVECAR not read
 entering main loop
       N       E                     dE             d eps       ncg     rms          rms(c)
DAV:   1     0.212381238485E+04    0.21238E+04   -0.66340E+04  8016   0.933E+02
DAV:   2     0.391436840576E+03   -0.17324E+04   -0.16092E+04  9320   0.248E+02
DAV:   3    -0.132994635420E+03   -0.52443E+03   -0.50840E+03 11552   0.139E+02
DAV:   4    -0.174438183675E+03   -0.41444E+02   -0.40814E+02 11976   0.550E+01
DAV:   5    -0.175209981971E+03   -0.77180E+00   -0.76879E+00 12288   0.916E+00    0.404E+01
DAV:   6    -0.203089756257E+03   -0.27880E+02   -0.26590E+02 11496   0.663E+01    0.888E+01
DAV:   7    -0.165569391772E+03    0.37520E+02   -0.24208E+01 12424   0.441E+01    0.327E+01
DAV:   8    -0.158382350983E+03    0.71870E+01   -0.19339E+01 10032   0.584E+01    0.172E+01
DAV:   9    -0.162231597704E+03   -0.38492E+01   -0.30779E+01 11936   0.140E+01    0.569E+01
DAV:  10    -0.159930099847E+03    0.23015E+01   -0.13716E+01 12792   0.185E+01    0.135E+01
DAV:  11    -0.160413786367E+03   -0.48369E+00   -0.21094E+00 12880   0.867E+00    0.120E+01
DAV:  12    -0.160242732265E+03    0.17105E+00   -0.35601E-01 11832   0.479E+00    0.108E+01
DAV:  13    -0.159872821670E+03    0.36991E+00   -0.19983E-01 13280   0.366E+00    0.962E+00
DAV:  14    -0.159481670496E+03    0.39115E+00   -0.23812E-01 13688   0.304E+00    0.780E+00
DAV:  15    -0.159310784326E+03    0.17089E+00   -0.19441E-01 13640   0.154E+00    0.601E+00
DAV:  16    -0.159306531551E+03    0.42528E-02   -0.14626E-02  9912   0.413E-01    0.599E+00
DAV:  17    -0.159257254272E+03    0.49277E-01   -0.38965E-02 13128   0.437E-01    0.521E+00
DAV:  18    -0.159252090142E+03    0.51641E-02   -0.21718E-03  9768   0.175E-01    0.519E+00
DAV:  19    -0.159253716283E+03   -0.16261E-02   -0.20161E-04 11936   0.521E-02    0.522E+00
DAV:  20    -0.159273793578E+03   -0.20077E-01   -0.16736E-02 12024   0.851E-01    0.476E+00
DAV:  21    -0.159233387615E+03    0.40406E-01   -0.11716E-01 12920   0.135E+00    0.322E+00
DAV:  22    -0.159239027710E+03   -0.56401E-02   -0.15545E-02 11552   0.635E-01    0.291E+00
DAV:  23    -0.159251160548E+03   -0.12133E-01   -0.96746E-03 13080   0.529E-01    0.255E+00
DAV:  24    -0.159257981718E+03   -0.68212E-02   -0.35649E-03 12888   0.349E-01    0.232E+00
DAV:  25    -0.159280840226E+03   -0.22859E-01   -0.24433E-02 12552   0.104E+00    0.170E+00
DAV:  26    -0.159292170888E+03   -0.11331E-01   -0.10392E-02 12336   0.610E-01    0.130E+00
DAV:  27    -0.159302621636E+03   -0.10451E-01   -0.67407E-03 13288   0.529E-01    0.108E+00
DAV:  28    -0.159307578531E+03   -0.49569E-02   -0.38602E-03 12408   0.340E-01    0.794E-01
DAV:  29    -0.159314787896E+03   -0.72094E-02   -0.52395E-03 12976   0.373E-01    0.571E-01
DAV:  30    -0.159319321392E+03   -0.45335E-02   -0.16155E-03 12168   0.223E-01    0.810E-01
DAV:  31    -0.159318950290E+03    0.37110E-03   -0.30578E-04  9800   0.716E-02    0.811E-01
DAV:  32    -0.159318809692E+03    0.14060E-03   -0.15153E-05  9112   0.125E-02    0.808E-01
DAV:  33    -0.159318870975E+03   -0.61283E-04   -0.11535E-04 11904   0.583E-02    0.658E-01
DAV:  34    -0.159324203553E+03   -0.53326E-02   -0.16956E-03 11144   0.162E-01    0.406E-01
DAV:  35    -0.159331076162E+03   -0.68726E-02   -0.82550E-04 10952   0.156E-01    0.535E-01
DAV:  36    -0.159333514816E+03   -0.24387E-02   -0.44648E-04 12144   0.140E-01    0.347E-01
DAV:  37    -0.159334191650E+03   -0.67683E-03   -0.17014E-04 11600   0.480E-02    0.308E-01
DAV:  38    -0.159334530386E+03   -0.33874E-03   -0.82486E-05 12072   0.414E-02    0.253E-01
DAV:  39    -0.159334743867E+03   -0.21348E-03   -0.59445E-05 11992   0.309E-02    0.203E-01
DAV:  40    -0.159335402531E+03   -0.65866E-03   -0.14438E-04 11272   0.599E-02    0.178E-01
DAV:  41    -0.159336299514E+03   -0.89698E-03   -0.18456E-04 11752   0.684E-02    0.108E-01
DAV:  42    -0.159336775983E+03   -0.47647E-03   -0.56589E-05 10784   0.238E-02    0.118E-01
DAV:  43    -0.159337168503E+03   -0.39252E-03   -0.26090E-05 10568   0.209E-02    0.663E-02
DAV:  44    -0.159337334747E+03   -0.16624E-03   -0.29484E-05 11792   0.284E-02    0.531E-02
DAV:  45    -0.159337433406E+03   -0.98658E-04   -0.16969E-05 11064   0.212E-02    0.511E-02
DAV:  46    -0.159337456470E+03   -0.23065E-04   -0.21965E-06  6080   0.924E-03    0.417E-02
DAV:  47    -0.159337503050E+03   -0.46580E-04   -0.36911E-06  7152   0.738E-03    0.491E-02
DAV:  48    -0.159337524518E+03   -0.21468E-04   -0.27305E-06  6528   0.679E-03    0.459E-02
DAV:  49    -0.159337531584E+03   -0.70660E-05   -0.10295E-06  5168   0.471E-03    0.406E-02
DAV:  50    -0.159337538290E+03   -0.67065E-05   -0.11627E-06  5272   0.364E-03    0.326E-02
DAV:  51    -0.159337547719E+03   -0.94287E-05   -0.11531E-06  4944   0.470E-03    0.256E-02
DAV:  52    -0.159337556150E+03   -0.84310E-05   -0.84184E-07  5392   0.340E-03    0.225E-02
DAV:  53    -0.159337560649E+03   -0.44987E-05   -0.41703E-07  5032   0.278E-03    0.187E-02
DAV:  54    -0.159337566665E+03   -0.60166E-05   -0.35282E-07  4872   0.280E-03    0.180E-02
DAV:  55    -0.159337571375E+03   -0.47094E-05   -0.39619E-07  5000   0.261E-03    0.144E-02
DAV:  56    -0.159337575148E+03   -0.37726E-05   -0.40538E-07  4936   0.239E-03    0.118E-02
DAV:  57    -0.159337578198E+03   -0.30500E-05   -0.26577E-07  4936   0.200E-03    0.996E-03
DAV:  58    -0.159337579100E+03   -0.90239E-06   -0.10954E-07  5160   0.134E-03
   1 F= -.16548740E+03 E0= -.16548050E+03  d E =-.165487E+03  mag=    23.9996
 curvature:   0.00 expect dE= 0.000E+00 dE for cont linesearch  0.000E+00
 trial: gam= 0.00000 g(F)=  0.437E-02 g(S)=  0.000E+00 ort = 0.000E+00 (trialstep = 0.100E+01)
 search vector abs. value=  0.437E-02
 bond charge predicted
       N       E                     dE             d eps       ncg     rms          rms(c)
DAV:   1    -0.159334590788E+03    0.29874E-02   -0.40494E-01  8016   0.124E+00    0.434E-01
DAV:   2    -0.159337325587E+03   -0.27348E-02   -0.31927E-02 11320   0.676E-01    0.329E-01
DAV:   3    -0.159337851865E+03   -0.52628E-03   -0.47035E-03 11808   0.405E-01    0.655E-01
DAV:   4    -0.159337063729E+03    0.78814E-03   -0.18798E-03 11272   0.315E-01    0.328E-01
DAV:   5    -0.159337112896E+03   -0.49167E-04   -0.94229E-04 10888   0.159E-01    0.172E-01
DAV:   6    -0.159337119743E+03   -0.68476E-05   -0.30950E-04 12480   0.870E-02    0.129E-01
DAV:   7    -0.159337113411E+03    0.63322E-05   -0.16097E-04 12496   0.606E-02    0.111E-01
DAV:   8    -0.159337106018E+03    0.73929E-05   -0.12425E-04 11512   0.556E-02    0.968E-02
DAV:   9    -0.159337100011E+03    0.60066E-05   -0.89163E-05 12320   0.494E-02    0.415E-02
DAV:  10    -0.159337109411E+03   -0.93997E-05   -0.21786E-05 10640   0.272E-02    0.296E-02
DAV:  11    -0.159337114085E+03   -0.46739E-05   -0.13453E-05  6904   0.216E-02    0.171E-02
DAV:  12    -0.159337119294E+03   -0.52084E-05   -0.34970E-06  6432   0.138E-02    0.111E-02
DAV:  13    -0.159337122689E+03   -0.33956E-05   -0.10938E-06  4888   0.801E-03    0.575E-03
DAV:  14    -0.159337126527E+03   -0.38376E-05   -0.41647E-07  4936   0.443E-03    0.426E-03
DAV:  15    -0.159337128962E+03   -0.24350E-05   -0.30094E-07  4896   0.288E-03    0.428E-03
DAV:  16    -0.159337130753E+03   -0.17918E-05   -0.21091E-07  4816   0.226E-03    0.292E-03
DAV:  17    -0.159337131572E+03   -0.81871E-06   -0.10968E-07  5104   0.132E-03
   2 F= -.16549107E+03 E0= -.16548417E+03  d E =-.367481E-02  mag=    24.0000
 trial-energy change:   -0.003675  1 .order   -0.003643   -0.004367   -0.002920
 step:   2.5197(harm=  3.0182)  dis= 0.00826  next Energy=  -165.493401 (dE=-0.600E-02)
 bond charge predicted
       N       E                     dE             d eps       ncg     rms          rms(c)
DAV:   1    -0.159327882230E+03    0.92485E-02   -0.93552E-01  7904   0.189E+00    0.664E-01
DAV:   2    -0.159334199455E+03   -0.63172E-02   -0.73728E-02 11320   0.102E+00    0.475E-01
DAV:   3    -0.159334619543E+03   -0.42009E-03   -0.10715E-02 11432   0.538E-01    0.733E-01
DAV:   4    -0.159333710355E+03    0.90919E-03   -0.61309E-03 11440   0.370E-01    0.231E-01
DAV:   5    -0.159333765271E+03   -0.54916E-04   -0.72217E-04 11896   0.134E-01    0.225E-01
DAV:   6    -0.159333738626E+03    0.26645E-04   -0.49412E-04 12936   0.105E-01    0.211E-01
DAV:   7    -0.159333719665E+03    0.18961E-04   -0.30902E-04 12496   0.102E-01    0.212E-01
DAV:   8    -0.159333666392E+03    0.53273E-04   -0.25224E-04 12424   0.968E-02    0.149E-01
DAV:   9    -0.159333670224E+03   -0.38327E-05   -0.20850E-04 12280   0.742E-02    0.612E-02
DAV:  10    -0.159333691217E+03   -0.20993E-04   -0.52993E-05 11512   0.415E-02    0.463E-02
DAV:  11    -0.159333697439E+03   -0.62218E-05   -0.27387E-05  8824   0.314E-02    0.256E-02
DAV:  12    -0.159333706590E+03   -0.91505E-05   -0.74256E-06  6864   0.208E-02    0.131E-02
DAV:  13    -0.159333715875E+03   -0.92850E-05   -0.22741E-06  5824   0.108E-02    0.887E-03
DAV:  14    -0.159333722180E+03   -0.63052E-05   -0.87064E-07  5008   0.621E-03    0.649E-03
DAV:  15    -0.159333726741E+03   -0.45612E-05   -0.71775E-07  4984   0.428E-03    0.531E-03
DAV:  16    -0.159333730185E+03   -0.34435E-05   -0.54104E-07  4968   0.325E-03    0.334E-03
DAV:  17    -0.159333732000E+03   -0.18158E-05   -0.28162E-07  5072   0.215E-03    0.246E-03
DAV:  18    -0.159333733989E+03   -0.19882E-05   -0.12092E-07  4968   0.151E-03    0.173E-03
DAV:  19    -0.159333735875E+03   -0.18865E-05   -0.61329E-08  4952   0.114E-03    0.120E-03
DAV:  20    -0.159333737747E+03   -0.18718E-05   -0.41137E-08  4872   0.991E-04    0.701E-04
DAV:  21    -0.159333738678E+03   -0.93162E-06   -0.24965E-08  5048   0.713E-04
   3 F= -.16549393E+03 E0= -.16548705E+03  d E =-.653379E-02  mag=    24.0000
 curvature:  -1.42 expect dE=-0.116E-02 dE for cont linesearch -0.186E-03
 ZBRENT: extrapolating
 opt :   3.0513  next Energy=  -165.494132 (dE=-0.673E-02)
 bond charge predicted
       N       E                     dE             d eps       ncg     rms          rms(c)
DAV:   1    -0.159331045869E+03    0.26919E-02   -0.11442E-01  8000   0.662E-01    0.229E-01
DAV:   2    -0.159331815204E+03   -0.76933E-03   -0.90587E-03 11288   0.357E-01    0.166E-01
DAV:   3    -0.159331873094E+03   -0.57890E-04   -0.13147E-03 11328   0.187E-01    0.254E-01
DAV:   4    -0.159331755822E+03    0.11727E-03   -0.77307E-04 11336   0.130E-01    0.831E-02
DAV:   5    -0.159331776344E+03   -0.20522E-04   -0.12228E-04 11816   0.534E-02    0.104E-01
DAV:   6    -0.159331759324E+03    0.17020E-04   -0.60481E-05 10752   0.426E-02    0.753E-02
DAV:   7    -0.159331761203E+03   -0.18795E-05   -0.32630E-05 10320   0.369E-02    0.648E-02
DAV:   8    -0.159331759069E+03    0.21344E-05   -0.36211E-05 10912   0.328E-02    0.515E-02
DAV:   9    -0.159331759492E+03   -0.42330E-06   -0.25597E-05 11376   0.262E-02    0.205E-02
DAV:  10    -0.159331763906E+03   -0.44137E-05   -0.54198E-06  6448   0.144E-02    0.164E-02
DAV:  11    -0.159331766022E+03   -0.21159E-05   -0.33681E-06  5768   0.120E-02    0.955E-03
DAV:  12    -0.159331768383E+03   -0.23611E-05   -0.10186E-06  5184   0.774E-03    0.442E-03
DAV:  13    -0.159331770785E+03   -0.24022E-05   -0.42856E-07  4912   0.416E-03    0.272E-03
DAV:  14    -0.159331772225E+03   -0.14402E-05   -0.18744E-07  5000   0.243E-03    0.257E-03
DAV:  15    -0.159331773276E+03   -0.10507E-05   -0.94937E-08  4976   0.152E-03    0.261E-03
DAV:  16    -0.159331774358E+03   -0.10816E-05   -0.49037E-08  4800   0.111E-03    0.167E-03
DAV:  17    -0.159331774974E+03   -0.61644E-06   -0.30275E-08  4992   0.722E-04
   4 F= -.16549415E+03 E0= -.16548728E+03  d E =-.675310E-02  mag=    24.0000
 curvature:  -1.53 expect dE=-0.155E-02 dE for cont linesearch -0.931E-08
 trial: gam= 0.23228 g(F)=  0.101E-02 g(S)=  0.000E+00 ort =-0.515E-05 (trialstep = 0.141E+01)
 search vector abs. value=  0.124E-02
 bond charge predicted
       N       E                     dE             d eps       ncg     rms          rms(c)
DAV:   1    -0.159330331230E+03    0.14431E-02   -0.23969E-01  8008   0.967E-01    0.264E-01
DAV:   2    -0.159331957582E+03   -0.16264E-02   -0.16403E-02 11296   0.429E-01    0.460E-01
DAV:   3    -0.159332930515E+03   -0.97293E-03   -0.85415E-03 10816   0.456E-01    0.884E-01
DAV:   4    -0.159331215793E+03    0.17147E-02   -0.22288E-03 10920   0.318E-01    0.231E-01
DAV:   5    -0.159331633921E+03   -0.41813E-03   -0.58753E-04 11240   0.120E-01    0.805E-02
DAV:   6    -0.159331676583E+03   -0.42662E-04   -0.66359E-05 11928   0.423E-02    0.742E-02
DAV:   7    -0.159331677879E+03   -0.12961E-05   -0.38035E-05 11104   0.306E-02    0.609E-02
DAV:   8    -0.159331676607E+03    0.12729E-05   -0.38564E-05 11528   0.316E-02    0.532E-02
DAV:   9    -0.159331674399E+03    0.22078E-05   -0.30099E-05 11200   0.288E-02    0.247E-02
DAV:  10    -0.159331677067E+03   -0.26682E-05   -0.10269E-05  7736   0.185E-02    0.195E-02
DAV:  11    -0.159331679063E+03   -0.19959E-05   -0.61057E-06  6416   0.144E-02    0.108E-02
DAV:  12    -0.159331681616E+03   -0.25529E-05   -0.16245E-06  4976   0.776E-03    0.455E-03
DAV:  13    -0.159331683676E+03   -0.20599E-05   -0.80790E-07  4984   0.510E-03    0.418E-03
DAV:  14    -0.159331684947E+03   -0.12716E-05   -0.45871E-07  4936   0.334E-03    0.191E-03
DAV:  15    -0.159331686171E+03   -0.12239E-05   -0.19983E-07  4960   0.204E-03    0.219E-03
DAV:  16    -0.159331686837E+03   -0.66626E-06   -0.83884E-08  4976   0.152E-03
   5 F= -.16549533E+03 E0= -.16548840E+03  d E =-.118479E-02  mag=    24.0000
 trial-energy change:   -0.001185  1 .order   -0.001190   -0.001422   -0.000959
 step:   5.3891(harm=  4.3323)  dis= 0.00954  next Energy=  -165.496567 (dE=-0.242E-02)
 bond charge predicted
       N       E                     dE             d eps       ncg     rms          rms(c)
DAV:   1    -0.159318064550E+03    0.13622E-01   -0.19077E+00  7944   0.273E+00    0.740E-01
DAV:   2    -0.159331257721E+03   -0.13193E-01   -0.13103E-01 11392   0.122E+00    0.129E+00
DAV:   3    -0.159338638053E+03   -0.73803E-02   -0.71901E-02 10744   0.129E+00    0.238E+00
DAV:   4    -0.159326330933E+03    0.12307E-01   -0.16725E-02 10872   0.868E-01    0.604E-01
DAV:   5    -0.159328698553E+03   -0.23676E-02   -0.41899E-03 11360   0.321E-01    0.235E-01
DAV:   6    -0.159328891595E+03   -0.19304E-03   -0.55224E-04 12472   0.124E-01    0.209E-01
DAV:   7    -0.159328882955E+03    0.86400E-05   -0.30455E-04 12336   0.869E-02    0.172E-01
DAV:   8    -0.159328869194E+03    0.13760E-04   -0.31769E-04 12000   0.884E-02    0.158E-01
DAV:   9    -0.159328852668E+03    0.16526E-04   -0.25806E-04 11856   0.827E-02    0.733E-02
DAV:  10    -0.159328870301E+03   -0.17633E-04   -0.93181E-05 12376   0.531E-02    0.620E-02
DAV:  11    -0.159328876682E+03   -0.63811E-05   -0.51193E-05 10976   0.386E-02    0.480E-02
DAV:  12    -0.159328883862E+03   -0.71799E-05   -0.15934E-05  6832   0.229E-02    0.119E-02
DAV:  13    -0.159328901209E+03   -0.17347E-04   -0.28761E-06  5888   0.105E-02    0.878E-03
DAV:  14    -0.159328907973E+03   -0.67647E-05   -0.13080E-06  5360   0.798E-03    0.680E-03
DAV:  15    -0.159328913428E+03   -0.54552E-05   -0.77657E-07  5080   0.551E-03    0.437E-03
DAV:  16    -0.159328920657E+03   -0.72283E-05   -0.63602E-07  5224   0.354E-03    0.265E-03
DAV:  17    -0.159328924343E+03   -0.36866E-05   -0.41022E-07  5064   0.290E-03    0.145E-03
DAV:  18    -0.159328927799E+03   -0.34554E-05   -0.26924E-07  4984   0.188E-03    0.107E-03
DAV:  19    -0.159328930956E+03   -0.31568E-05   -0.16237E-07  5120   0.149E-03    0.116E-03
DAV:  20    -0.159328933015E+03   -0.20598E-05   -0.10303E-07  4984   0.113E-03    0.686E-04
DAV:  21    -0.159328934430E+03   -0.14145E-05   -0.68769E-08  4960   0.858E-04    0.629E-04
DAV:  22    -0.159328935540E+03   -0.11102E-05   -0.46019E-08  4984   0.615E-04    0.343E-04
DAV:  23    -0.159328936392E+03   -0.85220E-06   -0.30997E-08  4944   0.545E-04
   6 F= -.16549617E+03 E0= -.16548906E+03  d E =-.201810E-02  mag=    24.0000
 curvature:  -2.32 expect dE=-0.249E-02 dE for cont linesearch -0.124E-03
 ZBRENT: interpolating
 opt :   4.2967  next Energy=  -165.496309 (dE=-0.216E-02)
 bond charge predicted
       N       E                     dE             d eps       ncg     rms          rms(c)
DAV:   1    -0.159329242260E+03   -0.30672E-03   -0.14383E-01  7976   0.749E-01    0.206E-01
DAV:   2    -0.159330216264E+03   -0.97400E-03   -0.98377E-03 11416   0.330E-01    0.355E-01
DAV:   3    -0.159330815657E+03   -0.59939E-03   -0.51101E-03 10808   0.355E-01    0.702E-01
DAV:   4    -0.159329753351E+03    0.10623E-02   -0.14269E-03 10800   0.254E-01    0.198E-01
DAV:   5    -0.159330024819E+03   -0.27147E-03   -0.40011E-04 11136   0.982E-02    0.616E-02
DAV:   6    -0.159330055374E+03   -0.30555E-04   -0.39141E-05 11456   0.318E-02    0.579E-02
DAV:   7    -0.159330056985E+03   -0.16117E-05   -0.23551E-05 10752   0.242E-02    0.480E-02
DAV:   8    -0.159330056650E+03    0.33555E-06   -0.21211E-05  9680   0.245E-02    0.414E-02
DAV:   9    -0.159330055859E+03    0.79077E-06   -0.22499E-05 10984   0.234E-02    0.209E-02
DAV:  10    -0.159330058421E+03   -0.25620E-05   -0.67318E-06  6768   0.148E-02    0.156E-02
DAV:  11    -0.159330059322E+03   -0.90053E-06   -0.39495E-06  5960   0.119E-02
   7 F= -.16549631E+03 E0= -.16548925E+03  d E =-.215825E-02  mag=    24.0000
 curvature:  -2.64 expect dE=-0.168E-02 dE for cont linesearch -0.250E-05
 trial: gam= 0.65960 g(F)=  0.639E-03 g(S)=  0.000E+00 ort =-0.343E-04 (trialstep = 0.199E+01)
 search vector abs. value=  0.113E-02
 bond charge predicted
       N       E                     dE             d eps       ncg     rms          rms(c)
DAV:   1    -0.159326662828E+03    0.33956E-02   -0.46929E-01  8048   0.137E+00    0.442E-01
DAV:   2    -0.159329932366E+03   -0.32695E-02   -0.31795E-02 11328   0.641E-01    0.689E-01
DAV:   3    -0.159331726923E+03   -0.17946E-02   -0.26817E-02 11216   0.736E-01    0.117E+00
DAV:   4    -0.159329534565E+03    0.21924E-02   -0.73653E-03 11256   0.479E-01    0.566E-01
DAV:   5    -0.159329604225E+03   -0.69660E-04   -0.16959E-03 11240   0.277E-01    0.181E-01
DAV:   6    -0.159329644866E+03   -0.40641E-04   -0.25091E-04 12104   0.932E-02    0.129E-01
DAV:   7    -0.159329635202E+03    0.96635E-05   -0.14548E-04 11688   0.546E-02    0.995E-02
DAV:   8    -0.159329637403E+03   -0.22008E-05   -0.82251E-05 11864   0.534E-02    0.758E-02
DAV:   9    -0.159329654156E+03   -0.16753E-04   -0.70833E-05 11672   0.426E-02    0.333E-02
DAV:  10    -0.159329676813E+03   -0.22657E-04   -0.22106E-05 11480   0.259E-02    0.261E-02
DAV:  11    -0.159329687450E+03   -0.10637E-04   -0.11199E-05  7072   0.193E-02    0.178E-02
DAV:  12    -0.159329699330E+03   -0.11880E-04   -0.52647E-06  6440   0.147E-02    0.113E-02
DAV:  13    -0.159329711311E+03   -0.11981E-04   -0.21083E-06  5856   0.955E-03    0.786E-03
DAV:  14    -0.159329719970E+03   -0.86592E-05   -0.11924E-06  5176   0.636E-03    0.387E-03
DAV:  15    -0.159329727246E+03   -0.72756E-05   -0.77122E-07  5288   0.447E-03    0.325E-03
DAV:  16    -0.159329731630E+03   -0.43846E-05   -0.48667E-07  5136   0.264E-03    0.194E-03
DAV:  17    -0.159329733763E+03   -0.21327E-05   -0.23117E-07  5064   0.185E-03    0.132E-03
DAV:  18    -0.159329735771E+03   -0.20074E-05   -0.10787E-07  4952   0.114E-03    0.101E-03
DAV:  19    -0.159329737769E+03   -0.19989E-05   -0.66091E-08  4936   0.987E-04    0.999E-04
DAV:  20    -0.159329741137E+03   -0.33672E-05   -0.10128E-07  5080   0.949E-04    0.965E-04
DAV:  21    -0.159329742557E+03   -0.14202E-05   -0.62176E-08  5016   0.107E-03    0.594E-04
DAV:  22    -0.159329743442E+03   -0.88520E-06   -0.45479E-08  4928   0.615E-04
   8 F= -.16549693E+03 E0= -.16548960E+03  d E =-.620985E-03  mag=    24.0000
 trial-energy change:   -0.000621  1 .order   -0.000601   -0.001224    0.000022
 step:   1.9548(harm=  1.9517)  dis= 0.00266  next Energy=  -165.496930 (dE=-0.621E-03)
 reached required accuracy - stopping structural energy minimisation
 writing wavefunctions
Note: The following floating-point exceptions are signalling: IEEE_OVERFLOW_FLAG IEEE_UNDERFLOW_FLAG IEEE_DENORMAL
Note: The following floating-point exceptions are signalling: IEEE_OVERFLOW_FLAG IEEE_UNDERFLOW_FLAG IEEE_DENORMAL
Note: The following floating-point exceptions are signalling: IEEE_OVERFLOW_FLAG IEEE_UNDERFLOW_FLAG IEEE_DENORMAL
Note: The following floating-point exceptions are signalling: IEEE_OVERFLOW_FLAG IEEE_UNDERFLOW_FLAG IEEE_DENORMAL
Note: The following floating-point exceptions are signalling: IEEE_OVERFLOW_FLAG IEEE_UNDERFLOW_FLAG IEEE_DENORMAL
Note: The following floating-point exceptions are signalling: IEEE_OVERFLOW_FLAG IEEE_UNDERFLOW_FLAG IEEE_DENORMAL
Note: The following floating-point exceptions are signalling: IEEE_OVERFLOW_FLAG IEEE_UNDERFLOW_FLAG IEEE_DENORMAL
Note: The following floating-point exceptions are signalling: IEEE_OVERFLOW_FLAG IEEE_UNDERFLOW_FLAG IEEE_DENORMAL
Note: The following floating-point exceptions are signalling: IEEE_OVERFLOW_FLAG IEEE_UNDERFLOW_FLAG IEEE_DENORMAL
Note: The following floating-point exceptions are signalling: IEEE_OVERFLOW_FLAG IEEE_UNDERFLOW_FLAG IEEE_DENORMAL
Note: The following floating-point exceptions are signalling: IEEE_OVERFLOW_FLAG IEEE_UNDERFLOW_FLAG IEEE_DENORMAL
Note: The following floating-point exceptions are signalling: IEEE_OVERFLOW_FLAG IEEE_UNDERFLOW_FLAG IEEE_DENORMAL
Note: The following floating-point exceptions are signalling: IEEE_OVERFLOW_FLAG IEEE_UNDERFLOW_FLAG IEEE_DENORMAL
Note: The following floating-point exceptions are signalling: IEEE_OVERFLOW_FLAG IEEE_UNDERFLOW_FLAG IEEE_DENORMAL
Note: The following floating-point exceptions are signalling: IEEE_OVERFLOW_FLAG IEEE_UNDERFLOW_FLAG IEEE_DENORMAL
Note: The following floating-point exceptions are signalling: IEEE_OVERFLOW_FLAG IEEE_UNDERFLOW_FLAG IEEE_DENORMAL
Note: The following floating-point exceptions are signalling: IEEE_OVERFLOW_FLAG IEEE_UNDERFLOW_FLAG IEEE_DENORMAL
Note: The following floating-point exceptions are signalling: IEEE_OVERFLOW_FLAG IEEE_UNDERFLOW_FLAG IEEE_DENORMAL
Note: The following floating-point exceptions are signalling: IEEE_OVERFLOW_FLAG IEEE_UNDERFLOW_FLAG IEEE_DENORMAL
Note: The following floating-point exceptions are signalling: IEEE_OVERFLOW_FLAG IEEE_UNDERFLOW_FLAG IEEE_DENORMAL
Note: The following floating-point exceptions are signalling: IEEE_OVERFLOW_FLAG IEEE_UNDERFLOW_FLAG IEEE_DENORMAL
Note: The following floating-point exceptions are signalling: IEEE_OVERFLOW_FLAG IEEE_UNDERFLOW_FLAG IEEE_DENORMAL
Note: The following floating-point exceptions are signalling: IEEE_OVERFLOW_FLAG IEEE_UNDERFLOW_FLAG IEEE_DENORMAL
Note: The following floating-point exceptions are signalling: IEEE_OVERFLOW_FLAG IEEE_UNDERFLOW_FLAG IEEE_DENORMAL
Note: The following floating-point exceptions are signalling: IEEE_OVERFLOW_FLAG IEEE_UNDERFLOW_FLAG IEEE_DENORMAL
Note: The following floating-point exceptions are signalling: IEEE_OVERFLOW_FLAG IEEE_UNDERFLOW_FLAG IEEE_DENORMAL
Note: The following floating-point exceptions are signalling: IEEE_OVERFLOW_FLAG IEEE_UNDERFLOW_FLAG IEEE_DENORMAL
Note: The following floating-point exceptions are signalling: IEEE_OVERFLOW_FLAG IEEE_UNDERFLOW_FLAG IEEE_DENORMAL
Note: The following floating-point exceptions are signalling: IEEE_OVERFLOW_FLAG IEEE_UNDERFLOW_FLAG IEEE_DENORMAL
Note: The following floating-point exceptions are signalling: IEEE_OVERFLOW_FLAG IEEE_UNDERFLOW_FLAG IEEE_DENORMAL
Note: The following floating-point exceptions are signalling: IEEE_OVERFLOW_FLAG IEEE_UNDERFLOW_FLAG IEEE_DENORMAL
Note: The following floating-point exceptions are signalling: IEEE_OVERFLOW_FLAG IEEE_UNDERFLOW_FLAG IEEE_DENORMAL
