 running on   32 total cores
 distrk:  each k-point on   32 cores,    1 groups
 distr:  one band on    4 cores,    8 groups
 vasp.6.2.0 18Jan21 (build Jul 28 2023 11:58:00) complex                         
 POSCAR found type information on POSCAR CrClNi
 POSCAR found :  3 types and      33 ions
 scaLAPACK will be used
 LDA part: xc-table for Pade appr. of Perdew
 found WAVECAR, reading the header
 POSCAR, INCAR and KPOINTS ok, starting setup
 FFT: planning ...
 reading WAVECAR
 the WAVECAR file was read successfully
 initial charge from wavefunction
 entering main loop
       N       E                     dE             d eps       ncg     rms          rms(c)
DAV:   1    -0.219859400138E+03   -0.21986E+03   -0.82787E+02 12992   0.931E+01    0.126E+02
DAV:   2    -0.362927275071E+03   -0.14307E+03   -0.35984E+02 12600   0.158E+02    0.274E+02
DAV:   3    -0.186722946793E+03    0.17620E+03   -0.19326E+02 12552   0.688E+01    0.126E+02
DAV:   4    -0.240824561314E+03   -0.54102E+02   -0.28593E+02 11520   0.201E+02    0.123E+02
DAV:   5    -0.168237453706E+03    0.72587E+02   -0.17279E+02 12424   0.104E+02    0.899E+01
DAV:   6    -0.145862980855E+03    0.22374E+02   -0.98924E+01 12488   0.716E+01    0.659E+01
DAV:   7    -0.158924129721E+03   -0.13061E+02   -0.50036E+01 12288   0.465E+01    0.507E+01
DAV:   8    -0.153137206382E+03    0.57869E+01   -0.22163E+01 12320   0.466E+01    0.469E+01
DAV:   9    -0.145190806346E+03    0.79464E+01   -0.27880E+01 11952   0.648E+01    0.421E+01
DAV:  10    -0.144586802321E+03    0.60400E+00   -0.35317E+01 13256   0.175E+01    0.317E+01
DAV:  11    -0.145248679323E+03   -0.66188E+00   -0.20049E+01 12224   0.220E+01    0.311E+01
DAV:  12    -0.144644328404E+03    0.60435E+00   -0.43244E+00 12184   0.101E+01    0.244E+01
DAV:  13    -0.144542158772E+03    0.10217E+00   -0.10754E+01 12648   0.147E+01    0.211E+01
DAV:  14    -0.144536041406E+03    0.61174E-02   -0.67768E-01 12536   0.591E+00    0.184E+01
DAV:  15    -0.144784102830E+03   -0.24806E+00   -0.26114E+00 12336   0.739E+00    0.172E+01
DAV:  16    -0.144425856157E+03    0.35825E+00   -0.65393E-01 11528   0.548E+00    0.146E+01
DAV:  17    -0.144034849393E+03    0.39101E+00   -0.47272E-01 12168   0.770E+00    0.166E+01
DAV:  18    -0.144103187609E+03   -0.68338E-01   -0.24242E-01 11936   0.349E+00    0.153E+01
DAV:  19    -0.143894143323E+03    0.20904E+00   -0.22961E-01 12768   0.578E+00    0.131E+01
DAV:  20    -0.143824646592E+03    0.69497E-01   -0.40080E-01 12472   0.492E+00    0.111E+01
DAV:  21    -0.143631013998E+03    0.19363E+00   -0.24246E-01 11760   0.401E+00    0.788E+00
DAV:  22    -0.143548725035E+03    0.82289E-01   -0.15166E-01 12320   0.213E+00    0.904E+00
DAV:  23    -0.143481863882E+03    0.66861E-01   -0.26482E-01 12776   0.198E+00    0.624E+00
DAV:  24    -0.143507038819E+03   -0.25175E-01   -0.28571E-02  9696   0.670E-01    0.630E+00
DAV:  25    -0.143508336680E+03   -0.12979E-02   -0.11484E-03 11688   0.152E-01    0.636E+00
DAV:  26    -0.143492420932E+03    0.15916E-01   -0.17286E-02 14120   0.421E-01    0.634E+00
DAV:  27    -0.143470379292E+03    0.22042E-01   -0.99139E-02 12896   0.849E-01    0.643E+00
DAV:  28    -0.143445507474E+03    0.24872E-01   -0.54110E-01 12264   0.184E+00    0.665E+00
DAV:  29    -0.143428205028E+03    0.17302E-01   -0.11896E-01 12272   0.911E-01    0.687E+00
DAV:  30    -0.143390300081E+03    0.37905E-01   -0.10169E-02 11928   0.507E-01    0.658E+00
DAV:  31    -0.143086913218E+03    0.30339E+00   -0.34134E-01 13880   0.384E+00    0.647E+00
DAV:  32    -0.142896861020E+03    0.19005E+00   -0.10450E+00 12704   0.466E+00    0.645E+00
DAV:  33    -0.142922560619E+03   -0.25700E-01   -0.18471E-01  9104   0.113E+00    0.693E+00
DAV:  34    -0.142915837959E+03    0.67227E-02   -0.12161E-02 13720   0.383E-01    0.673E+00
DAV:  35    -0.142922658883E+03   -0.68209E-02   -0.40044E-03 12488   0.247E-01    0.699E+00
DAV:  36    -0.142926300318E+03   -0.36414E-02   -0.24377E-03 12480   0.159E-01    0.708E+00
DAV:  37    -0.142926619178E+03   -0.31886E-03   -0.24909E-03 13088   0.187E-01    0.698E+00
DAV:  38    -0.142937431917E+03   -0.10813E-01   -0.77283E-03 13216   0.302E-01    0.705E+00
DAV:  39    -0.142939014123E+03   -0.15822E-02   -0.13596E-03 10600   0.115E-01    0.701E+00
DAV:  40    -0.142933542294E+03    0.54718E-02   -0.43870E-03 13152   0.267E-01    0.675E+00
DAV:  41    -0.142910501130E+03    0.23041E-01   -0.12785E-01 13424   0.177E+00    0.508E+00
DAV:  42    -0.142966594375E+03   -0.56093E-01   -0.55577E-02 11880   0.890E-01    0.567E+00
DAV:  43    -0.142951029190E+03    0.15565E-01   -0.94194E-03 11728   0.395E-01    0.566E+00
DAV:  44    -0.142965329361E+03   -0.14300E-01   -0.17330E-02 13416   0.386E-01    0.576E+00
DAV:  45    -0.142972143749E+03   -0.68144E-02   -0.32888E-03 12256   0.174E-01    0.579E+00
DAV:  46    -0.142991291784E+03   -0.19148E-01   -0.65502E-02 13176   0.684E-01    0.583E+00
DAV:  47    -0.142993759436E+03   -0.24677E-02   -0.48997E-01 12200   0.311E+00    0.758E+00
DAV:  48    -0.143006726346E+03   -0.12967E-01   -0.51662E-02  9008   0.739E-01    0.781E+00
DAV:  49    -0.143001799595E+03    0.49268E-02   -0.45559E-03 13688   0.257E-01    0.786E+00
DAV:  50    -0.142995594032E+03    0.62056E-02   -0.14864E-02 13016   0.589E-01    0.739E+00
DAV:  51    -0.143002366188E+03   -0.67722E-02   -0.36091E-01 13616   0.173E+00    0.750E+00
DAV:  52    -0.143105372032E+03   -0.10301E+00   -0.48078E-01 12440   0.235E+00    0.104E+01
DAV:  53    -0.143114590778E+03   -0.92187E-02   -0.40503E-02 10792   0.640E-01    0.113E+01
DAV:  54    -0.143135149050E+03   -0.20558E-01   -0.25105E-02 13024   0.332E-01    0.117E+01
DAV:  55    -0.143038391672E+03    0.96757E-01   -0.12630E-01 13136   0.506E-01    0.106E+01
DAV:  56    -0.143043603192E+03   -0.52115E-02   -0.27322E-03 10232   0.177E-01    0.105E+01
DAV:  57    -0.142996082315E+03    0.47521E-01   -0.91700E-02 12688   0.969E-01    0.982E+00
DAV:  58    -0.143018521803E+03   -0.22439E-01   -0.24490E-02 12288   0.439E-01    0.999E+00
DAV:  59    -0.143013747372E+03    0.47744E-02   -0.21490E-03 10824   0.147E-01    0.993E+00
DAV:  60    -0.143000998562E+03    0.12749E-01   -0.79467E-03 13512   0.211E-01    0.968E+00
DAV:  61    -0.143066671307E+03   -0.65673E-01   -0.16348E-01 13576   0.728E-01    0.108E+01
DAV:  62    -0.143119443694E+03   -0.52772E-01   -0.40471E-02 12136   0.456E-01    0.122E+01
DAV:  63    -0.143021015510E+03    0.98428E-01   -0.30802E-01 13344   0.833E-01    0.945E+00
DAV:  64    -0.143053700427E+03   -0.32685E-01   -0.32353E-01 13352   0.173E+00    0.929E+00
DAV:  65    -0.143099855542E+03   -0.46155E-01   -0.30125E-02 10632   0.578E-01    0.962E+00
DAV:  66    -0.143101616523E+03   -0.17610E-02   -0.75994E-03 12432   0.285E-01    0.100E+01
DAV:  67    -0.143141077510E+03   -0.39461E-01   -0.10962E-01 13728   0.112E+00    0.104E+01
DAV:  68    -0.143172850577E+03   -0.31773E-01   -0.42477E-02 12088   0.772E-01    0.103E+01
DAV:  69    -0.143202424139E+03   -0.29574E-01   -0.10062E-02 11904   0.348E-01    0.103E+01
DAV:  70    -0.143193721016E+03    0.87031E-02   -0.26979E-03 13280   0.231E-01    0.103E+01
DAV:  71    -0.143116260244E+03    0.77461E-01   -0.28281E-02 13760   0.682E-01    0.103E+01
DAV:  72    -0.143136644509E+03   -0.20384E-01   -0.53416E-02 13008   0.576E-01    0.107E+01
DAV:  73    -0.143144453187E+03   -0.78087E-02   -0.85451E-03 11608   0.344E-01    0.106E+01
DAV:  74    -0.143149201804E+03   -0.47486E-02   -0.43339E-03 12712   0.259E-01    0.107E+01
DAV:  75    -0.143140682212E+03    0.85196E-02   -0.28550E-02 13688   0.732E-01    0.106E+01
DAV:  76    -0.143151668628E+03   -0.10986E-01   -0.12895E-02 13008   0.470E-01    0.107E+01
DAV:  77    -0.143197622670E+03   -0.45954E-01   -0.16009E+00 13696   0.527E+00    0.129E+01
DAV:  78    -0.143294874271E+03   -0.97252E-01   -0.16862E-01  8432   0.144E+00    0.123E+01
DAV:  79    -0.143292868665E+03    0.20056E-02   -0.45955E-02 12992   0.832E-01    0.105E+01
DAV:  80    -0.143301798015E+03   -0.89293E-02   -0.88540E-02 12512   0.952E-01    0.102E+01
DAV:  81    -0.143189893495E+03    0.11190E+00   -0.13272E-01 12976   0.115E+00    0.107E+01
DAV:  82    -0.143020333346E+03    0.16956E+00   -0.32487E-01 12912   0.190E+00    0.118E+01
DAV:  83    -0.143006130851E+03    0.14202E-01   -0.19741E-01 12088   0.139E+00    0.111E+01
DAV:  84    -0.142955216836E+03    0.50914E-01   -0.42600E-02 13336   0.664E-01    0.110E+01
DAV:  85    -0.142944694048E+03    0.10523E-01   -0.86842E-03 11152   0.276E-01    0.107E+01
DAV:  86    -0.142991568180E+03   -0.46874E-01   -0.23091E-01 11624   0.174E+00    0.103E+01
DAV:  87    -0.143049561960E+03   -0.57994E-01   -0.26460E-01 12240   0.105E+00    0.112E+01
DAV:  88    -0.143004336153E+03    0.45226E-01   -0.65224E-02 11776   0.550E-01    0.107E+01
DAV:  89    -0.142993277544E+03    0.11059E-01   -0.91794E-02 13144   0.548E-01    0.946E+00
DAV:  90    -0.143012935506E+03   -0.19658E-01   -0.20976E-01 13424   0.101E+00    0.941E+00
DAV:  91    -0.142985959699E+03    0.26976E-01   -0.38457E-02 13128   0.652E-01    0.871E+00
DAV:  92    -0.142928853393E+03    0.57106E-01   -0.12218E-01 13144   0.102E+00    0.729E+00
DAV:  93    -0.142937057080E+03   -0.82037E-02   -0.82166E-02 12376   0.908E-01    0.673E+00
DAV:  94    -0.142936521634E+03    0.53545E-03   -0.39618E-01 13080   0.129E+00    0.563E+00
DAV:  95    -0.142945482573E+03   -0.89609E-02   -0.91456E-03  9040   0.354E-01    0.566E+00
DAV:  96    -0.142944713459E+03    0.76911E-03   -0.35158E-04 11320   0.713E-02    0.566E+00
DAV:  97    -0.142944263205E+03    0.45025E-03   -0.18528E-03 12816   0.170E-01    0.572E+00
DAV:  98    -0.142962888215E+03   -0.18625E-01   -0.76426E-03 13592   0.185E-01    0.626E+00
DAV:  99    -0.142961926311E+03    0.96190E-03   -0.48582E-04 11344   0.847E-02    0.631E+00
DAV: 100    -0.142971847332E+03   -0.99210E-02   -0.61225E-03 12656   0.395E-01
 -----------------------------------------------------------------------------
|                                                                             |
|           W    W    AA    RRRRR   N    N  II  N    N   GGGG   !!!           |
|           W    W   A  A   R    R  NN   N  II  NN   N  G    G  !!!           |
|           W    W  A    A  R    R  N N  N  II  N N  N  G       !!!           |
|           W WW W  AAAAAA  RRRRR   N  N N  II  N  N N  G  GGG   !            |
|           WW  WW  A    A  R   R   N   NN  II  N   NN  G    G                |
|           W    W  A    A  R    R  N    N  II  N    N   GGGG   !!!           |
|                                                                             |
|     The electronic self-consistency was not achieved in the given           |
|     number of steps (NELM). The forces and other quantities evaluated       |
|     might not be reliable so examine the results carefully. If you find     |
|     spurious results, we suggest increasing NELM, if you were close to      |
|     convergence or switching to a different ALGO or adjusting the           |
|     density mixing parameters otherwise.                                    |
|                                                                             |
 -----------------------------------------------------------------------------

   1 F= -.14910262E+03 E0= -.14909246E+03  d E =-.149103E+03  mag=    21.4362
 curvature:   0.00 expect dE= 0.000E+00 dE for cont linesearch  0.000E+00
 trial: gam= 0.00000 g(F)=  0.778E-01 g(S)=  0.000E+00 ort = 0.000E+00 (trialstep = 0.100E+01)
 search vector abs. value=  0.778E-01
 bond charge predicted
       N       E                     dE             d eps       ncg     rms          rms(c)
DAV:   1    -0.142958770141E+03    0.31562E-02   -0.75233E+00  7904   0.571E+00    0.678E+00
DAV:   2    -0.150617869138E+03   -0.76591E+01   -0.34057E+01 12600   0.213E+01    0.715E+01
DAV:   3    -0.143379111667E+03    0.72388E+01   -0.70855E+00 12496   0.943E+00    0.981E+00
DAV:   4    -0.143231588537E+03    0.14752E+00   -0.10922E+00 11608   0.884E+00    0.520E+00
DAV:   5    -0.143179791358E+03    0.51797E-01   -0.43355E-01 12360   0.396E+00    0.256E+00
DAV:   6    -0.143238384834E+03   -0.58593E-01   -0.10634E+00 12864   0.307E+00    0.833E+00
DAV:   7    -0.143252359121E+03   -0.13974E-01   -0.87903E-02 12152   0.286E+00    0.713E+00
DAV:   8    -0.143274531456E+03   -0.22172E-01   -0.29341E-02 12824   0.881E-01    0.682E+00
DAV:   9    -0.143296101971E+03   -0.21571E-01   -0.10447E-02 13032   0.613E-01    0.666E+00
DAV:  10    -0.143340193916E+03   -0.44092E-01   -0.10322E-01 12360   0.317E+00    0.484E+00
DAV:  11    -0.143364335398E+03   -0.24141E-01   -0.92014E-02 12048   0.154E+00    0.406E+00
DAV:  12    -0.143400915358E+03   -0.36580E-01   -0.93928E-02 12000   0.178E+00    0.581E+00
DAV:  13    -0.143420878446E+03   -0.19963E-01   -0.82033E-02 11792   0.258E+00    0.424E+00
DAV:  14    -0.143473385299E+03   -0.52507E-01   -0.47390E-02 12552   0.131E+00    0.365E+00
DAV:  15    -0.143532183847E+03   -0.58799E-01   -0.15692E-01 12648   0.304E+00    0.263E+00
DAV:  16    -0.143566986449E+03   -0.34803E-01   -0.11365E-01 13104   0.230E+00    0.243E+00
DAV:  17    -0.143575423991E+03   -0.84375E-02   -0.32284E-02 11680   0.715E-01    0.165E+00
DAV:  18    -0.143580669735E+03   -0.52457E-02   -0.22264E-03 10224   0.238E-01    0.170E+00
DAV:  19    -0.143611825033E+03   -0.31155E-01   -0.16187E-02 12264   0.134E+00    0.936E-01
DAV:  20    -0.143638443604E+03   -0.26619E-01   -0.17535E-02 12336   0.750E-01    0.168E+00
DAV:  21    -0.143648350978E+03   -0.99074E-02   -0.92848E-03 12840   0.771E-01    0.622E-01
DAV:  22    -0.143653585757E+03   -0.52348E-02   -0.55882E-03 12056   0.332E-01    0.434E-01
DAV:  23    -0.143658349753E+03   -0.47640E-02   -0.11519E-03 13352   0.249E-01    0.357E-01
DAV:  24    -0.143666823646E+03   -0.84739E-02   -0.15669E-03 11784   0.151E-01    0.165E-01
DAV:  25    -0.143673908048E+03   -0.70844E-02   -0.54564E-04 12232   0.121E-01    0.337E-01
DAV:  26    -0.143676459266E+03   -0.25512E-02   -0.38400E-04 12200   0.159E-01    0.184E-01
DAV:  27    -0.143678370706E+03   -0.19114E-02   -0.13807E-04 12728   0.104E-01    0.167E-01
DAV:  28    -0.143680181286E+03   -0.18106E-02   -0.15087E-04 11848   0.791E-02    0.481E-02
DAV:  29    -0.143681330098E+03   -0.11488E-02   -0.11284E-04 12328   0.712E-02    0.603E-02
DAV:  30    -0.143681717197E+03   -0.38710E-03   -0.40090E-05 12760   0.482E-02    0.273E-02
DAV:  31    -0.143682138986E+03   -0.42179E-03   -0.55688E-05 13008   0.651E-02    0.204E-02
DAV:  32    -0.143682347417E+03   -0.20843E-03   -0.47851E-05 12200   0.552E-02    0.173E-02
DAV:  33    -0.143682461948E+03   -0.11453E-03   -0.34640E-05 11680   0.501E-02    0.164E-02
DAV:  34    -0.143682539274E+03   -0.77326E-04   -0.27294E-05 11256   0.425E-02    0.195E-02
DAV:  35    -0.143682630451E+03   -0.91177E-04   -0.45652E-05 12208   0.627E-02    0.228E-02
DAV:  36    -0.143682744488E+03   -0.11404E-03   -0.12988E-04 11816   0.106E-01    0.202E-02
DAV:  37    -0.143682812601E+03   -0.68113E-04   -0.36730E-05 10424   0.278E-02    0.200E-02
DAV:  38    -0.143682654499E+03    0.15810E-03   -0.10296E-04 11456   0.970E-02    0.213E-02
DAV:  39    -0.143682415372E+03    0.23913E-03   -0.22957E-04 11352   0.138E-01    0.218E-02
DAV:  40    -0.143682288028E+03    0.12734E-03   -0.18154E-04 12424   0.109E-01    0.224E-02
DAV:  41    -0.143682224908E+03    0.63120E-04   -0.80543E-05 11888   0.747E-02    0.205E-02
DAV:  42    -0.143681833061E+03    0.39185E-03   -0.44924E-04 12024   0.208E-01    0.224E-02
DAV:  43    -0.143682191818E+03   -0.35876E-03   -0.58481E-04 12328   0.245E-01    0.216E-02
DAV:  44    -0.143681697173E+03    0.49465E-03   -0.45781E-03 11776   0.647E-01    0.334E-02
DAV:  45    -0.143682712373E+03   -0.10152E-02   -0.94911E-04 11384   0.274E-01    0.299E-02
DAV:  46    -0.143682276540E+03    0.43583E-03   -0.70283E-04 12720   0.249E-01    0.247E-02
DAV:  47    -0.143682624733E+03   -0.34819E-03   -0.35389E-04 11920   0.192E-01    0.295E-02
DAV:  48    -0.143681476928E+03    0.11478E-02   -0.69699E-03 11736   0.807E-01    0.308E-02
DAV:  49    -0.143683300645E+03   -0.18237E-02   -0.21069E-03 11400   0.291E-01    0.266E-02
DAV:  50    -0.143683939742E+03   -0.63910E-03   -0.23504E-04  8696   0.593E-02    0.250E-02
DAV:  51    -0.143683964444E+03   -0.24702E-04   -0.12039E-05 10896   0.203E-02    0.250E-02
DAV:  52    -0.143684017144E+03   -0.52700E-04   -0.36497E-04 11848   0.188E-01    0.261E-02
DAV:  53    -0.143683849454E+03    0.16769E-03   -0.41722E-04 12464   0.209E-01    0.265E-02
DAV:  54    -0.143683998672E+03   -0.14922E-03   -0.43026E-05 11664   0.659E-02    0.248E-02
DAV:  55    -0.143684033891E+03   -0.35218E-04   -0.18067E-05 10664   0.391E-02    0.246E-02
DAV:  56    -0.143684079679E+03   -0.45788E-04   -0.29435E-05 11040   0.475E-02    0.242E-02
DAV:  57    -0.143684145949E+03   -0.66270E-04   -0.23897E-04 11936   0.149E-01    0.244E-02
DAV:  58    -0.143684106830E+03    0.39119E-04   -0.14342E-04 12064   0.118E-01    0.232E-02
DAV:  59    -0.143684131499E+03   -0.24669E-04   -0.68751E-06  8016   0.105E-02    0.226E-02
DAV:  60    -0.143684115282E+03    0.16217E-04   -0.89418E-07  5784   0.154E-02    0.227E-02
DAV:  61    -0.143684095270E+03    0.20012E-04   -0.97727E-06  9632   0.191E-02    0.225E-02
DAV:  62    -0.143684059519E+03    0.35751E-04   -0.77863E-06  8424   0.256E-02    0.227E-02
DAV:  63    -0.143684020734E+03    0.38785E-04   -0.23835E-05 11488   0.374E-02    0.232E-02
DAV:  64    -0.143684019337E+03    0.13965E-05   -0.83036E-06  9672   0.280E-02    0.313E-02
DAV:  65    -0.143684073866E+03   -0.54529E-04   -0.14798E-04 11520   0.117E-01    0.351E-02
DAV:  66    -0.143684184511E+03   -0.11064E-03   -0.15666E-04 11832   0.108E-01    0.340E-02
DAV:  67    -0.143684297554E+03   -0.11304E-03   -0.62737E-05 11824   0.561E-02    0.335E-02
DAV:  68    -0.143684379358E+03   -0.81804E-04   -0.34809E-05 12280   0.553E-02    0.289E-02
DAV:  69    -0.143684477031E+03   -0.97674E-04   -0.22713E-04 11664   0.145E-01    0.270E-02
DAV:  70    -0.143684599947E+03   -0.12292E-03   -0.96206E-05 11360   0.651E-02    0.277E-02
DAV:  71    -0.143684668762E+03   -0.68815E-04   -0.35629E-05 11560   0.534E-02    0.286E-02
DAV:  72    -0.143684664959E+03    0.38029E-05   -0.13162E-05 10464   0.275E-02    0.298E-02
DAV:  73    -0.143684669749E+03   -0.47897E-05   -0.38406E-07  5632   0.640E-03    0.298E-02
DAV:  74    -0.143684670303E+03   -0.55430E-06   -0.29946E-07  5216   0.204E-03
   2 F= -.14981664E+03 E0= -.14980548E+03  d E =-.714020E+00  mag=    19.9999
 trial-energy change:   -0.714020  1 .order   -0.021786   -0.077815    0.034243
 step:   0.9919(harm=  0.6944)  dis= 0.01693  next Energy=  -149.816781 (dE=-0.714E+00)
 bond charge predicted
       N       E                     dE             d eps       ncg     rms          rms(c)
DAV:   1    -0.143684956428E+03   -0.28668E-03   -0.48921E-04  8320   0.461E-02    0.335E-02
DAV:   2    -0.143685009000E+03   -0.52572E-04   -0.72949E-05 13080   0.521E-02    0.407E-02
DAV:   3    -0.143685046693E+03   -0.37693E-04   -0.15101E-04 10952   0.475E-02    0.169E-01
DAV:   4    -0.143684980159E+03    0.66533E-04   -0.70514E-05 10312   0.382E-02    0.306E-02
DAV:   5    -0.143685048649E+03   -0.68489E-04   -0.13134E-05  9728   0.258E-02    0.198E-02
DAV:   6    -0.143685091277E+03   -0.42628E-04   -0.20469E-05 10520   0.340E-02    0.197E-02
DAV:   7    -0.143685116327E+03   -0.25050E-04   -0.12349E-05 10392   0.261E-02    0.144E-02
DAV:   8    -0.143685150003E+03   -0.33676E-04   -0.12476E-05  9448   0.349E-02    0.137E-02
DAV:   9    -0.143685191045E+03   -0.41042E-04   -0.32366E-05 11400   0.463E-02    0.155E-02
DAV:  10    -0.143685222773E+03   -0.31728E-04   -0.14121E-05 10000   0.246E-02    0.142E-02
DAV:  11    -0.143685215515E+03    0.72588E-05   -0.18165E-06  7024   0.991E-03    0.137E-02
DAV:  12    -0.143685193546E+03    0.21968E-04   -0.16546E-06  5520   0.148E-02    0.153E-02
DAV:  13    -0.143685278631E+03   -0.85085E-04   -0.32706E-04 11728   0.194E-01    0.127E-02
DAV:  14    -0.143685400083E+03   -0.12145E-03   -0.55569E-04 11552   0.210E-01    0.147E-02
DAV:  15    -0.143685572244E+03   -0.17216E-03   -0.93318E-05  9848   0.403E-02    0.132E-02
DAV:  16    -0.143685591891E+03   -0.19647E-04   -0.41618E-06  7720   0.226E-02    0.135E-02
DAV:  17    -0.143685636875E+03   -0.44984E-04   -0.11919E-04 11384   0.978E-02    0.150E-02
DAV:  18    -0.143685654850E+03   -0.17976E-04   -0.60102E-04 11576   0.231E-01    0.241E-02
DAV:  19    -0.143685456452E+03    0.19840E-03   -0.18031E-03 11656   0.395E-01    0.312E-02
DAV:  20    -0.143686164117E+03   -0.70767E-03   -0.33113E-04  7952   0.678E-02    0.306E-02
DAV:  21    -0.143686208678E+03   -0.44560E-04   -0.92678E-06 10920   0.237E-02    0.304E-02
DAV:  22    -0.143686233364E+03   -0.24687E-04   -0.61287E-05 11248   0.756E-02    0.327E-02
DAV:  23    -0.143686274541E+03   -0.41177E-04   -0.52689E-05 11568   0.600E-02    0.352E-02
DAV:  24    -0.143686288748E+03   -0.14207E-04   -0.29690E-04 11528   0.167E-01    0.371E-02
DAV:  25    -0.143686423503E+03   -0.13475E-03   -0.19298E-04 11480   0.106E-01    0.379E-02
DAV:  26    -0.143686517457E+03   -0.93954E-04   -0.31663E-05  9888   0.282E-02    0.380E-02
DAV:  27    -0.143686533115E+03   -0.15659E-04   -0.19642E-06  6696   0.179E-02    0.372E-02
DAV:  28    -0.143686537747E+03   -0.46314E-05   -0.61509E-07  5192   0.125E-02    0.370E-02
DAV:  29    -0.143686538553E+03   -0.80634E-06   -0.38851E-07  4864   0.514E-03
   3 F= -.14981850E+03 E0= -.14980732E+03  d E =-.715879E+00  mag=    20.0001
 curvature:  -0.02 expect dE=-0.341E-02 dE for cont linesearch -0.268E-03
 ZBRENT: interpolating
 opt :   0.6910  next Energy=  -149.823599 (dE=-0.721E+00)
 bond charge predicted
       N       E                     dE             d eps       ncg     rms          rms(c)
DAV:   1    -0.143689561823E+03   -0.30241E-02   -0.67723E-01  7920   0.170E+00    0.705E-01
DAV:   2    -0.143709398566E+03   -0.19837E-01   -0.10929E-01 13008   0.126E+00    0.381E+00
DAV:   3    -0.143685174208E+03    0.24224E-01   -0.11560E-01 11480   0.142E+00    0.175E+00
DAV:   4    -0.143694604702E+03   -0.94305E-02   -0.73639E-03 10832   0.464E-01    0.733E-01
DAV:   5    -0.143694234765E+03    0.36994E-03   -0.34202E-03 12808   0.222E-01    0.271E-01
DAV:   6    -0.143695527799E+03   -0.12930E-02   -0.46476E-04 11432   0.118E-01    0.131E-01
DAV:   7    -0.143695558764E+03   -0.30965E-04   -0.33421E-04 13112   0.891E-02    0.131E-01
DAV:   8    -0.143695601578E+03   -0.42814E-04   -0.78137E-05 12120   0.661E-02    0.115E-01
DAV:   9    -0.143695652742E+03   -0.51164E-04   -0.10426E-04 12432   0.501E-02    0.661E-02
DAV:  10    -0.143695730292E+03   -0.77550E-04   -0.77684E-05 11648   0.523E-02    0.326E-02
DAV:  11    -0.143695766518E+03   -0.36226E-04   -0.15983E-05 10648   0.275E-02    0.242E-02
DAV:  12    -0.143695781527E+03   -0.15009E-04   -0.67029E-06  9008   0.168E-02    0.326E-02
DAV:  13    -0.143695804017E+03   -0.22490E-04   -0.60591E-06  7856   0.225E-02    0.180E-02
DAV:  14    -0.143695835300E+03   -0.31282E-04   -0.17384E-05 10984   0.246E-02    0.123E-02
DAV:  15    -0.143695864057E+03   -0.28758E-04   -0.89542E-06  9144   0.280E-02    0.999E-03
DAV:  16    -0.143695888190E+03   -0.24133E-04   -0.14591E-05 10432   0.248E-02    0.115E-02
DAV:  17    -0.143695908302E+03   -0.20111E-04   -0.60404E-06  8296   0.241E-02    0.973E-03
DAV:  18    -0.143695939367E+03   -0.31065E-04   -0.49925E-05 11776   0.590E-02    0.901E-03
DAV:  19    -0.143695981071E+03   -0.41704E-04   -0.47809E-05 11464   0.584E-02    0.959E-03
DAV:  20    -0.143695950998E+03    0.30073E-04   -0.32632E-05 10968   0.536E-02    0.994E-03
DAV:  21    -0.143696004974E+03   -0.53976E-04   -0.15509E-04 11624   0.127E-01    0.105E-02
DAV:  22    -0.143695992924E+03    0.12050E-04   -0.66551E-04 11480   0.243E-01    0.130E-02
DAV:  23    -0.143696175890E+03   -0.18297E-03   -0.36288E-04 11840   0.143E-01    0.127E-02
DAV:  24    -0.143696299807E+03   -0.12392E-03   -0.57652E-05 10120   0.348E-02    0.118E-02
DAV:  25    -0.143696271117E+03    0.28690E-04   -0.12004E-05  9968   0.343E-02    0.120E-02
DAV:  26    -0.143696305767E+03   -0.34651E-04   -0.43612E-05 11648   0.705E-02    0.124E-02
DAV:  27    -0.143695545770E+03    0.76000E-03   -0.31262E-03 11584   0.543E-01    0.266E-02
DAV:  28    -0.143696562774E+03   -0.10170E-02   -0.39536E-04  8264   0.672E-02    0.217E-02
DAV:  29    -0.143696420405E+03    0.14237E-03   -0.41354E-04 11576   0.198E-01    0.179E-02
DAV:  30    -0.143696535392E+03   -0.11499E-03   -0.29007E-04 12240   0.173E-01    0.191E-02
DAV:  31    -0.143696560552E+03   -0.25159E-04   -0.58955E-05 11896   0.808E-02    0.179E-02
DAV:  32    -0.143696346865E+03    0.21369E-03   -0.35712E-04 11584   0.180E-01    0.190E-02
DAV:  33    -0.143696163797E+03    0.18307E-03   -0.49984E-04 11816   0.196E-01    0.196E-02
DAV:  34    -0.143696254373E+03   -0.90576E-04   -0.15713E-04 10920   0.738E-02    0.181E-02
DAV:  35    -0.143696187482E+03    0.66891E-04   -0.95207E-05 12464   0.960E-02    0.192E-02
DAV:  36    -0.143696162875E+03    0.24607E-04   -0.75750E-05 11384   0.679E-02    0.199E-02
DAV:  37    -0.143696162085E+03    0.78961E-06   -0.26786E-05 10824   0.358E-02    0.199E-02
DAV:  38    -0.143696180599E+03   -0.18514E-04   -0.42488E-06  7832   0.838E-03    0.200E-02
DAV:  39    -0.143696171956E+03    0.86431E-05   -0.37115E-07  5112   0.118E-02    0.204E-02
DAV:  40    -0.143696173716E+03   -0.17595E-05   -0.10323E-06  5688   0.294E-03    0.203E-02
DAV:  41    -0.143696171413E+03    0.23030E-05   -0.13142E-07  5112   0.403E-03    0.204E-02
DAV:  42    -0.143696170647E+03    0.76553E-06   -0.27920E-07  5112   0.166E-03
   4 F= -.14982778E+03 E0= -.14981611E+03  d E =-.725156E+00  mag=    20.0000
 curvature:  -0.35 expect dE=-0.605E-01 dE for cont linesearch -0.256E-02
 ZBRENT: bisectioning
 opt :   0.3455  next Energy=  -149.834110 (dE=-0.731E+00)
 bond charge predicted
       N       E                     dE             d eps       ncg     rms          rms(c)
DAV:   1    -0.143694911440E+03    0.12600E-02   -0.89311E-01  7904   0.195E+00    0.819E-01
DAV:   2    -0.143722136257E+03   -0.27225E-01   -0.14392E-01 13064   0.148E+00    0.441E+00
DAV:   3    -0.143689769053E+03    0.32367E-01   -0.15610E-01 11408   0.170E+00    0.201E+00
DAV:   4    -0.143701577782E+03   -0.11809E-01   -0.10354E-02 10888   0.532E-01    0.854E-01
DAV:   5    -0.143701030689E+03    0.54709E-03   -0.48866E-03 12864   0.260E-01    0.353E-01
DAV:   6    -0.143702692513E+03   -0.16618E-02   -0.68996E-04 11488   0.148E-01    0.139E-01
DAV:   7    -0.143702729357E+03   -0.36843E-04   -0.36518E-04 13032   0.967E-02    0.138E-01
DAV:   8    -0.143702776288E+03   -0.46932E-04   -0.96360E-05 12296   0.703E-02    0.134E-01
DAV:   9    -0.143702823471E+03   -0.47182E-04   -0.12789E-04 12376   0.533E-02    0.892E-02
DAV:  10    -0.143702899633E+03   -0.76163E-04   -0.87179E-05 11616   0.556E-02    0.425E-02
DAV:  11    -0.143702940474E+03   -0.40841E-04   -0.16783E-05 10696   0.255E-02    0.268E-02
DAV:  12    -0.143702960819E+03   -0.20346E-04   -0.67215E-06  8776   0.170E-02    0.408E-02
DAV:  13    -0.143702982979E+03   -0.22160E-04   -0.80051E-06  8408   0.228E-02    0.202E-02
DAV:  14    -0.143703010725E+03   -0.27746E-04   -0.13315E-05 10600   0.192E-02    0.134E-02
DAV:  15    -0.143703034380E+03   -0.23655E-04   -0.54365E-06  8320   0.234E-02    0.897E-03
DAV:  16    -0.143703055804E+03   -0.21424E-04   -0.16243E-05 10584   0.248E-02    0.103E-02
DAV:  17    -0.143703076369E+03   -0.20565E-04   -0.13126E-05  9632   0.336E-02    0.776E-03
DAV:  18    -0.143703098010E+03   -0.21642E-04   -0.17473E-05 10408   0.278E-02    0.770E-03
DAV:  19    -0.143703105198E+03   -0.71878E-05   -0.28887E-06  7200   0.700E-03    0.766E-03
DAV:  20    -0.143703101984E+03    0.32144E-05   -0.74250E-08  4976   0.258E-03    0.770E-03
DAV:  21    -0.143703097295E+03    0.46886E-05   -0.88644E-08  4928   0.483E-03    0.830E-03
DAV:  22    -0.143703113593E+03   -0.16298E-04   -0.15628E-06  6040   0.232E-02    0.115E-02
DAV:  23    -0.143703125508E+03   -0.11915E-04   -0.10068E-05  9232   0.212E-02    0.139E-02
DAV:  24    -0.143703040199E+03    0.85309E-04   -0.61621E-05 11408   0.802E-02    0.115E-02
DAV:  25    -0.143702810261E+03    0.22994E-03   -0.40812E-04 11616   0.187E-01    0.440E-02
DAV:  26    -0.143702845830E+03   -0.35569E-04   -0.14118E-04 11648   0.697E-02    0.579E-02
DAV:  27    -0.143702844953E+03    0.87763E-06   -0.21175E-05 11488   0.360E-02    0.632E-02
DAV:  28    -0.143702843492E+03    0.14605E-05   -0.52188E-06  8704   0.136E-02    0.649E-02
DAV:  29    -0.143702827064E+03    0.16428E-04   -0.34780E-06  7424   0.208E-02    0.668E-02
DAV:  30    -0.143702727094E+03    0.99969E-04   -0.12419E-04 11584   0.970E-02    0.731E-02
DAV:  31    -0.143702738775E+03   -0.11680E-04   -0.24657E-05 10232   0.246E-02    0.716E-02
DAV:  32    -0.143702736579E+03    0.21955E-05   -0.16526E-06  6472   0.609E-03    0.698E-02
DAV:  33    -0.143702718028E+03    0.18551E-04   -0.63956E-06  7808   0.294E-02    0.716E-02
DAV:  34    -0.143702686400E+03    0.31628E-04   -0.31231E-05 10352   0.405E-02    0.736E-02
DAV:  35    -0.143702682891E+03    0.35089E-05   -0.43979E-06  9032   0.904E-03    0.730E-02
DAV:  36    -0.143702671312E+03    0.11578E-04   -0.16798E-06  6312   0.187E-02    0.732E-02
DAV:  37    -0.143702636072E+03    0.35240E-04   -0.36227E-05 11048   0.458E-02    0.751E-02
DAV:  38    -0.143702594663E+03    0.41410E-04   -0.37727E-05 11272   0.539E-02    0.747E-02
DAV:  39    -0.143702591211E+03    0.34520E-05   -0.10041E-05  9816   0.161E-02    0.746E-02
DAV:  40    -0.143702566033E+03    0.25177E-04   -0.95008E-06  9096   0.335E-02    0.754E-02
DAV:  41    -0.143702567674E+03   -0.16404E-05   -0.34951E-06  7016   0.247E-02    0.746E-02
DAV:  42    -0.143702577761E+03   -0.10087E-04   -0.61261E-06  8136   0.166E-02    0.740E-02
DAV:  43    -0.143702595001E+03   -0.17240E-04   -0.26834E-05 10480   0.458E-02    0.718E-02
DAV:  44    -0.143702617751E+03   -0.22750E-04   -0.12202E-04 11472   0.103E-01    0.679E-02
DAV:  45    -0.143702686320E+03   -0.68569E-04   -0.23440E-05 10032   0.296E-02    0.686E-02
DAV:  46    -0.143702691240E+03   -0.49204E-05   -0.14248E-06  5912   0.165E-02    0.676E-02
DAV:  47    -0.143702706614E+03   -0.15374E-04   -0.65493E-05 11216   0.689E-02    0.645E-02
DAV:  48    -0.143702742862E+03   -0.36248E-04   -0.74513E-06  8744   0.122E-02    0.648E-02
DAV:  49    -0.143702747207E+03   -0.43452E-05   -0.15765E-07  5248   0.522E-03    0.647E-02
DAV:  50    -0.143702744432E+03    0.27749E-05   -0.44289E-07  4800   0.141E-02    0.649E-02
DAV:  51    -0.143702742346E+03    0.20864E-05   -0.25702E-07  4848   0.368E-03    0.648E-02
DAV:  52    -0.143702746094E+03   -0.37478E-05   -0.15638E-06  6184   0.185E-02    0.644E-02
DAV:  53    -0.143702744418E+03    0.16752E-05   -0.52436E-06  7856   0.324E-02    0.611E-02
DAV:  54    -0.143702759754E+03   -0.15336E-04   -0.13432E-04 11192   0.120E-01    0.496E-02
DAV:  55    -0.143702839678E+03   -0.79924E-04   -0.65958E-05 11576   0.587E-02    0.392E-02
DAV:  56    -0.143702882194E+03   -0.42515E-04   -0.10149E-05  9984   0.137E-02    0.364E-02
DAV:  57    -0.143702894085E+03   -0.11892E-04   -0.85672E-07  5664   0.152E-02    0.366E-02
DAV:  58    -0.143702901707E+03   -0.76220E-05   -0.27031E-06  7512   0.533E-03    0.365E-02
DAV:  59    -0.143702900723E+03    0.98460E-06   -0.34374E-07  4936   0.994E-03
   5 F= -.14983410E+03 E0= -.14982193E+03  d E =-.731473E+00  mag=    20.0000
 curvature:  -0.86 expect dE=-0.141E+00 dE for cont linesearch -0.177E-02
 trial: gam= 2.27614 g(F)=  0.164E+00 g(S)=  0.000E+00 ort =-0.127E-01 (trialstep = 0.133E+00)
 search vector abs. value=  0.510E+00
 bond charge predicted
       N       E                     dE             d eps       ncg     rms          rms(c)
DAV:   1    -0.143711557037E+03   -0.86553E-02   -0.89707E-01  7904   0.193E+00    0.686E-01
DAV:   2    -0.143725792894E+03   -0.14236E-01   -0.11859E-01 12136   0.111E+00    0.324E+00
DAV:   3    -0.143711715114E+03    0.14078E-01   -0.10908E-01 11680   0.115E+00    0.185E+00
DAV:   4    -0.143716960589E+03   -0.52455E-02   -0.70173E-03 11064   0.496E-01    0.653E-01
DAV:   5    -0.143717292000E+03   -0.33141E-03   -0.14442E-03 12864   0.145E-01    0.153E-01
DAV:   6    -0.143718439681E+03   -0.11477E-02   -0.42493E-04 12248   0.124E-01    0.163E-01
DAV:   7    -0.143718570819E+03   -0.13114E-03   -0.21946E-04 12544   0.795E-02    0.988E-02
DAV:   8    -0.143718636355E+03   -0.65536E-04   -0.20553E-04 12680   0.714E-02    0.971E-02
DAV:   9    -0.143718661325E+03   -0.24970E-04   -0.76897E-05 12392   0.575E-02    0.105E-01
DAV:  10    -0.143718688102E+03   -0.26777E-04   -0.10959E-04 11832   0.429E-02    0.575E-02
DAV:  11    -0.143718746760E+03   -0.58659E-04   -0.32473E-05 10912   0.300E-02    0.196E-02
DAV:  12    -0.143718756815E+03   -0.10055E-04   -0.30187E-06  6912   0.141E-02    0.154E-02
DAV:  13    -0.143718767151E+03   -0.10336E-04   -0.20762E-06  5904   0.122E-02    0.117E-02
DAV:  14    -0.143718789646E+03   -0.22495E-04   -0.10103E-05  8968   0.227E-02    0.110E-02
DAV:  15    -0.143718814193E+03   -0.24547E-04   -0.22681E-05 10616   0.306E-02    0.883E-03
DAV:  16    -0.143718829673E+03   -0.15480E-04   -0.42811E-06  8408   0.131E-02    0.863E-03
DAV:  17    -0.143718837311E+03   -0.76382E-05   -0.21744E-06  6472   0.902E-03    0.823E-03
DAV:  18    -0.143718857577E+03   -0.20266E-04   -0.24512E-05 11072   0.429E-02    0.770E-03
DAV:  19    -0.143718887540E+03   -0.29963E-04   -0.83628E-05 11464   0.840E-02    0.840E-03
DAV:  20    -0.143718916324E+03   -0.28785E-04   -0.14831E-05 10080   0.203E-02    0.818E-03
DAV:  21    -0.143718915594E+03    0.73044E-06   -0.31152E-07  5120   0.294E-03
   6 F= -.14985067E+03 E0= -.14983882E+03  d E =-.165750E-01  mag=    20.0000
 trial-energy change:   -0.016575  1 .order   -0.016324   -0.017982   -0.014666
 step:   0.3855(harm=  0.7192)  dis= 0.01674  next Energy=  -149.866389 (dE=-0.323E-01)
 bond charge predicted
       N       E                     dE             d eps       ncg     rms          rms(c)
DAV:   1    -0.143713849610E+03    0.50667E-02   -0.32601E+00  7904   0.367E+00    0.132E+00
DAV:   2    -0.143762705760E+03   -0.48856E-01   -0.45676E-01 12136   0.209E+00    0.534E+00
DAV:   3    -0.143729714462E+03    0.32991E-01   -0.42622E-01 11792   0.212E+00    0.332E+00
DAV:   4    -0.143734442077E+03   -0.47276E-02   -0.31592E-02 10872   0.972E-01    0.881E-01
DAV:   5    -0.143736974570E+03   -0.25325E-02   -0.32227E-03 12624   0.241E-01    0.316E-01
DAV:   6    -0.143739026002E+03   -0.20514E-02   -0.13466E-03 12384   0.240E-01    0.316E-01
DAV:   7    -0.143739384203E+03   -0.35820E-03   -0.82023E-04 11840   0.114E-01    0.243E-01
DAV:   8    -0.143739524101E+03   -0.13990E-03   -0.10758E-03 12072   0.165E-01    0.155E-01
DAV:   9    -0.143739600051E+03   -0.75951E-04   -0.18299E-04 12744   0.943E-02    0.160E-01
DAV:  10    -0.143739606353E+03   -0.63017E-05   -0.21322E-04 11944   0.580E-02    0.676E-02
DAV:  11    -0.143739755110E+03   -0.14876E-03   -0.12485E-04 12152   0.482E-02    0.441E-02
DAV:  12    -0.143739774411E+03   -0.19301E-04   -0.16151E-05 10712   0.354E-02    0.311E-02
DAV:  13    -0.143739781767E+03   -0.73558E-05   -0.46611E-06  7856   0.147E-02    0.218E-02
DAV:  14    -0.143739812650E+03   -0.30883E-04   -0.95555E-06  7904   0.226E-02    0.299E-02
DAV:  15    -0.143739845243E+03   -0.32593E-04   -0.22650E-05 10744   0.287E-02    0.123E-02
DAV:  16    -0.143739878238E+03   -0.32995E-04   -0.12381E-05 10816   0.279E-02    0.106E-02
DAV:  17    -0.143739896192E+03   -0.17954E-04   -0.49633E-06  8776   0.178E-02    0.864E-03
DAV:  18    -0.143739918278E+03   -0.22086E-04   -0.15546E-05 10064   0.346E-02    0.779E-03
DAV:  19    -0.143739943760E+03   -0.25482E-04   -0.30516E-05 11400   0.430E-02    0.900E-03
DAV:  20    -0.143739957756E+03   -0.13996E-04   -0.56685E-06  7816   0.926E-03    0.904E-03
DAV:  21    -0.143739954329E+03    0.34264E-05   -0.10308E-07  4912   0.348E-03    0.947E-03
DAV:  22    -0.143739950973E+03    0.33564E-05   -0.12036E-07  5136   0.365E-03    0.973E-03
DAV:  23    -0.143739952390E+03   -0.14172E-05   -0.23381E-07  5088   0.282E-03    0.997E-03
DAV:  24    -0.143739952981E+03   -0.59050E-06   -0.15250E-07  4888   0.131E-03
   7 F= -.14987276E+03 E0= -.14986161E+03  d E =-.386632E-01  mag=    20.0000
 curvature:  -0.91 expect dE=-0.130E+00 dE for cont linesearch -0.699E-02
 ZBRENT: increasing intervall
 opt :   0.8913  next Energy=  -149.879962 (dE=-0.459E-01)
 bond charge predicted
       N       E                     dE             d eps       ncg     rms          rms(c)
DAV:   1    -0.143640047693E+03    0.99905E-01   -0.13044E+01  7904   0.735E+00    0.266E+00
DAV:   2    -0.143810186001E+03   -0.17014E+00   -0.15891E+00 12120   0.406E+00    0.767E+00
DAV:   3    -0.143759235726E+03    0.50950E-01   -0.97310E-01 11864   0.401E+00    0.512E+00
DAV:   4    -0.143733759044E+03    0.25477E-01   -0.16635E-01 10768   0.212E+00    0.115E+00
DAV:   5    -0.143740418834E+03   -0.66598E-02   -0.11113E-02 12032   0.514E-01    0.645E-01
DAV:   6    -0.143742837185E+03   -0.24184E-02   -0.31595E-03 12224   0.391E-01    0.551E-01
DAV:   7    -0.143743534850E+03   -0.69767E-03   -0.26786E-03 11976   0.210E-01    0.548E-01
DAV:   8    -0.143744010222E+03   -0.47537E-03   -0.53788E-03 11712   0.369E-01    0.367E-01
DAV:   9    -0.143744211664E+03   -0.20144E-03   -0.12057E-03 12592   0.217E-01    0.146E-01
DAV:  10    -0.143744327064E+03   -0.11540E-03   -0.12991E-04 12464   0.682E-02    0.108E-01
DAV:  11    -0.143744437036E+03   -0.10997E-03   -0.29402E-04 12256   0.779E-02    0.608E-02
DAV:  12    -0.143744612092E+03   -0.17506E-03   -0.24121E-04 12264   0.518E-02    0.723E-02
DAV:  13    -0.143744638760E+03   -0.26668E-04   -0.26000E-05 10976   0.376E-02    0.357E-02
DAV:  14    -0.143744709092E+03   -0.70333E-04   -0.37039E-05 11896   0.377E-02    0.350E-02
DAV:  15    -0.143744765606E+03   -0.56513E-04   -0.23965E-05 11448   0.298E-02    0.270E-02
DAV:  16    -0.143744814037E+03   -0.48431E-04   -0.12188E-05 11328   0.277E-02    0.142E-02
DAV:  17    -0.143744849057E+03   -0.35020E-04   -0.10568E-05 10976   0.261E-02    0.101E-02
DAV:  18    -0.143744882932E+03   -0.33876E-04   -0.11923E-05 10368   0.319E-02    0.864E-03
DAV:  19    -0.143744910459E+03   -0.27526E-04   -0.16213E-05 10944   0.283E-02    0.144E-02
DAV:  20    -0.143744927522E+03   -0.17063E-04   -0.51029E-06  8264   0.183E-02    0.743E-03
DAV:  21    -0.143744946254E+03   -0.18733E-04   -0.10009E-05  9752   0.243E-02    0.795E-03
DAV:  22    -0.143744969866E+03   -0.23612E-04   -0.30564E-05 11432   0.474E-02    0.101E-02
DAV:  23    -0.143744997087E+03   -0.27221E-04   -0.33687E-05 11208   0.463E-02    0.101E-02
DAV:  24    -0.143744972935E+03    0.24152E-04   -0.25818E-05 10800   0.478E-02    0.963E-03
DAV:  25    -0.143745005756E+03   -0.32821E-04   -0.15494E-04 11736   0.125E-01    0.878E-03
DAV:  26    -0.143744974546E+03    0.31210E-04   -0.52501E-04 11512   0.211E-01    0.113E-02
DAV:  27    -0.143745122187E+03   -0.14764E-03   -0.21367E-04 11664   0.975E-02    0.969E-03
DAV:  28    -0.143745197082E+03   -0.74895E-04   -0.25725E-05  8104   0.197E-02    0.929E-03
DAV:  29    -0.143745203674E+03   -0.65923E-05   -0.66396E-07  5496   0.334E-03    0.909E-03
DAV:  30    -0.143745201388E+03    0.22864E-05   -0.19230E-07  4848   0.495E-03    0.876E-03
DAV:  31    -0.143745184079E+03    0.17308E-04   -0.50689E-06  7208   0.229E-02    0.863E-03
DAV:  32    -0.143745200644E+03   -0.16564E-04   -0.13451E-05  9864   0.448E-02    0.139E-02
DAV:  33    -0.143745209668E+03   -0.90239E-05   -0.19026E-05 10456   0.378E-02    0.181E-02
DAV:  34    -0.143745227348E+03   -0.17680E-04   -0.10597E-05  8776   0.265E-02    0.130E-02
DAV:  35    -0.143745238075E+03   -0.10727E-04   -0.37884E-06  7152   0.706E-03    0.130E-02
DAV:  36    -0.143745232193E+03    0.58813E-05   -0.77862E-07  5336   0.130E-02    0.135E-02
DAV:  37    -0.143745237480E+03   -0.52866E-05   -0.48076E-05 11520   0.753E-02    0.869E-03
DAV:  38    -0.143745267828E+03   -0.30348E-04   -0.11053E-04 11272   0.934E-02    0.138E-02
DAV:  39    -0.143745237370E+03    0.30458E-04   -0.41227E-04 11728   0.189E-01    0.190E-02
DAV:  40    -0.143745368825E+03   -0.13145E-03   -0.12290E-04 11048   0.612E-02    0.214E-02
DAV:  41    -0.143745403479E+03   -0.34654E-04   -0.99113E-06  9904   0.147E-02    0.216E-02
DAV:  42    -0.143745376571E+03    0.26907E-04   -0.26212E-05 10672   0.475E-02    0.172E-02
DAV:  43    -0.143744980028E+03    0.39654E-03   -0.93321E-04 11616   0.291E-01    0.157E-02
DAV:  44    -0.143744572348E+03    0.40768E-03   -0.16408E-03 11664   0.358E-01    0.322E-02
DAV:  45    -0.143744863726E+03   -0.29138E-03   -0.52058E-04 11608   0.141E-01    0.357E-02
DAV:  46    -0.143745004478E+03   -0.14075E-03   -0.56668E-05  9264   0.305E-02    0.333E-02
DAV:  47    -0.143745014238E+03   -0.97603E-05   -0.11599E-06  6272   0.135E-02    0.328E-02
DAV:  48    -0.143745028206E+03   -0.13967E-04   -0.51583E-05 11328   0.564E-02    0.281E-02
DAV:  49    -0.143745047753E+03   -0.19547E-04   -0.68264E-05 11592   0.726E-02    0.284E-02
DAV:  50    -0.143745079778E+03   -0.32025E-04   -0.10584E-04 12096   0.915E-02    0.253E-02
DAV:  51    -0.143745120030E+03   -0.40252E-04   -0.14918E-04 12000   0.109E-01    0.219E-02
DAV:  52    -0.143745187610E+03   -0.67580E-04   -0.68780E-05 11984   0.602E-02    0.224E-02
DAV:  53    -0.143745204987E+03   -0.17377E-04   -0.12688E-04 12176   0.109E-01    0.212E-02
DAV:  54    -0.143745265675E+03   -0.60688E-04   -0.86373E-05 11328   0.707E-02    0.207E-02
DAV:  55    -0.143745299338E+03   -0.33663E-04   -0.81876E-05 12024   0.809E-02    0.197E-02
DAV:  56    -0.143745335662E+03   -0.36324E-04   -0.82613E-05 11904   0.761E-02    0.199E-02
DAV:  57    -0.143745383485E+03   -0.47824E-04   -0.27428E-05 10912   0.366E-02    0.192E-02
DAV:  58    -0.143745392399E+03   -0.89141E-05   -0.61340E-05 12144   0.761E-02    0.198E-02
DAV:  59    -0.143745414653E+03   -0.22253E-04   -0.96242E-05 11936   0.850E-02    0.203E-02
