CrCl3 1x1 Clean Substrate (D3, U=0) (a=6
   1.00000000000000     
     6.0462744985246628    0.0000000000000000    0.0000000000000000
    -3.0231372492623314    5.2362273139763751    0.0000000000000000
     0.0000000000000000    0.0000000000000000   20.0000000000000000
   Cr   Cl
     2     6
Direct
     0.3333333333333357    0.6666666666666643    0.5000000000000000
     0.6666666666666643    0.3333333333333357    0.5000000000000000
     0.3584691990884890    0.0000000000000000    0.4335824390957400
     0.0000000000000000    0.3584691990884890    0.4335824390957400
     0.6415308009115110    0.6415308009115110    0.4335824390957400
     0.6415308009115110    0.0000000000000000    0.5664175609042600
     0.0000000000000000    0.6415308009115110    0.5664175609042600
     0.3584691990884890    0.3584691990884890    0.5664175609042600
 
  0.00000000E+00  0.00000000E+00  0.00000000E+00
  0.00000000E+00  0.00000000E+00  0.00000000E+00
  0.00000000E+00  0.00000000E+00  0.00000000E+00
  0.00000000E+00  0.00000000E+00  0.00000000E+00
  0.00000000E+00  0.00000000E+00  0.00000000E+00
  0.00000000E+00  0.00000000E+00  0.00000000E+00
  0.00000000E+00  0.00000000E+00  0.00000000E+00
  0.00000000E+00  0.00000000E+00  0.00000000E+00
