CrCl3 2x2 + H S2 hollow (D3, U=0) (a_2x2
   1.0000000000000000     
    12.0925489970493256    0.0000000000000000    0.0000000000000000
    -6.0462744985246628   10.4724546279527502    0.0000000000000000
     0.0000000000000000    0.0000000000000000   20.0000000000000000
   Cr   Cl   H 
     8    24     1
Direct
  0.1654114104161565  0.3286530975531075  0.5000330247277727
  0.3286530975531075  0.1654114104161565  0.5000330247277727
  0.6713469024468928  0.3367583128630205  0.5000330247277727
  0.8333333333333286  0.1666666666666714  0.5018117728881795
  0.1666666666666714  0.8333333333333286  0.5018117728881795
  0.3367583128630205  0.6713469024468928  0.5000330247277727
  0.6632416871369794  0.8345885895838506  0.5000330247277727
  0.8345885895838506  0.6632416871369794  0.5000330247277727
  0.1795293198272248  0.5000000000000000  0.4352245310347294
  0.5000000000000000  0.1795293198272248  0.4352245310347294
  0.3176433230299337  0.3176433230299337  0.4297771356876343
  0.3462142347668192  0.5000000000000000  0.5666904063646407
  0.0026061909766067  0.3224015680105791  0.5695229289077525
  0.1718601296586799  0.1718601296586799  0.5683515896476470
  0.6823566769700664  0.5000000000000000  0.4297771356876343
  0.9958481674377162  0.1739976635274197  0.4328034679647405
  0.8260023364725804  0.3218505039102820  0.4328034679647405
  0.8281398703413201  0.5000000000000000  0.5683515896476470
  0.5000000000000000  0.3462142347668192  0.5666904063646407
  0.6775984319894209  0.1802046229660277  0.5695229289077525
  0.1739976635274197  0.9958481674377162  0.4328034679647405
  0.5000000000000000  0.6823566769700664  0.4297771356876343
  0.3218505039102820  0.8260023364725804  0.4328034679647405
  0.3224015680105791  0.0026061909766067  0.5695229289077525
  0.9973938090233931  0.8197953770339723  0.5695229289077525
  0.1802046229660276  0.6775984319894209  0.5695229289077525
  0.6781494960897180  0.0041518325622841  0.4328034679647405
  0.0041518325622841  0.6781494960897180  0.4328034679647405
  0.8204706801727751  0.8204706801727751  0.4352245310347294
  0.8197953770339723  0.9973938090233931  0.5695229289077525
  0.5000000000000000  0.8281398703413201  0.5683515896476470
  0.6537857652331811  0.6537857652331811  0.5666904063646407
  0.5000000000000000  0.5000000000000000  0.5620889364180924

  0.00000000E+00  0.00000000E+00  0.00000000E+00
  0.00000000E+00  0.00000000E+00  0.00000000E+00
  0.00000000E+00  0.00000000E+00  0.00000000E+00
  0.00000000E+00  0.00000000E+00  0.00000000E+00
  0.00000000E+00  0.00000000E+00  0.00000000E+00
  0.00000000E+00  0.00000000E+00  0.00000000E+00
  0.00000000E+00  0.00000000E+00  0.00000000E+00
  0.00000000E+00  0.00000000E+00  0.00000000E+00
  0.00000000E+00  0.00000000E+00  0.00000000E+00
  0.00000000E+00  0.00000000E+00  0.00000000E+00
  0.00000000E+00  0.00000000E+00  0.00000000E+00
  0.00000000E+00  0.00000000E+00  0.00000000E+00
  0.00000000E+00  0.00000000E+00  0.00000000E+00
  0.00000000E+00  0.00000000E+00  0.00000000E+00
  0.00000000E+00  0.00000000E+00  0.00000000E+00
  0.00000000E+00  0.00000000E+00  0.00000000E+00
  0.00000000E+00  0.00000000E+00  0.00000000E+00
  0.00000000E+00  0.00000000E+00  0.00000000E+00
  0.00000000E+00  0.00000000E+00  0.00000000E+00
  0.00000000E+00  0.00000000E+00  0.00000000E+00
  0.00000000E+00  0.00000000E+00  0.00000000E+00
  0.00000000E+00  0.00000000E+00  0.00000000E+00
  0.00000000E+00  0.00000000E+00  0.00000000E+00
  0.00000000E+00  0.00000000E+00  0.00000000E+00
  0.00000000E+00  0.00000000E+00  0.00000000E+00
  0.00000000E+00  0.00000000E+00  0.00000000E+00
  0.00000000E+00  0.00000000E+00  0.00000000E+00
  0.00000000E+00  0.00000000E+00  0.00000000E+00
  0.00000000E+00  0.00000000E+00  0.00000000E+00
  0.00000000E+00  0.00000000E+00  0.00000000E+00
  0.00000000E+00  0.00000000E+00  0.00000000E+00
  0.00000000E+00  0.00000000E+00  0.00000000E+00
  0.00000000E+00  0.00000000E+00  0.00000000E+00
