 running on   64 total cores
 distrk:  each k-point on   64 cores,    1 groups
 distr:  one band on    8 cores,    8 groups
 vasp.6.2.0 18Jan21 (build Jul 28 2023 11:58:00) complex                         
 POSCAR found type information on POSCAR CrClH 
 POSCAR found :  3 types and      33 ions
 scaLAPACK will be used
 LDA part: xc-table for Pade appr. of Perdew
 POSCAR, INCAR and KPOINTS ok, starting setup
 FFT: planning ...
 WAVECAR not read
 entering main loop
       N       E                     dE             d eps       ncg     rms          rms(c)
DAV:   1     0.210367587100E+04    0.21037E+04   -0.61649E+04  2960   0.918E+02
DAV:   2     0.422742382719E+03   -0.16809E+04   -0.15749E+04  3568   0.245E+02
DAV:   3    -0.106615734244E+03   -0.52936E+03   -0.51410E+03  4152   0.140E+02
DAV:   4    -0.150901539175E+03   -0.44286E+02   -0.43453E+02  4488   0.568E+01
DAV:   5    -0.151747329016E+03   -0.84579E+00   -0.83480E+00  4352   0.104E+01    0.412E+01
DAV:   6    -0.144836423727E+03    0.69109E+01   -0.16412E+02  4688   0.634E+01    0.416E+01
DAV:   7    -0.141412344135E+03    0.34241E+01   -0.20278E+01  4352   0.436E+01    0.206E+01
DAV:   8    -0.142009276001E+03   -0.59693E+00   -0.69532E+00  4312   0.111E+01    0.110E+01
DAV:   9    -0.141970764676E+03    0.38511E-01   -0.20173E+00  4160   0.114E+01    0.772E+00
DAV:  10    -0.141915846147E+03    0.54919E-01   -0.50336E-01  4288   0.510E+00    0.331E+00
DAV:  11    -0.141883263291E+03    0.32583E-01   -0.15544E-01  4376   0.179E+00    0.193E+00
DAV:  12    -0.141992181347E+03   -0.10892E+00   -0.17016E-01  4072   0.194E+00    0.894E-01
DAV:  13    -0.142052491682E+03   -0.60310E-01   -0.30128E-02  4208   0.105E+00    0.573E-01
DAV:  14    -0.142082475709E+03   -0.29984E-01   -0.85456E-03  4192   0.563E-01    0.343E-01
DAV:  15    -0.142119518000E+03   -0.37042E-01   -0.37858E-03  4032   0.169E-01    0.190E-01
DAV:  16    -0.142146647990E+03   -0.27130E-01   -0.74001E-04  3736   0.846E-02    0.128E-01
DAV:  17    -0.142177865571E+03   -0.31218E-01   -0.65306E-04  3472   0.587E-02    0.837E-02
DAV:  18    -0.142205125222E+03   -0.27260E-01   -0.52928E-04  4128   0.698E-02    0.647E-02
DAV:  19    -0.142217978547E+03   -0.12853E-01   -0.11648E-04  3520   0.296E-02    0.502E-02
DAV:  20    -0.142237910230E+03   -0.19932E-01   -0.44306E-04  3248   0.393E-02    0.298E-02
DAV:  21    -0.142241968425E+03   -0.40582E-02   -0.95423E-05  3816   0.246E-02    0.306E-02
DAV:  22    -0.142242558268E+03   -0.58984E-03   -0.14431E-05  3656   0.107E-02    0.164E-02
DAV:  23    -0.142242987253E+03   -0.42899E-03   -0.14595E-05  3568   0.906E-03    0.619E-03
DAV:  24    -0.142243091438E+03   -0.10419E-03   -0.13713E-06  2464   0.527E-03    0.470E-03
DAV:  25    -0.142243115380E+03   -0.23942E-04   -0.10612E-06  2200   0.307E-03    0.298E-03
DAV:  26    -0.142243133501E+03   -0.18121E-04   -0.49064E-07  1864   0.241E-03    0.137E-03
DAV:  27    -0.142243148631E+03   -0.15130E-04   -0.26843E-07  1696   0.241E-03    0.120E-03
DAV:  28    -0.142243168947E+03   -0.20316E-04   -0.29939E-07  1912   0.150E-03    0.118E-03
DAV:  29    -0.142243180614E+03   -0.11667E-04   -0.20691E-07  1864   0.134E-03    0.652E-04
DAV:  30    -0.142243187825E+03   -0.72109E-05   -0.12821E-07  1760   0.110E-03    0.572E-04
DAV:  31    -0.142243193182E+03   -0.53569E-05   -0.14052E-07  1880   0.103E-03    0.520E-04
DAV:  32    -0.142243195292E+03   -0.21103E-05   -0.86095E-08  1760   0.811E-04    0.370E-04
DAV:  33    -0.142243196573E+03   -0.12806E-05   -0.37964E-08  1648   0.597E-04    0.236E-04
DAV:  34    -0.142243197655E+03   -0.10823E-05   -0.18664E-08  1584   0.434E-04    0.253E-04
DAV:  35    -0.142243198450E+03   -0.79518E-06   -0.11914E-08  1616   0.318E-04
   1 F= -.14821358E+03 E0= -.14821343E+03  d E =-.148214E+03  mag=    25.0000
 curvature:   0.00 expect dE= 0.000E+00 dE for cont linesearch  0.000E+00
 trial: gam= 0.00000 g(F)=  0.356E+00 g(S)=  0.000E+00 ort = 0.000E+00 (trialstep = 0.100E+01)
 search vector abs. value=  0.356E+00
 bond charge predicted
       N       E                     dE             d eps       ncg     rms          rms(c)
DAV:   1    -0.142284950448E+03   -0.41753E-01   -0.32158E+01  2880   0.116E+01    0.399E+00
DAV:   2    -0.142567091698E+03   -0.28214E+00   -0.28453E+00  4056   0.650E+00    0.261E+00
DAV:   3    -0.142564396397E+03    0.26953E-02   -0.61091E-02  4112   0.146E+00    0.128E+00
DAV:   4    -0.142558547538E+03    0.58489E-02   -0.10518E-02  3920   0.308E-01    0.991E-01
DAV:   5    -0.142553886439E+03    0.46611E-02   -0.16356E-02  3696   0.326E-01    0.490E-01
DAV:   6    -0.142556145979E+03   -0.22595E-02   -0.43021E-03  4176   0.275E-01    0.155E-01
DAV:   7    -0.142557400910E+03   -0.12549E-02   -0.36450E-04  4024   0.801E-02    0.981E-02
DAV:   8    -0.142558953712E+03   -0.15528E-02   -0.86907E-05  3880   0.422E-02    0.883E-02
DAV:   9    -0.142560407434E+03   -0.14537E-02   -0.58905E-05  3944   0.272E-02    0.530E-02
DAV:  10    -0.142561391127E+03   -0.98369E-03   -0.32816E-05  4080   0.163E-02    0.200E-02
DAV:  11    -0.142562073584E+03   -0.68246E-03   -0.58241E-06  3128   0.716E-03    0.928E-03
DAV:  12    -0.142562567074E+03   -0.49349E-03   -0.46540E-06  2992   0.478E-03    0.518E-03
DAV:  13    -0.142563269945E+03   -0.70287E-03   -0.10047E-05  3000   0.602E-03    0.409E-03
DAV:  14    -0.142563634958E+03   -0.36501E-03   -0.46841E-06  3000   0.415E-03    0.369E-03
DAV:  15    -0.142563912046E+03   -0.27709E-03   -0.41359E-06  2848   0.315E-03    0.213E-03
DAV:  16    -0.142564069249E+03   -0.15720E-03   -0.25992E-06  2672   0.279E-03    0.109E-03
DAV:  17    -0.142564132023E+03   -0.62773E-04   -0.80488E-07  2176   0.202E-03    0.111E-03
DAV:  18    -0.142564145668E+03   -0.13646E-04   -0.27917E-07  1784   0.204E-03    0.100E-03
DAV:  19    -0.142564174913E+03   -0.29244E-04   -0.89570E-07  2136   0.158E-03    0.593E-04
DAV:  20    -0.142564186248E+03   -0.11335E-04   -0.31275E-07  1992   0.157E-03    0.504E-04
DAV:  21    -0.142564189174E+03   -0.29265E-05   -0.30640E-07  1984   0.138E-03    0.332E-04
DAV:  22    -0.142564189268E+03   -0.94133E-07   -0.14533E-07  1672   0.136E-03
   2 F= -.14851134E+03 E0= -.14850968E+03  d E =-.297766E+00  mag=    25.0000
 trial-energy change:   -0.297766  1 .order   -0.296474   -0.356128   -0.236820
 step:   2.6897(harm=  2.9849)  dis= 0.11844  next Energy=  -148.717653 (dE=-0.504E+00)
 bond charge predicted
       N       E                     dE             d eps       ncg     rms          rms(c)
DAV:   1    -0.142028701159E+03    0.53549E+00   -0.91531E+01  2912   0.196E+01    0.633E+00
DAV:   2    -0.142832813358E+03   -0.80411E+00   -0.82543E+00  4152   0.116E+01    0.492E+00
DAV:   3    -0.142830037018E+03    0.27763E-02   -0.16838E-01  4184   0.234E+00    0.207E+00
DAV:   4    -0.142812801533E+03    0.17235E-01   -0.31438E-02  3896   0.489E-01    0.169E+00
DAV:   5    -0.142802087910E+03    0.10714E-01   -0.34751E-02  3664   0.459E-01    0.921E-01
DAV:   6    -0.142803795907E+03   -0.17080E-02   -0.12060E-02  4208   0.538E-01    0.297E-01
DAV:   7    -0.142805048209E+03   -0.12523E-02   -0.11446E-03  4232   0.152E-01    0.179E-01
DAV:   8    -0.142807014120E+03   -0.19659E-02   -0.32114E-04  3888   0.654E-02    0.179E-01
DAV:   9    -0.142809058968E+03   -0.20448E-02   -0.14539E-04  3808   0.408E-02    0.123E-01
DAV:  10    -0.142810797174E+03   -0.17382E-02   -0.17824E-04  4056   0.448E-02    0.398E-02
DAV:  11    -0.142811907590E+03   -0.11104E-02   -0.31787E-05  3896   0.163E-02    0.137E-02
DAV:  12    -0.142812311037E+03   -0.40345E-03   -0.62524E-06  3320   0.740E-03    0.850E-03
DAV:  13    -0.142813053593E+03   -0.74256E-03   -0.81607E-06  2992   0.610E-03    0.533E-03
DAV:  14    -0.142813715618E+03   -0.66202E-03   -0.10069E-05  3128   0.594E-03    0.394E-03
DAV:  15    -0.142814146057E+03   -0.43044E-03   -0.71300E-06  3088   0.480E-03    0.267E-03
DAV:  16    -0.142814473070E+03   -0.32701E-03   -0.69732E-06  2952   0.388E-03    0.186E-03
DAV:  17    -0.142814568868E+03   -0.95799E-04   -0.14529E-06  2496   0.249E-03    0.119E-03
DAV:  18    -0.142814611564E+03   -0.42696E-04   -0.65789E-07  2112   0.212E-03    0.136E-03
DAV:  19    -0.142814635910E+03   -0.24346E-04   -0.65319E-07  2112   0.219E-03    0.101E-03
DAV:  20    -0.142814656697E+03   -0.20787E-04   -0.12345E-06  2328   0.229E-03    0.828E-04
DAV:  21    -0.142814661140E+03   -0.44438E-05   -0.40138E-07  2032   0.186E-03    0.568E-04
DAV:  22    -0.142814661624E+03   -0.48341E-06   -0.20948E-07  1712   0.140E-03
   3 F= -.14871485E+03 E0= -.14870796E+03  d E =-.501272E+00  mag=    25.0000
 curvature:  -1.46 expect dE=-0.127E+00 dE for cont linesearch -0.609E-05
 trial: gam= 0.24012 g(F)=  0.867E-01 g(S)=  0.000E+00 ort = 0.122E-02 (trialstep = 0.134E+01)
 search vector abs. value=  0.108E+00
 bond charge predicted
       N       E                     dE             d eps       ncg     rms          rms(c)
DAV:   1    -0.142758650964E+03    0.56010E-01   -0.17326E+01  2880   0.841E+00    0.269E+00
DAV:   2    -0.142895814232E+03   -0.13716E+00   -0.12288E+00  4056   0.407E+00    0.152E+00
DAV:   3    -0.142902985159E+03   -0.71709E-02   -0.34607E-02  4144   0.106E+00    0.782E-01
DAV:   4    -0.142900897588E+03    0.20876E-02   -0.43445E-03  4360   0.276E-01    0.553E-01
DAV:   5    -0.142899246432E+03    0.16512E-02   -0.32785E-03  3600   0.150E-01    0.358E-01
DAV:   6    -0.142899501333E+03   -0.25490E-03   -0.25323E-03  4136   0.148E-01    0.118E-01
DAV:   7    -0.142899982348E+03   -0.48102E-03   -0.30035E-04  3840   0.560E-02    0.536E-02
DAV:   8    -0.142900408393E+03   -0.42604E-03   -0.45217E-05  4016   0.270E-02    0.340E-02
DAV:   9    -0.142900820663E+03   -0.41227E-03   -0.36872E-05  4080   0.262E-02    0.266E-02
DAV:  10    -0.142901159888E+03   -0.33923E-03   -0.15866E-05  4056   0.146E-02    0.105E-02
DAV:  11    -0.142901457565E+03   -0.29768E-03   -0.52726E-06  3104   0.612E-03    0.471E-03
DAV:  12    -0.142901676321E+03   -0.21876E-03   -0.26994E-06  2672   0.375E-03    0.288E-03
DAV:  13    -0.142901846895E+03   -0.17057E-03   -0.18950E-06  2520   0.279E-03    0.238E-03
DAV:  14    -0.142902049985E+03   -0.20309E-03   -0.39690E-06  2808   0.384E-03    0.185E-03
DAV:  15    -0.142902140127E+03   -0.90142E-04   -0.18182E-06  2568   0.279E-03    0.868E-04
DAV:  16    -0.142902180007E+03   -0.39879E-04   -0.88224E-07  2216   0.211E-03    0.117E-03
DAV:  17    -0.142902188287E+03   -0.82804E-05   -0.27256E-07  1824   0.203E-03    0.674E-04
DAV:  18    -0.142902200344E+03   -0.12057E-04   -0.49227E-07  2048   0.139E-03    0.761E-04
DAV:  19    -0.142902206207E+03   -0.58635E-05   -0.30885E-07  2000   0.170E-03    0.602E-04
DAV:  20    -0.142902207538E+03   -0.13303E-05   -0.17288E-07  1680   0.124E-03    0.257E-04
DAV:  21    -0.142902208734E+03   -0.11958E-05   -0.11519E-07  1704   0.929E-04    0.308E-04
DAV:  22    -0.142902209917E+03   -0.11830E-05   -0.84534E-08  1704   0.789E-04    0.148E-04
DAV:  23    -0.142902210407E+03   -0.49056E-06   -0.46427E-08  1648   0.650E-04
   4 F= -.14879168E+03 E0= -.14878326E+03  d E =-.768284E-01  mag=    25.0000
 trial-energy change:   -0.076828  1 .order   -0.076996   -0.116432   -0.037559
 step:   1.9751(harm=  1.9751)  dis= 0.06014  next Energy=  -148.800789 (dE=-0.859E-01)
 bond charge predicted
       N       E                     dE             d eps       ncg     rms          rms(c)
DAV:   1    -0.142884373032E+03    0.17837E-01   -0.39262E+00  2880   0.400E+00    0.129E+00
DAV:   2    -0.142914415285E+03   -0.30042E-01   -0.26934E-01  4000   0.188E+00    0.669E-01
DAV:   3    -0.142916310125E+03   -0.18948E-02   -0.87671E-03  4144   0.500E-01    0.375E-01
DAV:   4    -0.142915833276E+03    0.47685E-03   -0.93604E-04  4320   0.135E-01    0.264E-01
DAV:   5    -0.142915372834E+03    0.46044E-03   -0.73794E-04  3360   0.680E-02    0.172E-01
DAV:   6    -0.142915398657E+03   -0.25824E-04   -0.63609E-04  4088   0.747E-02    0.555E-02
DAV:   7    -0.142915530309E+03   -0.13165E-03   -0.68792E-05  4168   0.322E-02    0.249E-02
DAV:   8    -0.142915668332E+03   -0.13802E-03   -0.11950E-05  3672   0.125E-02    0.164E-02
DAV:   9    -0.142915809278E+03   -0.14095E-03   -0.74851E-06  3192   0.924E-03    0.114E-02
DAV:  10    -0.142915932750E+03   -0.12347E-03   -0.39710E-06  2960   0.685E-03    0.436E-03
DAV:  11    -0.142916029298E+03   -0.96548E-04   -0.15504E-06  2288   0.438E-03    0.312E-03
DAV:  12    -0.142916102389E+03   -0.73091E-04   -0.96302E-07  2168   0.363E-03    0.229E-03
DAV:  13    -0.142916144498E+03   -0.42109E-04   -0.72543E-07  1952   0.305E-03    0.218E-03
DAV:  14    -0.142916208892E+03   -0.64394E-04   -0.17477E-06  2520   0.302E-03    0.138E-03
DAV:  15    -0.142916243848E+03   -0.34956E-04   -0.57995E-07  2120   0.196E-03    0.737E-04
DAV:  16    -0.142916267689E+03   -0.23841E-04   -0.48914E-07  2024   0.194E-03    0.126E-03
DAV:  17    -0.142916279752E+03   -0.12063E-04   -0.39086E-07  1920   0.185E-03    0.434E-04
DAV:  18    -0.142916286230E+03   -0.64783E-05   -0.31396E-07  1840   0.149E-03    0.771E-04
DAV:  19    -0.142916289967E+03   -0.37365E-05   -0.22883E-07  1824   0.135E-03    0.306E-04
DAV:  20    -0.142916292851E+03   -0.28847E-05   -0.21862E-07  1880   0.111E-03    0.310E-04
DAV:  21    -0.142916293889E+03   -0.10375E-05   -0.13786E-07  1672   0.110E-03    0.168E-04
DAV:  22    -0.142916294254E+03   -0.36499E-06   -0.77584E-08  1664   0.742E-04
   5 F= -.14880081E+03 E0= -.14879166E+03  d E =-.859638E-01  mag=    25.0000
 curvature:  -1.22 expect dE=-0.379E-01 dE for cont linesearch -0.702E-05
 trial: gam= 0.26981 g(F)=  0.310E-01 g(S)=  0.000E+00 ort = 0.786E-03 (trialstep = 0.147E+01)
 search vector abs. value=  0.393E-01
 bond charge predicted
       N       E                     dE             d eps       ncg     rms          rms(c)
DAV:   1    -0.142893670877E+03    0.22623E-01   -0.76385E+00  2880   0.557E+00    0.198E+00
DAV:   2    -0.142946555011E+03   -0.52884E-01   -0.57565E-01  4024   0.281E+00    0.102E+00
DAV:   3    -0.142946647940E+03   -0.92929E-04   -0.14725E-02  4024   0.715E-01    0.647E-01
DAV:   4    -0.142946054298E+03    0.59364E-03   -0.17911E-03  4232   0.169E-01    0.481E-01
DAV:   5    -0.142945489398E+03    0.56490E-03   -0.12380E-03  3384   0.869E-02    0.334E-01
DAV:   6    -0.142945469405E+03    0.19993E-04   -0.11784E-03  4112   0.122E-01    0.105E-01
DAV:   7    -0.142945513937E+03   -0.44532E-04   -0.10512E-04  4136   0.400E-02    0.343E-02
DAV:   8    -0.142945544152E+03   -0.30215E-04   -0.24265E-05  3976   0.191E-02    0.253E-02
DAV:   9    -0.142945575925E+03   -0.31773E-04   -0.39236E-06  2720   0.731E-03    0.209E-02
DAV:  10    -0.142945614357E+03   -0.38431E-04   -0.88460E-06  3288   0.799E-03    0.911E-03
DAV:  11    -0.142945638069E+03   -0.23713E-04   -0.13905E-06  2008   0.387E-03    0.276E-03
DAV:  12    -0.142945654162E+03   -0.16093E-04   -0.32939E-07  1744   0.271E-03    0.183E-03
DAV:  13    -0.142945675342E+03   -0.21180E-04   -0.27294E-07  1864   0.215E-03    0.173E-03
DAV:  14    -0.142945683469E+03   -0.81271E-05   -0.21182E-07  1680   0.182E-03    0.120E-03
DAV:  15    -0.142945691067E+03   -0.75979E-05   -0.13538E-07  1688   0.122E-03    0.112E-03
DAV:  16    -0.142945698352E+03   -0.72848E-05   -0.15020E-07  1816   0.108E-03    0.639E-04
DAV:  17    -0.142945703795E+03   -0.54431E-05   -0.11913E-07  1704   0.102E-03    0.724E-04
DAV:  18    -0.142945706933E+03   -0.31382E-05   -0.10620E-07  1720   0.959E-04    0.336E-04
DAV:  19    -0.142945708027E+03   -0.10942E-05   -0.62676E-08  1664   0.730E-04    0.289E-04
DAV:  20    -0.142945709086E+03   -0.10586E-05   -0.51953E-08  1672   0.577E-04    0.287E-04
DAV:  21    -0.142945709660E+03   -0.57381E-06   -0.34108E-08  1656   0.527E-04
   6 F= -.14883440E+03 E0= -.14882590E+03  d E =-.335876E-01  mag=    25.0000
 trial-energy change:   -0.033588  1 .order   -0.033421   -0.045719   -0.021122
 step:   2.6379(harm=  2.7237)  dis= 0.03921  next Energy=  -148.842938 (dE=-0.421E-01)
 bond charge predicted
       N       E                     dE             d eps       ncg     rms          rms(c)
DAV:   1    -0.142916509207E+03    0.29200E-01   -0.48892E+00  2880   0.446E+00    0.157E+00
DAV:   2    -0.142950540464E+03   -0.34031E-01   -0.37171E-01  4000   0.227E+00    0.820E-01
DAV:   3    -0.142950656167E+03   -0.11570E-03   -0.94756E-03  3976   0.571E-01    0.516E-01
DAV:   4    -0.142950261528E+03    0.39464E-03   -0.11687E-03  4248   0.135E-01    0.384E-01
DAV:   5    -0.142949889841E+03    0.37169E-03   -0.85135E-04  3344   0.720E-02    0.262E-01
DAV:   6    -0.142949890314E+03   -0.47249E-06   -0.75824E-04  4064   0.989E-02    0.801E-02
DAV:   7    -0.142949920021E+03   -0.29707E-04   -0.63219E-05  4128   0.315E-02    0.273E-02
DAV:   8    -0.142949941844E+03   -0.21823E-04   -0.14258E-05  3864   0.147E-02    0.213E-02
DAV:   9    -0.142949965096E+03   -0.23252E-04   -0.25131E-06  2360   0.597E-03    0.168E-02
DAV:  10    -0.142949992632E+03   -0.27536E-04   -0.66649E-06  3056   0.692E-03    0.754E-03
DAV:  11    -0.142950009802E+03   -0.17170E-04   -0.96778E-07  1920   0.332E-03    0.228E-03
DAV:  12    -0.142950021447E+03   -0.11645E-04   -0.24496E-07  1688   0.243E-03    0.153E-03
DAV:  13    -0.142950035982E+03   -0.14534E-04   -0.18503E-07  1848   0.178E-03    0.139E-03
DAV:  14    -0.142950042762E+03   -0.67800E-05   -0.14920E-07  1672   0.152E-03    0.104E-03
DAV:  15    -0.142950048958E+03   -0.61962E-05   -0.10458E-07  1688   0.108E-03    0.947E-04
DAV:  16    -0.142950054176E+03   -0.52185E-05   -0.11406E-07  1744   0.990E-04    0.459E-04
DAV:  17    -0.142950057814E+03   -0.36380E-05   -0.88124E-08  1760   0.876E-04    0.578E-04
DAV:  18    -0.142950059786E+03   -0.19714E-05   -0.69477E-08  1672   0.816E-04    0.279E-04
DAV:  19    -0.142950060562E+03   -0.77671E-06   -0.42608E-08  1632   0.579E-04
   7 F= -.14884316E+03 E0= -.14883520E+03  d E =-.423431E-01  mag=    25.0000
 curvature:  -1.71 expect dE=-0.113E-01 dE for cont linesearch -0.378E-05
 trial: gam= 0.19715 g(F)=  0.661E-02 g(S)=  0.000E+00 ort = 0.295E-03 (trialstep = 0.170E+01)
 search vector abs. value=  0.826E-02
 bond charge predicted
       N       E                     dE             d eps       ncg     rms          rms(c)
DAV:   1    -0.142938012571E+03    0.12047E-01   -0.21643E+00  2880   0.308E+00    0.961E-01
DAV:   2    -0.142954997258E+03   -0.16985E-01   -0.15344E-01  4080   0.140E+00    0.478E-01
DAV:   3    -0.142956659122E+03   -0.16619E-02   -0.40318E-03  4160   0.358E-01    0.301E-01
DAV:   4    -0.142956407731E+03    0.25139E-03   -0.39125E-04  4248   0.813E-02    0.219E-01
DAV:   5    -0.142956036788E+03    0.37094E-03   -0.35777E-04  3504   0.484E-02    0.158E-01
DAV:   6    -0.142955854521E+03    0.18227E-03   -0.43919E-04  3528   0.510E-02    0.507E-02
DAV:   7    -0.142955968903E+03   -0.11438E-03   -0.61210E-05  3920   0.248E-02    0.174E-02
DAV:   8    -0.142956097362E+03   -0.12846E-03   -0.68199E-06  3288   0.814E-03    0.973E-03
DAV:   9    -0.142956224977E+03   -0.12762E-03   -0.12930E-06  2152   0.387E-03    0.692E-03
DAV:  10    -0.142956378795E+03   -0.15382E-03   -0.35562E-06  2616   0.499E-03    0.360E-03
DAV:  11    -0.142956487443E+03   -0.10865E-03   -0.10313E-06  2128   0.331E-03    0.186E-03
DAV:  12    -0.142956571396E+03   -0.83952E-04   -0.76325E-07  2120   0.308E-03    0.177E-03
DAV:  13    -0.142956636814E+03   -0.65419E-04   -0.79149E-07  2136   0.276E-03    0.150E-03
DAV:  14    -0.142956724425E+03   -0.87610E-04   -0.19897E-06  2448   0.256E-03    0.103E-03
DAV:  15    -0.142956760062E+03   -0.35637E-04   -0.43678E-07  2080   0.181E-03    0.760E-04
DAV:  16    -0.142956778916E+03   -0.18854E-04   -0.32007E-07  1872   0.163E-03    0.691E-04
DAV:  17    -0.142956795996E+03   -0.17080E-04   -0.41703E-07  2024   0.152E-03    0.464E-04
DAV:  18    -0.142956802217E+03   -0.62208E-05   -0.25219E-07  1832   0.153E-03    0.329E-04
DAV:  19    -0.142956805337E+03   -0.31204E-05   -0.18929E-07  1696   0.113E-03    0.286E-04
DAV:  20    -0.142956806976E+03   -0.16381E-05   -0.12255E-07  1792   0.104E-03    0.158E-04
DAV:  21    -0.142956808093E+03   -0.11175E-05   -0.10967E-07  1768   0.770E-04    0.162E-04
DAV:  22    -0.142956808253E+03   -0.15964E-06   -0.53043E-08  1680   0.775E-04
   8 F= -.14885159E+03 E0= -.14884398E+03  d E =-.843044E-02  mag=    25.0000
 trial-energy change:   -0.008430  1 .order   -0.008409   -0.011343   -0.005475
 step:   3.2230(harm=  3.2858)  dis= 0.01453  next Energy=  -148.854056 (dE=-0.109E-01)
 bond charge predicted
       N       E                     dE             d eps       ncg     rms          rms(c)
DAV:   1    -0.142942774953E+03    0.14033E-01   -0.17369E+00  2880   0.276E+00    0.859E-01
DAV:   2    -0.142956389918E+03   -0.13615E-01   -0.12344E-01  4072   0.126E+00    0.428E-01
DAV:   3    -0.142957745151E+03   -0.13552E-02   -0.32316E-03  4152   0.320E-01    0.270E-01
DAV:   4    -0.142957536704E+03    0.20845E-03   -0.31401E-04  4256   0.728E-02    0.196E-01
DAV:   5    -0.142957221765E+03    0.31494E-03   -0.29147E-04  3472   0.436E-02    0.141E-01
DAV:   6    -0.142957065249E+03    0.15652E-03   -0.35441E-04  3560   0.459E-02    0.451E-02
DAV:   7    -0.142957163488E+03   -0.98239E-04   -0.48253E-05  3888   0.221E-02    0.156E-02
DAV:   8    -0.142957272572E+03   -0.10908E-03   -0.54528E-06  3168   0.738E-03    0.886E-03
DAV:   9    -0.142957380823E+03   -0.10825E-03   -0.10709E-06  2120   0.372E-03    0.629E-03
DAV:  10    -0.142957513914E+03   -0.13309E-03   -0.28362E-06  2448   0.455E-03    0.331E-03
DAV:  11    -0.142957608337E+03   -0.94423E-04   -0.10150E-06  2104   0.343E-03    0.186E-03
DAV:  12    -0.142957677809E+03   -0.69472E-04   -0.74769E-07  2088   0.313E-03    0.166E-03
DAV:  13    -0.142957728961E+03   -0.51152E-04   -0.64467E-07  1968   0.262E-03    0.141E-03
DAV:  14    -0.142957811674E+03   -0.82713E-04   -0.19562E-06  2464   0.244E-03    0.904E-04
DAV:  15    -0.142957841235E+03   -0.29561E-04   -0.37345E-07  2024   0.168E-03    0.721E-04
DAV:  16    -0.142957856905E+03   -0.15670E-04   -0.26825E-07  1856   0.149E-03    0.640E-04
DAV:  17    -0.142957870479E+03   -0.13574E-04   -0.32926E-07  2008   0.137E-03    0.441E-04
DAV:  18    -0.142957876496E+03   -0.60172E-05   -0.21942E-07  1840   0.136E-03    0.298E-04
DAV:  19    -0.142957878366E+03   -0.18701E-05   -0.13362E-07  1648   0.106E-03    0.270E-04
DAV:  20    -0.142957880308E+03   -0.19421E-05   -0.11004E-07  1768   0.835E-04    0.145E-04
DAV:  21    -0.142957881355E+03   -0.10473E-05   -0.85239E-08  1736   0.785E-04    0.162E-04
DAV:  22    -0.142957881606E+03   -0.25071E-06   -0.50861E-08  1656   0.637E-04
   9 F= -.14885416E+03 E0= -.14884686E+03  d E =-.109991E-01  mag=    25.0000
 curvature:  -2.03 expect dE=-0.559E-02 dE for cont linesearch -0.453E-05
 trial: gam= 0.40732 g(F)=  0.275E-02 g(S)=  0.000E+00 ort = 0.136E-03 (trialstep = 0.200E+01)
 search vector abs. value=  0.423E-02
 bond charge predicted
       N       E                     dE             d eps       ncg     rms          rms(c)
DAV:   1    -0.142952083831E+03    0.57975E-02   -0.15639E+00  2880   0.254E+00    0.830E-01
DAV:   2    -0.142962703406E+03   -0.10620E-01   -0.11591E-01  4104   0.121E+00    0.414E-01
DAV:   3    -0.142962809516E+03   -0.10611E-03   -0.25274E-03  4120   0.256E-01    0.264E-01
DAV:   4    -0.142962603828E+03    0.20569E-03   -0.28470E-04  4192   0.716E-02    0.193E-01
DAV:   5    -0.142962368484E+03    0.23534E-03   -0.20728E-04  3432   0.361E-02    0.139E-01
DAV:   6    -0.142962223235E+03    0.14525E-03   -0.29696E-04  3752   0.419E-02    0.525E-02
DAV:   7    -0.142962271040E+03   -0.47804E-04   -0.41357E-05  3664   0.203E-02    0.194E-02
DAV:   8    -0.142962342216E+03   -0.71176E-04   -0.75838E-06  3264   0.958E-03    0.108E-02
DAV:   9    -0.142962440896E+03   -0.98680E-04   -0.35414E-06  2656   0.622E-03    0.588E-03
DAV:  10    -0.142962539210E+03   -0.98314E-04   -0.40398E-06  2768   0.564E-03    0.277E-03
DAV:  11    -0.142962590916E+03   -0.51705E-04   -0.70253E-07  1952   0.363E-03    0.223E-03
DAV:  12    -0.142962647201E+03   -0.56285E-04   -0.60696E-07  2040   0.269E-03    0.164E-03
DAV:  13    -0.142962695607E+03   -0.48406E-04   -0.71124E-07  2104   0.257E-03    0.127E-03
DAV:  14    -0.142962736686E+03   -0.41079E-04   -0.73387E-07  2072   0.233E-03    0.132E-03
DAV:  15    -0.142962756811E+03   -0.20125E-04   -0.43808E-07  1824   0.201E-03    0.766E-04
DAV:  16    -0.142962775157E+03   -0.18346E-04   -0.43735E-07  2000   0.173E-03    0.848E-04
DAV:  17    -0.142962788931E+03   -0.13773E-04   -0.43940E-07  1992   0.170E-03    0.589E-04
DAV:  18    -0.142962796791E+03   -0.78606E-05   -0.37627E-07  1872   0.155E-03    0.481E-04
DAV:  19    -0.142962799181E+03   -0.23893E-05   -0.22315E-07  1688   0.141E-03    0.186E-04
DAV:  20    -0.142962800278E+03   -0.10970E-05   -0.14178E-07  1640   0.944E-04    0.223E-04
DAV:  21    -0.142962801410E+03   -0.11325E-05   -0.10744E-07  1864   0.867E-04    0.122E-04
DAV:  22    -0.142962801804E+03   -0.39403E-06   -0.71997E-08  1680   0.702E-04
  10 F= -.14885704E+03 E0= -.14884992E+03  d E =-.287962E-02  mag=    25.0000
 trial-energy change:   -0.002880  1 .order   -0.002891   -0.005627   -0.000156
 step:   2.0623(harm=  2.0615)  dis= 0.00859  next Energy=  -148.857038 (dE=-0.288E-02)
 bond charge predicted
       N       E                     dE             d eps       ncg     rms          rms(c)
DAV:   1    -0.142962854310E+03   -0.52900E-04   -0.12989E-03  3000   0.732E-02    0.243E-02
DAV:   2    -0.142962860891E+03   -0.65803E-05   -0.96783E-05  4104   0.347E-02    0.117E-02
DAV:   3    -0.142962862487E+03   -0.15965E-05   -0.14821E-06  1848   0.725E-03    0.756E-03
DAV:   4    -0.142962862120E+03    0.36676E-06   -0.58682E-07  1624   0.380E-03
  11 F= -.14885704E+03 E0= -.14884993E+03  d E =-.288082E-02  mag=    25.0000
 curvature:  -1.55 expect dE=-0.170E-02 dE for cont linesearch -0.450E-06
 trial: gam= 0.41132 g(F)=  0.110E-02 g(S)=  0.000E+00 ort = 0.350E-04 (trialstep = 0.202E+01)
 search vector abs. value=  0.184E-02
 bond charge predicted
       N       E                     dE             d eps       ncg     rms          rms(c)
DAV:   1    -0.142961492900E+03    0.13696E-02   -0.64863E-01  2880   0.166E+00    0.480E-01
DAV:   2    -0.142966145805E+03   -0.46529E-02   -0.47136E-02  4112   0.777E-01    0.265E-01
DAV:   3    -0.142966587737E+03   -0.44193E-03   -0.10802E-03  4152   0.175E-01    0.157E-01
DAV:   4    -0.142966467163E+03    0.12057E-03   -0.10546E-04  4272   0.402E-02    0.118E-01
DAV:   5    -0.142966257302E+03    0.20986E-03   -0.11852E-04  3392   0.273E-02    0.801E-02
DAV:   6    -0.142966123342E+03    0.13396E-03   -0.13779E-04  4048   0.296E-02    0.241E-02
DAV:   7    -0.142966199299E+03   -0.75957E-04   -0.16323E-05  3432   0.127E-02    0.110E-02
DAV:   8    -0.142966267430E+03   -0.68131E-04   -0.19634E-06  2048   0.519E-03    0.727E-03
DAV:   9    -0.142966339756E+03   -0.72326E-04   -0.98677E-07  2096   0.527E-03    0.458E-03
DAV:  10    -0.142966432686E+03   -0.92930E-04   -0.23853E-06  2472   0.368E-03    0.198E-03
DAV:  11    -0.142966488553E+03   -0.55867E-04   -0.56067E-07  1944   0.256E-03    0.133E-03
DAV:  12    -0.142966545016E+03   -0.56464E-04   -0.53639E-07  2072   0.245E-03    0.107E-03
DAV:  13    -0.142966586201E+03   -0.41185E-04   -0.49947E-07  1952   0.231E-03    0.119E-03
DAV:  14    -0.142966624551E+03   -0.38350E-04   -0.62786E-07  2056   0.202E-03    0.885E-04
DAV:  15    -0.142966637963E+03   -0.13412E-04   -0.32115E-07  1664   0.192E-03    0.586E-04
DAV:  16    -0.142966664274E+03   -0.26312E-04   -0.57517E-07  1968   0.144E-03    0.722E-04
DAV:  17    -0.142966681637E+03   -0.17362E-04   -0.42766E-07  2032   0.184E-03    0.427E-04
DAV:  18    -0.142966686889E+03   -0.52524E-05   -0.29856E-07  1720   0.145E-03    0.396E-04
DAV:  19    -0.142966688551E+03   -0.16615E-05   -0.16674E-07  1664   0.123E-03    0.147E-04
DAV:  20    -0.142966689721E+03   -0.11702E-05   -0.10575E-07  1640   0.826E-04    0.172E-04
DAV:  21    -0.142966690835E+03   -0.11145E-05   -0.76488E-08  1688   0.752E-04    0.939E-05
DAV:  22    -0.142966691528E+03   -0.69307E-06   -0.60267E-08  1784   0.597E-04
  12 F= -.14885861E+03 E0= -.14885147E+03  d E =-.157306E-02  mag=    25.0000
 trial-energy change:   -0.001573  1 .order   -0.001592   -0.002241   -0.000943
 step:   3.7645(harm=  3.4811)  dis= 0.00828  next Energy=  -148.859007 (dE=-0.197E-02)
 bond charge predicted
       N       E                     dE             d eps       ncg     rms          rms(c)
DAV:   1    -0.142965068188E+03    0.16226E-02   -0.48820E-01  2880   0.144E+00    0.419E-01
DAV:   2    -0.142968539549E+03   -0.34714E-02   -0.35512E-02  4080   0.673E-01    0.229E-01
DAV:   3    -0.142968880054E+03   -0.34050E-03   -0.81468E-04  4136   0.151E-01    0.136E-01
DAV:   4    -0.142968781855E+03    0.98199E-04   -0.79178E-05  4280   0.348E-02    0.101E-01
DAV:   5    -0.142968615813E+03    0.16604E-03   -0.86002E-05  3368   0.233E-02    0.694E-02
DAV:   6    -0.142968501588E+03    0.11423E-03   -0.10307E-04  4040   0.256E-02    0.210E-02
DAV:   7    -0.142968565284E+03   -0.63696E-04   -0.12286E-05  3368   0.110E-02    0.940E-03
DAV:   8    -0.142968622382E+03   -0.57098E-04   -0.14628E-06  1968   0.455E-03    0.636E-03
DAV:   9    -0.142968681117E+03   -0.58735E-04   -0.76656E-07  2120   0.465E-03    0.404E-03
DAV:  10    -0.142968759550E+03   -0.78433E-04   -0.16398E-06  2296   0.313E-03    0.189E-03
DAV:  11    -0.142968805764E+03   -0.46214E-04   -0.58414E-07  1888   0.267E-03    0.136E-03
DAV:  12    -0.142968857304E+03   -0.51540E-04   -0.65020E-07  2072   0.248E-03    0.111E-03
DAV:  13    -0.142968893683E+03   -0.36378E-04   -0.52482E-07  1952   0.236E-03    0.116E-03
DAV:  14    -0.142968923588E+03   -0.29905E-04   -0.56209E-07  1992   0.193E-03    0.838E-04
DAV:  15    -0.142968937585E+03   -0.13997E-04   -0.33688E-07  1696   0.183E-03    0.573E-04
DAV:  16    -0.142968957862E+03   -0.20277E-04   -0.48149E-07  1984   0.141E-03    0.721E-04
DAV:  17    -0.142968969940E+03   -0.12078E-04   -0.36093E-07  1936   0.175E-03    0.335E-04
DAV:  18    -0.142968974650E+03   -0.47099E-05   -0.27806E-07  1712   0.130E-03    0.364E-04
DAV:  19    -0.142968975932E+03   -0.12816E-05   -0.14806E-07  1664   0.120E-03    0.143E-04
DAV:  20    -0.142968976690E+03   -0.75807E-06   -0.88956E-08  1648   0.716E-04
  13 F= -.14885894E+03 E0= -.14885178E+03  d E =-.189979E-02  mag=    25.0000
 curvature:  -2.78 expect dE=-0.365E-02 dE for cont linesearch -0.971E-05
 trial: gam= 1.25685 g(F)=  0.131E-02 g(S)=  0.000E+00 ort =-0.803E-04 (trialstep = 0.108E+01)
 search vector abs. value=  0.402E-02
 bond charge predicted
       N       E                     dE             d eps       ncg     rms          rms(c)
DAV:   1    -0.142967911638E+03    0.10643E-02   -0.40447E-01  2880   0.130E+00    0.370E-01
DAV:   2    -0.142970531237E+03   -0.26196E-02   -0.29071E-02  4096   0.592E-01    0.188E-01
DAV:   3    -0.142970854865E+03   -0.32363E-03   -0.57784E-04  4112   0.126E-01    0.120E-01
DAV:   4    -0.142970817462E+03    0.37403E-04   -0.58340E-05  4232   0.327E-02    0.897E-02
DAV:   5    -0.142970771346E+03    0.46116E-04   -0.49187E-05  3320   0.175E-02    0.660E-02
DAV:   6    -0.142970734861E+03    0.36485E-04   -0.86431E-05  3480   0.223E-02    0.228E-02
DAV:   7    -0.142970749457E+03   -0.14596E-04   -0.13869E-05  3248   0.115E-02    0.751E-03
DAV:   8    -0.142970768140E+03   -0.18683E-04   -0.12234E-06  1864   0.403E-03    0.432E-03
DAV:   9    -0.142970786804E+03   -0.18664E-04   -0.51890E-07  1768   0.317E-03    0.276E-03
DAV:  10    -0.142970809111E+03   -0.22307E-04   -0.60511E-07  1896   0.275E-03    0.172E-03
DAV:  11    -0.142970817711E+03   -0.86006E-05   -0.34948E-07  1672   0.274E-03    0.114E-03
DAV:  12    -0.142970831411E+03   -0.13699E-04   -0.23949E-07  1816   0.164E-03    0.103E-03
DAV:  13    -0.142970842483E+03   -0.11072E-04   -0.19500E-07  1792   0.144E-03    0.583E-04
DAV:  14    -0.142970850602E+03   -0.81192E-05   -0.15782E-07  1760   0.113E-03    0.652E-04
DAV:  15    -0.142970854200E+03   -0.35984E-05   -0.94411E-08  1680   0.102E-03    0.296E-04
DAV:  16    -0.142970856342E+03   -0.21417E-05   -0.60278E-08  1664   0.633E-04    0.332E-04
DAV:  17    -0.142970861863E+03   -0.55210E-05   -0.95226E-08  1880   0.684E-04    0.230E-04
DAV:  18    -0.142970864767E+03   -0.29041E-05   -0.73632E-08  1672   0.749E-04    0.275E-04
DAV:  19    -0.142970865440E+03   -0.67295E-06   -0.42672E-08  1672   0.605E-04
  14 F= -.14885995E+03 E0= -.14885277E+03  d E =-.101213E-02  mag=    25.0000
 trial-energy change:   -0.001012  1 .order   -0.001013   -0.001314   -0.000712
 step:   2.3674(harm=  2.3674)  dis= 0.01085  next Energy=  -148.860372 (dE=-0.144E-02)
 bond charge predicted
       N       E                     dE             d eps       ncg     rms          rms(c)
DAV:   1    -0.142968180576E+03    0.26842E-02   -0.56761E-01  2880   0.154E+00    0.438E-01
DAV:   2    -0.142971893979E+03   -0.37134E-02   -0.40815E-02  4056   0.702E-01    0.223E-01
DAV:   3    -0.142972311024E+03   -0.41704E-03   -0.81128E-04  4104   0.149E-01    0.142E-01
DAV:   4    -0.142972261205E+03    0.49819E-04   -0.81644E-05  4224   0.387E-02    0.106E-01
DAV:   5    -0.142972192935E+03    0.68270E-04   -0.69030E-05  3320   0.208E-02    0.781E-02
DAV:   6    -0.142972150873E+03    0.42062E-04   -0.12124E-04  3488   0.265E-02    0.270E-02
DAV:   7    -0.142972171500E+03   -0.20627E-04   -0.19300E-05  3376   0.136E-02    0.887E-03
DAV:   8    -0.142972197554E+03   -0.26054E-04   -0.16792E-06  1968   0.470E-03    0.500E-03
DAV:   9    -0.142972223298E+03   -0.25744E-04   -0.69769E-07  1872   0.367E-03    0.322E-03
DAV:  10    -0.142972252968E+03   -0.29670E-04   -0.85378E-07  1928   0.322E-03    0.203E-03
DAV:  11    -0.142972264371E+03   -0.11403E-04   -0.47019E-07  1680   0.324E-03    0.135E-03
DAV:  12    -0.142972283123E+03   -0.18752E-04   -0.33091E-07  1864   0.189E-03    0.117E-03
DAV:  13    -0.142972297231E+03   -0.14108E-04   -0.25575E-07  1784   0.169E-03    0.679E-04
DAV:  14    -0.142972308556E+03   -0.11325E-04   -0.21933E-07  1784   0.130E-03    0.729E-04
DAV:  15    -0.142972313159E+03   -0.46031E-05   -0.12580E-07  1688   0.122E-03    0.341E-04
DAV:  16    -0.142972316248E+03   -0.30891E-05   -0.84315E-08  1656   0.718E-04    0.367E-04
DAV:  17    -0.142972323673E+03   -0.74245E-05   -0.13157E-07  1920   0.821E-04    0.282E-04
DAV:  18    -0.142972327143E+03   -0.34703E-05   -0.97334E-08  1720   0.877E-04    0.305E-04
DAV:  19    -0.142972327860E+03   -0.71670E-06   -0.54290E-08  1664   0.692E-04
  15 F= -.14886037E+03 E0= -.14885318E+03  d E =-.143647E-02  mag=    25.0000
 curvature:  -3.93 expect dE=-0.264E-02 dE for cont linesearch -0.364E-07
 trial: gam= 0.36698 g(F)=  0.673E-03 g(S)=  0.000E+00 ort = 0.611E-05 (trialstep = 0.134E+01)
 search vector abs. value=  0.122E-02
 bond charge predicted
       N       E                     dE             d eps       ncg     rms          rms(c)
DAV:   1    -0.142970491624E+03    0.18355E-02   -0.19149E-01  2880   0.918E-01    0.296E-01
DAV:   2    -0.142971979153E+03   -0.14875E-02   -0.14279E-02  4080   0.437E-01    0.156E-01
DAV:   3    -0.142972169957E+03   -0.19080E-03   -0.36461E-04  4160   0.980E-02    0.914E-02
DAV:   4    -0.142972147301E+03    0.22657E-04   -0.36101E-05  4304   0.213E-02    0.677E-02
DAV:   5    -0.142972120288E+03    0.27012E-04   -0.39665E-05  3328   0.156E-02    0.446E-02
DAV:   6    -0.142972118625E+03    0.16637E-05   -0.35962E-05  4160   0.169E-02    0.128E-02
DAV:   7    -0.142972129065E+03   -0.10440E-04   -0.23648E-06  2296   0.766E-03    0.638E-03
DAV:   8    -0.142972139907E+03   -0.10843E-04   -0.13050E-06  1864   0.501E-03    0.527E-03
DAV:   9    -0.142972147782E+03   -0.78742E-05   -0.59650E-07  1680   0.328E-03    0.328E-03
DAV:  10    -0.142972155968E+03   -0.81860E-05   -0.29559E-07  1680   0.274E-03    0.243E-03
DAV:  11    -0.142972165359E+03   -0.93911E-05   -0.22778E-07  1888   0.195E-03    0.129E-03
DAV:  12    -0.142972176562E+03   -0.11203E-04   -0.28374E-07  1864   0.187E-03    0.117E-03
DAV:  13    -0.142972179652E+03   -0.30901E-05   -0.15317E-07  1680   0.161E-03    0.457E-04
DAV:  14    -0.142972182063E+03   -0.24108E-05   -0.86437E-08  1632   0.881E-04    0.533E-04
DAV:  15    -0.142972184911E+03   -0.28482E-05   -0.57452E-08  1664   0.817E-04    0.287E-04
DAV:  16    -0.142972188479E+03   -0.35683E-05   -0.81177E-08  1920   0.616E-04    0.309E-04
DAV:  17    -0.142972189463E+03   -0.98393E-06   -0.40754E-08  1680   0.681E-04
  16 F= -.14886104E+03 E0= -.14885407E+03  d E =-.667053E-03  mag=    25.0000
 trial-energy change:   -0.000667  1 .order   -0.000655   -0.000905   -0.000405
 step:   2.2159(harm=  2.4243)  dis= 0.00451  next Energy=  -148.861176 (dE=-0.803E-03)
 reached required accuracy - stopping structural energy minimisation
Note: The following floating-point exceptions are signalling: IEEE_OVERFLOW_FLAG IEEE_UNDERFLOW_FLAG IEEE_DENORMAL
Note: The following floating-point exceptions are signalling: IEEE_OVERFLOW_FLAG IEEE_UNDERFLOW_FLAG IEEE_DENORMAL
Note: The following floating-point exceptions are signalling: IEEE_OVERFLOW_FLAG IEEE_UNDERFLOW_FLAG IEEE_DENORMAL
Note: The following floating-point exceptions are signalling: IEEE_OVERFLOW_FLAG IEEE_UNDERFLOW_FLAG IEEE_DENORMAL
Note: The following floating-point exceptions are signalling: IEEE_OVERFLOW_FLAG IEEE_UNDERFLOW_FLAG IEEE_DENORMAL
Note: The following floating-point exceptions are signalling: IEEE_OVERFLOW_FLAG IEEE_UNDERFLOW_FLAG IEEE_DENORMAL
Note: The following floating-point exceptions are signalling: IEEE_OVERFLOW_FLAG IEEE_UNDERFLOW_FLAG IEEE_DENORMAL
Note: The following floating-point exceptions are signalling: IEEE_OVERFLOW_FLAG IEEE_UNDERFLOW_FLAG IEEE_DENORMAL
Note: The following floating-point exceptions are signalling: IEEE_OVERFLOW_FLAG IEEE_UNDERFLOW_FLAG IEEE_DENORMAL
Note: The following floating-point exceptions are signalling: IEEE_OVERFLOW_FLAG IEEE_UNDERFLOW_FLAG IEEE_DENORMAL
Note: The following floating-point exceptions are signalling: IEEE_OVERFLOW_FLAG IEEE_UNDERFLOW_FLAG IEEE_DENORMAL
Note: The following floating-point exceptions are signalling: IEEE_OVERFLOW_FLAG IEEE_UNDERFLOW_FLAG IEEE_DENORMAL
Note: The following floating-point exceptions are signalling: IEEE_OVERFLOW_FLAG IEEE_UNDERFLOW_FLAG IEEE_DENORMAL
Note: The following floating-point exceptions are signalling: IEEE_OVERFLOW_FLAG IEEE_UNDERFLOW_FLAG IEEE_DENORMAL
Note: The following floating-point exceptions are signalling: IEEE_OVERFLOW_FLAG IEEE_UNDERFLOW_FLAG IEEE_DENORMAL
Note: The following floating-point exceptions are signalling: IEEE_OVERFLOW_FLAG IEEE_UNDERFLOW_FLAG IEEE_DENORMAL
Note: The following floating-point exceptions are signalling: IEEE_OVERFLOW_FLAG IEEE_UNDERFLOW_FLAG IEEE_DENORMAL
Note: The following floating-point exceptions are signalling: IEEE_OVERFLOW_FLAG IEEE_UNDERFLOW_FLAG IEEE_DENORMAL
Note: The following floating-point exceptions are signalling: IEEE_OVERFLOW_FLAG IEEE_UNDERFLOW_FLAG IEEE_DENORMAL
Note: The following floating-point exceptions are signalling: IEEE_OVERFLOW_FLAG IEEE_UNDERFLOW_FLAG IEEE_DENORMAL
Note: The following floating-point exceptions are signalling: IEEE_OVERFLOW_FLAG IEEE_UNDERFLOW_FLAG IEEE_DENORMAL
Note: The following floating-point exceptions are signalling: IEEE_OVERFLOW_FLAG IEEE_UNDERFLOW_FLAG IEEE_DENORMAL
Note: The following floating-point exceptions are signalling: IEEE_OVERFLOW_FLAG IEEE_UNDERFLOW_FLAG IEEE_DENORMAL
Note: The following floating-point exceptions are signalling: IEEE_OVERFLOW_FLAG IEEE_UNDERFLOW_FLAG IEEE_DENORMAL
Note: The following floating-point exceptions are signalling: IEEE_OVERFLOW_FLAG IEEE_UNDERFLOW_FLAG IEEE_DENORMAL
Note: The following floating-point exceptions are signalling: IEEE_OVERFLOW_FLAG IEEE_UNDERFLOW_FLAG IEEE_DENORMAL
Note: The following floating-point exceptions are signalling: IEEE_OVERFLOW_FLAG IEEE_UNDERFLOW_FLAG IEEE_DENORMAL
Note: The following floating-point exceptions are signalling: IEEE_OVERFLOW_FLAG IEEE_UNDERFLOW_FLAG IEEE_DENORMAL
Note: The following floating-point exceptions are signalling: IEEE_OVERFLOW_FLAG IEEE_UNDERFLOW_FLAG IEEE_DENORMAL
Note: The following floating-point exceptions are signalling: IEEE_OVERFLOW_FLAG IEEE_UNDERFLOW_FLAG IEEE_DENORMAL
Note: The following floating-point exceptions are signalling: IEEE_OVERFLOW_FLAG IEEE_UNDERFLOW_FLAG IEEE_DENORMAL
Note: The following floating-point exceptions are signalling: IEEE_OVERFLOW_FLAG IEEE_UNDERFLOW_FLAG IEEE_DENORMAL
Note: The following floating-point exceptions are signalling: IEEE_OVERFLOW_FLAG IEEE_UNDERFLOW_FLAG IEEE_DENORMAL
Note: The following floating-point exceptions are signalling: IEEE_OVERFLOW_FLAG IEEE_UNDERFLOW_FLAG IEEE_DENORMAL
Note: The following floating-point exceptions are signalling: IEEE_OVERFLOW_FLAG IEEE_UNDERFLOW_FLAG IEEE_DENORMAL
Note: The following floating-point exceptions are signalling: IEEE_OVERFLOW_FLAG IEEE_UNDERFLOW_FLAG IEEE_DENORMAL
Note: The following floating-point exceptions are signalling: IEEE_OVERFLOW_FLAG IEEE_UNDERFLOW_FLAG IEEE_DENORMAL
Note: The following floating-point exceptions are signalling: IEEE_OVERFLOW_FLAG IEEE_UNDERFLOW_FLAG IEEE_DENORMAL
Note: The following floating-point exceptions are signalling: IEEE_OVERFLOW_FLAG IEEE_UNDERFLOW_FLAG IEEE_DENORMAL
Note: The following floating-point exceptions are signalling: IEEE_OVERFLOW_FLAG IEEE_UNDERFLOW_FLAG IEEE_DENORMAL
Note: The following floating-point exceptions are signalling: IEEE_OVERFLOW_FLAG IEEE_UNDERFLOW_FLAG IEEE_DENORMAL
Note: The following floating-point exceptions are signalling: IEEE_OVERFLOW_FLAG IEEE_UNDERFLOW_FLAG IEEE_DENORMAL
Note: The following floating-point exceptions are signalling: IEEE_OVERFLOW_FLAG IEEE_UNDERFLOW_FLAG IEEE_DENORMAL
Note: The following floating-point exceptions are signalling: IEEE_OVERFLOW_FLAG IEEE_UNDERFLOW_FLAG IEEE_DENORMAL
Note: The following floating-point exceptions are signalling: IEEE_OVERFLOW_FLAG IEEE_UNDERFLOW_FLAG IEEE_DENORMAL
Note: The following floating-point exceptions are signalling: IEEE_OVERFLOW_FLAG IEEE_UNDERFLOW_FLAG IEEE_DENORMAL
Note: The following floating-point exceptions are signalling: IEEE_OVERFLOW_FLAG IEEE_UNDERFLOW_FLAG IEEE_DENORMAL
Note: The following floating-point exceptions are signalling: IEEE_OVERFLOW_FLAG IEEE_UNDERFLOW_FLAG IEEE_DENORMAL
Note: The following floating-point exceptions are signalling: IEEE_OVERFLOW_FLAG IEEE_UNDERFLOW_FLAG IEEE_DENORMAL
Note: The following floating-point exceptions are signalling: IEEE_OVERFLOW_FLAG IEEE_UNDERFLOW_FLAG IEEE_DENORMAL
Note: The following floating-point exceptions are signalling: IEEE_OVERFLOW_FLAG IEEE_UNDERFLOW_FLAG IEEE_DENORMAL
Note: The following floating-point exceptions are signalling: IEEE_OVERFLOW_FLAG IEEE_UNDERFLOW_FLAG IEEE_DENORMAL
Note: The following floating-point exceptions are signalling: IEEE_OVERFLOW_FLAG IEEE_UNDERFLOW_FLAG IEEE_DENORMAL
Note: The following floating-point exceptions are signalling: IEEE_OVERFLOW_FLAG IEEE_UNDERFLOW_FLAG IEEE_DENORMAL
Note: The following floating-point exceptions are signalling: IEEE_OVERFLOW_FLAG IEEE_UNDERFLOW_FLAG IEEE_DENORMAL
Note: The following floating-point exceptions are signalling: IEEE_OVERFLOW_FLAG IEEE_UNDERFLOW_FLAG IEEE_DENORMAL
Note: The following floating-point exceptions are signalling: IEEE_OVERFLOW_FLAG IEEE_UNDERFLOW_FLAG IEEE_DENORMAL
Note: The following floating-point exceptions are signalling: IEEE_OVERFLOW_FLAG IEEE_UNDERFLOW_FLAG IEEE_DENORMAL
Note: The following floating-point exceptions are signalling: IEEE_OVERFLOW_FLAG IEEE_UNDERFLOW_FLAG IEEE_DENORMAL
Note: The following floating-point exceptions are signalling: IEEE_OVERFLOW_FLAG IEEE_UNDERFLOW_FLAG IEEE_DENORMAL
Note: The following floating-point exceptions are signalling: IEEE_OVERFLOW_FLAG IEEE_UNDERFLOW_FLAG IEEE_DENORMAL
Note: The following floating-point exceptions are signalling: IEEE_OVERFLOW_FLAG IEEE_UNDERFLOW_FLAG IEEE_DENORMAL
Note: The following floating-point exceptions are signalling: IEEE_OVERFLOW_FLAG IEEE_UNDERFLOW_FLAG IEEE_DENORMAL
Note: The following floating-point exceptions are signalling: IEEE_OVERFLOW_FLAG IEEE_UNDERFLOW_FLAG IEEE_DENORMAL
