CrCl3 2x2 + Fe S1 top-Cl (D3, U=0) (a_2x
   1.00000000000000     
    12.0925489970493256    0.0000000000000000    0.0000000000000000
    -6.0462744985246628   10.4724546279527502    0.0000000000000000
     0.0000000000000000    0.0000000000000000   20.0000000000000000
   Cr   Cl   Fe
     8    24     1
Direct
     0.1652446332092573    0.3286144753173782    0.5053658347276347
     0.3246587607660490    0.1551304453881324    0.4932649675633854
     0.6753412392339510    0.3304716846220692    0.4932649675633854
     0.8358037375209727    0.1620899504983569    0.4945753262352287
     0.1641962624790275    0.8262862129773704    0.4945753262352287
     0.3325553508827633    0.6639096369408670    0.5057996808167673
     0.6674446491172364    0.8313542860580897    0.5057996808167673
     0.8347553667907424    0.6633698421081352    0.5053658347276347
     0.1790500295862255    0.4963206352650887    0.4392762612740546
     0.5000000000000000    0.1806880948451343    0.4240972271543832
     0.3242003491348401    0.3289502069650355    0.4371647750344527
     0.3155010168251283    0.4956436961514841    0.5789579793734653
     0.9932884603734605    0.3209203952692409    0.5644845521854412
     0.1758819087005149    0.1727201928871669    0.5706117718705760
     0.6757996508651603    0.5047498578301954    0.4371647750344527
     0.0094973416482902    0.1746432235753261    0.4335672377100709
     0.8247964080025690    0.3077084946528205    0.4197782291591548
     0.8241180912994853    0.4968382841866522    0.5706117718705760
     0.5000000000000000    0.3025412708330257    0.5778302708958210
     0.6776374469053977    0.1663662771959678    0.5595368395756667
     0.1752035919974309    0.9829120866502513    0.4197782291591548
     0.5000000000000000    0.6661558919870062    0.4444081884680943
     0.3183972121892664    0.8056622532289630    0.4306961690650821
     0.3223625530946023    0.9887288302905699    0.5595368395756667
     0.0067115396265392    0.8276319348957802    0.5644845521854412
     0.1781016720570620    0.6808280598963344    0.5698979496568509
     0.6816027878107334    0.9872650410396967    0.4306961690650821
     0.9905026583517097    0.6651458819270359    0.4335672377100709
     0.8209499704137746    0.8172706056788634    0.4392762612740546
     0.8218983279429379    0.0027263878392723    0.5698979496568509
     0.5000000000000000    0.8256687120470588    0.5699042107850956
     0.6844989831748719    0.6801426793263554    0.5789579793734653
     0.5000000000000000    0.4808943731934687    0.6570911474608672
 
  0.00000000E+00  0.00000000E+00  0.00000000E+00
  0.00000000E+00  0.00000000E+00  0.00000000E+00
  0.00000000E+00  0.00000000E+00  0.00000000E+00
  0.00000000E+00  0.00000000E+00  0.00000000E+00
  0.00000000E+00  0.00000000E+00  0.00000000E+00
  0.00000000E+00  0.00000000E+00  0.00000000E+00
  0.00000000E+00  0.00000000E+00  0.00000000E+00
  0.00000000E+00  0.00000000E+00  0.00000000E+00
  0.00000000E+00  0.00000000E+00  0.00000000E+00
  0.00000000E+00  0.00000000E+00  0.00000000E+00
  0.00000000E+00  0.00000000E+00  0.00000000E+00
  0.00000000E+00  0.00000000E+00  0.00000000E+00
  0.00000000E+00  0.00000000E+00  0.00000000E+00
  0.00000000E+00  0.00000000E+00  0.00000000E+00
  0.00000000E+00  0.00000000E+00  0.00000000E+00
  0.00000000E+00  0.00000000E+00  0.00000000E+00
  0.00000000E+00  0.00000000E+00  0.00000000E+00
  0.00000000E+00  0.00000000E+00  0.00000000E+00
  0.00000000E+00  0.00000000E+00  0.00000000E+00
  0.00000000E+00  0.00000000E+00  0.00000000E+00
  0.00000000E+00  0.00000000E+00  0.00000000E+00
  0.00000000E+00  0.00000000E+00  0.00000000E+00
  0.00000000E+00  0.00000000E+00  0.00000000E+00
  0.00000000E+00  0.00000000E+00  0.00000000E+00
  0.00000000E+00  0.00000000E+00  0.00000000E+00
  0.00000000E+00  0.00000000E+00  0.00000000E+00
  0.00000000E+00  0.00000000E+00  0.00000000E+00
  0.00000000E+00  0.00000000E+00  0.00000000E+00
  0.00000000E+00  0.00000000E+00  0.00000000E+00
  0.00000000E+00  0.00000000E+00  0.00000000E+00
  0.00000000E+00  0.00000000E+00  0.00000000E+00
  0.00000000E+00  0.00000000E+00  0.00000000E+00
  0.00000000E+00  0.00000000E+00  0.00000000E+00
