       N       E                     dE             d eps       ncg     rms          rms(c)
DAV:   1     0.212635982774E+04    0.21264E+04   -0.63774E+04  5544   0.895E+02
DAV:   2     0.396612334700E+03   -0.17297E+04   -0.16142E+04  6902   0.239E+02
DAV:   3    -0.117688438611E+03   -0.51430E+03   -0.50308E+03  7952   0.133E+02
DAV:   4    -0.155942136157E+03   -0.38254E+02   -0.37840E+02  8078   0.542E+01
DAV:   5    -0.156822969783E+03   -0.88083E+00   -0.87876E+00  8330   0.895E+00    0.429E+01
DAV:   6    -0.159677209507E+03   -0.28542E+01   -0.15991E+02  9128   0.636E+01    0.686E+01
DAV:   7    -0.147824330801E+03    0.11853E+02   -0.49093E+01  7378   0.557E+01    0.335E+01
DAV:   8    -0.146536410484E+03    0.12879E+01   -0.89034E+00  9604   0.253E+01    0.259E+01
DAV:   9    -0.145656126575E+03    0.88028E+00   -0.58846E+00  8106   0.237E+01    0.217E+01
DAV:  10    -0.145884822599E+03   -0.22870E+00   -0.32181E+00  8680   0.144E+01    0.176E+01
DAV:  11    -0.145628796381E+03    0.25603E+00   -0.10701E+00  8554   0.105E+01    0.187E+01
DAV:  12    -0.145518035488E+03    0.11076E+00   -0.75746E-01  8316   0.916E+00    0.149E+01
DAV:  13    -0.145351159491E+03    0.16688E+00   -0.17724E-01  8078   0.395E+00    0.601E+00
DAV:  14    -0.145437039615E+03   -0.85880E-01   -0.46531E-02  7112   0.846E-01    0.595E+00
DAV:  15    -0.145319002368E+03    0.11804E+00   -0.14958E-02  6468   0.534E-01    0.558E+00
DAV:  16    -0.145265049522E+03    0.53953E-01   -0.57753E-03  8162   0.604E-01    0.443E+00
DAV:  17    -0.145470271609E+03   -0.20522E+00   -0.37540E-02  7546   0.135E+00    0.461E+00
DAV:  18    -0.145552619423E+03   -0.82348E-01   -0.41057E-02  7742   0.109E+00    0.436E+00
DAV:  19    -0.145445152846E+03    0.10747E+00   -0.27247E-02  6300   0.701E-01    0.308E+00
DAV:  20    -0.145467788589E+03   -0.22636E-01   -0.49919E-03  6986   0.379E-01    0.301E+00
DAV:  21    -0.145492351747E+03   -0.24563E-01   -0.48031E-03  5992   0.242E-01    0.335E+00
DAV:  22    -0.145517979984E+03   -0.25628E-01   -0.23601E-02  8288   0.113E+00    0.769E+00
DAV:  23    -0.145545983255E+03   -0.28003E-01   -0.84834E-02  7252   0.130E+00    0.444E+00
DAV:  24    -0.145580377147E+03   -0.34394E-01   -0.18928E-02  6734   0.669E-01    0.376E+00
DAV:  25    -0.145594107031E+03   -0.13730E-01   -0.49640E-03  6902   0.404E-01    0.268E+00
DAV:  26    -0.145621087052E+03   -0.26980E-01   -0.47072E-03  7168   0.476E-01    0.208E+00
DAV:  27    -0.145630989649E+03   -0.99026E-02   -0.19119E-03  7126   0.246E-01    0.811E-01
DAV:  28    -0.145646304968E+03   -0.15315E-01   -0.18068E-03  6874   0.197E-01    0.319E-01
DAV:  29    -0.145658025150E+03   -0.11720E-01   -0.16820E-03  6580   0.176E-01    0.475E-01
DAV:  30    -0.145665157547E+03   -0.71324E-02   -0.73926E-04  7798   0.128E-01    0.506E-01
DAV:  31    -0.145668909355E+03   -0.37518E-02   -0.48939E-04  7098   0.113E-01    0.392E-01
DAV:  32    -0.145673368214E+03   -0.44589E-02   -0.25876E-04  7210   0.989E-02    0.450E-01
DAV:  33    -0.145675653927E+03   -0.22857E-02   -0.17835E-04  7168   0.761E-02    0.746E-02
DAV:  34    -0.145677449310E+03   -0.17954E-02   -0.74035E-05  7168   0.395E-02    0.913E-02
DAV:  35    -0.145678286883E+03   -0.83757E-03   -0.34075E-05  7098   0.278E-02    0.595E-02
DAV:  36    -0.145678593198E+03   -0.30631E-03   -0.15023E-05  6468   0.159E-02    0.364E-02
DAV:  37    -0.145678896549E+03   -0.30335E-03   -0.13959E-05  6076   0.168E-02    0.951E-02
DAV:  38    -0.145678936843E+03   -0.40294E-04   -0.65477E-06  5656   0.139E-02    0.900E-03
DAV:  39    -0.145678963580E+03   -0.26737E-04   -0.31913E-06  4942   0.682E-03    0.131E-02
DAV:  40    -0.145678978240E+03   -0.14660E-04   -0.13320E-06  4662   0.569E-03    0.190E-02
DAV:  41    -0.145678985225E+03   -0.69843E-05   -0.78516E-07  4536   0.310E-03    0.101E-02
DAV:  42    -0.145678997110E+03   -0.11885E-04   -0.25700E-07  4270   0.215E-03    0.785E-03
DAV:  43    -0.145679009036E+03   -0.11926E-04   -0.16881E-07  4116   0.208E-03    0.346E-03
DAV:  44    -0.145679021426E+03   -0.12390E-04   -0.21123E-07  4242   0.188E-03    0.323E-03
DAV:  45    -0.145679029942E+03   -0.85156E-05   -0.12445E-07  4186   0.105E-03    0.244E-03
DAV:  46    -0.145679033399E+03   -0.34579E-05   -0.70292E-08  4088   0.802E-04    0.271E-03
DAV:  47    -0.145679037388E+03   -0.39881E-05   -0.58362E-08  4060   0.800E-04    0.130E-03
DAV:  48    -0.145679039810E+03   -0.24226E-05   -0.55342E-08  4004   0.657E-04    0.787E-04
DAV:  49    -0.145679041012E+03   -0.12018E-05   -0.40293E-08  4144   0.609E-04    0.141E-03
DAV:  50    -0.145679041574E+03   -0.56168E-06   -0.26047E-08  4004   0.495E-04
   1 F= -.15172756E+03 E0= -.15169701E+03  d E =-.151728E+03  mag=    28.7782
       N       E                     dE             d eps       ncg     rms          rms(c)
DAV:   1    -0.145589717575E+03    0.89323E-01   -0.40695E+01  5544   0.118E+01    0.760E+00
DAV:   2    -0.148886082113E+03   -0.32964E+01   -0.63832E+00  8652   0.202E+01    0.235E+01
DAV:   3    -0.146059890520E+03    0.28262E+01   -0.26590E+00  7658   0.200E+01    0.692E+00
DAV:   4    -0.146084316884E+03   -0.24426E-01   -0.75677E-01  8190   0.427E+00    0.469E+00
DAV:   5    -0.146033584139E+03    0.50733E-01   -0.90891E-02  8372   0.225E+00    0.207E+00
DAV:   6    -0.146075014780E+03   -0.41431E-01   -0.46042E-02  7742   0.142E+00    0.162E+00
DAV:   7    -0.146129963523E+03   -0.54949E-01   -0.17797E-02  7518   0.791E-01    0.399E+00
DAV:   8    -0.146081565592E+03    0.48398E-01   -0.19762E-02  7910   0.141E+00    0.211E+00
DAV:   9    -0.146124177806E+03   -0.42612E-01   -0.20854E-02  8120   0.103E+00    0.924E+00
DAV:  10    -0.146073571159E+03    0.50607E-01   -0.22286E-02  7084   0.103E+00    0.768E-01
DAV:  11    -0.146114922151E+03   -0.41351E-01   -0.73084E-03  6734   0.472E-01    0.827E-01
DAV:  12    -0.146123510643E+03   -0.85885E-02   -0.31752E-03  8050   0.480E-01    0.255E+00
DAV:  13    -0.146126540486E+03   -0.30298E-02   -0.22551E-03  6804   0.230E-01    0.252E+00
DAV:  14    -0.146134682884E+03   -0.81424E-02   -0.70910E-04  7420   0.158E-01    0.284E+00
DAV:  15    -0.146130932744E+03    0.37501E-02   -0.86999E-04  7854   0.246E-01    0.954E-01
DAV:  16    -0.146142882641E+03   -0.11950E-01   -0.12687E-03  6580   0.144E-01    0.101E+00
DAV:  17    -0.146150039582E+03   -0.71569E-02   -0.33094E-04  7602   0.134E-01    0.136E-01
DAV:  18    -0.146159189027E+03   -0.91494E-02   -0.49847E-04  7112   0.124E-01    0.624E-01
DAV:  19    -0.146162293407E+03   -0.31044E-02   -0.28067E-04  6762   0.766E-02    0.588E-01
DAV:  20    -0.146164794360E+03   -0.25010E-02   -0.74455E-05  7826   0.486E-02    0.597E-01
DAV:  21    -0.146169345253E+03   -0.45509E-02   -0.87563E-04  7042   0.164E-01    0.700E-01
DAV:  22    -0.146163749788E+03    0.55955E-02   -0.12920E-03  7476   0.202E-01    0.265E-01
DAV:  23    -0.146167847962E+03   -0.40982E-02   -0.59944E-04  6636   0.871E-02    0.157E-01
DAV:  24    -0.146169328624E+03   -0.14807E-02   -0.75936E-05  7112   0.472E-02    0.979E-02
DAV:  25    -0.146169946407E+03   -0.61778E-03   -0.36977E-05  7364   0.372E-02    0.299E-02
DAV:  26    -0.146171004442E+03   -0.10580E-02   -0.45167E-05  6958   0.309E-02    0.839E-02
DAV:  27    -0.146171575932E+03   -0.57149E-03   -0.15613E-05  6734   0.148E-02    0.981E-02
DAV:  28    -0.146171586653E+03   -0.10721E-04   -0.74290E-06  6090   0.151E-02    0.706E-02
DAV:  29    -0.146171679429E+03   -0.92776E-04   -0.79773E-06  6146   0.171E-02    0.476E-02
DAV:  30    -0.146171838634E+03   -0.15921E-03   -0.60432E-06  6006   0.125E-02    0.235E-02
DAV:  31    -0.146171914778E+03   -0.76144E-04   -0.14942E-05  6678   0.231E-02    0.986E-03
DAV:  32    -0.146172081144E+03   -0.16637E-03   -0.14352E-05  6860   0.198E-02    0.890E-03
DAV:  33    -0.146172322998E+03   -0.24185E-03   -0.94569E-06  6202   0.110E-02    0.749E-03
DAV:  34    -0.146172416747E+03   -0.93749E-04   -0.23211E-06  5404   0.656E-03    0.628E-03
DAV:  35    -0.146172471706E+03   -0.54959E-04   -0.15866E-06  4942   0.433E-03    0.163E-03
DAV:  36    -0.146172488407E+03   -0.16701E-04   -0.49371E-07  4550   0.232E-03    0.156E-03
DAV:  37    -0.146172492734E+03   -0.43260E-05   -0.16697E-07  4242   0.155E-03    0.881E-04
DAV:  38    -0.146172492872E+03   -0.13895E-06   -0.33291E-07  4102   0.327E-03
   2 F= -.15222481E+03 E0= -.15220812E+03  d E =-.497255E+00  mag=    28.6207
       N       E                     dE             d eps       ncg     rms          rms(c)
DAV:   1    -0.139764719244E+03    0.64078E+01   -0.32572E+02  5558   0.348E+01    0.210E+01
DAV:   2    -0.165950621898E+03   -0.26186E+02   -0.11235E+02  8610   0.513E+01    0.618E+01
DAV:   3    -0.147801637083E+03    0.18149E+02   -0.22575E+01  7896   0.308E+01    0.222E+01
DAV:   4    -0.145949625644E+03    0.18520E+01   -0.71980E+00  8582   0.226E+01    0.142E+01
DAV:   5    -0.146213343900E+03   -0.26372E+00   -0.13366E+00  8092   0.741E+00    0.858E+00
DAV:   6    -0.146316119755E+03   -0.10278E+00   -0.20479E-01  8512   0.353E+00    0.447E+00
DAV:   7    -0.146380910497E+03   -0.64791E-01   -0.97568E-02  8610   0.335E+00    0.561E+00
DAV:   8    -0.146412422242E+03   -0.31512E-01   -0.41212E-02  8596   0.164E+00    0.534E+00
DAV:   9    -0.146366810169E+03    0.45612E-01   -0.30486E-02  9030   0.167E+00    0.438E+00
DAV:  10    -0.146375888263E+03   -0.90781E-02   -0.33168E-02  9184   0.159E+00    0.779E+00
DAV:  11    -0.146373643694E+03    0.22446E-02   -0.29058E-02  7812   0.125E+00    0.254E+00
DAV:  12    -0.146383450911E+03   -0.98072E-02   -0.50050E-03  6020   0.269E-01    0.264E+00
DAV:  13    -0.146368486444E+03    0.14964E-01   -0.51717E-03  7462   0.408E-01    0.253E+00
DAV:  14    -0.146367135480E+03    0.13510E-02   -0.12347E-02  8246   0.935E-01    0.492E+00
DAV:  15    -0.146359389497E+03    0.77460E-02   -0.66782E-03  7182   0.360E-01    0.539E+00
DAV:  16    -0.146397190878E+03   -0.37801E-01   -0.22160E-02  7252   0.104E+00    0.823E+00
DAV:  17    -0.146360381893E+03    0.36809E-01   -0.14014E-02  7868   0.914E-01    0.385E+00
DAV:  18    -0.146399311278E+03   -0.38929E-01   -0.12321E-02  7518   0.600E-01    0.469E+00
DAV:  19    -0.146402217580E+03   -0.29063E-02   -0.12216E-02  8050   0.835E-01    0.256E+00
DAV:  20    -0.146418907589E+03   -0.16690E-01   -0.40078E-03  7042   0.276E-01    0.175E+00
DAV:  21    -0.146434895170E+03   -0.15988E-01   -0.42166E-03  7630   0.563E-01    0.352E+00
DAV:  22    -0.146437749676E+03   -0.28545E-02   -0.39609E-03  7476   0.370E-01    0.248E+00
DAV:  23    -0.146447886083E+03   -0.10136E-01   -0.15551E-03  7490   0.213E-01    0.905E-01
DAV:  24    -0.146461115057E+03   -0.13229E-01   -0.23592E-03  7070   0.320E-01    0.520E-01
DAV:  25    -0.146470670393E+03   -0.95553E-02   -0.90092E-04  7042   0.161E-01    0.235E-01
DAV:  26    -0.146476714472E+03   -0.60441E-02   -0.37112E-04  7392   0.980E-02    0.324E-01
DAV:  27    -0.146480733313E+03   -0.40188E-02   -0.11473E-04  7420   0.468E-02    0.227E-01
DAV:  28    -0.146484792856E+03   -0.40595E-02   -0.96003E-05  8036   0.606E-02    0.209E-01
DAV:  29    -0.146487760764E+03   -0.29679E-02   -0.12519E-04  7952   0.693E-02    0.319E-01
DAV:  30    -0.146489583493E+03   -0.18227E-02   -0.97937E-05  7630   0.556E-02    0.233E-01
DAV:  31    -0.146491267314E+03   -0.16838E-02   -0.82491E-05  7728   0.497E-02    0.188E-01
DAV:  32    -0.146492564373E+03   -0.12971E-02   -0.10354E-04  7854   0.579E-02    0.856E-02
DAV:  33    -0.146493318457E+03   -0.75408E-03   -0.80227E-05  7700   0.450E-02    0.249E-02
DAV:  34    -0.146493627718E+03   -0.30926E-03   -0.33889E-05  7294   0.262E-02    0.433E-02
DAV:  35    -0.146493560256E+03    0.67462E-04   -0.59599E-06  6706   0.131E-02    0.342E-02
DAV:  36    -0.146493523008E+03    0.37248E-04   -0.32123E-06  5628   0.110E-02    0.296E-02
DAV:  37    -0.146493363860E+03    0.15915E-03   -0.27305E-05  7532   0.362E-02    0.388E-02
DAV:  38    -0.146493514943E+03   -0.15108E-03   -0.97326E-06  6412   0.149E-02    0.251E-02
DAV:  39    -0.146493564614E+03   -0.49671E-04   -0.31222E-06  5908   0.121E-02    0.206E-02
DAV:  40    -0.146493634281E+03   -0.69667E-04   -0.68125E-06  6482   0.168E-02    0.139E-02
DAV:  41    -0.146493726385E+03   -0.92105E-04   -0.38136E-06  6048   0.887E-03    0.123E-02
DAV:  42    -0.146493753921E+03   -0.27536E-04   -0.84090E-07  5012   0.550E-03    0.105E-02
DAV:  43    -0.146493774574E+03   -0.20653E-04   -0.52135E-07  4326   0.386E-03    0.465E-03
DAV:  44    -0.146493792948E+03   -0.18374E-04   -0.48251E-07  4186   0.268E-03    0.176E-03
DAV:  45    -0.146493802592E+03   -0.96434E-05   -0.16728E-07  4130   0.212E-03    0.279E-03
DAV:  46    -0.146493806849E+03   -0.42570E-05   -0.20051E-07  4074   0.232E-03    0.141E-03
DAV:  47    -0.146493811222E+03   -0.43735E-05   -0.17089E-07  4032   0.154E-03    0.136E-03
DAV:  48    -0.146493812814E+03   -0.15917E-05   -0.83530E-08  4116   0.106E-03    0.559E-04
DAV:  49    -0.146493813696E+03   -0.88168E-06   -0.51793E-08  3864   0.963E-04
   3 F= -.15255528E+03 E0= -.15253309E+03  d E =-.827722E+00  mag=    28.8520
       N       E                     dE             d eps       ncg     rms          rms(c)
DAV:   1    -0.145979758370E+03    0.51405E+00   -0.45799E+01  5544   0.122E+01    0.115E+01
DAV:   2    -0.156011324608E+03   -0.10032E+02   -0.33497E+01  8106   0.367E+01    0.476E+01
DAV:   3    -0.146600850642E+03    0.94105E+01   -0.87170E+00  7868   0.333E+01    0.182E+01
DAV:   4    -0.146451115402E+03    0.14974E+00   -0.27234E+00  8148   0.952E+00    0.650E+00
DAV:   5    -0.146616024100E+03   -0.16491E+00   -0.19624E-01  8106   0.226E+00    0.460E+00
DAV:   6    -0.146603507972E+03    0.12516E-01   -0.25355E-02  8470   0.166E+00    0.209E+00
DAV:   7    -0.146701907900E+03   -0.98400E-01   -0.13652E-02  8120   0.852E-01    0.582E+00
DAV:   8    -0.146663158309E+03    0.38750E-01   -0.11506E-02  7350   0.827E-01    0.540E+00
DAV:   9    -0.146638070141E+03    0.25088E-01   -0.10576E-02  8694   0.120E+00    0.258E+00
DAV:  10    -0.146678789575E+03   -0.40719E-01   -0.19049E-02  8176   0.130E+00    0.497E+00
DAV:  11    -0.146665380509E+03    0.13409E-01   -0.17666E-02  7658   0.965E-01    0.807E-01
DAV:  12    -0.146684952112E+03   -0.19572E-01   -0.57546E-03  7700   0.520E-01    0.687E-01
DAV:  13    -0.146690090357E+03   -0.51382E-02   -0.18901E-03  7392   0.281E-01    0.875E-01
DAV:  14    -0.146686644315E+03    0.34460E-02   -0.52890E-04  6692   0.942E-02    0.837E-01
DAV:  15    -0.146685560387E+03    0.10839E-02   -0.34231E-05  6748   0.250E-02    0.828E-01
DAV:  16    -0.146687283015E+03   -0.17226E-02   -0.68117E-04  8316   0.216E-01    0.584E-01
DAV:  17    -0.146693782942E+03   -0.64999E-02   -0.47936E-03  7588   0.495E-01    0.965E-01
DAV:  18    -0.146693054330E+03    0.72861E-03   -0.95225E-04  7574   0.218E-01    0.614E-01
DAV:  19    -0.146694474474E+03   -0.14201E-02   -0.13108E-03  7588   0.264E-01    0.365E-01
DAV:  20    -0.146696350764E+03   -0.18763E-02   -0.39486E-04  7420   0.105E-01    0.208E-01
DAV:  21    -0.146697836711E+03   -0.14859E-02   -0.19122E-04  7672   0.999E-02    0.263E-01
DAV:  22    -0.146698416938E+03   -0.58023E-03   -0.57715E-05  7826   0.567E-02    0.217E-01
DAV:  23    -0.146699312495E+03   -0.89556E-03   -0.48822E-05  7966   0.623E-02    0.241E-01
DAV:  24    -0.146699689502E+03   -0.37701E-03   -0.88489E-05  7322   0.583E-02    0.181E-01
DAV:  25    -0.146699930064E+03   -0.24056E-03   -0.22051E-05  7952   0.264E-02    0.587E-02
DAV:  26    -0.146700277176E+03   -0.34711E-03   -0.17349E-05  7546   0.250E-02    0.756E-02
DAV:  27    -0.146700445684E+03   -0.16851E-03   -0.97006E-06  6748   0.159E-02    0.966E-02
DAV:  28    -0.146700588759E+03   -0.14307E-03   -0.74957E-06  6916   0.172E-02    0.742E-02
DAV:  29    -0.146700585012E+03    0.37466E-05   -0.21593E-05  7574   0.266E-02    0.347E-02
DAV:  30    -0.146700597837E+03   -0.12825E-04   -0.78199E-06  6510   0.145E-02    0.277E-02
DAV:  31    -0.146700625437E+03   -0.27599E-04   -0.22598E-06  5880   0.851E-03    0.180E-02
DAV:  32    -0.146700618254E+03    0.71823E-05   -0.11113E-06  5278   0.693E-03    0.180E-02
DAV:  33    -0.146700633517E+03   -0.15263E-04   -0.11809E-06  5236   0.647E-03    0.353E-03
DAV:  34    -0.146700694430E+03   -0.60913E-04   -0.10838E-06  4746   0.543E-03    0.101E-02
DAV:  35    -0.146700709530E+03   -0.15100E-04   -0.23908E-07  4060   0.252E-03    0.614E-03
DAV:  36    -0.146700718951E+03   -0.94211E-05   -0.12007E-07  4228   0.229E-03    0.854E-03
DAV:  37    -0.146700729128E+03   -0.10177E-04   -0.22030E-07  4284   0.197E-03    0.374E-03
DAV:  38    -0.146700738554E+03   -0.94257E-05   -0.20039E-07  4088   0.131E-03    0.983E-04
DAV:  39    -0.146700746413E+03   -0.78593E-05   -0.67222E-08  4088   0.978E-04    0.206E-03
DAV:  40    -0.146700747790E+03   -0.13773E-05   -0.24727E-08  3528   0.760E-04    0.123E-03
DAV:  41    -0.146700752601E+03   -0.48108E-05   -0.38756E-08  3864   0.512E-04    0.586E-04
DAV:  42    -0.146700755452E+03   -0.28513E-05   -0.25508E-08  4074   0.817E-04    0.436E-04
DAV:  43    -0.146700758053E+03   -0.26006E-05   -0.46347E-08  3990   0.561E-04    0.490E-04
DAV:  44    -0.146700758433E+03   -0.38047E-06   -0.19389E-08  3654   0.536E-04
   4 F= -.15276998E+03 E0= -.15274649E+03  d E =-.214694E+00  mag=    28.9011
       N       E                     dE             d eps       ncg     rms          rms(c)
DAV:   1    -0.135640996649E+03    0.11060E+02   -0.52654E+02  5628   0.448E+01    0.223E+01
DAV:   2    -0.165215506813E+03   -0.29575E+02   -0.10819E+02  8722   0.550E+01    0.637E+01
DAV:   3    -0.147833319291E+03    0.17382E+02   -0.24127E+01  7532   0.350E+01    0.229E+01
DAV:   4    -0.146682004598E+03    0.11513E+01   -0.95249E+00  8946   0.242E+01    0.159E+01
DAV:   5    -0.146756485756E+03   -0.74481E-01   -0.12081E+00  8092   0.724E+00    0.150E+01
DAV:   6    -0.146679947604E+03    0.76538E-01   -0.22877E-01  8344   0.338E+00    0.661E+00
DAV:   7    -0.146754701546E+03   -0.74754E-01   -0.57000E-02  8456   0.213E+00    0.482E+00
DAV:   8    -0.146779851207E+03   -0.25150E-01   -0.14518E-02  7546   0.668E-01    0.608E+00
DAV:   9    -0.146804985855E+03   -0.25135E-01   -0.17927E-02  8176   0.677E-01    0.645E+00
DAV:  10    -0.146816675301E+03   -0.11689E-01   -0.73705E-03  8792   0.826E-01    0.611E+00
DAV:  11    -0.146833260172E+03   -0.16585E-01   -0.87413E-03  8260   0.753E-01    0.569E+00
DAV:  12    -0.146838030224E+03   -0.47701E-02   -0.23663E-02  8022   0.160E+00    0.381E+00
DAV:  13    -0.146848399210E+03   -0.10369E-01   -0.38592E-02  7672   0.179E+00    0.137E+00
DAV:  14    -0.146896078924E+03   -0.47680E-01   -0.24217E-02  8036   0.118E+00    0.427E+00
DAV:  15    -0.146894032231E+03    0.20467E-02   -0.15721E-02  7098   0.829E-01    0.120E+00
DAV:  16    -0.146917972083E+03   -0.23940E-01   -0.81871E-03  7252   0.495E-01    0.139E+00
DAV:  17    -0.146934287389E+03   -0.16315E-01   -0.84090E-03  7014   0.785E-01    0.223E+00
DAV:  18    -0.146937907027E+03   -0.36196E-02   -0.38560E-03  7462   0.555E-01    0.107E+00
DAV:  19    -0.146932912470E+03    0.49946E-02   -0.14820E-03  7266   0.233E-01    0.111E+00
DAV:  20    -0.146927200789E+03    0.57117E-02   -0.90669E-04  6916   0.140E-01    0.163E+00
DAV:  21    -0.146926601686E+03    0.59910E-03   -0.31943E-03  7364   0.394E-01    0.114E+00
DAV:  22    -0.146935624901E+03   -0.90232E-02   -0.41168E-03  7182   0.427E-01    0.633E-01
DAV:  23    -0.146948209872E+03   -0.12585E-01   -0.22411E-03  6790   0.254E-01    0.141E-01
DAV:  24    -0.146952612774E+03   -0.44029E-02   -0.44114E-04  8162   0.109E-01    0.144E-01
DAV:  25    -0.146955331495E+03   -0.27187E-02   -0.13658E-04  7784   0.895E-02    0.236E-01
DAV:  26    -0.146958762050E+03   -0.34306E-02   -0.13822E-04  8134   0.793E-02    0.897E-02
DAV:  27    -0.146961034286E+03   -0.22722E-02   -0.73372E-05  6244   0.312E-02    0.749E-02
DAV:  28    -0.146962965054E+03   -0.19308E-02   -0.50077E-05  7476   0.348E-02    0.138E-01
DAV:  29    -0.146963652652E+03   -0.68760E-03   -0.22947E-05  7336   0.261E-02    0.609E-02
DAV:  30    -0.146964031691E+03   -0.37904E-03   -0.55691E-06  6804   0.103E-02    0.278E-02
DAV:  31    -0.146964538905E+03   -0.50721E-03   -0.14999E-05  7686   0.267E-02    0.492E-02
DAV:  32    -0.146964946268E+03   -0.40736E-03   -0.20134E-05  7896   0.237E-02    0.512E-02
DAV:  33    -0.146965224072E+03   -0.27780E-03   -0.11721E-05  7616   0.156E-02    0.265E-02
DAV:  34    -0.146965312627E+03   -0.88555E-04   -0.49200E-06  6468   0.142E-02    0.157E-02
DAV:  35    -0.146965357463E+03   -0.44836E-04   -0.89748E-06  7462   0.191E-02    0.842E-03
DAV:  36    -0.146965397344E+03   -0.39881E-04   -0.35219E-06  6132   0.845E-03    0.683E-03
DAV:  37    -0.146965408528E+03   -0.11185E-04   -0.89156E-07  4942   0.539E-03    0.347E-03
DAV:  38    -0.146965413996E+03   -0.54673E-05   -0.48296E-07  4340   0.387E-03    0.240E-03
DAV:  39    -0.146965417496E+03   -0.35006E-05   -0.43861E-07  4578   0.296E-03    0.257E-03
DAV:  40    -0.146965420124E+03   -0.26275E-05   -0.30997E-07  4424   0.229E-03    0.336E-03
DAV:  41    -0.146965420983E+03   -0.85897E-06   -0.13946E-07  4060   0.218E-03
   5 F= -.15305636E+03 E0= -.15302867E+03  d E =-.501082E+00  mag=    29.0234
       N       E                     dE             d eps       ncg     rms          rms(c)
DAV:   1    -0.144749225849E+03    0.22162E+01   -0.11645E+02  5544   0.198E+01    0.159E+01
DAV:   2    -0.162306861691E+03   -0.17558E+02   -0.73622E+01  7994   0.491E+01    0.561E+01
DAV:   3    -0.147999423159E+03    0.14307E+02   -0.14198E+01  8036   0.347E+01    0.219E+01
DAV:   4    -0.146750088842E+03    0.12493E+01   -0.53793E+00  8344   0.161E+01    0.997E+00
DAV:   5    -0.147004948973E+03   -0.25486E+00   -0.50060E-01  7826   0.461E+00    0.109E+01
DAV:   6    -0.147004556610E+03    0.39236E-03   -0.79342E-02  8190   0.228E+00    0.622E+00
DAV:   7    -0.147030238138E+03   -0.25682E-01   -0.22245E-02  7966   0.108E+00    0.663E+00
DAV:   8    -0.147061441444E+03   -0.31203E-01   -0.59926E-03  8218   0.572E-01    0.642E+00
DAV:   9    -0.147054490992E+03    0.69505E-02   -0.17027E-02  7994   0.131E+00    0.589E+00
DAV:  10    -0.147025443118E+03    0.29048E-01   -0.18243E-02  8610   0.140E+00    0.501E+00
DAV:  11    -0.146995957339E+03    0.29486E-01   -0.17663E-02  7840   0.117E+00    0.197E+00
DAV:  12    -0.147000032632E+03   -0.40753E-02   -0.10126E-02  6048   0.360E-01    0.200E+00
DAV:  13    -0.146992591287E+03    0.74413E-02   -0.77310E-04  7168   0.107E-01    0.197E+00
DAV:  14    -0.146995632525E+03   -0.30412E-02   -0.56491E-04  8904   0.169E-01    0.185E+00
DAV:  15    -0.147005596599E+03   -0.99641E-02   -0.14960E-02  7756   0.798E-01    0.216E+00
DAV:  16    -0.146993410438E+03    0.12186E-01   -0.54706E-02  6832   0.128E+00    0.508E+00
DAV:  17    -0.146964893418E+03    0.28517E-01   -0.21880E-02  7490   0.125E+00    0.172E+00
DAV:  18    -0.147000768863E+03   -0.35875E-01   -0.11327E-02  7364   0.491E-01    0.236E+00
DAV:  19    -0.147020118138E+03   -0.19349E-01   -0.10259E-02  7840   0.887E-01    0.494E+00
DAV:  20    -0.147012182389E+03    0.79357E-02   -0.12209E-02  6594   0.506E-01    0.337E+00
DAV:  21    -0.147034850114E+03   -0.22668E-01   -0.41732E-03  6818   0.370E-01    0.188E+00
DAV:  22    -0.147059869179E+03   -0.25019E-01   -0.50746E-03  6972   0.376E-01    0.418E-01
DAV:  23    -0.147069842435E+03   -0.99733E-02   -0.15588E-03  6832   0.179E-01    0.830E-01
DAV:  24    -0.147072386496E+03   -0.25441E-02   -0.32605E-04  8134   0.107E-01    0.590E-01
DAV:  25    -0.147074811843E+03   -0.24253E-02   -0.15617E-04  7812   0.892E-02    0.368E-01
DAV:  26    -0.147075771330E+03   -0.95949E-03   -0.71753E-05  7868   0.489E-02    0.231E-01
DAV:  27    -0.147076386271E+03   -0.61494E-03   -0.77117E-05  7854   0.681E-02    0.166E-01
DAV:  28    -0.147077098990E+03   -0.71272E-03   -0.59761E-05  7294   0.475E-02    0.160E-01
DAV:  29    -0.147078268259E+03   -0.11693E-02   -0.17557E-04  7784   0.913E-02    0.128E-01
DAV:  30    -0.147079139841E+03   -0.87158E-03   -0.21774E-04  8050   0.105E-01    0.186E-01
DAV:  31    -0.147079928271E+03   -0.78843E-03   -0.39713E-04  7938   0.144E-01    0.243E-01
DAV:  32    -0.147080698386E+03   -0.77011E-03   -0.14272E-04  7462   0.646E-02    0.738E-02
DAV:  33    -0.147081119104E+03   -0.42072E-03   -0.44449E-05  6846   0.290E-02    0.553E-02
DAV:  34    -0.147081272175E+03   -0.15307E-03   -0.48665E-06  5894   0.108E-02    0.297E-02
DAV:  35    -0.147081398046E+03   -0.12587E-03   -0.63184E-06  7224   0.168E-02    0.216E-02
DAV:  36    -0.147081505704E+03   -0.10766E-03   -0.65184E-06  7000   0.182E-02    0.105E-02
DAV:  37    -0.147081718008E+03   -0.21230E-03   -0.57879E-06  6160   0.109E-02    0.175E-02
DAV:  38    -0.147081810307E+03   -0.92299E-04   -0.48560E-06  6748   0.153E-02    0.101E-02
DAV:  39    -0.147081870844E+03   -0.60537E-04   -0.66672E-06  7392   0.169E-02    0.433E-03
DAV:  40    -0.147081913116E+03   -0.42272E-04   -0.21421E-06  5474   0.661E-03    0.695E-03
DAV:  41    -0.147081946207E+03   -0.33092E-04   -0.87794E-07  4760   0.425E-03    0.112E-02
DAV:  42    -0.147081956036E+03   -0.98290E-05   -0.29585E-07  4284   0.260E-03    0.924E-03
DAV:  43    -0.147081960489E+03   -0.44531E-05   -0.18092E-07  4200   0.230E-03    0.262E-03
DAV:  44    -0.147081964686E+03   -0.41964E-05   -0.21247E-07  4158   0.146E-03    0.110E-03
DAV:  45    -0.147081965205E+03   -0.51891E-06   -0.86548E-08  3766   0.173E-03
   6 F= -.15318860E+03 E0= -.15315987E+03  d E =-.132240E+00  mag=    29.0551
       N       E                     dE             d eps       ncg     rms          rms(c)
DAV:   1    -0.147079803283E+03    0.21614E-02   -0.43781E-01  5628   0.115E+00    0.592E-01
DAV:   2    -0.147132318516E+03   -0.52515E-01   -0.27780E-02  8722   0.115E+00    0.101E+01
DAV:   3    -0.147020317253E+03    0.11200E+00   -0.30657E-02  6916   0.121E+00    0.907E-01
DAV:   4    -0.147083840334E+03   -0.63523E-01   -0.18793E-02  6090   0.456E-01    0.175E+00
DAV:   5    -0.147058148021E+03    0.25692E-01   -0.41135E-02  6552   0.394E-01    0.320E-01
DAV:   6    -0.147078926532E+03   -0.20779E-01   -0.34345E-03  6244   0.234E-01    0.203E-01
DAV:   7    -0.147082155652E+03   -0.32291E-02   -0.36913E-04  7042   0.120E-01    0.186E-01
DAV:   8    -0.147082507154E+03   -0.35150E-03   -0.11749E-04  7994   0.755E-02    0.179E-01
DAV:   9    -0.147082546398E+03   -0.39244E-04   -0.84860E-05  8274   0.847E-02    0.189E-01
DAV:  10    -0.147082560156E+03   -0.13758E-04   -0.26531E-05  7714   0.394E-02    0.246E-01
DAV:  11    -0.147082489986E+03    0.70170E-04   -0.10534E-05  7070   0.223E-02    0.231E-01
DAV:  12    -0.147082531294E+03   -0.41308E-04   -0.19582E-06  4900   0.647E-03    0.230E-01
DAV:  13    -0.147082594900E+03   -0.63605E-04   -0.21264E-06  4900   0.115E-02    0.225E-01
DAV:  14    -0.147082811235E+03   -0.21633E-03   -0.40099E-05  7686   0.492E-02    0.175E-01
DAV:  15    -0.147083098899E+03   -0.28766E-03   -0.19152E-04  7392   0.107E-01    0.782E-02
DAV:  16    -0.147083170940E+03   -0.72041E-04   -0.60585E-05  7700   0.406E-02    0.482E-02
DAV:  17    -0.147083209056E+03   -0.38116E-04   -0.57303E-06  6552   0.121E-02    0.467E-02
DAV:  18    -0.147083276318E+03   -0.67262E-04   -0.27185E-06  5768   0.121E-02    0.358E-02
DAV:  19    -0.147083389443E+03   -0.11312E-03   -0.81930E-06  7742   0.191E-02    0.176E-02
DAV:  20    -0.147083458233E+03   -0.68790E-04   -0.29778E-06  5222   0.101E-02    0.151E-02
DAV:  21    -0.147083530943E+03   -0.72710E-04   -0.16059E-06  5222   0.676E-03    0.138E-02
DAV:  22    -0.147083597829E+03   -0.66886E-04   -0.13558E-06  4984   0.726E-03    0.105E-02
DAV:  23    -0.147083626797E+03   -0.28968E-04   -0.10457E-06  4536   0.468E-03    0.552E-03
DAV:  24    -0.147083642655E+03   -0.15858E-04   -0.55564E-07  4130   0.287E-03    0.441E-03
DAV:  25    -0.147083657508E+03   -0.14853E-04   -0.44722E-07  4270   0.392E-03    0.674E-03
DAV:  26    -0.147083670700E+03   -0.13191E-04   -0.55620E-07  4340   0.371E-03    0.370E-03
DAV:  27    -0.147083675397E+03   -0.46974E-05   -0.47373E-07  4382   0.225E-03    0.188E-03
DAV:  28    -0.147083676365E+03   -0.96810E-06   -0.18015E-07  3850   0.142E-03
   7 F= -.15318933E+03 E0= -.15316055E+03  d E =-.132968E+00  mag=    29.0529
       N       E                     dE             d eps       ncg     rms          rms(c)
DAV:   1    -0.147028772760E+03    0.54903E-01   -0.24117E+01  5544   0.971E+00    0.523E+00
DAV:   2    -0.148607567164E+03   -0.15788E+01   -0.29418E+00  7980   0.147E+01    0.205E+01
DAV:   3    -0.147204055351E+03    0.14035E+01   -0.14727E+00  7546   0.155E+01    0.112E+01
DAV:   4    -0.147139976285E+03    0.64079E-01   -0.17079E-01  8554   0.372E+00    0.559E+00
DAV:   5    -0.147252704563E+03   -0.11273E+00   -0.63345E-02  8064   0.202E+00    0.589E+00
DAV:   6    -0.147201391602E+03    0.51313E-01   -0.21950E-02  7826   0.117E+00    0.394E+00
DAV:   7    -0.147209618531E+03   -0.82269E-02   -0.33656E-03  7784   0.247E-01    0.360E+00
DAV:   8    -0.147211525719E+03   -0.19072E-02   -0.35287E-04  6286   0.778E-02    0.358E+00
DAV:   9    -0.147207816872E+03    0.37088E-02   -0.86029E-04  8428   0.344E-01    0.262E+00
DAV:  10    -0.147210617427E+03   -0.28006E-02   -0.22320E-03  7868   0.331E-01    0.302E+00
DAV:  11    -0.147206401289E+03    0.42161E-02   -0.12138E-03  8274   0.244E-01    0.219E+00
DAV:  12    -0.147211945765E+03   -0.55445E-02   -0.32127E-03  7644   0.497E-01    0.137E+00
DAV:  13    -0.147213098782E+03   -0.11530E-02   -0.13845E-02  7910   0.952E-01    0.260E+00
DAV:  14    -0.147215638839E+03   -0.25401E-02   -0.93936E-03  7742   0.494E-01    0.382E+00
DAV:  15    -0.147204528414E+03    0.11110E-01   -0.33612E-03  7266   0.429E-01    0.383E-01
DAV:  16    -0.147222988716E+03   -0.18460E-01   -0.38002E-03  6566   0.271E-01    0.163E+00
DAV:  17    -0.147225127067E+03   -0.21384E-02   -0.66197E-04  7882   0.230E-01    0.156E-01
DAV:  18    -0.147232159229E+03   -0.70322E-02   -0.73966E-04  6818   0.131E-01    0.204E-01
DAV:  19    -0.147234424218E+03   -0.22650E-02   -0.55200E-05  7560   0.362E-02    0.806E-02
DAV:  20    -0.147237241744E+03   -0.28175E-02   -0.50033E-05  7756   0.494E-02    0.161E-01
DAV:  21    -0.147240848911E+03   -0.36072E-02   -0.69410E-05  7714   0.473E-02    0.427E-02
DAV:  22    -0.147242257449E+03   -0.14085E-02   -0.23160E-05  7434   0.197E-02    0.386E-02
DAV:  23    -0.147243826956E+03   -0.15695E-02   -0.19705E-05  7518   0.157E-02    0.144E-02
DAV:  24    -0.147244645690E+03   -0.81873E-03   -0.73284E-06  6426   0.705E-03    0.255E-02
DAV:  25    -0.147245332204E+03   -0.68651E-03   -0.68822E-06  6384   0.828E-03    0.336E-02
DAV:  26    -0.147245946795E+03   -0.61459E-03   -0.10752E-05  6804   0.123E-02    0.201E-02
DAV:  27    -0.147246278102E+03   -0.33131E-03   -0.57482E-06  6286   0.667E-03    0.131E-02
DAV:  28    -0.147246469791E+03   -0.19169E-03   -0.42365E-06  5978   0.559E-03    0.527E-03
DAV:  29    -0.147246525899E+03   -0.56109E-04   -0.12327E-06  4718   0.407E-03    0.872E-03
DAV:  30    -0.147246540323E+03   -0.14424E-04   -0.68410E-07  4382   0.285E-03    0.935E-03
DAV:  31    -0.147246541138E+03   -0.81447E-06   -0.31858E-07  4242   0.213E-03
   8 F= -.15336051E+03 E0= -.15333196E+03  d E =-.171176E+00  mag=    29.0503
       N       E                     dE             d eps       ncg     rms          rms(c)
DAV:   1    -0.147091037293E+03    0.15550E+00   -0.22538E+01  5544   0.941E+00    0.513E+00
DAV:   2    -0.148611491530E+03   -0.15205E+01   -0.27776E+00  8106   0.144E+01    0.206E+01
DAV:   3    -0.147241609297E+03    0.13699E+01   -0.14062E+00  7532   0.152E+01    0.110E+01
DAV:   4    -0.147194776207E+03    0.46833E-01   -0.16235E-01  8540   0.365E+00    0.581E+00
DAV:   5    -0.147300999278E+03   -0.10622E+00   -0.60816E-02  8050   0.193E+00    0.586E+00
DAV:   6    -0.147244726203E+03    0.56273E-01   -0.19914E-02  8022   0.116E+00    0.351E+00
DAV:   7    -0.147255445631E+03   -0.10719E-01   -0.50356E-03  7644   0.374E-01    0.279E+00
DAV:   8    -0.147260223098E+03   -0.47775E-02   -0.51050E-03  8078   0.723E-01    0.245E+00
DAV:   9    -0.147269836914E+03   -0.96138E-02   -0.61171E-03  5950   0.311E-01    0.228E+00
DAV:  10    -0.147257402015E+03    0.12435E-01   -0.20940E-03  7280   0.279E-01    0.734E-01
DAV:  11    -0.147266774009E+03   -0.93720E-02   -0.72277E-03  7882   0.584E-01    0.158E+00
DAV:  12    -0.147265789624E+03    0.98438E-03   -0.22492E-03  7700   0.309E-01    0.517E-01
DAV:  13    -0.147269779582E+03   -0.39900E-02   -0.93904E-04  7364   0.208E-01    0.138E+00
DAV:  14    -0.147272025967E+03   -0.22464E-02   -0.68696E-04  7518   0.220E-01    0.915E-01
DAV:  15    -0.147274669235E+03   -0.26433E-02   -0.71708E-04  6902   0.178E-01    0.698E-01
DAV:  16    -0.147275425126E+03   -0.75589E-03   -0.12784E-04  6622   0.510E-02    0.689E-01
DAV:  17    -0.147275123659E+03    0.30147E-03   -0.67514E-06  6608   0.154E-02    0.691E-01
DAV:  18    -0.147274339229E+03    0.78443E-03   -0.22531E-05  7658   0.348E-02    0.658E-01
DAV:  19    -0.147272572913E+03    0.17663E-02   -0.18233E-04  7728   0.102E-01    0.554E-01
DAV:  20    -0.147268124475E+03    0.44484E-02   -0.20113E-03  7728   0.346E-01    0.253E-01
DAV:  21    -0.147274470931E+03   -0.63465E-02   -0.50577E-04  7252   0.105E-01    0.237E-01
DAV:  22    -0.147278482454E+03   -0.40115E-02   -0.11564E-04  7252   0.722E-02    0.143E-01
DAV:  23    -0.147283108056E+03   -0.46256E-02   -0.77340E-05  7644   0.466E-02    0.216E-01
DAV:  24    -0.147286936619E+03   -0.38286E-02   -0.71863E-05  7574   0.435E-02    0.136E-01
DAV:  25    -0.147288977754E+03   -0.20411E-02   -0.48090E-05  7896   0.398E-02    0.766E-02
DAV:  26    -0.147291204575E+03   -0.22268E-02   -0.87435E-05  7728   0.556E-02    0.568E-02
DAV:  27    -0.147291849688E+03   -0.64511E-03   -0.44230E-05  7686   0.380E-02    0.566E-02
DAV:  28    -0.147292164100E+03   -0.31441E-03   -0.11934E-05  7210   0.183E-02    0.203E-02
DAV:  29    -0.147292380629E+03   -0.21653E-03   -0.42429E-06  5810   0.873E-03    0.150E-02
DAV:  30    -0.147292487049E+03   -0.10642E-03   -0.21418E-06  5628   0.954E-03    0.104E-02
DAV:  31    -0.147292638309E+03   -0.15126E-03   -0.38961E-06  6272   0.811E-03    0.738E-03
DAV:  32    -0.147292731053E+03   -0.92744E-04   -0.19674E-06  5110   0.466E-03    0.246E-03
DAV:  33    -0.147292760151E+03   -0.29098E-04   -0.54936E-07  4354   0.249E-03    0.194E-03
DAV:  34    -0.147292763385E+03   -0.32344E-05   -0.16038E-07  4018   0.154E-03    0.143E-03
DAV:  35    -0.147292776413E+03   -0.13028E-04   -0.22095E-07  4144   0.177E-03    0.882E-04
DAV:  36    -0.147292788971E+03   -0.12558E-04   -0.28320E-07  4256   0.163E-03    0.363E-03
DAV:  37    -0.147292791155E+03   -0.21839E-05   -0.17965E-07  4228   0.151E-03    0.217E-03
DAV:  38    -0.147292791762E+03   -0.60659E-06   -0.95642E-08  3780   0.101E-03
   9 F= -.15341460E+03 E0= -.15338657E+03  d E =-.225266E+00  mag=    29.0491
       N       E                     dE             d eps       ncg     rms          rms(c)
DAV:   1    -0.147160007366E+03    0.13278E+00   -0.21733E+01  5544   0.900E+00    0.600E+00
DAV:   2    -0.149547954125E+03   -0.23879E+01   -0.35907E+00  8092   0.178E+01    0.230E+01
DAV:   3    -0.147241272412E+03    0.23067E+01   -0.19818E+00  7770   0.182E+01    0.546E+00
DAV:   4    -0.147380112161E+03   -0.13884E+00   -0.55850E-01  8246   0.352E+00    0.861E+00
DAV:   5    -0.147340314635E+03    0.39798E-01   -0.71170E-02  7952   0.229E+00    0.270E+00
DAV:   6    -0.147368923399E+03   -0.28609E-01   -0.15642E-02  7070   0.628E-01    0.295E+00
DAV:   7    -0.147356774077E+03    0.12149E-01   -0.77870E-03  7924   0.707E-01    0.398E+00
DAV:   8    -0.147339879231E+03    0.16895E-01   -0.23394E-02  7924   0.778E-01    0.160E+00
DAV:   9    -0.147361851823E+03   -0.21973E-01   -0.79230E-03  6846   0.583E-01    0.200E+00
DAV:  10    -0.147352055852E+03    0.97960E-02   -0.12537E-03  6300   0.147E-01    0.176E+00
DAV:  11    -0.147351667149E+03    0.38870E-03   -0.29410E-04  8288   0.179E-01    0.129E+00
DAV:  12    -0.147359793692E+03   -0.81265E-02   -0.36955E-03  7350   0.418E-01    0.932E-01
DAV:  13    -0.147369647528E+03   -0.98538E-02   -0.60309E-03  7910   0.685E-01    0.349E+00
DAV:  14    -0.147355251117E+03    0.14396E-01   -0.54829E-03  6804   0.381E-01    0.732E-01
DAV:  15    -0.147367497662E+03   -0.12247E-01   -0.20480E-03  6986   0.237E-01    0.217E+00
DAV:  16    -0.147362266991E+03    0.52307E-02   -0.69150E-04  7070   0.149E-01    0.112E+00
DAV:  17    -0.147365633485E+03   -0.33665E-02   -0.54310E-04  7336   0.121E-01    0.361E-01
DAV:  18    -0.147369589726E+03   -0.39562E-02   -0.46682E-04  6286   0.968E-02    0.468E-01
DAV:  19    -0.147370033711E+03   -0.44399E-03   -0.50295E-05  8204   0.523E-02    0.410E-01
DAV:  20    -0.147370566693E+03   -0.53298E-03   -0.43980E-05  7742   0.428E-02    0.368E-01
DAV:  21    -0.147371148737E+03   -0.58204E-03   -0.11593E-04  7714   0.824E-02    0.410E-01
DAV:  22    -0.147371339523E+03   -0.19079E-03   -0.96124E-05  7910   0.630E-02    0.223E-01
DAV:  23    -0.147371714905E+03   -0.37538E-03   -0.45043E-05  7070   0.348E-02    0.254E-01
DAV:  24    -0.147371475403E+03    0.23950E-03   -0.88177E-05  7840   0.696E-02    0.182E-01
DAV:  25    -0.147371626190E+03   -0.15079E-03   -0.49011E-05  7602   0.401E-02    0.935E-02
DAV:  26    -0.147371761869E+03   -0.13568E-03   -0.24550E-05  7420   0.297E-02    0.777E-02
DAV:  27    -0.147371783539E+03   -0.21669E-04   -0.25625E-05  7854   0.344E-02    0.320E-02
DAV:  28    -0.147371854641E+03   -0.71102E-04   -0.24379E-05  7546   0.296E-02    0.384E-02
DAV:  29    -0.147371930161E+03   -0.75521E-04   -0.14615E-05  7686   0.248E-02    0.276E-02
DAV:  30    -0.147371969817E+03   -0.39656E-04   -0.10352E-05  7532   0.214E-02    0.198E-02
DAV:  31    -0.147371993671E+03   -0.23854E-04   -0.12038E-05  7602   0.238E-02    0.166E-02
DAV:  32    -0.147372122889E+03   -0.12922E-03   -0.75878E-06  6020   0.991E-03    0.176E-02
DAV:  33    -0.147372152717E+03   -0.29828E-04   -0.42947E-07  4312   0.422E-03    0.712E-03
DAV:  34    -0.147372173983E+03   -0.21266E-04   -0.11997E-06  5054   0.503E-03    0.250E-03
DAV:  35    -0.147372184379E+03   -0.10396E-04   -0.13125E-06  5236   0.688E-03    0.227E-03
DAV:  36    -0.147372206843E+03   -0.22464E-04   -0.87182E-07  4830   0.348E-03    0.468E-03
DAV:  37    -0.147372214595E+03   -0.77520E-05   -0.30557E-07  3906   0.270E-03    0.267E-03
DAV:  38    -0.147372217794E+03   -0.31996E-05   -0.93771E-08  3724   0.149E-03    0.196E-03
DAV:  39    -0.147372220088E+03   -0.22935E-05   -0.71503E-08  3906   0.169E-03    0.103E-03
DAV:  40    -0.147372223322E+03   -0.32338E-05   -0.12081E-07  3948   0.141E-03    0.110E-03
DAV:  41    -0.147372225241E+03   -0.19190E-05   -0.96317E-08  3822   0.936E-04    0.689E-04
DAV:  42    -0.147372226316E+03   -0.10753E-05   -0.40760E-08  3654   0.686E-04    0.316E-04
DAV:  43    -0.147372227611E+03   -0.12949E-05   -0.34015E-08  3724   0.792E-04    0.613E-04
DAV:  44    -0.147372228039E+03   -0.42829E-06   -0.17083E-08  3766   0.567E-04
  10 F= -.15350112E+03 E0= -.15347524E+03  d E =-.865234E-01  mag=    29.0066
       N       E                     dE             d eps       ncg     rms          rms(c)
DAV:   1    -0.147206677470E+03    0.16555E+00   -0.19296E+01  5544   0.847E+00    0.557E+00
DAV:   2    -0.149223320489E+03   -0.20166E+01   -0.30373E+00  8120   0.163E+01    0.222E+01
DAV:   3    -0.147266132795E+03    0.19572E+01   -0.17145E+00  7756   0.168E+01    0.473E+00
DAV:   4    -0.147396005846E+03   -0.12987E+00   -0.45597E-01  8288   0.312E+00    0.798E+00
DAV:   5    -0.147366864010E+03    0.29142E-01   -0.60429E-02  8050   0.208E+00    0.362E+00
DAV:   6    -0.147388527840E+03   -0.21664E-01   -0.13552E-02  6524   0.552E-01    0.339E+00
DAV:   7    -0.147373125330E+03    0.15403E-01   -0.61436E-03  8148   0.736E-01    0.173E+00
DAV:   8    -0.147377132314E+03   -0.40070E-02   -0.32505E-03  7308   0.271E-01    0.177E+00
DAV:   9    -0.147370333383E+03    0.67989E-02   -0.55591E-02  7322   0.745E-01    0.588E+00
DAV:  10    -0.147357325177E+03    0.13008E-01   -0.10725E-02  7280   0.797E-01    0.152E+00
DAV:  11    -0.147375879891E+03   -0.18555E-01   -0.91063E-03  6804   0.496E-01    0.166E+00
DAV:  12    -0.147369529402E+03    0.63505E-02   -0.30101E-03  7672   0.374E-01    0.184E+00
DAV:  13    -0.147368108683E+03    0.14207E-02   -0.72905E-04  7714   0.132E-01    0.190E+00
DAV:  14    -0.147369752138E+03   -0.16435E-02   -0.45656E-04  7672   0.167E-01    0.180E+00
DAV:  15    -0.147369691177E+03    0.60961E-04   -0.11500E-03  7658   0.241E-01    0.178E+00
DAV:  16    -0.147368114462E+03    0.15767E-02   -0.67964E-04  8078   0.176E-01    0.176E+00
DAV:  17    -0.147368713409E+03   -0.59895E-03   -0.35501E-04  8036   0.114E-01    0.180E+00
DAV:  18    -0.147368652232E+03    0.61177E-04   -0.16588E-04  7616   0.829E-02    0.184E+00
DAV:  19    -0.147372761296E+03   -0.41091E-02   -0.94601E-04  7154   0.219E-01    0.165E+00
DAV:  20    -0.147378577018E+03   -0.58157E-02   -0.50763E-03  7644   0.528E-01    0.113E+00
DAV:  21    -0.147379827208E+03   -0.12502E-02   -0.14476E-02  8050   0.871E-01    0.285E-01
DAV:  22    -0.147385400040E+03   -0.55728E-02   -0.48970E-03  7182   0.484E-01    0.559E-01
DAV:  23    -0.147386224411E+03   -0.82437E-03   -0.12407E-03  7630   0.281E-01    0.408E-01
DAV:  24    -0.147384602405E+03    0.16220E-02   -0.89972E-04  7364   0.175E-01    0.159E-01
DAV:  25    -0.147385108410E+03   -0.50601E-03   -0.86044E-04  7938   0.207E-01    0.231E-01
DAV:  26    -0.147388556628E+03   -0.34482E-02   -0.59648E-04  6622   0.119E-01    0.264E-01
DAV:  27    -0.147387609056E+03    0.94757E-03   -0.91703E-04  7028   0.202E-01    0.148E-01
DAV:  28    -0.147385724916E+03    0.18841E-02   -0.15910E-03  7476   0.266E-01    0.902E-02
DAV:  29    -0.147388011513E+03   -0.22866E-02   -0.63507E-04  7602   0.122E-01    0.916E-02
DAV:  30    -0.147389800965E+03   -0.17895E-02   -0.40861E-04  6398   0.939E-02    0.842E-02
DAV:  31    -0.147389600647E+03    0.20032E-03   -0.82934E-05  7154   0.608E-02    0.179E-01
DAV:  32    -0.147389673205E+03   -0.72558E-04   -0.32718E-05  7420   0.343E-02    0.182E-01
DAV:  33    -0.147389654117E+03    0.19089E-04   -0.84443E-06  6664   0.171E-02    0.182E-01
DAV:  34    -0.147389860169E+03   -0.20605E-03   -0.16722E-05  6314   0.205E-02    0.190E-01
DAV:  35    -0.147389741366E+03    0.11880E-03   -0.12807E-04  7028   0.745E-02    0.162E-01
DAV:  36    -0.147389664878E+03    0.76488E-04   -0.31641E-04  7616   0.132E-01    0.830E-02
DAV:  37    -0.147388363588E+03    0.13013E-02   -0.83168E-04  7364   0.198E-01    0.555E-02
DAV:  38    -0.147390183722E+03   -0.18201E-02   -0.34100E-04  7322   0.836E-02    0.478E-02
DAV:  39    -0.147390988455E+03   -0.80473E-03   -0.69937E-05  6664   0.397E-02    0.369E-02
DAV:  40    -0.147391243809E+03   -0.25535E-03   -0.59255E-05  6566   0.407E-02    0.265E-02
DAV:  41    -0.147390859370E+03    0.38444E-03   -0.86397E-05  7042   0.622E-02    0.521E-02
DAV:  42    -0.147391078444E+03   -0.21907E-03   -0.28631E-05  7182   0.241E-02    0.580E-02
DAV:  43    -0.147391163193E+03   -0.84749E-04   -0.87040E-05  6846   0.583E-02    0.315E-02
DAV:  44    -0.147391432701E+03   -0.26951E-03   -0.29339E-05  7714   0.292E-02    0.269E-02
DAV:  45    -0.147391711619E+03   -0.27892E-03   -0.21482E-05  7126   0.258E-02    0.278E-02
DAV:  46    -0.147391832796E+03   -0.12118E-03   -0.44091E-06  5684   0.893E-03    0.486E-02
DAV:  47    -0.147391878568E+03   -0.45772E-04   -0.86781E-06  6552   0.179E-02    0.174E-02
DAV:  48    -0.147391968500E+03   -0.89932E-04   -0.94394E-06  6146   0.165E-02    0.354E-03
DAV:  49    -0.147391996542E+03   -0.28042E-04   -0.30341E-06  5824   0.103E-02    0.533E-03
DAV:  50    -0.147392017413E+03   -0.20871E-04   -0.12098E-06  4900   0.454E-03    0.213E-03
DAV:  51    -0.147392007063E+03    0.10350E-04   -0.24253E-06  5306   0.114E-02    0.439E-03
DAV:  52    -0.147392013960E+03   -0.68974E-05   -0.21534E-06  5558   0.737E-03    0.455E-03
DAV:  53    -0.147392037342E+03   -0.23381E-04   -0.15929E-06  4984   0.553E-03    0.297E-03
DAV:  54    -0.147392037329E+03    0.12693E-07   -0.23887E-07  3892   0.321E-03
  11 F= -.15352746E+03 E0= -.15350420E+03  d E =-.112863E+00  mag=    28.9760
       N       E                     dE             d eps       ncg     rms          rms(c)
DAV:   1    -0.147061658618E+03    0.33038E+00   -0.34928E+01  5544   0.109E+01    0.953E+00
DAV:   2    -0.153800769729E+03   -0.67391E+01   -0.15301E+01  8008   0.291E+01    0.457E+01
DAV:   3    -0.147141208767E+03    0.66596E+01   -0.62958E+00  7924   0.285E+01    0.631E+00
DAV:   4    -0.147379955690E+03   -0.23875E+00   -0.10803E+00  7616   0.432E+00    0.426E+00
DAV:   5    -0.147438440242E+03   -0.58485E-01   -0.88512E-02  9072   0.264E+00    0.964E+00
DAV:   6    -0.147540768228E+03   -0.10233E+00   -0.83761E-02  8008   0.281E+00    0.721E+00
DAV:   7    -0.147485887102E+03    0.54881E-01   -0.39947E-02  8358   0.181E+00    0.645E+00
DAV:   8    -0.147418152210E+03    0.67735E-01   -0.33366E-02  8386   0.183E+00    0.258E+00
DAV:   9    -0.147463342549E+03   -0.45190E-01   -0.23781E-02  8064   0.115E+00    0.504E+00
DAV:  10    -0.147456027045E+03    0.73155E-02   -0.19362E-02  7448   0.999E-01    0.188E+00
DAV:  11    -0.147467353564E+03   -0.11327E-01   -0.70986E-03  7812   0.762E-01    0.115E+00
DAV:  12    -0.147476331119E+03   -0.89776E-02   -0.59116E-03  7434   0.485E-01    0.427E-01
DAV:  13    -0.147479072840E+03   -0.27417E-02   -0.13640E-03  7896   0.341E-01    0.104E+00
DAV:  14    -0.147476555912E+03    0.25169E-02   -0.57142E-04  7280   0.157E-01    0.555E-01
DAV:  15    -0.147477449983E+03   -0.89407E-03   -0.74319E-04  7854   0.177E-01    0.500E-01
DAV:  16    -0.147479677550E+03   -0.22276E-02   -0.87238E-04  7140   0.279E-01    0.116E+00
DAV:  17    -0.147476946734E+03    0.27308E-02   -0.57844E-04  6258   0.122E-01    0.103E+00
DAV:  18    -0.147476051303E+03    0.89543E-03   -0.20707E-04  7742   0.157E-01    0.275E-01
DAV:  19    -0.147478480345E+03   -0.24290E-02   -0.33158E-04  6832   0.884E-02    0.998E-02
DAV:  20    -0.147479216683E+03   -0.73634E-03   -0.70888E-05  7140   0.477E-02    0.463E-02
DAV:  21    -0.147479536764E+03   -0.32008E-03   -0.30351E-05  6706   0.286E-02    0.720E-02
DAV:  22    -0.147479767054E+03   -0.23029E-03   -0.18890E-05  7658   0.236E-02    0.109E-01
DAV:  23    -0.147479888813E+03   -0.12176E-03   -0.84416E-06  7000   0.146E-02    0.772E-02
DAV:  24    -0.147480060314E+03   -0.17150E-03   -0.36555E-05  7336   0.360E-02    0.587E-02
DAV:  25    -0.147479940095E+03    0.12022E-03   -0.70541E-05  7574   0.480E-02    0.195E-02
DAV:  26    -0.147480084555E+03   -0.14446E-03   -0.27633E-05  7532   0.230E-02    0.246E-02
DAV:  27    -0.147480167070E+03   -0.82514E-04   -0.79336E-06  6524   0.146E-02    0.182E-02
DAV:  28    -0.147480127482E+03    0.39588E-04   -0.64240E-06  6818   0.156E-02    0.738E-03
DAV:  29    -0.147480144385E+03   -0.16904E-04   -0.58740E-06  6440   0.135E-02    0.879E-03
DAV:  30    -0.147480201279E+03   -0.56894E-04   -0.41178E-06  6132   0.104E-02    0.130E-02
DAV:  31    -0.147480259950E+03   -0.58670E-04   -0.22661E-06  5726   0.899E-03    0.390E-03
DAV:  32    -0.147480308515E+03   -0.48565E-04   -0.19796E-06  5698   0.610E-03    0.428E-03
DAV:  33    -0.147480330246E+03   -0.21731E-04   -0.52626E-07  4298   0.404E-03    0.185E-03
DAV:  34    -0.147480344981E+03   -0.14735E-04   -0.51872E-07  4340   0.277E-03    0.135E-03
DAV:  35    -0.147480355942E+03   -0.10960E-04   -0.42676E-07  4494   0.218E-03    0.120E-03
DAV:  36    -0.147480364481E+03   -0.85395E-05   -0.33868E-07  4074   0.225E-03    0.132E-03
DAV:  37    -0.147480366387E+03   -0.19056E-05   -0.10409E-07  3962   0.138E-03    0.124E-03
DAV:  38    -0.147480368491E+03   -0.21046E-05   -0.98682E-08  4004   0.114E-03    0.463E-04
DAV:  39    -0.147480369945E+03   -0.14534E-05   -0.69503E-08  3780   0.909E-04    0.118E-03
DAV:  40    -0.147480371094E+03   -0.11494E-05   -0.45440E-08  3780   0.780E-04    0.336E-04
DAV:  41    -0.147480371993E+03   -0.89858E-06   -0.37566E-08  3822   0.707E-04
  12 F= -.15362239E+03 E0= -.15360560E+03  d E =-.949328E-01  mag=    28.9838
       N       E                     dE             d eps       ncg     rms          rms(c)
DAV:   1    -0.141529792618E+03    0.59506E+01   -0.36156E+02  5544   0.368E+01    0.209E+01
DAV:   2    -0.165025522218E+03   -0.23496E+02   -0.90965E+01  8400   0.542E+01    0.604E+01
DAV:   3    -0.147479125844E+03    0.17546E+02   -0.19458E+01  7938   0.363E+01    0.221E+01
DAV:   4    -0.147195535214E+03    0.28359E+00   -0.65609E+00  8596   0.179E+01    0.111E+01
DAV:   5    -0.147414772550E+03   -0.21924E+00   -0.76595E-01  8260   0.799E+00    0.625E+00
DAV:   6    -0.147357160648E+03    0.57612E-01   -0.18320E-01  8652   0.320E+00    0.450E+00
DAV:   7    -0.147511986049E+03   -0.15483E+00   -0.79568E-02  8638   0.183E+00    0.928E+00
DAV:   8    -0.147494421018E+03    0.17565E-01   -0.74281E-02  7882   0.213E+00    0.789E+00
DAV:   9    -0.147445194851E+03    0.49226E-01   -0.26488E-02  8498   0.160E+00    0.727E+00
DAV:  10    -0.147408775454E+03    0.36419E-01   -0.22789E-02  8554   0.133E+00    0.603E+00
DAV:  11    -0.147419988246E+03   -0.11213E-01   -0.11515E-02  8050   0.741E-01    0.527E+00
DAV:  12    -0.147390556024E+03    0.29432E-01   -0.31074E-02  8050   0.174E+00    0.430E+00
DAV:  13    -0.147414755107E+03   -0.24199E-01   -0.27231E-02  8106   0.127E+00    0.326E+00
DAV:  14    -0.147480586591E+03   -0.65831E-01   -0.73532E-02  7532   0.144E+00    0.276E+00
DAV:  15    -0.147469571306E+03    0.11015E-01   -0.84723E-03  6356   0.417E-01    0.348E+00
DAV:  16    -0.147463105278E+03    0.64660E-02   -0.69560E-04  7336   0.147E-01    0.332E+00
DAV:  17    -0.147460110441E+03    0.29948E-02   -0.12152E-02  7084   0.690E-01    0.440E+00
DAV:  18    -0.147422472979E+03    0.37637E-01   -0.20474E-01  7056   0.189E+00    0.488E+00
DAV:  19    -0.147359887064E+03    0.62586E-01   -0.67230E-02  7476   0.172E+00    0.581E+00
DAV:  20    -0.147380790191E+03   -0.20903E-01   -0.14537E-02  6902   0.364E-01    0.594E+00
DAV:  21    -0.147389439539E+03   -0.86493E-02   -0.20678E-03  7420   0.211E-01    0.589E+00
DAV:  22    -0.147378937837E+03    0.10502E-01   -0.77789E-03  7560   0.646E-01    0.512E+00
DAV:  23    -0.147398213299E+03   -0.19275E-01   -0.23524E-01  7392   0.105E+00    0.324E+00
DAV:  24    -0.147452668693E+03   -0.54455E-01   -0.19821E-02  7140   0.799E-01    0.407E+00
DAV:  25    -0.147454401845E+03   -0.17332E-02   -0.11109E-02  6986   0.771E-01    0.438E+00
DAV:  26    -0.147456393984E+03   -0.19921E-02   -0.39332E-02  7182   0.744E-01    0.495E+00
DAV:  27    -0.147474854297E+03   -0.18460E-01   -0.53015E-03  6734   0.358E-01    0.511E+00
DAV:  28    -0.147484850731E+03   -0.99964E-02   -0.22194E-03  8246   0.336E-01    0.521E+00
DAV:  29    -0.147494158196E+03   -0.93075E-02   -0.10272E-02  7770   0.725E-01    0.526E+00
DAV:  30    -0.147500741912E+03   -0.65837E-02   -0.42468E-03  6174   0.275E-01    0.525E+00
DAV:  31    -0.147502218664E+03   -0.14768E-02   -0.48649E-04  7840   0.147E-01    0.530E+00
DAV:  32    -0.147502005457E+03    0.21321E-03   -0.36883E-04  7210   0.134E-01    0.527E+00
DAV:  33    -0.147498756969E+03    0.32485E-02   -0.12405E-02  7406   0.944E-01    0.513E+00
DAV:  34    -0.147492382285E+03    0.63747E-02   -0.73933E-03  8148   0.624E-01    0.488E+00
DAV:  35    -0.147496361404E+03   -0.39791E-02   -0.33516E-03  8344   0.462E-01    0.485E+00
DAV:  36    -0.147489313725E+03    0.70477E-02   -0.24373E-03  7504   0.297E-01    0.479E+00
DAV:  37    -0.147468157391E+03    0.21156E-01   -0.55415E-03  7294   0.581E-01    0.469E+00
DAV:  38    -0.147476191155E+03   -0.80338E-02   -0.20535E-03  6720   0.265E-01    0.455E+00
DAV:  39    -0.147482911898E+03   -0.67207E-02   -0.58091E-03  7434   0.731E-01    0.443E+00
DAV:  40    -0.147476905004E+03    0.60069E-02   -0.13959E-02  8078   0.114E+00    0.443E+00
DAV:  41    -0.147468067160E+03    0.88378E-02   -0.92149E-03  8386   0.698E-01    0.450E+00
DAV:  42    -0.147459883170E+03    0.81840E-02   -0.31376E-03  8358   0.452E-01    0.426E+00
DAV:  43    -0.147456224663E+03    0.36585E-02   -0.16445E-02  7658   0.559E-01    0.431E+00
DAV:  44    -0.147456689917E+03   -0.46525E-03   -0.10436E-01  7224   0.109E+00    0.354E+00
DAV:  45    -0.147455906906E+03    0.78301E-03   -0.36536E-03  6720   0.180E-01    0.346E+00
DAV:  46    -0.147448101646E+03    0.78053E-02   -0.65774E-03  7238   0.353E-01    0.372E+00
DAV:  47    -0.147449204386E+03   -0.11027E-02   -0.61195E-04  7826   0.195E-01    0.333E+00
DAV:  48    -0.147444038213E+03    0.51662E-02   -0.10417E-02  7560   0.370E-01    0.365E+00
DAV:  49    -0.147445254920E+03   -0.12167E-02   -0.46495E-03  7126   0.200E-01    0.344E+00
DAV:  50    -0.147430912421E+03    0.14342E-01   -0.29746E-02  7616   0.617E-01    0.244E+00
DAV:  51    -0.147435492326E+03   -0.45799E-02   -0.34197E-02  8176   0.923E-01    0.345E+00
DAV:  52    -0.147453160631E+03   -0.17668E-01   -0.99414E-03  7028   0.470E-01    0.435E+00
DAV:  53    -0.147436476284E+03    0.16684E-01   -0.93269E-03  5558   0.375E-01    0.419E+00
DAV:  54    -0.147421366635E+03    0.15110E-01   -0.12741E-03  6188   0.139E-01    0.388E+00
DAV:  55    -0.147432548709E+03   -0.11182E-01   -0.51723E-04  7504   0.186E-01    0.539E+00
DAV:  56    -0.147422521569E+03    0.10027E-01   -0.80124E-04  5964   0.951E-02    0.529E+00
DAV:  57    -0.147424310620E+03   -0.17891E-02   -0.25873E-04  7700   0.158E-01    0.625E+00
DAV:  58    -0.147406049779E+03    0.18261E-01   -0.72727E-04  7784   0.278E-01    0.427E+00
DAV:  59    -0.147409225526E+03   -0.31757E-02   -0.14881E-03  7420   0.259E-01    0.334E+00
DAV:  60    -0.147461123324E+03   -0.51898E-01   -0.13868E-02  6370   0.788E-01    0.331E+00
DAV:  61    -0.147430626736E+03    0.30497E-01   -0.69231E-03  7140   0.476E-01    0.851E-01
DAV:  62    -0.147444367290E+03   -0.13741E-01   -0.33267E-03  6566   0.284E-01    0.947E-01
DAV:  63    -0.147449948578E+03   -0.55813E-02   -0.63904E-04  7448   0.180E-01    0.907E-01
DAV:  64    -0.147449869813E+03    0.78765E-04   -0.10345E-04  6524   0.343E-02    0.909E-01
DAV:  65    -0.147449646006E+03    0.22381E-03   -0.39346E-06  6188   0.733E-03    0.905E-01
DAV:  66    -0.147449017579E+03    0.62843E-03   -0.48747E-06  6286   0.219E-02    0.891E-01
DAV:  67    -0.147441067209E+03    0.79504E-02   -0.80173E-04  7868   0.300E-01    0.753E-01
DAV:  68    -0.147451458121E+03   -0.10391E-01   -0.14039E-03  6440   0.210E-01    0.610E-01
DAV:  69    -0.147452021486E+03   -0.56336E-03   -0.24567E-04  8218   0.115E-01    0.470E-01
DAV:  70    -0.147457818228E+03   -0.57967E-02   -0.62870E-04  6454   0.158E-01    0.406E-01
DAV:  71    -0.147460937744E+03   -0.31195E-02   -0.65098E-04  6650   0.148E-01    0.387E-01
DAV:  72    -0.147461476237E+03   -0.53849E-03   -0.93289E-04  7350   0.199E-01    0.392E-01
DAV:  73    -0.147461369729E+03    0.10651E-03   -0.12366E-04  6314   0.354E-02    0.411E-01
DAV:  74    -0.147461051831E+03    0.31790E-03   -0.12296E-05  6412   0.186E-02    0.382E-01
DAV:  75    -0.147461200678E+03   -0.14885E-03   -0.41179E-06  5600   0.106E-02    0.363E-01
DAV:  76    -0.147461296430E+03   -0.95753E-04   -0.23359E-05  7602   0.367E-02    0.307E-01
DAV:  77    -0.147461554574E+03   -0.25814E-03   -0.18982E-04  7238   0.853E-02    0.362E-01
DAV:  78    -0.147459587665E+03    0.19669E-02   -0.35880E-04  6244   0.985E-02    0.355E-01
DAV:  79    -0.147458119095E+03    0.14686E-02   -0.22272E-04  7602   0.120E-01    0.356E-01
DAV:  80    -0.147458913453E+03   -0.79436E-03   -0.21503E-04  7112   0.853E-02    0.359E-01
DAV:  81    -0.147459428497E+03   -0.51504E-03   -0.13097E-04  7448   0.802E-02    0.393E-01
DAV:  82    -0.147460940781E+03   -0.15123E-02   -0.20317E-04  7462   0.109E-01    0.664E-01
DAV:  83    -0.147453836496E+03    0.71043E-02   -0.92002E-04  6468   0.157E-01    0.654E-01
DAV:  84    -0.147453832023E+03    0.44727E-05   -0.70312E-05  7434   0.380E-02    0.660E-01
DAV:  85    -0.147453995578E+03   -0.16355E-03   -0.97285E-06  5880   0.125E-02    0.659E-01
DAV:  86    -0.147453659415E+03    0.33616E-03   -0.44050E-06  6468   0.189E-02    0.656E-01
DAV:  87    -0.147453722447E+03   -0.63032E-04   -0.52955E-05  7294   0.623E-02    0.616E-01
DAV:  88    -0.147454292793E+03   -0.57035E-03   -0.50279E-05  7532   0.489E-02    0.566E-01
DAV:  89    -0.147456282609E+03   -0.19898E-02   -0.10280E-04  7602   0.691E-02    0.512E-01
DAV:  90    -0.147458445323E+03   -0.21627E-02   -0.10641E-04  7322   0.621E-02    0.520E-01
DAV:  91    -0.147460135530E+03   -0.16902E-02   -0.16269E-04  7532   0.101E-01    0.594E-01
DAV:  92    -0.147461436657E+03   -0.13011E-02   -0.24101E-04  8036   0.126E-01    0.715E-01
DAV:  93    -0.147461126071E+03    0.31059E-03   -0.13969E-04  7560   0.627E-02    0.738E-01
DAV:  94    -0.147460955999E+03    0.17007E-03   -0.35640E-05  7616   0.448E-02    0.744E-01
DAV:  95    -0.147461582740E+03   -0.62674E-03   -0.17924E-04  7532   0.990E-02    0.724E-01
DAV:  96    -0.147462119022E+03   -0.53628E-03   -0.29915E-04  7924   0.120E-01    0.677E-01
DAV:  97    -0.147440415137E+03    0.21704E-01   -0.10013E-02  6874   0.771E-01    0.605E-01
DAV:  98    -0.147459780822E+03   -0.19366E-01   -0.37404E-03  5894   0.236E-01    0.541E-01
DAV:  99    -0.147461415971E+03   -0.16351E-02   -0.20459E-04  6496   0.669E-02    0.517E-01
DAV: 100    -0.147461516767E+03   -0.10080E-03   -0.41877E-05  8008   0.486E-02    0.637E-01
DAV: 101    -0.147454581707E+03    0.69351E-02   -0.16666E-03  6748   0.297E-01    0.597E-01
DAV: 102    -0.147457272109E+03   -0.26904E-02   -0.48324E-04  6524   0.101E-01    0.496E-01
DAV: 103    -0.147458610823E+03   -0.13387E-02   -0.59254E-04  7112   0.182E-01    0.516E-01
DAV: 104    -0.147458762330E+03   -0.15151E-03   -0.28877E-04  8008   0.840E-02    0.446E-01
DAV: 105    -0.147459172798E+03   -0.41047E-03   -0.18468E-04  7868   0.974E-02    0.430E-01
DAV: 106    -0.147458946915E+03    0.22588E-03   -0.12173E-04  7602   0.557E-02    0.423E-01
DAV: 107    -0.147460382008E+03   -0.14351E-02   -0.10106E-03  6972   0.252E-01    0.437E-01
DAV: 108    -0.147460117379E+03    0.26463E-03   -0.40354E-04  5572   0.734E-02    0.439E-01
DAV: 109    -0.147459611501E+03    0.50588E-03   -0.19898E-05  6118   0.169E-02    0.440E-01
DAV: 110    -0.147459500445E+03    0.11106E-03   -0.69255E-07  4872   0.433E-03    0.438E-01
DAV: 111    -0.147459475064E+03    0.25381E-04   -0.23450E-07  3934   0.240E-03    0.439E-01
DAV: 112    -0.147459587218E+03   -0.11215E-03   -0.10363E-04  7378   0.946E-02    0.575E-01
DAV: 113    -0.147458876031E+03    0.71119E-03   -0.52034E-05  7448   0.418E-02    0.618E-01
DAV: 114    -0.147458287591E+03    0.58844E-03   -0.19360E-05  7336   0.316E-02    0.621E-01
DAV: 115    -0.147458727236E+03   -0.43965E-03   -0.13948E-05  6762   0.277E-02    0.624E-01
DAV: 116    -0.147458976421E+03   -0.24918E-03   -0.16258E-05  7574   0.273E-02    0.612E-01
DAV: 117    -0.147459655431E+03   -0.67901E-03   -0.93138E-05  7056   0.635E-02    0.560E-01
DAV: 118    -0.147459855865E+03   -0.20043E-03   -0.67408E-05  7392   0.588E-02    0.549E-01
DAV: 119    -0.147460040315E+03   -0.18445E-03   -0.54644E-05  7616   0.524E-02    0.522E-01
DAV: 120    -0.147461233499E+03   -0.11932E-02   -0.28992E-04  7322   0.125E-01
  13 F= -.15362100E+03 E0= -.15360546E+03  d E =-.935383E-01  mag=    29.3072
       N       E                     dE             d eps       ncg     rms          rms(c)
DAV:   1    -0.147190074540E+03    0.26997E+00   -0.33040E+01  5558   0.110E+01    0.548E+00
DAV:   2    -0.147814716740E+03   -0.62464E+00   -0.20947E+00  8890   0.114E+01    0.171E+01
DAV:   3    -0.147614836367E+03    0.19988E+00   -0.94032E-01  8610   0.866E+00    0.707E+00
DAV:   4    -0.147492093798E+03    0.12274E+00   -0.17724E-01  8372   0.438E+00    0.352E+00
DAV:   5    -0.147494191831E+03   -0.20980E-02   -0.42059E-02  8316   0.154E+00    0.464E+00
DAV:   6    -0.147472351622E+03    0.21840E-01   -0.11835E-02  5950   0.384E-01    0.501E+00
DAV:   7    -0.147464596422E+03    0.77552E-02   -0.18588E-01  7658   0.788E-01    0.617E+00
DAV:   8    -0.147503085465E+03   -0.38489E-01   -0.29260E-01  7420   0.889E-01    0.609E+00
DAV:   9    -0.147480093618E+03    0.22992E-01   -0.37658E-01  7994   0.232E+00    0.134E+00
DAV:  10    -0.147512050031E+03   -0.31956E-01   -0.26643E-02  7518   0.775E-01    0.134E+00
DAV:  11    -0.147518781149E+03   -0.67311E-02   -0.89870E-03  8526   0.824E-01    0.103E+00
DAV:  12    -0.147516995239E+03    0.17859E-02   -0.92144E-03  8022   0.515E-01    0.109E+00
DAV:  13    -0.147516181824E+03    0.81341E-03   -0.28145E-03  7910   0.450E-01    0.100E+00
DAV:  14    -0.147513452423E+03    0.27294E-02   -0.12913E-03  7798   0.208E-01    0.117E+00
DAV:  15    -0.147513797647E+03   -0.34522E-03   -0.10860E-03  7840   0.194E-01    0.144E+00
DAV:  16    -0.147517570441E+03   -0.37728E-02   -0.51771E-04  7476   0.133E-01    0.172E+00
DAV:  17    -0.147521002210E+03   -0.34318E-02   -0.73457E-04  7490   0.189E-01    0.176E+00
DAV:  18    -0.147522201159E+03   -0.11989E-02   -0.26211E-04  7364   0.104E-01    0.181E+00
DAV:  19    -0.147522313307E+03   -0.11215E-03   -0.87007E-05  7532   0.566E-02    0.170E+00
DAV:  20    -0.147523601511E+03   -0.12882E-02   -0.62519E-04  7322   0.183E-01    0.145E+00
DAV:  21    -0.147524209990E+03   -0.60848E-03   -0.17825E-04  7910   0.599E-02    0.128E+00
DAV:  22    -0.147525276504E+03   -0.10665E-02   -0.11069E-04  7686   0.779E-02    0.101E+00
DAV:  23    -0.147525932035E+03   -0.65553E-03   -0.78058E-05  7224   0.464E-02    0.957E-01
DAV:  24    -0.147526235518E+03   -0.30348E-03   -0.18984E-05  7700   0.275E-02    0.920E-01
DAV:  25    -0.147526910296E+03   -0.67478E-03   -0.51166E-05  7280   0.491E-02    0.858E-01
DAV:  26    -0.147527143305E+03   -0.23301E-03   -0.18106E-05  7630   0.215E-02    0.846E-01
DAV:  27    -0.147527593187E+03   -0.44988E-03   -0.26227E-05  7084   0.293E-02    0.806E-01
DAV:  28    -0.147528130859E+03   -0.53767E-03   -0.74997E-05  7784   0.425E-02    0.799E-01
DAV:  29    -0.147528869574E+03   -0.73872E-03   -0.10576E-04  7630   0.544E-02    0.731E-01
DAV:  30    -0.147529523748E+03   -0.65417E-03   -0.12274E-04  7728   0.539E-02    0.671E-01
DAV:  31    -0.147530779784E+03   -0.12560E-02   -0.56608E-04  7084   0.124E-01    0.579E-01
DAV:  32    -0.147531438610E+03   -0.65883E-03   -0.39371E-04  7784   0.853E-02    0.505E-01
DAV:  33    -0.147531451032E+03   -0.12422E-04   -0.79233E-05  6930   0.314E-02    0.506E-01
DAV:  34    -0.147531368504E+03    0.82528E-04   -0.57923E-06  5586   0.105E-02    0.505E-01
DAV:  35    -0.147531303368E+03    0.65136E-04   -0.12367E-06  4690   0.435E-03    0.506E-01
DAV:  36    -0.147531173545E+03    0.12982E-03   -0.36987E-06  5628   0.875E-03    0.489E-01
DAV:  37    -0.147531031960E+03    0.14158E-03   -0.20424E-05  7476   0.230E-02    0.488E-01
DAV:  38    -0.147530611455E+03    0.42050E-03   -0.65290E-05  7392   0.316E-02    0.494E-01
DAV:  39    -0.147530127609E+03    0.48385E-03   -0.10562E-04  7490   0.390E-02    0.509E-01
DAV:  40    -0.147530503749E+03   -0.37614E-03   -0.38908E-03  6818   0.280E-01    0.441E-01
DAV:  41    -0.147532283054E+03   -0.17793E-02   -0.67176E-04  7504   0.948E-02    0.408E-01
DAV:  42    -0.147532553397E+03   -0.27034E-03   -0.20018E-04  6398   0.555E-02    0.407E-01
DAV:  43    -0.147532341890E+03    0.21151E-03   -0.16763E-05  7182   0.184E-02    0.409E-01
DAV:  44    -0.147532723876E+03   -0.38199E-03   -0.10617E-03  6860   0.146E-01    0.390E-01
DAV:  45    -0.147533001634E+03   -0.27776E-03   -0.14095E-04  5908   0.439E-02    0.400E-01
DAV:  46    -0.147533285749E+03   -0.28411E-03   -0.12771E-04  7070   0.569E-02    0.380E-01
DAV:  47    -0.147527762127E+03    0.55236E-02   -0.73050E-03  7056   0.428E-01    0.590E-01
DAV:  48    -0.147531647390E+03   -0.38853E-02   -0.12189E-03  7378   0.127E-01    0.698E-01
DAV:  49    -0.147533355606E+03   -0.17082E-02   -0.26265E-04  5908   0.598E-02    0.699E-01
DAV:  50    -0.147533467877E+03   -0.11227E-03   -0.12837E-05  6356   0.139E-02    0.702E-01
DAV:  51    -0.147533181544E+03    0.28633E-03   -0.10313E-04  7182   0.546E-02    0.758E-01
DAV:  52    -0.147533003369E+03    0.17817E-03   -0.67651E-05  7602   0.400E-02    0.829E-01
DAV:  53    -0.147532926512E+03    0.76858E-04   -0.19161E-05  7378   0.185E-02    0.846E-01
DAV:  54    -0.147532901598E+03    0.24914E-04   -0.13186E-05  6440   0.173E-02    0.865E-01
DAV:  55    -0.147532965790E+03   -0.64193E-04   -0.56390E-06  5964   0.849E-03    0.863E-01
DAV:  56    -0.147532977831E+03   -0.12040E-04   -0.20740E-05  6930   0.181E-02    0.872E-01
DAV:  57    -0.147533232982E+03   -0.25515E-03   -0.38923E-05  6720   0.376E-02    0.823E-01
DAV:  58    -0.147533258973E+03   -0.25991E-04   -0.14182E-05  6496   0.196E-02    0.836E-01
DAV:  59    -0.147533171282E+03    0.87691E-04   -0.55162E-06  6132   0.128E-02    0.850E-01
DAV:  60    -0.147533158205E+03    0.13077E-04   -0.16036E-06  5138   0.467E-03    0.850E-01
DAV:  61    -0.147533197982E+03   -0.39777E-04   -0.15496E-06  4984   0.660E-03    0.850E-01
DAV:  62    -0.147533202019E+03   -0.40367E-05   -0.55150E-06  5670   0.112E-02    0.846E-01
DAV:  63    -0.147533056646E+03    0.14537E-03   -0.28713E-05  6566   0.298E-02    0.859E-01
DAV:  64    -0.147533131769E+03   -0.75123E-04   -0.63994E-06  6104   0.124E-02    0.850E-01
DAV:  65    -0.147533131354E+03    0.41564E-06   -0.10434E-06  4452   0.524E-03
  14 F= -.15368751E+03 E0= -.15367352E+03  d E =-.160045E+00  mag=    29.1647
       N       E                     dE             d eps       ncg     rms          rms(c)
DAV:   1    -0.147323107270E+03    0.21002E+00   -0.29881E+01  5558   0.999E+00    0.563E+00
DAV:   2    -0.148825158164E+03   -0.15021E+01   -0.25226E+00  8022   0.143E+01    0.225E+01
DAV:   3    -0.147527307481E+03    0.12979E+01   -0.14366E+00  7560   0.146E+01    0.481E+00
DAV:   4    -0.147600532913E+03   -0.73225E-01   -0.16909E-01  7700   0.203E+00    0.360E+00
DAV:   5    -0.147561356998E+03    0.39176E-01   -0.20673E-02  8414   0.153E+00    0.166E+00
DAV:   6    -0.147604915922E+03   -0.43559E-01   -0.20926E-02  8106   0.113E+00    0.516E+00
DAV:   7    -0.147594513624E+03    0.10402E-01   -0.31088E-02  8274   0.208E+00    0.382E+00
DAV:   8    -0.147591970808E+03    0.25428E-02   -0.56388E-02  7980   0.931E-01    0.157E+00
DAV:   9    -0.147595611133E+03   -0.36403E-02   -0.50515E-03  8036   0.309E-01    0.635E-01
DAV:  10    -0.147599634309E+03   -0.40232E-02   -0.17679E-03  8022   0.311E-01    0.167E+00
DAV:  11    -0.147599231448E+03    0.40286E-03   -0.29650E-03  7994   0.516E-01    0.502E-01
DAV:  12    -0.147602678752E+03   -0.34473E-02   -0.12555E-03  7504   0.169E-01    0.379E-01
DAV:  13    -0.147605434396E+03   -0.27556E-02   -0.16676E-04  8078   0.107E-01    0.206E-01
DAV:  14    -0.147608043206E+03   -0.26088E-02   -0.18233E-04  7420   0.789E-02    0.124E-01
DAV:  15    -0.147610363826E+03   -0.23206E-02   -0.74746E-05  7980   0.468E-02    0.969E-02
DAV:  16    -0.147611648247E+03   -0.12844E-02   -0.48391E-05  7938   0.338E-02    0.205E-01
DAV:  17    -0.147612575659E+03   -0.92741E-03   -0.47193E-05  7840   0.344E-02    0.244E-01
DAV:  18    -0.147613564617E+03   -0.98896E-03   -0.13145E-04  7756   0.612E-02    0.182E-01
DAV:  19    -0.147612494944E+03    0.10697E-02   -0.78255E-04  7812   0.133E-01    0.520E-02
DAV:  20    -0.147612861602E+03   -0.36666E-03   -0.24874E-04  7476   0.528E-02    0.445E-02
DAV:  21    -0.147612866313E+03   -0.47110E-05   -0.56652E-05  7182   0.301E-02    0.420E-02
DAV:  22    -0.147612884309E+03   -0.17995E-04   -0.15891E-05  6552   0.145E-02    0.474E-02
DAV:  23    -0.147612885180E+03   -0.87133E-06   -0.18768E-05  6510   0.187E-02    0.442E-02
DAV:  24    -0.147612392486E+03    0.49269E-03   -0.37590E-04  7014   0.857E-02    0.662E-02
DAV:  25    -0.147611523371E+03    0.86912E-03   -0.77373E-04  7658   0.125E-01    0.569E-02
DAV:  26    -0.147614255454E+03   -0.27321E-02   -0.27127E-04  6650   0.723E-02    0.305E-02
DAV:  27    -0.147613838220E+03    0.41723E-03   -0.16490E-04  7000   0.697E-02    0.204E-02
DAV:  28    -0.147614016134E+03   -0.17791E-03   -0.53520E-05  7616   0.301E-02    0.135E-02
DAV:  29    -0.147614092965E+03   -0.76831E-04   -0.71079E-05  7784   0.347E-02    0.236E-02
DAV:  30    -0.147614307387E+03   -0.21442E-03   -0.63480E-05  7868   0.349E-02    0.149E-02
DAV:  31    -0.147614613171E+03   -0.30578E-03   -0.24750E-05  6734   0.180E-02    0.227E-02
DAV:  32    -0.147614658860E+03   -0.45690E-04   -0.30757E-06  4942   0.683E-03    0.786E-03
DAV:  33    -0.147614683605E+03   -0.24745E-04   -0.87699E-06  6314   0.152E-02    0.100E-02
DAV:  34    -0.147614719379E+03   -0.35774E-04   -0.21511E-06  4984   0.588E-03    0.299E-03
DAV:  35    -0.147614726439E+03   -0.70600E-05   -0.18096E-07  4158   0.189E-03    0.160E-03
DAV:  36    -0.147614728195E+03   -0.17557E-05   -0.12379E-07  3752   0.132E-03    0.994E-04
DAV:  37    -0.147614732333E+03   -0.41383E-05   -0.15091E-07  4018   0.180E-03    0.143E-03
DAV:  38    -0.147614735312E+03   -0.29786E-05   -0.47922E-08  3752   0.769E-04    0.494E-04
DAV:  39    -0.147614735850E+03   -0.53890E-06   -0.16895E-07  4004   0.182E-03
  15 F= -.15377237E+03 E0= -.15375776E+03  d E =-.848637E-01  mag=    29.2762
       N       E                     dE             d eps       ncg     rms          rms(c)
DAV:   1    -0.147322459937E+03    0.29228E+00   -0.33337E+01  5544   0.107E+01    0.548E+00
DAV:   2    -0.148545601598E+03   -0.12231E+01   -0.23100E+00  8190   0.127E+01    0.220E+01
DAV:   3    -0.147605244852E+03    0.94036E+00   -0.12667E+00  7630   0.135E+01    0.471E+00
DAV:   4    -0.147674998444E+03   -0.69754E-01   -0.14319E-01  7742   0.195E+00    0.347E+00
DAV:   5    -0.147628857580E+03    0.46141E-01   -0.18980E-02  8386   0.148E+00    0.274E+00
DAV:   6    -0.147642902238E+03   -0.14045E-01   -0.19455E-02  8400   0.149E+00    0.610E+00
DAV:   7    -0.147617246865E+03    0.25655E-01   -0.26426E-02  8162   0.169E+00    0.200E+00
DAV:   8    -0.147630719321E+03   -0.13472E-01   -0.75724E-03  8036   0.497E-01    0.479E-01
DAV:   9    -0.147655942587E+03   -0.25223E-01   -0.18999E-02  8120   0.521E-01    0.452E+00
DAV:  10    -0.147637397912E+03    0.18545E-01   -0.35359E-03  7560   0.439E-01    0.352E+00
DAV:  11    -0.147632460740E+03    0.49372E-02   -0.14624E-03  9156   0.395E-01    0.972E-01
DAV:  12    -0.147645832639E+03   -0.13372E-01   -0.16792E-03  7266   0.248E-01    0.344E-01
DAV:  13    -0.147650605651E+03   -0.47730E-02   -0.75163E-04  7042   0.147E-01    0.583E-01
DAV:  14    -0.147652242399E+03   -0.16367E-02   -0.54086E-04  7210   0.979E-02    0.609E-01
DAV:  15    -0.147652724679E+03   -0.48228E-03   -0.98985E-05  8148   0.101E-01    0.212E-01
DAV:  16    -0.147654446919E+03   -0.17222E-02   -0.80827E-05  7756   0.608E-02    0.372E-02
DAV:  17    -0.147655975913E+03   -0.15290E-02   -0.47502E-05  7126   0.268E-02    0.167E-02
DAV:  18    -0.147656606431E+03   -0.63052E-03   -0.63900E-06  6468   0.110E-02    0.408E-02
DAV:  19    -0.147657264634E+03   -0.65820E-03   -0.66799E-06  6818   0.109E-02    0.849E-03
DAV:  20    -0.147657980253E+03   -0.71562E-03   -0.92702E-06  6174   0.685E-03    0.487E-03
DAV:  21    -0.147658328113E+03   -0.34786E-03   -0.33279E-06  5628   0.556E-03    0.173E-02
DAV:  22    -0.147658718176E+03   -0.39006E-03   -0.81975E-06  6174   0.590E-03    0.111E-02
DAV:  23    -0.147658895701E+03   -0.17752E-03   -0.40343E-06  5698   0.383E-03    0.468E-03
DAV:  24    -0.147658931610E+03   -0.35909E-04   -0.65042E-07  4620   0.226E-03    0.484E-03
DAV:  25    -0.147658936716E+03   -0.51057E-05   -0.20693E-07  3976   0.161E-03    0.410E-03
DAV:  26    -0.147658942301E+03   -0.55858E-05   -0.23139E-07  4116   0.150E-03    0.350E-03
DAV:  27    -0.147658943146E+03   -0.84471E-06   -0.83434E-07  4634   0.341E-03
  16 F= -.15381971E+03 E0= -.15380599E+03  d E =-.132202E+00  mag=    29.3727
       N       E                     dE             d eps       ncg     rms          rms(c)
DAV:   1    -0.145169273115E+03    0.24897E+01   -0.14278E+02  5544   0.228E+01    0.110E+01
DAV:   2    -0.148961700410E+03   -0.37924E+01   -0.77777E+00  7798   0.197E+01    0.247E+01
DAV:   3    -0.147468956095E+03    0.14927E+01   -0.40928E+00  7770   0.245E+01    0.779E+00
DAV:   4    -0.147582083350E+03   -0.11313E+00   -0.59462E-01  7756   0.403E+00    0.479E+00
DAV:   5    -0.147546345358E+03    0.35738E-01   -0.99936E-02  8330   0.319E+00    0.409E+00
DAV:   6    -0.147586285995E+03   -0.39941E-01   -0.39988E-02  8232   0.121E+00    0.384E+00
DAV:   7    -0.147558106693E+03    0.28179E-01   -0.24439E-02  8036   0.143E+00    0.359E+00
DAV:   8    -0.147559948640E+03   -0.18419E-02   -0.10446E-02  7980   0.528E-01    0.336E+00
DAV:   9    -0.147555975584E+03    0.39731E-02   -0.29083E-02  8176   0.165E+00    0.233E+00
DAV:  10    -0.147600941759E+03   -0.44966E-01   -0.42121E-02  8302   0.168E+00    0.724E+00
DAV:  11    -0.147567441092E+03    0.33501E-01   -0.22779E-02  7910   0.120E+00    0.467E+00
DAV:  12    -0.147568812610E+03   -0.13715E-02   -0.86810E-03  7952   0.415E-01    0.303E+00
DAV:  13    -0.147583982252E+03   -0.15170E-01   -0.77280E-03  7896   0.496E-01    0.108E+00
DAV:  14    -0.147599217054E+03   -0.15235E-01   -0.27829E-03  7714   0.326E-01    0.293E-01
DAV:  15    -0.147609484676E+03   -0.10268E-01   -0.12871E-03  8176   0.256E-01    0.865E-01
DAV:  16    -0.147615381372E+03   -0.58967E-02   -0.61072E-04  7602   0.149E-01    0.761E-01
DAV:  17    -0.147622122745E+03   -0.67414E-02   -0.40471E-04  8302   0.173E-01    0.375E-01
DAV:  18    -0.147624498062E+03   -0.23753E-02   -0.19738E-04  7616   0.889E-02    0.116E-01
DAV:  19    -0.147624851191E+03   -0.35313E-03   -0.40829E-05  6510   0.274E-02    0.112E-01
DAV:  20    -0.147625819789E+03   -0.96860E-03   -0.16971E-05  7504   0.242E-02    0.832E-02
DAV:  21    -0.147627400201E+03   -0.15804E-02   -0.41256E-05  7672   0.376E-02    0.694E-02
DAV:  22    -0.147628126963E+03   -0.72676E-03   -0.14418E-05  7546   0.166E-02    0.682E-02
DAV:  23    -0.147629669996E+03   -0.15430E-02   -0.93458E-05  7770   0.448E-02    0.713E-02
DAV:  24    -0.147631874501E+03   -0.22045E-02   -0.75203E-04  7952   0.139E-01    0.789E-02
DAV:  25    -0.147633668733E+03   -0.17942E-02   -0.12451E-03  8106   0.160E-01    0.857E-02
DAV:  26    -0.147635595383E+03   -0.19266E-02   -0.37001E-04  7588   0.748E-02    0.636E-02
DAV:  27    -0.147636224520E+03   -0.62914E-03   -0.87090E-05  6972   0.398E-02    0.627E-02
DAV:  28    -0.147636076050E+03    0.14847E-03   -0.16205E-04  6832   0.582E-02    0.564E-02
DAV:  29    -0.147635214070E+03    0.86198E-03   -0.37819E-04  7616   0.949E-02    0.561E-02
DAV:  30    -0.147634476318E+03    0.73775E-03   -0.46194E-04  7938   0.100E-01    0.651E-02
DAV:  31    -0.147635422020E+03   -0.94570E-03   -0.12578E-03  6972   0.183E-01    0.617E-02
DAV:  32    -0.147635219004E+03    0.20302E-03   -0.72369E-04  8050   0.134E-01    0.976E-02
DAV:  33    -0.147631995514E+03    0.32235E-02   -0.40226E-03  7658   0.286E-01    0.167E-01
DAV:  34    -0.147636521037E+03   -0.45255E-02   -0.78938E-04  6034   0.108E-01    0.127E-01
DAV:  35    -0.147636513463E+03    0.75742E-05   -0.15438E-04  7784   0.551E-02    0.156E-01
DAV:  36    -0.147636572697E+03   -0.59235E-04   -0.47140E-05  6678   0.307E-02    0.112E-01
DAV:  37    -0.147636650161E+03   -0.77464E-04   -0.15506E-05  6972   0.222E-02    0.754E-02
DAV:  38    -0.147636547146E+03    0.10302E-03   -0.71827E-05  7196   0.345E-02    0.557E-02
DAV:  39    -0.147636752677E+03   -0.20553E-03   -0.26460E-05  6734   0.277E-02    0.485E-02
DAV:  40    -0.147636793077E+03   -0.40400E-04   -0.31565E-05  7546   0.292E-02    0.458E-02
DAV:  41    -0.147636753561E+03    0.39516E-04   -0.80810E-05  7448   0.431E-02    0.459E-02
DAV:  42    -0.147636850152E+03   -0.96591E-04   -0.42840E-05  7560   0.314E-02    0.503E-02
DAV:  43    -0.147636778842E+03    0.71310E-04   -0.13692E-04  7546   0.505E-02    0.530E-02
DAV:  44    -0.147636990301E+03   -0.21146E-03   -0.37462E-05  7182   0.230E-02    0.536E-02
DAV:  45    -0.147636987037E+03    0.32642E-05   -0.16037E-05  6370   0.172E-02    0.545E-02
DAV:  46    -0.147636974394E+03    0.12643E-04   -0.15743E-06  4984   0.558E-03    0.553E-02
DAV:  47    -0.147637016400E+03   -0.42006E-04   -0.20095E-05  6216   0.206E-02    0.539E-02
DAV:  48    -0.147636992350E+03    0.24050E-04   -0.37353E-06  5376   0.880E-03    0.541E-02
DAV:  49    -0.147637002084E+03   -0.97342E-05   -0.88096E-05  7168   0.445E-02    0.511E-02
DAV:  50    -0.147636899401E+03    0.10268E-03   -0.17473E-04  7686   0.583E-02    0.505E-02
DAV:  51    -0.147636879462E+03    0.19938E-04   -0.24147E-04  7980   0.636E-02    0.511E-02
DAV:  52    -0.147636894507E+03   -0.15044E-04   -0.35125E-04  6832   0.862E-02    0.519E-02
DAV:  53    -0.147637015551E+03   -0.12104E-03   -0.21120E-05  7504   0.177E-02    0.500E-02
DAV:  54    -0.147637104982E+03   -0.89431E-04   -0.80795E-06  5838   0.113E-02    0.492E-02
DAV:  55    -0.147637100626E+03    0.43565E-05   -0.25969E-07  4158   0.263E-03    0.493E-02
DAV:  56    -0.147637153083E+03   -0.52457E-04   -0.26286E-05  6874   0.233E-02    0.493E-02
DAV:  57    -0.147637167009E+03   -0.13927E-04   -0.30486E-05  7658   0.224E-02    0.491E-02
DAV:  58    -0.147637182385E+03   -0.15376E-04   -0.14357E-05  6454   0.134E-02    0.503E-02
DAV:  59    -0.147637181698E+03    0.68724E-06   -0.26413E-06  5418   0.698E-03
  17 F= -.15380325E+03 E0= -.15379202E+03  d E =-.115746E+00  mag=    29.5572
       N       E                     dE             d eps       ncg     rms          rms(c)
DAV:   1    -0.147120561234E+03    0.51662E+00   -0.50613E+01  5544   0.135E+01    0.660E+00
DAV:   2    -0.147769371123E+03   -0.64881E+00   -0.24601E+00  8988   0.114E+01    0.979E+00
DAV:   3    -0.147715807530E+03    0.53564E-01   -0.11715E+00  8792   0.994E+00    0.842E+00
DAV:   4    -0.147645388918E+03    0.70419E-01   -0.26137E-01  8148   0.636E+00    0.543E+00
DAV:   5    -0.147654121034E+03   -0.87321E-02   -0.57780E-02  7938   0.155E+00    0.477E+00
DAV:   6    -0.147624792440E+03    0.29329E-01   -0.26079E-01  8960   0.180E+00    0.383E+00
DAV:   7    -0.147637994511E+03   -0.13202E-01   -0.18598E-01  8204   0.862E-01    0.364E+00
DAV:   8    -0.147636348264E+03    0.16462E-02   -0.14159E-02  7980   0.525E-01    0.333E+00
DAV:   9    -0.147632427623E+03    0.39206E-02   -0.77771E-03  8134   0.678E-01    0.306E+00
DAV:  10    -0.147632767033E+03   -0.33941E-03   -0.83723E-03  7952   0.732E-01    0.275E+00
DAV:  11    -0.147633133393E+03   -0.36636E-03   -0.92552E-03  8414   0.796E-01    0.123E+00
DAV:  12    -0.147650255923E+03   -0.17123E-01   -0.10607E-02  7952   0.772E-01    0.279E+00
DAV:  13    -0.147639503695E+03    0.10752E-01   -0.11642E-02  8176   0.931E-01    0.102E+00
DAV:  14    -0.147649719080E+03   -0.10215E-01   -0.43293E-03  8022   0.625E-01    0.122E+00
DAV:  15    -0.147651421001E+03   -0.17019E-02   -0.15226E-03  7742   0.340E-01    0.437E-01
DAV:  16    -0.147655257815E+03   -0.38368E-02   -0.55016E-04  8134   0.147E-01    0.821E-02
DAV:  17    -0.147658328885E+03   -0.30711E-02   -0.21424E-04  7056   0.931E-02    0.280E-01
DAV:  18    -0.147661573047E+03   -0.32442E-02   -0.10462E-04  7854   0.438E-02    0.206E-01
DAV:  19    -0.147662963461E+03   -0.13904E-02   -0.23432E-05  7868   0.221E-02    0.142E-01
DAV:  20    -0.147663945932E+03   -0.98247E-03   -0.14448E-05  7434   0.130E-02    0.143E-01
DAV:  21    -0.147665280918E+03   -0.13350E-02   -0.21541E-05  7462   0.149E-02    0.137E-01
DAV:  22    -0.147666458234E+03   -0.11773E-02   -0.34375E-05  7378   0.205E-02    0.124E-01
DAV:  23    -0.147667205056E+03   -0.74682E-03   -0.32369E-05  7826   0.201E-02    0.133E-01
DAV:  24    -0.147667607212E+03   -0.40216E-03   -0.29723E-05  7714   0.212E-02    0.134E-01
DAV:  25    -0.147667802691E+03   -0.19548E-03   -0.14831E-05  6958   0.144E-02    0.136E-01
DAV:  26    -0.147667830561E+03   -0.27870E-04   -0.41800E-06  5502   0.735E-03    0.137E-01
DAV:  27    -0.147667837561E+03   -0.69999E-05   -0.23610E-07  3906   0.299E-03    0.133E-01
DAV:  28    -0.147667911968E+03   -0.74407E-04   -0.80711E-06  7070   0.182E-02    0.101E-01
DAV:  29    -0.147668028305E+03   -0.11634E-03   -0.37075E-05  7742   0.396E-02    0.529E-02
DAV:  30    -0.147668052276E+03   -0.23972E-04   -0.21942E-05  7406   0.225E-02    0.298E-02
DAV:  31    -0.147668014802E+03    0.37474E-04   -0.90154E-06  6062   0.135E-02    0.313E-02
DAV:  32    -0.147668042175E+03   -0.27373E-04   -0.17744E-06  4970   0.466E-03    0.307E-02
DAV:  33    -0.147668045479E+03   -0.33040E-05   -0.37940E-07  3892   0.239E-03    0.297E-02
DAV:  34    -0.147668014393E+03    0.31087E-04   -0.47705E-06  5418   0.916E-03    0.300E-02
DAV:  35    -0.147668051688E+03   -0.37295E-04   -0.26130E-06  4970   0.703E-03    0.300E-02
DAV:  36    -0.147668044840E+03    0.68485E-05   -0.25096E-07  3878   0.233E-03    0.301E-02
DAV:  37    -0.147668034855E+03    0.99844E-05   -0.98002E-07  4354   0.400E-03    0.288E-02
DAV:  38    -0.147668023516E+03    0.11339E-04   -0.33024E-06  5194   0.757E-03    0.292E-02
DAV:  39    -0.147668013410E+03    0.10106E-04   -0.37642E-06  5334   0.752E-03    0.294E-02
DAV:  40    -0.147668052168E+03   -0.38758E-04   -0.32824E-06  5502   0.817E-03    0.289E-02
DAV:  41    -0.147668049100E+03    0.30677E-05   -0.17043E-07  3822   0.161E-03    0.281E-02
DAV:  42    -0.147668065091E+03   -0.15991E-04   -0.11646E-05  6272   0.158E-02    0.259E-02
DAV:  43    -0.147667549934E+03    0.51516E-03   -0.55511E-04  7084   0.104E-01    0.340E-02
DAV:  44    -0.147668123238E+03   -0.57330E-03   -0.87631E-05  5992   0.315E-02    0.252E-02
DAV:  45    -0.147668075866E+03    0.47373E-04   -0.48869E-05  6846   0.312E-02    0.252E-02
DAV:  46    -0.147668150450E+03   -0.74585E-04   -0.10908E-05  6160   0.139E-02    0.239E-02
DAV:  47    -0.147668153119E+03   -0.26688E-05   -0.11115E-06  4690   0.501E-03    0.251E-02
DAV:  48    -0.147668095189E+03    0.57930E-04   -0.13267E-05  6146   0.162E-02    0.258E-02
DAV:  49    -0.147667992721E+03    0.10247E-03   -0.45802E-05  7294   0.288E-02    0.257E-02
DAV:  50    -0.147667949969E+03    0.42752E-04   -0.46786E-05  7714   0.276E-02    0.247E-02
DAV:  51    -0.147667974361E+03   -0.24392E-04   -0.24893E-05  7266   0.194E-02    0.234E-02
DAV:  52    -0.147667872800E+03    0.10156E-03   -0.67520E-05  7462   0.346E-02    0.253E-02
DAV:  53    -0.147667994420E+03   -0.12162E-03   -0.16523E-05  6930   0.148E-02    0.211E-02
DAV:  54    -0.147668020929E+03   -0.26509E-04   -0.31839E-06  5054   0.780E-03    0.207E-02
DAV:  55    -0.147668056044E+03   -0.35115E-04   -0.21538E-06  4858   0.591E-03    0.199E-02
DAV:  56    -0.147668072406E+03   -0.16362E-04   -0.32761E-06  5138   0.810E-03    0.197E-02
DAV:  57    -0.147668075150E+03   -0.27439E-05   -0.43243E-06  5306   0.874E-03    0.201E-02
DAV:  58    -0.147668066391E+03    0.87592E-05   -0.16944E-06  4746   0.571E-03    0.203E-02
DAV:  59    -0.147668064034E+03    0.23571E-05   -0.34585E-05  6818   0.265E-02    0.203E-02
DAV:  60    -0.147668080073E+03   -0.16039E-04   -0.79633E-06  5810   0.113E-02    0.204E-02
DAV:  61    -0.147668073516E+03    0.65564E-05   -0.32913E-07  4018   0.248E-03    0.204E-02
DAV:  62    -0.147668059323E+03    0.14193E-04   -0.52969E-05  6790   0.324E-02    0.210E-02
DAV:  63    -0.147667881521E+03    0.17780E-03   -0.16534E-04  6622   0.590E-02    0.247E-02
DAV:  64    -0.147667714350E+03    0.16717E-03   -0.12277E-04  7518   0.472E-02    0.282E-02
DAV:  65    -0.147668058717E+03   -0.34437E-03   -0.78498E-05  6650   0.385E-02    0.197E-02
DAV:  66    -0.147668048851E+03    0.98655E-05   -0.16492E-06  4620   0.546E-03    0.208E-02
DAV:  67    -0.147667990060E+03    0.58791E-04   -0.13403E-05  6328   0.164E-02    0.225E-02
DAV:  68    -0.147668037840E+03   -0.47780E-04   -0.29755E-06  5054   0.621E-03    0.215E-02
DAV:  69    -0.147668040204E+03   -0.23639E-05   -0.99609E-08  3920   0.147E-03    0.216E-02
DAV:  70    -0.147668028604E+03    0.11600E-04   -0.95898E-07  4298   0.441E-03    0.214E-02
DAV:  71    -0.147668055866E+03   -0.27262E-04   -0.61686E-06  5432   0.119E-02    0.211E-02
DAV:  72    -0.147667808502E+03    0.24736E-03   -0.19999E-04  6972   0.628E-02    0.273E-02
DAV:  73    -0.147668074124E+03   -0.26562E-03   -0.35014E-05  6664   0.202E-02    0.240E-02
DAV:  74    -0.147668035032E+03    0.39091E-04   -0.51732E-05  7322   0.308E-02    0.260E-02
DAV:  75    -0.147668069408E+03   -0.34376E-04   -0.36967E-05  7504   0.237E-02    0.274E-02
DAV:  76    -0.147668010853E+03    0.58555E-04   -0.82007E-05  6678   0.409E-02    0.267E-02
DAV:  77    -0.147667868780E+03    0.14207E-03   -0.88467E-05  7350   0.395E-02    0.286E-02
DAV:  78    -0.147667895076E+03   -0.26297E-04   -0.44333E-05  7574   0.258E-02    0.271E-02
DAV:  79    -0.147667917563E+03   -0.22487E-04   -0.25024E-05  7140   0.202E-02    0.262E-02
DAV:  80    -0.147667924074E+03   -0.65108E-05   -0.18890E-05  6678   0.178E-02    0.263E-02
DAV:  81    -0.147667959065E+03   -0.34991E-04   -0.14836E-04  6734   0.569E-02    0.242E-02
DAV:  82    -0.147668067758E+03   -0.10869E-03   -0.15700E-05  5684   0.141E-02    0.220E-02
DAV:  83    -0.147667723617E+03    0.34414E-03   -0.32490E-04  6958   0.803E-02    0.317E-02
DAV:  84    -0.147667907738E+03   -0.18412E-03   -0.10512E-04  7714   0.391E-02    0.319E-02
DAV:  85    -0.147668136891E+03   -0.22915E-03   -0.31894E-05  5740   0.200E-02    0.287E-02
DAV:  86    -0.147668125004E+03    0.11886E-04   -0.14250E-06  4662   0.447E-03    0.287E-02
DAV:  87    -0.147660006322E+03    0.81187E-02   -0.11342E-02  7084   0.454E-01    0.272E-01
DAV:  88    -0.147667816464E+03   -0.78101E-02   -0.13155E-03  5866   0.126E-01    0.190E-01
DAV:  89    -0.147667900102E+03   -0.83638E-04   -0.28300E-04  8624   0.640E-02    0.242E-01
DAV:  90    -0.147667959690E+03   -0.59588E-04   -0.17620E-04  7728   0.475E-02    0.280E-01
DAV:  91    -0.147667969211E+03   -0.95217E-05   -0.68340E-05  6384   0.337E-02    0.268E-01
DAV:  92    -0.147667488919E+03    0.48029E-03   -0.27376E-04  7210   0.661E-02    0.219E-01
DAV:  93    -0.147668071379E+03   -0.58246E-03   -0.16471E-04  6482   0.560E-02    0.231E-01
DAV:  94    -0.147667859573E+03    0.21181E-03   -0.10722E-04  6706   0.436E-02    0.199E-01
DAV:  95    -0.147666855383E+03    0.10042E-02   -0.86060E-04  7140   0.113E-01    0.130E-01
DAV:  96    -0.147667576627E+03   -0.72124E-03   -0.20977E-04  7126   0.507E-02    0.902E-02
DAV:  97    -0.147667345752E+03    0.23088E-03   -0.29024E-04  7630   0.645E-02    0.717E-02
DAV:  98    -0.147666115983E+03    0.12298E-02   -0.13453E-03  7448   0.142E-01    0.579E-02
DAV:  99    -0.147667108719E+03   -0.99274E-03   -0.37189E-04  7098   0.703E-02    0.378E-02
DAV: 100    -0.147667594040E+03   -0.48532E-03   -0.14829E-04  7056   0.477E-02    0.306E-02
DAV: 101    -0.147667381051E+03    0.21299E-03   -0.24548E-04  7882   0.618E-02    0.324E-02
DAV: 102    -0.147668051965E+03   -0.67091E-03   -0.27714E-04  6804   0.763E-02    0.220E-02
DAV: 103    -0.147667614297E+03    0.43767E-03   -0.38008E-04  6860   0.891E-02    0.294E-02
DAV: 104    -0.147667878798E+03   -0.26450E-03   -0.60792E-05  7420   0.302E-02    0.246E-02
DAV: 105    -0.147667979463E+03   -0.10066E-03   -0.14804E-05  6636   0.151E-02    0.219E-02
DAV: 106    -0.147667989335E+03   -0.98722E-05   -0.66977E-06  5642   0.110E-02    0.221E-02
DAV: 107    -0.147667958117E+03    0.31218E-04   -0.15979E-05  6958   0.165E-02    0.232E-02
DAV: 108    -0.147668036319E+03   -0.78202E-04   -0.95826E-06  5978   0.126E-02    0.212E-02
DAV: 109    -0.147668035486E+03    0.83292E-06   -0.17366E-07  4046   0.147E-03
  18 F= -.15383101E+03 E0= -.15381808E+03  d E =-.143500E+00  mag=    29.4394
       N       E                     dE             d eps       ncg     rms          rms(c)
DAV:   1    -0.147364537229E+03    0.30350E+00   -0.36602E+01  5558   0.113E+01    0.523E+00
DAV:   2    -0.148312870722E+03   -0.94833E+00   -0.18899E+00  8260   0.962E+00    0.212E+01
DAV:   3    -0.147701131378E+03    0.61174E+00   -0.93288E-01  7882   0.114E+01    0.454E+00
DAV:   4    -0.147793687842E+03   -0.92556E-01   -0.11536E-01  7686   0.181E+00    0.322E+00
DAV:   5    -0.147767301975E+03    0.26386E-01   -0.15095E-02  8442   0.125E+00    0.283E+00
DAV:   6    -0.147741298310E+03    0.26004E-01   -0.20857E-02  8400   0.147E+00    0.181E+00
DAV:   7    -0.147738434113E+03    0.28642E-02   -0.15636E-02  8484   0.855E-01    0.179E+00
DAV:   8    -0.147744424878E+03   -0.59908E-02   -0.75691E-03  8302   0.718E-01    0.795E-01
DAV:   9    -0.147746322502E+03   -0.18976E-02   -0.10652E-03  7364   0.157E-01    0.138E+00
DAV:  10    -0.147732886149E+03    0.13436E-01   -0.32654E-03  7742   0.603E-01    0.227E+00
DAV:  11    -0.147733135021E+03   -0.24887E-03   -0.47393E-04  7812   0.178E-01    0.187E+00
DAV:  12    -0.147725527252E+03    0.76078E-02   -0.17087E-03  7952   0.393E-01    0.311E+00
DAV:  13    -0.147745453334E+03   -0.19926E-01   -0.30297E-03  7168   0.349E-01    0.310E+00
DAV:  14    -0.147723478934E+03    0.21974E-01   -0.10408E-02  7574   0.899E-01    0.103E+00
DAV:  15    -0.147749079202E+03   -0.25600E-01   -0.54454E-03  6762   0.296E-01    0.318E-01
DAV:  16    -0.147751973581E+03   -0.28944E-02   -0.99069E-04  6860   0.169E-01    0.326E-01
DAV:  17    -0.147751812750E+03    0.16083E-03   -0.18696E-04  7630   0.811E-02    0.576E-01
DAV:  18    -0.147751523199E+03    0.28955E-03   -0.15695E-04  7784   0.758E-02    0.671E-01
DAV:  19    -0.147748661235E+03    0.28620E-02   -0.97744E-04  7546   0.181E-01    0.870E-01
DAV:  20    -0.147744017251E+03    0.46440E-02   -0.18400E-03  7910   0.280E-01    0.519E-01
DAV:  21    -0.147749609829E+03   -0.55926E-02   -0.98060E-04  6118   0.120E-01    0.401E-01
DAV:  22    -0.147749760987E+03   -0.15116E-03   -0.10998E-04  6342   0.507E-02    0.324E-01
DAV:  23    -0.147749002040E+03    0.75895E-03   -0.10922E-04  6034   0.416E-02    0.343E-01
DAV:  24    -0.147749894886E+03   -0.89285E-03   -0.37053E-05  7630   0.417E-02    0.356E-01
DAV:  25    -0.147746776541E+03    0.31183E-02   -0.28948E-04  6748   0.984E-02    0.496E-01
DAV:  26    -0.147747719051E+03   -0.94251E-03   -0.14697E-04  7266   0.771E-02    0.493E-01
DAV:  27    -0.147748208775E+03   -0.48972E-03   -0.13675E-04  7210   0.520E-02    0.549E-01
DAV:  28    -0.147747671780E+03    0.53700E-03   -0.39718E-04  7350   0.770E-02    0.666E-01
DAV:  29    -0.147746094562E+03    0.15772E-02   -0.11536E-03  7854   0.174E-01    0.391E-01
DAV:  30    -0.147745645041E+03    0.44952E-03   -0.34023E-04  7322   0.968E-02    0.369E-01
DAV:  31    -0.147742947587E+03    0.26975E-02   -0.24924E-04  7028   0.115E-01    0.605E-01
DAV:  32    -0.147739115098E+03    0.38325E-02   -0.78397E-04  7714   0.215E-01    0.754E-01
DAV:  33    -0.147745561541E+03   -0.64464E-02   -0.14765E-03  6580   0.175E-01    0.692E-01
DAV:  34    -0.147737755103E+03    0.78064E-02   -0.17321E-02  7098   0.550E-01    0.268E-01
DAV:  35    -0.147740847739E+03   -0.30926E-02   -0.37154E-03  8204   0.399E-01    0.226E-01
DAV:  36    -0.147749510481E+03   -0.86627E-02   -0.22958E-03  6496   0.199E-01    0.178E-01
DAV:  37    -0.147749266622E+03    0.24386E-03   -0.97059E-05  7196   0.479E-02    0.237E-01
DAV:  38    -0.147748841047E+03    0.42558E-03   -0.24501E-05  7308   0.286E-02    0.239E-01
DAV:  39    -0.147748910429E+03   -0.69382E-04   -0.83772E-06  6370   0.139E-02    0.237E-01
DAV:  40    -0.147749695686E+03   -0.78526E-03   -0.19759E-04  6958   0.100E-01    0.235E-01
DAV:  41    -0.147749909777E+03   -0.21409E-03   -0.16958E-04  8106   0.916E-02    0.264E-01
DAV:  42    -0.147749826423E+03    0.83354E-04   -0.26986E-04  7980   0.124E-01    0.264E-01
DAV:  43    -0.147749935964E+03   -0.10954E-03   -0.18656E-04  7910   0.864E-02    0.211E-01
DAV:  44    -0.147750152251E+03   -0.21629E-03   -0.27120E-04  7308   0.129E-01    0.186E-01
DAV:  45    -0.147750886126E+03   -0.73387E-03   -0.14767E-04  7308   0.573E-02    0.223E-01
DAV:  46    -0.147749638711E+03    0.12474E-02   -0.77760E-04  7378   0.212E-01    0.128E-01
DAV:  47    -0.147751396617E+03   -0.17579E-02   -0.37678E-04  7476   0.824E-02    0.168E-01
DAV:  48    -0.147751381733E+03    0.14884E-04   -0.64441E-04  7574   0.106E-01    0.113E-01
DAV:  49    -0.147751332774E+03    0.48959E-04   -0.92344E-04  7742   0.116E-01    0.876E-02
DAV:  50    -0.147752385501E+03   -0.10527E-02   -0.18761E-04  5978   0.520E-02    0.950E-02
DAV:  51    -0.147752291765E+03    0.93736E-04   -0.12522E-05  5782   0.134E-02    0.976E-02
DAV:  52    -0.147752295804E+03   -0.40391E-05   -0.52797E-05  6734   0.244E-02    0.130E-01
DAV:  53    -0.147752223112E+03    0.72692E-04   -0.11222E-05  6188   0.132E-02    0.126E-01
DAV:  54    -0.147752238393E+03   -0.15281E-04   -0.11955E-04  7462   0.289E-02    0.111E-01
DAV:  55    -0.147752141370E+03    0.97023E-04   -0.16224E-04  7070   0.795E-02    0.138E-01
DAV:  56    -0.147752293742E+03   -0.15237E-03   -0.70247E-05  7672   0.436E-02    0.114E-01
DAV:  57    -0.147750876072E+03    0.14177E-02   -0.17569E-03  6902   0.156E-01    0.129E-01
DAV:  58    -0.147752399515E+03   -0.15234E-02   -0.37874E-04  7140   0.713E-02    0.109E-01
DAV:  59    -0.147752525687E+03   -0.12617E-03   -0.15871E-04  7266   0.481E-02    0.108E-01
DAV:  60    -0.147751902489E+03    0.62320E-03   -0.80981E-04  7238   0.110E-01    0.109E-01
DAV:  61    -0.147752248002E+03   -0.34551E-03   -0.56234E-04  7686   0.762E-02    0.102E-01
DAV:  62    -0.147752715953E+03   -0.46795E-03   -0.12601E-04  7224   0.417E-02    0.690E-02
DAV:  63    -0.147752907334E+03   -0.19138E-03   -0.35850E-05  6748   0.215E-02    0.621E-02
DAV:  64    -0.147752761147E+03    0.14619E-03   -0.31984E-04  6692   0.537E-02    0.500E-02
DAV:  65    -0.147752983179E+03   -0.22203E-03   -0.44289E-05  6846   0.316E-02    0.193E-02
DAV:  66    -0.147752820389E+03    0.16279E-03   -0.20970E-04  6580   0.535E-02    0.331E-02
DAV:  67    -0.147753004677E+03   -0.18429E-03   -0.53871E-05  6608   0.377E-02    0.145E-02
DAV:  68    -0.147753048018E+03   -0.43341E-04   -0.99781E-06  5754   0.124E-02    0.799E-03
DAV:  69    -0.147753048774E+03   -0.75586E-06   -0.42095E-07  4522   0.299E-03
  19 F= -.15391848E+03 E0= -.15390632E+03  d E =-.874762E-01  mag=    29.5792
       N       E                     dE             d eps       ncg     rms          rms(c)
DAV:   1    -0.142478451363E+03    0.52746E+01   -0.24055E+02  5544   0.304E+01    0.123E+01
DAV:   2    -0.148749842389E+03   -0.62714E+01   -0.11278E+01  7910   0.191E+01    0.246E+01
DAV:   3    -0.147782001243E+03    0.96784E+00   -0.51680E+00  8078   0.265E+01    0.166E+01
DAV:   4    -0.147599354467E+03    0.18265E+00   -0.95147E-01  8526   0.957E+00    0.632E+00
DAV:   5    -0.147677910905E+03   -0.78556E-01   -0.24934E-01  8498   0.440E+00    0.364E+00
DAV:   6    -0.147771000064E+03   -0.93089E-01   -0.95488E-02  8652   0.253E+00    0.262E+00
DAV:   7    -0.147804537848E+03   -0.33538E-01   -0.35190E-02  8414   0.139E+00    0.299E+00
DAV:   8    -0.147793350829E+03    0.11187E-01   -0.14020E-02  8134   0.119E+00    0.251E+00
DAV:   9    -0.147836151148E+03   -0.42800E-01   -0.46968E-02  8162   0.237E+00    0.831E+00
DAV:  10    -0.147764749352E+03    0.71402E-01   -0.42097E-02  7882   0.213E+00    0.222E+00
DAV:  11    -0.147809776019E+03   -0.45027E-01   -0.23484E-02  7658   0.917E-01    0.280E+00
DAV:  12    -0.147816378738E+03   -0.66027E-02   -0.63615E-03  8582   0.437E-01    0.323E+00
DAV:  13    -0.147810395709E+03    0.59830E-02   -0.27589E-03  8694   0.602E-01    0.139E+00
DAV:  14    -0.147823051161E+03   -0.12655E-01   -0.29272E-03  7392   0.369E-01    0.546E-01
DAV:  15    -0.147830150879E+03   -0.70997E-02   -0.11755E-03  7420   0.252E-01    0.840E-01
DAV:  16    -0.147830220950E+03   -0.70071E-04   -0.46388E-04  8190   0.220E-01    0.221E-01
DAV:  17    -0.147832793995E+03   -0.25730E-02   -0.60324E-04  7406   0.183E-01    0.236E-01
DAV:  18    -0.147834522085E+03   -0.17281E-02   -0.30122E-04  7728   0.113E-01    0.274E-01
DAV:  19    -0.147836151809E+03   -0.16297E-02   -0.12945E-04  8344   0.770E-02    0.271E-01
DAV:  20    -0.147836921664E+03   -0.76985E-03   -0.45208E-05  7448   0.409E-02    0.229E-01
DAV:  21    -0.147837753634E+03   -0.83197E-03   -0.48166E-05  7784   0.544E-02    0.176E-01
DAV:  22    -0.147838589460E+03   -0.83583E-03   -0.85279E-05  7798   0.708E-02    0.108E-01
DAV:  23    -0.147839329166E+03   -0.73971E-03   -0.85412E-05  7882   0.653E-02    0.715E-02
DAV:  24    -0.147837965398E+03    0.13638E-02   -0.10864E-03  7406   0.245E-01    0.796E-02
DAV:  25    -0.147840098174E+03   -0.21328E-02   -0.39779E-04  7672   0.944E-02    0.485E-02
DAV:  26    -0.147840885999E+03   -0.78783E-03   -0.96729E-05  6902   0.424E-02    0.440E-02
DAV:  27    -0.147840847507E+03    0.38492E-04   -0.22986E-05  8484   0.341E-02    0.403E-02
DAV:  28    -0.147840133648E+03    0.71386E-03   -0.15454E-04  7350   0.925E-02    0.309E-02
DAV:  29    -0.147840663951E+03   -0.53030E-03   -0.66535E-05  7322   0.404E-02    0.263E-02
DAV:  30    -0.147840842406E+03   -0.17845E-03   -0.15442E-05  7042   0.250E-02    0.157E-02
DAV:  31    -0.147840354719E+03    0.48769E-03   -0.13526E-04  7084   0.880E-02    0.245E-02
DAV:  32    -0.147841011229E+03   -0.65651E-03   -0.57390E-05  7168   0.334E-02    0.115E-02
DAV:  33    -0.147841249893E+03   -0.23866E-03   -0.18647E-05  6048   0.162E-02    0.437E-03
DAV:  34    -0.147841279674E+03   -0.29782E-04   -0.78054E-07  4802   0.376E-03    0.717E-03
DAV:  35    -0.147841317500E+03   -0.37826E-04   -0.49829E-07  4186   0.382E-03    0.218E-03
DAV:  36    -0.147841339189E+03   -0.21689E-04   -0.42092E-07  4172   0.262E-03    0.178E-03
DAV:  37    -0.147841353760E+03   -0.14571E-04   -0.38087E-07  4102   0.257E-03    0.210E-03
DAV:  38    -0.147841359864E+03   -0.61038E-05   -0.24973E-07  4018   0.241E-03    0.188E-03
DAV:  39    -0.147841363252E+03   -0.33880E-05   -0.36613E-07  4116   0.341E-03    0.111E-03
DAV:  40    -0.147841367394E+03   -0.41419E-05   -0.41527E-07  4382   0.227E-03    0.772E-04
DAV:  41    -0.147841371211E+03   -0.38170E-05   -0.25436E-07  4060   0.164E-03    0.708E-04
DAV:  42    -0.147841372530E+03   -0.13196E-05   -0.73371E-08  3906   0.115E-03    0.627E-04
DAV:  43    -0.147841372580E+03   -0.49637E-07   -0.31176E-08  3906   0.104E-03
  20 F= -.15401121E+03 E0= -.15400103E+03  d E =-.180204E+00  mag=    29.6182
       N       E                     dE             d eps       ncg     rms          rms(c)
DAV:   1    -0.147289184304E+03    0.55219E+00   -0.38137E+01  5544   0.116E+01    0.544E+00
DAV:   2    -0.148614674726E+03   -0.13255E+01   -0.19310E+00  7784   0.107E+01    0.221E+01
DAV:   3    -0.147808932159E+03    0.80574E+00   -0.10874E+00  7742   0.125E+01    0.395E+00
DAV:   4    -0.147906461669E+03   -0.97530E-01   -0.13793E-01  7616   0.156E+00    0.262E+00
DAV:   5    -0.147882483397E+03    0.23978E-01   -0.14549E-02  8736   0.120E+00    0.221E+00
DAV:   6    -0.147871463270E+03    0.11020E-01   -0.17999E-02  8456   0.142E+00    0.912E-01
DAV:   7    -0.147881360566E+03   -0.98973E-02   -0.74135E-03  8442   0.623E-01    0.896E-01
DAV:   8    -0.147880903263E+03    0.45730E-03   -0.11385E-03  7434   0.255E-01    0.123E+00
DAV:   9    -0.147879691011E+03    0.12123E-02   -0.40355E-04  6874   0.114E-01    0.122E+00
DAV:  10    -0.147879564277E+03    0.12673E-03   -0.25030E-05  8092   0.234E-02    0.124E+00
DAV:  11    -0.147880711410E+03   -0.11471E-02   -0.20247E-03  7630   0.479E-01    0.570E-01
DAV:  12    -0.147887693035E+03   -0.69816E-02   -0.40681E-03  7700   0.569E-01    0.247E+00
DAV:  13    -0.147879016607E+03    0.86764E-02   -0.54989E-03  7518   0.825E-01    0.279E-01
DAV:  14    -0.147886907765E+03   -0.78912E-02   -0.29184E-03  7672   0.423E-01    0.100E+00
DAV:  15    -0.147887125059E+03   -0.21729E-03   -0.12329E-03  7350   0.221E-01    0.339E-01
DAV:  16    -0.147887806758E+03   -0.68170E-03   -0.14972E-04  6244   0.538E-02    0.301E-01
DAV:  17    -0.147887713277E+03    0.93481E-04   -0.23767E-04  7854   0.124E-01    0.574E-01
DAV:  18    -0.147887523932E+03    0.18935E-03   -0.69168E-05  7182   0.447E-02    0.572E-01
DAV:  19    -0.147884856614E+03    0.26673E-02   -0.15701E-03  7602   0.419E-01    0.520E-01
DAV:  20    -0.147883607899E+03    0.12487E-02   -0.17512E-03  8120   0.371E-01    0.626E-01
DAV:  21    -0.147887305713E+03   -0.36978E-02   -0.37989E-03  7490   0.623E-01    0.425E-01
DAV:  22    -0.147888850981E+03   -0.15453E-02   -0.16290E-03  8204   0.315E-01    0.551E-01
DAV:  23    -0.147889389499E+03   -0.53852E-03   -0.17544E-03  7938   0.379E-01    0.385E-01
DAV:  24    -0.147891249877E+03   -0.18604E-02   -0.87411E-04  7854   0.184E-01    0.449E-01
DAV:  25    -0.147890835722E+03    0.41416E-03   -0.27311E-04  6972   0.887E-02    0.410E-01
DAV:  26    -0.147891097518E+03   -0.26180E-03   -0.11551E-05  7070   0.296E-02    0.477E-01
DAV:  27    -0.147890524865E+03    0.57265E-03   -0.11189E-04  7770   0.110E-01    0.414E-01
DAV:  28    -0.147890281432E+03    0.24343E-03   -0.32948E-04  8078   0.182E-01    0.287E-01
DAV:  29    -0.147890655110E+03   -0.37368E-03   -0.48793E-04  7966   0.197E-01    0.282E-01
DAV:  30    -0.147888914660E+03    0.17404E-02   -0.30402E-03  7728   0.584E-01    0.403E-01
DAV:  31    -0.147890925385E+03   -0.20107E-02   -0.14108E-03  7910   0.176E-01    0.493E-01
DAV:  32    -0.147892474320E+03   -0.15489E-02   -0.45722E-04  7392   0.172E-01    0.396E-01
DAV:  33    -0.147891874778E+03    0.59954E-03   -0.43813E-03  7728   0.689E-01    0.263E-01
DAV:  34    -0.147893062499E+03   -0.11877E-02   -0.24966E-03  8260   0.347E-01    0.334E-01
DAV:  35    -0.147892785801E+03    0.27670E-03   -0.14560E-03  7252   0.294E-01    0.239E-01
DAV:  36    -0.147892475707E+03    0.31009E-03   -0.52460E-04  8148   0.209E-01    0.204E-01
DAV:  37    -0.147887869825E+03    0.46059E-02   -0.49476E-03  7826   0.738E-01    0.436E-01
DAV:  38    -0.147887715992E+03    0.15383E-03   -0.34611E-03  8162   0.440E-01    0.748E-01
DAV:  39    -0.147889787816E+03   -0.20718E-02   -0.77388E-04  6048   0.953E-02    0.752E-01
DAV:  40    -0.147889890254E+03   -0.10244E-03   -0.25307E-05  9730   0.262E-02    0.767E-01
DAV:  41    -0.147890203093E+03   -0.31284E-03   -0.12170E-05  7476   0.324E-02    0.748E-01
DAV:  42    -0.147891845207E+03   -0.16421E-02   -0.59736E-04  7700   0.256E-01    0.577E-01
DAV:  43    -0.147893477953E+03   -0.16327E-02   -0.17304E-03  7798   0.408E-01    0.375E-01
DAV:  44    -0.147894453742E+03   -0.97579E-03   -0.61118E-04  8036   0.120E-01    0.345E-01
DAV:  45    -0.147894729927E+03   -0.27618E-03   -0.74396E-05  7756   0.971E-02    0.328E-01
DAV:  46    -0.147894901504E+03   -0.17158E-03   -0.12745E-04  7966   0.104E-01    0.313E-01
DAV:  47    -0.147894389037E+03    0.51247E-03   -0.17425E-04  7420   0.122E-01    0.317E-01
DAV:  48    -0.147894731931E+03   -0.34289E-03   -0.25323E-05  6678   0.512E-02    0.311E-01
DAV:  49    -0.147894999322E+03   -0.26739E-03   -0.60734E-04  7742   0.258E-01    0.302E-01
DAV:  50    -0.147894998884E+03    0.43728E-06   -0.14576E-04  6048   0.393E-02    0.296E-01
DAV:  51    -0.147894784921E+03    0.21396E-03   -0.26843E-05  7154   0.440E-02    0.300E-01
DAV:  52    -0.147894846906E+03   -0.61985E-04   -0.10894E-05  8190   0.181E-02    0.340E-01
DAV:  53    -0.147895082952E+03   -0.23605E-03   -0.59820E-05  7952   0.790E-02    0.371E-01
DAV:  54    -0.147895282764E+03   -0.19981E-03   -0.43210E-04  7994   0.217E-01    0.482E-01
DAV:  55    -0.147894938563E+03    0.34420E-03   -0.17720E-04  7168   0.624E-02    0.522E-01
DAV:  56    -0.147895253116E+03   -0.31455E-03   -0.37958E-04  7826   0.216E-01    0.652E-01
DAV:  57    -0.147894800181E+03    0.45293E-03   -0.27628E-04  7602   0.114E-01    0.718E-01
DAV:  58    -0.147893903813E+03    0.89637E-03   -0.91130E-05  6888   0.384E-02    0.726E-01
DAV:  59    -0.147893565277E+03    0.33854E-03   -0.61630E-06  5992   0.126E-02    0.739E-01
DAV:  60    -0.147893525176E+03    0.40101E-04   -0.31084E-06  5656   0.191E-02    0.758E-01
DAV:  61    -0.147892699288E+03    0.82589E-03   -0.56648E-05  7546   0.780E-02    0.708E-01
DAV:  62    -0.147893424802E+03   -0.72551E-03   -0.15042E-05  7070   0.208E-02    0.718E-01
DAV:  63    -0.147893343670E+03    0.81132E-04   -0.80945E-06  7574   0.244E-02    0.729E-01
DAV:  64    -0.147894266303E+03   -0.92263E-03   -0.15362E-04  7658   0.130E-01    0.825E-01
DAV:  65    -0.147893113077E+03    0.11532E-02   -0.53638E-05  6776   0.345E-02    0.819E-01
DAV:  66    -0.147892561865E+03    0.55121E-03   -0.25085E-05  7644   0.507E-02    0.788E-01
DAV:  67    -0.147894561927E+03   -0.20001E-02   -0.41107E-04  7658   0.212E-01    0.979E-01
DAV:  68    -0.147892794094E+03    0.17678E-02   -0.13707E-04  6090   0.428E-02    0.100E+00
DAV:  69    -0.147892051445E+03    0.74265E-03   -0.12055E-05  6202   0.144E-02    0.101E+00
DAV:  70    -0.147891867203E+03    0.18424E-03   -0.67049E-07  4158   0.412E-03    0.101E+00
DAV:  71    -0.147891833610E+03    0.33593E-04   -0.14856E-07  4116   0.401E-03    0.102E+00
DAV:  72    -0.147888306607E+03    0.35270E-02   -0.79978E-04  7700   0.297E-01    0.769E-01
DAV:  73    -0.147891981168E+03   -0.36746E-02   -0.32370E-04  7042   0.751E-02    0.728E-01
DAV:  74    -0.147892949462E+03   -0.96829E-03   -0.32831E-05  7364   0.381E-02    0.724E-01
DAV:  75    -0.147893275762E+03   -0.32630E-03   -0.12132E-05  7826   0.206E-02    0.723E-01
DAV:  76    -0.147893559519E+03   -0.28376E-03   -0.47834E-06  6426   0.138E-02    0.735E-01
DAV:  77    -0.147895195071E+03   -0.16356E-02   -0.63078E-04  7756   0.264E-01    0.970E-01
DAV:  78    -0.147892909093E+03    0.22860E-02   -0.26502E-04  5824   0.651E-02    0.960E-01
DAV:  79    -0.147892357470E+03    0.55162E-03   -0.10343E-05  6468   0.143E-02    0.966E-01
DAV:  80    -0.147892038228E+03    0.31924E-03   -0.33007E-06  5712   0.157E-02    0.954E-01
DAV:  81    -0.147892041465E+03   -0.32372E-05   -0.13060E-06  5320   0.108E-02    0.941E-01
DAV:  82    -0.147869059462E+03    0.22982E-01   -0.24752E-02  7644   0.166E+00    0.671E-01
DAV:  83    -0.147893399781E+03   -0.24340E-01   -0.70734E-03  6874   0.654E-01    0.407E-01
DAV:  84    -0.147894756290E+03   -0.13565E-02   -0.17770E-03  7602   0.416E-01    0.357E-01
DAV:  85    -0.147895136063E+03   -0.37977E-03   -0.47730E-04  7280   0.952E-02    0.388E-01
DAV:  86    -0.147895192352E+03   -0.56290E-04   -0.78349E-04  8078   0.304E-01    0.477E-01
DAV:  87    -0.147893404234E+03    0.17881E-02   -0.92156E-04  7308   0.292E-01    0.370E-01
DAV:  88    -0.147894624595E+03   -0.12204E-02   -0.85559E-05  6874   0.660E-02    0.366E-01
DAV:  89    -0.147894794247E+03   -0.16965E-03   -0.27127E-05  7686   0.471E-02    0.376E-01
DAV:  90    -0.147894589118E+03    0.20513E-03   -0.13373E-05  7056   0.224E-02    0.371E-01
DAV:  91    -0.147894457792E+03    0.13133E-03   -0.14185E-05  7658   0.379E-02    0.370E-01
DAV:  92    -0.147892220937E+03    0.22369E-02   -0.13468E-03  7602   0.388E-01    0.309E-01
DAV:  93    -0.147893434301E+03   -0.12134E-02   -0.59384E-04  8120   0.158E-01    0.346E-01
DAV:  94    -0.147893695904E+03   -0.26160E-03   -0.16079E-04  8190   0.116E-01    0.394E-01
DAV:  95    -0.147894120854E+03   -0.42495E-03   -0.62571E-05  5978   0.278E-02    0.399E-01
DAV:  96    -0.147894180009E+03   -0.59155E-04   -0.19813E-06  5488   0.725E-03    0.401E-01
DAV:  97    -0.147894180127E+03   -0.11815E-06   -0.83779E-07  4214   0.365E-03
  21 F= -.15406837E+03 E0= -.15405924E+03  d E =-.571612E-01  mag=    29.6599
       N       E                     dE             d eps       ncg     rms          rms(c)
DAV:   1    -0.144617083193E+03    0.32771E+01   -0.13816E+02  5558   0.229E+01    0.979E+00
DAV:   2    -0.148561346389E+03   -0.39443E+01   -0.62501E+00  7994   0.149E+01    0.232E+01
DAV:   3    -0.147982918027E+03    0.57843E+00   -0.33718E+00  8078   0.220E+01    0.153E+01
DAV:   4    -0.147940748518E+03    0.42170E-01   -0.70648E-01  8386   0.843E+00    0.733E+00
DAV:   5    -0.148076630240E+03   -0.13588E+00   -0.16992E-01  8302   0.320E+00    0.543E+00
DAV:   6    -0.148049843092E+03    0.26787E-01   -0.66061E-02  8512   0.250E+00    0.415E+00
DAV:   7    -0.148002682640E+03    0.47160E-01   -0.15157E-01  8484   0.379E+00    0.312E+00
DAV:   8    -0.147989594117E+03    0.13089E-01   -0.68934E-02  8302   0.233E+00    0.228E+00
DAV:   9    -0.148000199145E+03   -0.10605E-01   -0.20099E-02  8498   0.115E+00    0.212E+00
DAV:  10    -0.147998375107E+03    0.18240E-02   -0.26016E-02  8092   0.169E+00    0.868E-01
DAV:  11    -0.148002804287E+03   -0.44292E-02   -0.71520E-03  8330   0.587E-01    0.431E-01
DAV:  12    -0.148010789368E+03   -0.79851E-02   -0.21724E-03  8260   0.361E-01    0.406E-01
DAV:  13    -0.148013849405E+03   -0.30600E-02   -0.56851E-04  7742   0.245E-01    0.104E-01
DAV:  14    -0.148016543539E+03   -0.26941E-02   -0.18047E-04  8134   0.894E-02    0.262E-01
DAV:  15    -0.148018868378E+03   -0.23248E-02   -0.14590E-04  7742   0.110E-01    0.528E-02
DAV:  16    -0.148020627318E+03   -0.17589E-02   -0.53911E-05  7350   0.401E-02    0.529E-02
DAV:  17    -0.148021578632E+03   -0.95131E-03   -0.18353E-05  7980   0.285E-02    0.154E-02
DAV:  18    -0.148022464578E+03   -0.88595E-03   -0.11790E-05  7784   0.118E-02    0.136E-02
DAV:  19    -0.148023307696E+03   -0.84312E-03   -0.77381E-06  6440   0.745E-03    0.118E-02
DAV:  20    -0.148024359074E+03   -0.10514E-02   -0.16593E-05  6258   0.933E-03    0.610E-03
DAV:  21    -0.148024820339E+03   -0.46127E-03   -0.61908E-06  6692   0.511E-03    0.516E-03
DAV:  22    -0.148025107889E+03   -0.28755E-03   -0.30300E-06  5656   0.321E-03    0.350E-03
DAV:  23    -0.148025363490E+03   -0.25560E-03   -0.52541E-06  6146   0.400E-03    0.262E-03
DAV:  24    -0.148025436482E+03   -0.72992E-04   -0.97807E-07  4970   0.209E-03    0.184E-03
DAV:  25    -0.148025462161E+03   -0.25679E-04   -0.34166E-07  4074   0.180E-03    0.134E-03
DAV:  26    -0.148025481300E+03   -0.19139E-04   -0.52982E-07  4424   0.181E-03    0.258E-03
DAV:  27    -0.148025485631E+03   -0.43310E-05   -0.27112E-07  3920   0.214E-03    0.141E-03
DAV:  28    -0.148025487616E+03   -0.19850E-05   -0.19846E-07  3934   0.114E-03    0.120E-03
DAV:  29    -0.148025488403E+03   -0.78665E-06   -0.88931E-08  3808   0.107E-03
  22 F= -.15420634E+03 E0= -.15419988E+03  d E =-.195126E+00  mag=    29.7910
       N       E                     dE             d eps       ncg     rms          rms(c)
DAV:   1    -0.129435284730E+03    0.18590E+02   -0.70609E+02  5586   0.557E+01    0.231E+01
DAV:   2    -0.161396289175E+03   -0.31961E+02   -0.84179E+01  8428   0.564E+01    0.601E+01
DAV:   3    -0.147338221511E+03    0.14058E+02   -0.22482E+01  7938   0.427E+01    0.126E+01
DAV:   4    -0.147998078498E+03   -0.65986E+00   -0.42240E+00  7924   0.115E+01    0.518E+00
DAV:   5    -0.147914723205E+03    0.83355E-01   -0.43227E-01  8414   0.341E+00    0.346E+00
DAV:   6    -0.147850605947E+03    0.64117E-01   -0.15485E-01  8232   0.165E+00    0.220E+00
DAV:   7    -0.147817448044E+03    0.33158E-01   -0.88313E-02  8652   0.206E+00    0.101E+00
DAV:   8    -0.147835220707E+03   -0.17773E-01   -0.20743E-02  8190   0.889E-01    0.669E-01
DAV:   9    -0.147851877057E+03   -0.16656E-01   -0.16537E-02  8036   0.413E-01    0.578E-01
DAV:  10    -0.147860487772E+03   -0.86107E-02   -0.14134E-02  8120   0.226E-01    0.756E-01
DAV:  11    -0.147859266092E+03    0.12217E-02   -0.54776E-04  7014   0.140E-01    0.778E-01
DAV:  12    -0.147858934370E+03    0.33172E-03   -0.26861E-05  7070   0.232E-02    0.776E-01
DAV:  13    -0.147860244161E+03   -0.13098E-02   -0.43286E-04  7630   0.188E-01    0.640E-01
DAV:  14    -0.147872140491E+03   -0.11896E-01   -0.34613E-03  7812   0.524E-01    0.380E-01
DAV:  15    -0.147887199913E+03   -0.15059E-01   -0.21593E-03  8078   0.353E-01    0.399E-01
DAV:  16    -0.147894344250E+03   -0.71443E-02   -0.67995E-04  7826   0.150E-01    0.282E-01
DAV:  17    -0.147901087906E+03   -0.67437E-02   -0.54359E-04  8148   0.113E-01    0.168E-01
DAV:  18    -0.147906766623E+03   -0.56787E-02   -0.17791E-04  8764   0.774E-02    0.830E-02
DAV:  19    -0.147911097532E+03   -0.43309E-02   -0.69629E-05  7574   0.293E-02    0.475E-02
DAV:  20    -0.147914561139E+03   -0.34636E-02   -0.55138E-05  7560   0.245E-02    0.212E-02
DAV:  21    -0.147915966477E+03   -0.14053E-02   -0.17736E-05  8008   0.163E-02    0.159E-02
DAV:  22    -0.147916911468E+03   -0.94499E-03   -0.86322E-06  7000   0.109E-02    0.138E-02
DAV:  23    -0.147918183536E+03   -0.12721E-02   -0.22286E-05  7378   0.200E-02    0.105E-02
DAV:  24    -0.147919065862E+03   -0.88233E-03   -0.19501E-05  7322   0.107E-02    0.776E-03
DAV:  25    -0.147919349231E+03   -0.28337E-03   -0.36718E-06  6202   0.590E-03    0.666E-03
DAV:  26    -0.147919515102E+03   -0.16587E-03   -0.16664E-06  5264   0.722E-03    0.399E-03
DAV:  27    -0.147919759014E+03   -0.24391E-03   -0.67154E-06  6132   0.451E-03    0.212E-03
DAV:  28    -0.147919829315E+03   -0.70302E-04   -0.12164E-06  5096   0.220E-03    0.202E-03
DAV:  29    -0.147919843015E+03   -0.13700E-04   -0.23496E-07  4130   0.173E-03    0.191E-03
DAV:  30    -0.147919859169E+03   -0.16154E-04   -0.56916E-07  4438   0.167E-03    0.121E-03
DAV:  31    -0.147919864142E+03   -0.49726E-05   -0.24852E-07  4144   0.224E-03    0.682E-04
DAV:  32    -0.147919864706E+03   -0.56452E-06   -0.13361E-07  3906   0.120E-03
  23 F= -.15410890E+03 E0= -.15410890E+03  d E =-.976945E-01  mag=    30.0000
       N       E                     dE             d eps       ncg     rms          rms(c)
DAV:   1    -0.139795727224E+03    0.81241E+01   -0.27442E+02  5544   0.327E+01    0.183E+01
DAV:   2    -0.161040810228E+03   -0.21245E+02   -0.58770E+01  7210   0.538E+01    0.574E+01
DAV:   3    -0.147677993715E+03    0.13363E+02   -0.16218E+01  8022   0.387E+01    0.117E+01
DAV:   4    -0.148115845210E+03   -0.43785E+00   -0.25954E+00  8162   0.103E+01    0.473E+00
DAV:   5    -0.148043590898E+03    0.72254E-01   -0.30532E-01  8456   0.388E+00    0.304E+00
DAV:   6    -0.148006600660E+03    0.36990E-01   -0.11518E-01  8330   0.218E+00    0.196E+00
DAV:   7    -0.148000814895E+03    0.57858E-02   -0.76407E-02  8638   0.301E+00    0.180E+00
DAV:   8    -0.148009324206E+03   -0.85093E-02   -0.33637E-02  8036   0.100E+00    0.132E+00
DAV:   9    -0.148007654725E+03    0.16695E-02   -0.92131E-03  8134   0.930E-01    0.885E-01
DAV:  10    -0.148016297558E+03   -0.86428E-02   -0.58927E-03  8526   0.732E-01    0.411E-01
DAV:  11    -0.148020191737E+03   -0.38942E-02   -0.25427E-03  8092   0.365E-01    0.288E-01
DAV:  12    -0.148026180621E+03   -0.59889E-02   -0.41634E-04  7924   0.944E-02    0.137E-01
DAV:  13    -0.148031771887E+03   -0.55913E-02   -0.23180E-04  7266   0.119E-01    0.125E-01
DAV:  14    -0.148034828732E+03   -0.30568E-02   -0.13432E-04  7812   0.136E-01    0.661E-02
DAV:  15    -0.148037846830E+03   -0.30181E-02   -0.53737E-05  7686   0.329E-02    0.412E-02
DAV:  16    -0.148040982498E+03   -0.31357E-02   -0.45542E-05  7882   0.349E-02    0.808E-02
DAV:  17    -0.148041918515E+03   -0.93602E-03   -0.22390E-05  8120   0.477E-02    0.172E-02
DAV:  18    -0.148042982393E+03   -0.10639E-02   -0.11527E-05  7238   0.124E-02    0.115E-02
DAV:  19    -0.148044931174E+03   -0.19488E-02   -0.37485E-05  7182   0.160E-02    0.170E-02
DAV:  20    -0.148045458278E+03   -0.52710E-03   -0.95862E-06  7294   0.147E-02    0.724E-03
DAV:  21    -0.148045651513E+03   -0.19324E-03   -0.17047E-06  4998   0.753E-03    0.832E-03
DAV:  22    -0.148045854179E+03   -0.20267E-03   -0.29604E-06  5516   0.481E-03    0.126E-02
DAV:  23    -0.148045985750E+03   -0.13157E-03   -0.19254E-06  5180   0.520E-03    0.441E-03
DAV:  24    -0.148046016705E+03   -0.30955E-04   -0.59154E-07  4298   0.268E-03    0.204E-03
DAV:  25    -0.148046048846E+03   -0.32142E-04   -0.59466E-07  4438   0.218E-03    0.240E-03
DAV:  26    -0.148046064169E+03   -0.15322E-04   -0.38172E-07  4116   0.248E-03    0.149E-03
DAV:  27    -0.148046069435E+03   -0.52666E-05   -0.28876E-07  3906   0.158E-03    0.130E-03
DAV:  28    -0.148046071328E+03   -0.18928E-05   -0.15218E-07  3822   0.141E-03    0.666E-04
DAV:  29    -0.148046073563E+03   -0.22346E-05   -0.11800E-07  3864   0.117E-03    0.396E-04
DAV:  30    -0.148046074653E+03   -0.10899E-05   -0.64867E-08  3864   0.987E-04    0.904E-04
DAV:  31    -0.148046075666E+03   -0.10130E-05   -0.52250E-08  3766   0.584E-04    0.915E-04
DAV:  32    -0.148046076411E+03   -0.74567E-06   -0.28345E-08  3780   0.618E-04
  24 F= -.15423047E+03 E0= -.15422595E+03  d E =-.219256E+00  mag=    29.8676
       N       E                     dE             d eps       ncg     rms          rms(c)
DAV:   1    -0.145614456181E+03    0.24316E+01   -0.86200E+01  5572   0.177E+01    0.793E+00
DAV:   2    -0.148250955793E+03   -0.26365E+01   -0.31985E+00  7616   0.101E+01    0.211E+01
DAV:   3    -0.148056443770E+03    0.19451E+00   -0.19556E+00  7784   0.165E+01    0.935E+00
DAV:   4    -0.148070566737E+03   -0.14123E-01   -0.38889E-01  8316   0.612E+00    0.413E+00
DAV:   5    -0.148117897688E+03   -0.47331E-01   -0.16277E-01  8484   0.264E+00    0.502E+00
DAV:   6    -0.148022255836E+03    0.95642E-01   -0.79393E-01  7798   0.128E+00    0.265E+00
DAV:   7    -0.148119018711E+03   -0.96763E-01   -0.45454E-02  8036   0.202E+00    0.210E+00
DAV:   8    -0.148122689079E+03   -0.36704E-02   -0.27742E-02  8316   0.129E+00    0.169E+00
DAV:   9    -0.148121250861E+03    0.14382E-02   -0.12101E-02  8512   0.954E-01    0.142E+00
DAV:  10    -0.148119073795E+03    0.21771E-02   -0.68470E-03  8806   0.834E-01    0.129E+00
DAV:  11    -0.148117050982E+03    0.20228E-02   -0.54915E-03  8610   0.700E-01    0.114E+00
DAV:  12    -0.148117555852E+03   -0.50487E-03   -0.23338E-03  8036   0.240E-01    0.121E+00
DAV:  13    -0.148118409530E+03   -0.85368E-03   -0.39121E-04  8092   0.220E-01    0.123E+00
DAV:  14    -0.148116701565E+03    0.17080E-02   -0.81395E-04  7672   0.232E-01    0.140E+00
DAV:  15    -0.148115393339E+03    0.13082E-02   -0.38314E-04  7980   0.182E-01    0.151E+00
DAV:  16    -0.148118905851E+03   -0.35125E-02   -0.76227E-04  7672   0.295E-01    0.134E+00
DAV:  17    -0.148122611121E+03   -0.37053E-02   -0.22802E-03  7672   0.429E-01    0.100E+00
DAV:  18    -0.148126935897E+03   -0.43248E-02   -0.63191E-03  7686   0.725E-01    0.446E-01
DAV:  19    -0.148129954034E+03   -0.30181E-02   -0.28134E-03  7728   0.367E-01    0.185E-01
DAV:  20    -0.148132346057E+03   -0.23920E-02   -0.51855E-04  7700   0.141E-01    0.125E-01
DAV:  21    -0.148135077413E+03   -0.27314E-02   -0.10241E-04  6734   0.414E-02    0.128E-01
DAV:  22    -0.148136991201E+03   -0.19138E-02   -0.55059E-05  7420   0.724E-02    0.767E-02
DAV:  23    -0.148138383423E+03   -0.13922E-02   -0.49066E-05  8064   0.555E-02    0.349E-02
DAV:  24    -0.148139349033E+03   -0.96561E-03   -0.25141E-05  8372   0.231E-02    0.156E-02
DAV:  25    -0.148140577401E+03   -0.12284E-02   -0.39964E-05  7798   0.355E-02    0.351E-02
DAV:  26    -0.148140839591E+03   -0.26219E-03   -0.13274E-05  7882   0.239E-02    0.264E-02
DAV:  27    -0.148140896519E+03   -0.56927E-04   -0.13525E-06  5124   0.115E-02    0.142E-02
DAV:  28    -0.148141050292E+03   -0.15377E-03   -0.46144E-06  6216   0.158E-02    0.998E-03
DAV:  29    -0.148141182477E+03   -0.13218E-03   -0.56451E-06  6664   0.940E-03    0.768E-03
DAV:  30    -0.148141205585E+03   -0.23108E-04   -0.37471E-07  4522   0.429E-03    0.445E-03
DAV:  31    -0.148141209946E+03   -0.43610E-05   -0.24478E-07  3822   0.197E-03    0.273E-03
DAV:  32    -0.148141216649E+03   -0.67032E-05   -0.22560E-07  4088   0.297E-03    0.199E-03
DAV:  33    -0.148141219556E+03   -0.29075E-05   -0.31880E-07  3892   0.236E-03    0.169E-03
DAV:  34    -0.148141219965E+03   -0.40911E-06   -0.11817E-07  3808   0.168E-03
  25 F= -.15433788E+03 E0= -.15433551E+03  d E =-.107411E+00  mag=    29.9400
       N       E                     dE             d eps       ncg     rms          rms(c)
DAV:   1    -0.126281446397E+03    0.21860E+02   -0.79373E+02  5684   0.585E+01    0.245E+01
DAV:   2    -0.160634651562E+03   -0.34353E+02   -0.83066E+01  8302   0.570E+01    0.613E+01
DAV:   3    -0.147533235102E+03    0.13101E+02   -0.24140E+01  7924   0.433E+01    0.129E+01
DAV:   4    -0.148217560606E+03   -0.68433E+00   -0.41111E+00  8064   0.116E+01    0.508E+00
DAV:   5    -0.148139367936E+03    0.78193E-01   -0.41476E-01  8414   0.355E+00    0.337E+00
DAV:   6    -0.148082746726E+03    0.56621E-01   -0.21768E-01  8414   0.168E+00    0.229E+00
DAV:   7    -0.148067137571E+03    0.15609E-01   -0.21839E-01  8736   0.182E+00    0.170E+00
DAV:   8    -0.148076783307E+03   -0.96457E-02   -0.15892E-02  8176   0.980E-01    0.150E+00
DAV:   9    -0.148073851224E+03    0.29321E-02   -0.85234E-03  7966   0.879E-01    0.110E+00
DAV:  10    -0.148085021742E+03   -0.11171E-01   -0.20851E-02  7910   0.135E+00    0.165E+00
DAV:  11    -0.148089645767E+03   -0.46240E-02   -0.23025E-02  7672   0.143E+00    0.127E+00
DAV:  12    -0.148087867772E+03    0.17780E-02   -0.12750E-02  7784   0.942E-01    0.772E-01
DAV:  13    -0.148094576668E+03   -0.67089E-02   -0.75977E-03  7756   0.698E-01    0.285E-01
DAV:  14    -0.148113611505E+03   -0.19035E-01   -0.26026E-03  7756   0.384E-01    0.154E-01
DAV:  15    -0.148121589640E+03   -0.79781E-02   -0.60872E-04  8428   0.154E-01    0.942E-02
DAV:  16    -0.148128516133E+03   -0.69265E-02   -0.15802E-04  8078   0.989E-02    0.476E-02
DAV:  17    -0.148135444648E+03   -0.69285E-02   -0.12422E-04  7672   0.568E-02    0.338E-02
DAV:  18    -0.148139199288E+03   -0.37546E-02   -0.70835E-05  7840   0.300E-02    0.225E-02
DAV:  19    -0.148141661560E+03   -0.24623E-02   -0.33977E-05  7112   0.264E-02    0.162E-02
DAV:  20    -0.148143071947E+03   -0.14104E-02   -0.15970E-05  7658   0.210E-02    0.129E-02
DAV:  21    -0.148144542352E+03   -0.14704E-02   -0.23142E-05  7084   0.136E-02    0.999E-03
DAV:  22    -0.148145567538E+03   -0.10252E-02   -0.17641E-05  6524   0.998E-03    0.822E-03
DAV:  23    -0.148145948696E+03   -0.38116E-03   -0.44940E-06  6608   0.791E-03    0.532E-03
DAV:  24    -0.148146301641E+03   -0.35294E-03   -0.55439E-06  6412   0.730E-03    0.249E-03
DAV:  25    -0.148146486849E+03   -0.18521E-03   -0.29440E-06  5782   0.425E-03    0.189E-03
DAV:  26    -0.148146547979E+03   -0.61130E-04   -0.59984E-07  4592   0.209E-03    0.166E-03
DAV:  27    -0.148146588278E+03   -0.40299E-04   -0.71469E-07  4648   0.193E-03    0.123E-03
DAV:  28    -0.148146622988E+03   -0.34710E-04   -0.98922E-07  4816   0.206E-03    0.828E-04
DAV:  29    -0.148146631339E+03   -0.83509E-05   -0.27235E-07  4172   0.183E-03    0.686E-04
DAV:  30    -0.148146635128E+03   -0.37891E-05   -0.19414E-07  3836   0.119E-03    0.590E-04
DAV:  31    -0.148146637655E+03   -0.25274E-05   -0.11984E-07  4116   0.112E-03    0.543E-04
DAV:  32    -0.148146639130E+03   -0.14744E-05   -0.88567E-08  3822   0.956E-04    0.288E-04
DAV:  33    -0.148146639929E+03   -0.79923E-06   -0.69955E-08  3794   0.777E-04
  26 F= -.15436970E+03 E0= -.15436970E+03  d E =-.139234E+00  mag=    30.0000
       N       E                     dE             d eps       ncg     rms          rms(c)
DAV:   1    -0.147621969450E+03    0.52467E+00   -0.42924E+01  5544   0.119E+01    0.633E+00
DAV:   2    -0.148019377437E+03   -0.39741E+00   -0.15074E+00  7364   0.549E+00    0.455E+00
DAV:   3    -0.148143452713E+03   -0.12408E+00   -0.10779E-01  7476   0.224E+00    0.288E+00
DAV:   4    -0.148139196762E+03    0.42560E-02   -0.15522E-02  8190   0.773E-01    0.316E+00
DAV:   5    -0.148101158866E+03    0.38038E-01   -0.70596E-03  7630   0.623E-01    0.285E+00
DAV:   6    -0.148044866441E+03    0.56292E-01   -0.31028E-02  7840   0.171E+00    0.252E+00
DAV:   7    -0.148148358767E+03   -0.10349E+00   -0.10741E+00  8176   0.245E+00    0.737E+00
DAV:   8    -0.148022380724E+03    0.12598E+00   -0.45117E-02  6888   0.116E+00    0.635E+00
DAV:   9    -0.147985165434E+03    0.37215E-01   -0.72202E-01  7602   0.155E+00    0.312E+00
DAV:  10    -0.148141764995E+03   -0.15660E+00   -0.43524E-02  6902   0.112E+00    0.297E+00
DAV:  11    -0.148145282481E+03   -0.35175E-02   -0.61640E-03  7350   0.468E-01    0.272E+00
DAV:  12    -0.148140176598E+03    0.51059E-02   -0.31906E-02  7518   0.173E+00    0.153E+00
DAV:  13    -0.148128609192E+03    0.11567E-01   -0.26099E-02  7882   0.122E+00    0.144E+00
DAV:  14    -0.148120621945E+03    0.79872E-02   -0.11451E-02  7826   0.703E-01    0.198E+00
DAV:  15    -0.148124934611E+03   -0.43127E-02   -0.22175E-03  7700   0.286E-01    0.180E+00
DAV:  16    -0.148137270815E+03   -0.12336E-01   -0.17574E-02  7630   0.105E+00    0.118E+00
DAV:  17    -0.148119149416E+03    0.18121E-01   -0.41976E-02  7700   0.121E+00    0.993E-01
DAV:  18    -0.148107319731E+03    0.11830E-01   -0.13237E-02  7966   0.489E-01    0.129E+00
DAV:  19    -0.148102637342E+03    0.46824E-02   -0.21363E-03  7980   0.163E-01    0.140E+00
DAV:  20    -0.148093650517E+03    0.89868E-02   -0.40972E-03  7938   0.235E-01    0.154E+00
DAV:  21    -0.148101071397E+03   -0.74209E-02   -0.19683E-03  7420   0.186E-01    0.144E+00
DAV:  22    -0.148124084675E+03   -0.23013E-01   -0.25386E-02  7602   0.583E-01    0.104E+00
DAV:  23    -0.148140736907E+03   -0.16652E-01   -0.72165E-02  7588   0.934E-01    0.549E-01
DAV:  24    -0.148148946265E+03   -0.82094E-02   -0.98762E-03  7714   0.339E-01    0.379E-01
DAV:  25    -0.148151912669E+03   -0.29664E-02   -0.64313E-04  7322   0.185E-01    0.250E-01
DAV:  26    -0.148153015001E+03   -0.11023E-02   -0.20531E-03  7546   0.207E-01    0.165E-01
DAV:  27    -0.148154938517E+03   -0.19235E-02   -0.66081E-04  7560   0.200E-01    0.103E-01
DAV:  28    -0.148156128466E+03   -0.11899E-02   -0.30041E-04  7532   0.147E-01    0.110E-01
DAV:  29    -0.148157422471E+03   -0.12940E-02   -0.11107E-04  7910   0.758E-02    0.616E-02
DAV:  30    -0.148158336393E+03   -0.91392E-03   -0.45251E-05  8134   0.342E-02    0.483E-02
DAV:  31    -0.148158870346E+03   -0.53395E-03   -0.21877E-05  7980   0.361E-02    0.248E-02
DAV:  32    -0.148159483118E+03   -0.61277E-03   -0.21470E-05  7896   0.288E-02    0.702E-03
DAV:  33    -0.148159832601E+03   -0.34948E-03   -0.16950E-05  7630   0.202E-02    0.829E-03
DAV:  34    -0.148160060627E+03   -0.22803E-03   -0.72268E-06  7308   0.191E-02    0.965E-03
DAV:  35    -0.148160209809E+03   -0.14918E-03   -0.24686E-06  5810   0.112E-02    0.347E-03
DAV:  36    -0.148160328456E+03   -0.11865E-03   -0.18271E-06  4900   0.539E-03    0.425E-03
DAV:  37    -0.148160385217E+03   -0.56760E-04   -0.94283E-07  4494   0.305E-03    0.382E-03
DAV:  38    -0.148160425641E+03   -0.40424E-04   -0.59257E-07  4340   0.261E-03    0.255E-03
DAV:  39    -0.148160447215E+03   -0.21574E-04   -0.70547E-07  4088   0.391E-03    0.233E-03
DAV:  40    -0.148160470066E+03   -0.22851E-04   -0.48538E-07  4256   0.211E-03    0.205E-03
DAV:  41    -0.148160487836E+03   -0.17770E-04   -0.47760E-07  4326   0.264E-03    0.204E-03
DAV:  42    -0.148160499241E+03   -0.11405E-04   -0.48608E-07  4102   0.300E-03    0.148E-03
DAV:  43    -0.148160502416E+03   -0.31743E-05   -0.24528E-07  3906   0.158E-03    0.106E-03
DAV:  44    -0.148160504502E+03   -0.20858E-05   -0.14537E-07  3766   0.126E-03    0.105E-03
DAV:  45    -0.148160506786E+03   -0.22839E-05   -0.10978E-07  4046   0.127E-03    0.652E-04
DAV:  46    -0.148160507421E+03   -0.63533E-06   -0.69925E-08  3906   0.927E-04
  27 F= -.15437671E+03 E0= -.15437671E+03  d E =-.146248E+00  mag=    30.0000
       N       E                     dE             d eps       ncg     rms          rms(c)
DAV:   1    -0.147613633496E+03    0.54687E+00   -0.55108E+01  5544   0.144E+01    0.661E+00
DAV:   2    -0.148138871157E+03   -0.52524E+00   -0.24696E+00  7770   0.581E+00    0.437E+00
DAV:   3    -0.148276870839E+03   -0.13800E+00   -0.11482E-01  7980   0.228E+00    0.293E+00
DAV:   4    -0.148269327097E+03    0.75437E-02   -0.17348E-02  8036   0.742E-01    0.305E+00
DAV:   5    -0.148240423908E+03    0.28903E-01   -0.57705E-03  7546   0.548E-01    0.287E+00
DAV:   6    -0.148201044112E+03    0.39380E-01   -0.17451E-02  7686   0.128E+00    0.258E+00
DAV:   7    -0.148025783900E+03    0.17526E+00   -0.47615E-01  7574   0.345E+00    0.339E+00
DAV:   8    -0.148031448174E+03   -0.56643E-02   -0.73832E-02  7126   0.162E+00    0.595E+00
DAV:   9    -0.148159161795E+03   -0.12771E+00   -0.91526E-02  7112   0.137E+00    0.294E+00
DAV:  10    -0.148218730052E+03   -0.59568E-01   -0.12438E-02  7014   0.651E-01    0.306E+00
DAV:  11    -0.148229425385E+03   -0.10695E-01   -0.12415E-03  7546   0.159E-01    0.312E+00
DAV:  12    -0.148248227970E+03   -0.18803E-01   -0.31506E-02  7406   0.167E+00    0.186E+00
DAV:  13    -0.148261177597E+03   -0.12950E-01   -0.60882E-02  7434   0.194E+00    0.750E-01
DAV:  14    -0.148264875765E+03   -0.36982E-02   -0.17061E-02  7882   0.515E-01    0.569E-01
DAV:  15    -0.148264922997E+03   -0.47232E-04   -0.52551E-03  7910   0.393E-01    0.515E-01
DAV:  16    -0.148260670624E+03    0.42524E-02   -0.54188E-03  7812   0.665E-01    0.544E-01
DAV:  17    -0.148257383496E+03    0.32871E-02   -0.12689E-03  7994   0.194E-01    0.680E-01
DAV:  18    -0.148255321715E+03    0.20618E-02   -0.23928E-04  8036   0.855E-02    0.755E-01
DAV:  19    -0.148255765214E+03   -0.44350E-03   -0.30751E-05  6776   0.237E-02    0.746E-01
DAV:  20    -0.148257538083E+03   -0.17729E-02   -0.10664E-04  7756   0.549E-02    0.695E-01
DAV:  21    -0.148262367323E+03   -0.48292E-02   -0.10741E-03  7560   0.177E-01    0.545E-01
DAV:  22    -0.148268029256E+03   -0.56619E-02   -0.45507E-03  7504   0.418E-01    0.230E-01
DAV:  23    -0.148269128856E+03   -0.10996E-02   -0.17327E-03  7784   0.258E-01    0.114E-01
DAV:  24    -0.148269416394E+03   -0.28754E-03   -0.33373E-04  7980   0.643E-02    0.111E-01
DAV:  25    -0.148269755526E+03   -0.33913E-03   -0.72728E-05  7210   0.628E-02    0.729E-02
DAV:  26    -0.148269958302E+03   -0.20278E-03   -0.24841E-05  8120   0.304E-02    0.405E-02
DAV:  27    -0.148270137830E+03   -0.17953E-03   -0.15709E-05  7686   0.311E-02    0.209E-02
DAV:  28    -0.148270280359E+03   -0.14253E-03   -0.55567E-06  7630   0.123E-02    0.881E-03
DAV:  29    -0.148270345596E+03   -0.65238E-04   -0.13050E-06  5026   0.599E-03    0.449E-03
DAV:  30    -0.148270392952E+03   -0.47356E-04   -0.80880E-07  4466   0.456E-03    0.286E-03
DAV:  31    -0.148270427594E+03   -0.34642E-04   -0.58106E-07  4284   0.303E-03    0.267E-03
DAV:  32    -0.148270460105E+03   -0.32511E-04   -0.79200E-07  4368   0.501E-03    0.240E-03
DAV:  33    -0.148270479156E+03   -0.19051E-04   -0.51250E-07  3990   0.231E-03    0.222E-03
DAV:  34    -0.148270492567E+03   -0.13411E-04   -0.31629E-07  4032   0.161E-03    0.178E-03
DAV:  35    -0.148270504176E+03   -0.11609E-04   -0.26726E-07  3948   0.161E-03    0.126E-03
DAV:  36    -0.148270513391E+03   -0.92154E-05   -0.26748E-07  4116   0.170E-03    0.773E-04
DAV:  37    -0.148270517172E+03   -0.37805E-05   -0.17763E-07  3850   0.129E-03    0.596E-04
DAV:  38    -0.148270519575E+03   -0.24029E-05   -0.13041E-07  3878   0.100E-03    0.397E-04
DAV:  39    -0.148270520711E+03   -0.11366E-05   -0.83092E-08  3808   0.863E-04    0.220E-04
DAV:  40    -0.148270521256E+03   -0.54438E-06   -0.53521E-08  3780   0.617E-04
  28 F= -.15450041E+03 E0= -.15450041E+03  d E =-.123693E+00  mag=    30.0000
       N       E                     dE             d eps       ncg     rms          rms(c)
DAV:   1    -0.147854666863E+03    0.41585E+00   -0.36486E+01  5544   0.117E+01    0.530E+00
DAV:   2    -0.148195659563E+03   -0.34099E+00   -0.15428E+00  7700   0.447E+00    0.339E+00
DAV:   3    -0.148293487858E+03   -0.97828E-01   -0.74807E-02  8106   0.180E+00    0.217E+00
DAV:   4    -0.148288285825E+03    0.52020E-02   -0.97035E-03  8050   0.550E-01    0.227E+00
DAV:   5    -0.148258828335E+03    0.29457E-01   -0.12707E-02  7630   0.991E-01    0.195E+00
DAV:   6    -0.148244594850E+03    0.14233E-01   -0.22999E-02  7630   0.142E+00    0.206E+00
DAV:   7    -0.148246020975E+03   -0.14261E-02   -0.32010E-02  7644   0.151E+00    0.295E+00
DAV:   8    -0.148271661470E+03   -0.25640E-01   -0.14758E-01  7336   0.371E+00    0.108E+00
DAV:   9    -0.148290288151E+03   -0.18627E-01   -0.21308E-02  7574   0.130E+00    0.104E+00
DAV:  10    -0.148288722517E+03    0.15656E-02   -0.43600E-03  7630   0.487E-01    0.986E-01
DAV:  11    -0.148287887203E+03    0.83531E-03   -0.80570E-03  7602   0.818E-01    0.418E-01
DAV:  12    -0.148290771948E+03   -0.28847E-02   -0.63357E-03  8022   0.332E-01    0.355E-01
DAV:  13    -0.148291991497E+03   -0.12195E-02   -0.11532E-03  8092   0.284E-01    0.156E-01
DAV:  14    -0.148292401130E+03   -0.40963E-03   -0.58640E-04  7700   0.191E-01    0.447E-02
DAV:  15    -0.148292594978E+03   -0.19385E-03   -0.14654E-04  8050   0.395E-02    0.415E-02
DAV:  16    -0.148292726366E+03   -0.13139E-03   -0.21723E-05  7728   0.347E-02    0.209E-02
DAV:  17    -0.148292869385E+03   -0.14302E-03   -0.96876E-06  8064   0.138E-02    0.124E-02
DAV:  18    -0.148293019689E+03   -0.15030E-03   -0.33961E-06  6720   0.126E-02    0.474E-03
DAV:  19    -0.148293107449E+03   -0.87760E-04   -0.12435E-06  4886   0.556E-03    0.480E-03
DAV:  20    -0.148293186357E+03   -0.78908E-04   -0.11392E-06  4830   0.649E-03    0.267E-03
DAV:  21    -0.148293269642E+03   -0.83285E-04   -0.17419E-06  4886   0.312E-03    0.202E-03
DAV:  22    -0.148293309757E+03   -0.40115E-04   -0.57992E-07  4424   0.268E-03    0.137E-03
DAV:  23    -0.148293330352E+03   -0.20594E-04   -0.33814E-07  3976   0.188E-03    0.110E-03
DAV:  24    -0.148293351628E+03   -0.21276E-04   -0.41055E-07  4326   0.209E-03    0.737E-04
DAV:  25    -0.148293365394E+03   -0.13766E-04   -0.33857E-07  4018   0.171E-03    0.613E-04
DAV:  26    -0.148293370288E+03   -0.48938E-05   -0.20309E-07  3864   0.138E-03    0.348E-04
DAV:  27    -0.148293375412E+03   -0.51239E-05   -0.16676E-07  3892   0.114E-03    0.401E-04
DAV:  28    -0.148293379495E+03   -0.40828E-05   -0.14425E-07  3948   0.102E-03    0.250E-04
DAV:  29    -0.148293382165E+03   -0.26702E-05   -0.12965E-07  3906   0.880E-04    0.203E-04
DAV:  30    -0.148293383228E+03   -0.10633E-05   -0.83132E-08  3794   0.817E-04    0.149E-04
DAV:  31    -0.148293383695E+03   -0.46697E-06   -0.54197E-08  3752   0.643E-04
  29 F= -.15453395E+03 E0= -.15453395E+03  d E =-.157237E+00  mag=    30.0000
       N       E                     dE             d eps       ncg     rms          rms(c)
DAV:   1    -0.147829587681E+03    0.46380E+00   -0.51399E+01  5544   0.141E+01    0.596E+00
DAV:   2    -0.148289300190E+03   -0.45971E+00   -0.26526E+00  8022   0.582E+00    0.365E+00
DAV:   3    -0.148382391984E+03   -0.93092E-01   -0.10100E-01  7868   0.195E+00    0.207E+00
DAV:   4    -0.148377065511E+03    0.53265E-02   -0.13462E-02  8288   0.631E-01    0.211E+00
DAV:   5    -0.148357041971E+03    0.20024E-01   -0.92748E-03  7560   0.787E-01    0.186E+00
DAV:   6    -0.148341337290E+03    0.15705E-01   -0.16695E-02  7728   0.120E+00    0.179E+00
DAV:   7    -0.148333097074E+03    0.82402E-02   -0.38958E-02  7672   0.175E+00    0.239E+00
DAV:   8    -0.148367096863E+03   -0.34000E-01   -0.20267E-02  7574   0.115E+00    0.156E+00
DAV:   9    -0.148378797758E+03   -0.11701E-01   -0.24529E-02  7854   0.140E+00    0.115E+00
DAV:  10    -0.148375176673E+03    0.36211E-02   -0.94555E-03  7742   0.538E-01    0.117E+00
DAV:  11    -0.148376627059E+03   -0.14504E-02   -0.10413E-02  7728   0.782E-01    0.456E-01
DAV:  12    -0.148378905991E+03   -0.22789E-02   -0.75007E-03  8218   0.246E-01    0.288E-01
DAV:  13    -0.148379828780E+03   -0.92279E-03   -0.58214E-04  8246   0.136E-01    0.193E-01
DAV:  14    -0.148381012854E+03   -0.11841E-02   -0.50732E-04  8078   0.139E-01    0.672E-02
DAV:  15    -0.148381609798E+03   -0.59694E-03   -0.10883E-04  7742   0.678E-02    0.354E-02
DAV:  16    -0.148382141467E+03   -0.53167E-03   -0.42949E-05  8092   0.237E-02    0.222E-02
DAV:  17    -0.148382946300E+03   -0.80483E-03   -0.21020E-05  8092   0.176E-02    0.126E-02
DAV:  18    -0.148383434960E+03   -0.48866E-03   -0.66500E-06  7014   0.106E-02    0.132E-02
DAV:  19    -0.148383837923E+03   -0.40296E-03   -0.39965E-06  6286   0.867E-03    0.776E-03
DAV:  20    -0.148384294675E+03   -0.45675E-03   -0.89657E-06  7490   0.145E-02    0.612E-03
DAV:  21    -0.148384516782E+03   -0.22211E-03   -0.38661E-06  6636   0.546E-03    0.621E-03
DAV:  22    -0.148384615721E+03   -0.98939E-04   -0.75294E-07  4508   0.324E-03    0.364E-03
DAV:  23    -0.148384702286E+03   -0.86565E-04   -0.16438E-06  4886   0.319E-03    0.143E-03
DAV:  24    -0.148384732850E+03   -0.30564E-04   -0.46203E-07  4256   0.238E-03    0.147E-03
DAV:  25    -0.148384753167E+03   -0.20318E-04   -0.28001E-07  3906   0.190E-03    0.129E-03
DAV:  26    -0.148384778351E+03   -0.25184E-04   -0.36511E-07  4354   0.168E-03    0.913E-04
DAV:  27    -0.148384790699E+03   -0.12348E-04   -0.24963E-07  4004   0.159E-03    0.596E-04
DAV:  28    -0.148384807535E+03   -0.16836E-04   -0.44211E-07  4186   0.143E-03    0.582E-04
DAV:  29    -0.148384811711E+03   -0.41762E-05   -0.20129E-07  3934   0.155E-03    0.295E-04
DAV:  30    -0.148384816076E+03   -0.43647E-05   -0.21714E-07  4046   0.893E-04    0.301E-04
DAV:  31    -0.148384817892E+03   -0.18159E-05   -0.12177E-07  3878   0.114E-03    0.198E-04
DAV:  32    -0.148384818465E+03   -0.57359E-06   -0.82807E-08  3864   0.670E-04
  30 F= -.15463505E+03 E0= -.15463505E+03  d E =-.101102E+00  mag=    30.0000
       N       E                     dE             d eps       ncg     rms          rms(c)
DAV:   1    -0.148071536898E+03    0.31328E+00   -0.30453E+01  5544   0.108E+01    0.456E+00
DAV:   2    -0.148340081184E+03   -0.26854E+00   -0.15240E+00  7896   0.431E+00    0.266E+00
DAV:   3    -0.148398201357E+03   -0.58120E-01   -0.68611E-02  7966   0.142E+00    0.130E+00
DAV:   4    -0.148394813110E+03    0.33882E-02   -0.82171E-03  8512   0.412E-01    0.115E+00
DAV:   5    -0.148391912653E+03    0.29005E-02   -0.16425E-03  8386   0.269E-01    0.108E+00
DAV:   6    -0.148385667336E+03    0.62453E-02   -0.45799E-03  7630   0.642E-01    0.822E-01
DAV:   7    -0.148389137811E+03   -0.34705E-02   -0.96594E-03  7868   0.867E-01    0.151E+00
DAV:   8    -0.148393018039E+03   -0.38802E-02   -0.47853E-03  7714   0.537E-01    0.153E+00
DAV:   9    -0.148394302492E+03   -0.12845E-02   -0.68599E-03  7728   0.774E-01    0.119E+00
DAV:  10    -0.148395103546E+03   -0.80105E-03   -0.11964E-02  7714   0.934E-01    0.601E-01
DAV:  11    -0.148396880606E+03   -0.17771E-02   -0.54101E-03  7938   0.517E-01    0.133E-01
DAV:  12    -0.148398618339E+03   -0.17377E-02   -0.10304E-03  8176   0.161E-01    0.845E-02
DAV:  13    -0.148399618539E+03   -0.10002E-02   -0.21228E-04  7756   0.787E-02    0.574E-02
DAV:  14    -0.148400356926E+03   -0.73839E-03   -0.64084E-05  7854   0.496E-02    0.289E-02
DAV:  15    -0.148400918887E+03   -0.56196E-03   -0.24244E-05  8050   0.256E-02    0.136E-02
DAV:  16    -0.148401298285E+03   -0.37940E-03   -0.77078E-06  7742   0.160E-02    0.712E-03
DAV:  17    -0.148401564727E+03   -0.26644E-03   -0.31299E-06  5768   0.684E-03    0.564E-03
DAV:  18    -0.148401772113E+03   -0.20739E-03   -0.15301E-06  4928   0.501E-03    0.391E-03
DAV:  19    -0.148402046558E+03   -0.27444E-03   -0.43181E-06  6020   0.453E-03    0.216E-03
DAV:  20    -0.148402166321E+03   -0.11976E-03   -0.12263E-06  4844   0.269E-03    0.173E-03
DAV:  21    -0.148402242108E+03   -0.75788E-04   -0.10370E-06  4718   0.239E-03    0.130E-03
DAV:  22    -0.148402268047E+03   -0.25939E-04   -0.33030E-07  4242   0.195E-03    0.119E-03
DAV:  23    -0.148402286425E+03   -0.18377E-04   -0.28855E-07  3948   0.175E-03    0.738E-04
DAV:  24    -0.148402307431E+03   -0.21006E-04   -0.35066E-07  4284   0.153E-03    0.579E-04
DAV:  25    -0.148402321475E+03   -0.14044E-04   -0.32087E-07  4172   0.150E-03    0.516E-04
DAV:  26    -0.148402329612E+03   -0.81370E-05   -0.26747E-07  3976   0.137E-03    0.371E-04
DAV:  27    -0.148402333112E+03   -0.35005E-05   -0.17660E-07  3794   0.123E-03    0.320E-04
DAV:  28    -0.148402335628E+03   -0.25154E-05   -0.13855E-07  4018   0.927E-04    0.217E-04
DAV:  29    -0.148402337376E+03   -0.17483E-05   -0.10909E-07  3920   0.890E-04    0.218E-04
DAV:  30    -0.148402338066E+03   -0.68965E-06   -0.78797E-08  3794   0.743E-04
  31 F= -.15465968E+03 E0= -.15465968E+03  d E =-.125732E+00  mag=    30.0000
       N       E                     dE             d eps       ncg     rms          rms(c)
DAV:   1    -0.148253365590E+03    0.14897E+00   -0.22462E+01  5544   0.925E+00    0.336E+00
DAV:   2    -0.148438907479E+03   -0.18554E+00   -0.12773E+00  8078   0.380E+00    0.200E+00
DAV:   3    -0.148467656072E+03   -0.28749E-01   -0.36549E-02  8078   0.104E+00    0.829E-01
DAV:   4    -0.148466022043E+03    0.16340E-02   -0.58164E-03  8358   0.254E-01    0.632E-01
DAV:   5    -0.148464527370E+03    0.14947E-02   -0.48069E-03  8022   0.330E-01    0.404E-01
DAV:   6    -0.148465152550E+03   -0.62518E-03   -0.12977E-02  8260   0.318E-01    0.458E-01
DAV:   7    -0.148467772256E+03   -0.26197E-02   -0.90646E-03  7980   0.187E-01    0.667E-01
DAV:   8    -0.148466103830E+03    0.16684E-02   -0.22473E-04  6048   0.590E-02    0.679E-01
DAV:   9    -0.148463309769E+03    0.27941E-02   -0.15852E-03  7658   0.162E-01    0.675E-01
DAV:  10    -0.148460843465E+03    0.24663E-02   -0.19331E-03  7854   0.199E-01    0.704E-01
DAV:  11    -0.148456729148E+03    0.41143E-02   -0.31345E-03  7630   0.340E-01    0.856E-01
DAV:  12    -0.148459542989E+03   -0.28138E-02   -0.42411E-04  6440   0.668E-02    0.861E-01
DAV:  13    -0.148460472003E+03   -0.92901E-03   -0.23411E-05  6818   0.219E-02    0.860E-01
DAV:  14    -0.148463521806E+03   -0.30498E-02   -0.11177E-03  7462   0.183E-01    0.811E-01
DAV:  15    -0.148465855882E+03   -0.23341E-02   -0.15193E-02  7462   0.795E-01    0.512E-01
DAV:  16    -0.148462179593E+03    0.36763E-02   -0.13742E-02  7700   0.803E-01    0.309E-01
DAV:  17    -0.148466591131E+03   -0.44115E-02   -0.19318E-03  5992   0.143E-01    0.263E-01
DAV:  18    -0.148467077120E+03   -0.48599E-03   -0.11858E-04  7084   0.409E-02    0.231E-01
DAV:  19    -0.148467533765E+03   -0.45664E-03   -0.44771E-04  7882   0.958E-02    0.128E-01
DAV:  20    -0.148467780196E+03   -0.24643E-03   -0.23292E-04  8148   0.497E-02    0.100E-01
DAV:  21    -0.148467920168E+03   -0.13997E-03   -0.64024E-05  7826   0.391E-02    0.809E-02
DAV:  22    -0.148468068337E+03   -0.14817E-03   -0.12658E-04  7644   0.741E-02    0.500E-02
DAV:  23    -0.148468136623E+03   -0.68286E-04   -0.41098E-04  7728   0.122E-01    0.350E-02
DAV:  24    -0.148468370202E+03   -0.23358E-03   -0.58730E-05  6468   0.244E-02    0.250E-02
DAV:  25    -0.148468451587E+03   -0.81385E-04   -0.93703E-06  6986   0.925E-03    0.142E-02
DAV:  26    -0.148468499509E+03   -0.47922E-04   -0.15537E-05  7588   0.279E-02    0.394E-03
DAV:  27    -0.148468523503E+03   -0.23994E-04   -0.19489E-06  6006   0.522E-03    0.418E-03
DAV:  28    -0.148468539687E+03   -0.16184E-04   -0.41994E-07  4172   0.497E-03    0.230E-03
DAV:  29    -0.148468550018E+03   -0.10331E-04   -0.29119E-07  3808   0.178E-03    0.140E-03
DAV:  30    -0.148468564051E+03   -0.14034E-04   -0.52848E-07  4368   0.433E-03    0.191E-03
DAV:  31    -0.148468571160E+03   -0.71084E-05   -0.19432E-07  3934   0.236E-03    0.129E-03
DAV:  32    -0.148468574476E+03   -0.33163E-05   -0.11916E-07  3808   0.129E-03    0.129E-03
DAV:  33    -0.148468576655E+03   -0.21788E-05   -0.75124E-08  3836   0.829E-04    0.958E-04
DAV:  34    -0.148468579455E+03   -0.28000E-05   -0.60989E-08  3836   0.732E-04    0.101E-03
DAV:  35    -0.148468580843E+03   -0.13881E-05   -0.42148E-08  3864   0.111E-03    0.694E-04
DAV:  36    -0.148468581728E+03   -0.88570E-06   -0.44350E-08  3752   0.986E-04
  32 F= -.15472546E+03 E0= -.15472546E+03  d E =-.657746E-01  mag=    30.0000
       N       E                     dE             d eps       ncg     rms          rms(c)
DAV:   1    -0.148286955631E+03    0.18163E+00   -0.21445E+01  5558   0.906E+00    0.329E+00
DAV:   2    -0.148461776417E+03   -0.17482E+00   -0.11966E+00  8064   0.367E+00    0.194E+00
DAV:   3    -0.148489621140E+03   -0.27845E-01   -0.33347E-02  8078   0.999E-01    0.780E-01
DAV:   4    -0.148488249150E+03    0.13720E-02   -0.47549E-03  8414   0.226E-01    0.564E-01
DAV:   5    -0.148487765308E+03    0.48384E-03   -0.43945E-03  8106   0.266E-01    0.304E-01
DAV:   6    -0.148490159361E+03   -0.23941E-02   -0.16187E-02  8288   0.169E-01    0.488E-01
DAV:   7    -0.148489589042E+03    0.57032E-03   -0.43475E-04  6846   0.767E-02    0.515E-01
DAV:   8    -0.148488475756E+03    0.11133E-02   -0.19594E-04  7742   0.861E-02    0.538E-01
DAV:   9    -0.148487867884E+03    0.60787E-03   -0.18298E-04  7798   0.108E-01    0.612E-01
DAV:  10    -0.148489415973E+03   -0.15481E-02   -0.10020E-03  7434   0.301E-01    0.385E-01
DAV:  11    -0.148489561526E+03   -0.14555E-03   -0.17908E-03  7616   0.361E-01    0.578E-02
DAV:  12    -0.148489994428E+03   -0.43290E-03   -0.34079E-04  7854   0.699E-02    0.341E-02
DAV:  13    -0.148490169648E+03   -0.17522E-03   -0.27748E-05  6412   0.179E-02    0.198E-02
DAV:  14    -0.148490337544E+03   -0.16790E-03   -0.71534E-06  7644   0.110E-02    0.986E-03
DAV:  15    -0.148490489173E+03   -0.15163E-03   -0.38418E-06  6650   0.760E-03    0.551E-03
DAV:  16    -0.148490561517E+03   -0.72344E-04   -0.10611E-06  4662   0.428E-03    0.512E-03
DAV:  17    -0.148490632886E+03   -0.71370E-04   -0.13593E-06  4928   0.391E-03    0.386E-03
DAV:  18    -0.148490684929E+03   -0.52043E-04   -0.95242E-07  4452   0.364E-03    0.225E-03
DAV:  19    -0.148490711098E+03   -0.26169E-04   -0.71893E-07  4340   0.288E-03    0.147E-03
DAV:  20    -0.148490723438E+03   -0.12339E-04   -0.37087E-07  3920   0.237E-03    0.101E-03
DAV:  21    -0.148490736983E+03   -0.13546E-04   -0.38418E-07  4242   0.171E-03    0.875E-04
DAV:  22    -0.148490743205E+03   -0.62217E-05   -0.22931E-07  3920   0.152E-03    0.542E-04
DAV:  23    -0.148490746951E+03   -0.37455E-05   -0.15492E-07  3836   0.112E-03    0.387E-04
DAV:  24    -0.148490749602E+03   -0.26511E-05   -0.10784E-07  3822   0.933E-04    0.273E-04
DAV:  25    -0.148490751419E+03   -0.18176E-05   -0.75290E-08  3766   0.732E-04    0.154E-04
DAV:  26    -0.148490753621E+03   -0.22015E-05   -0.83319E-08  4172   0.681E-04    0.215E-04
DAV:  27    -0.148490754421E+03   -0.79976E-06   -0.52450E-08  3822   0.668E-04
  33 F= -.15474692E+03 E0= -.15474692E+03  d E =-.872405E-01  mag=    30.0000
       N       E                     dE             d eps       ncg     rms          rms(c)
DAV:   1    -0.148427794338E+03    0.62959E-01   -0.11633E+01  5544   0.678E+00    0.224E+00
DAV:   2    -0.148515321254E+03   -0.87527E-01   -0.77669E-01  8232   0.297E+00    0.117E+00
DAV:   3    -0.148524569728E+03   -0.92485E-02   -0.17700E-02  8092   0.632E-01    0.609E-01
DAV:   4    -0.148523615129E+03    0.95460E-03   -0.23447E-03  8470   0.165E-01    0.444E-01
DAV:   5    -0.148522989205E+03    0.62592E-03   -0.26053E-03  7910   0.145E-01    0.285E-01
DAV:   6    -0.148523053589E+03   -0.64384E-04   -0.15282E-03  8190   0.145E-01    0.109E-01
DAV:   7    -0.148523278229E+03   -0.22464E-03   -0.65286E-04  8190   0.646E-02    0.968E-02
DAV:   8    -0.148523551572E+03   -0.27334E-03   -0.61410E-04  7700   0.557E-02    0.171E-01
DAV:   9    -0.148523400977E+03    0.15060E-03   -0.31442E-05  6370   0.238E-02    0.177E-01
DAV:  10    -0.148523355437E+03    0.45540E-04   -0.27694E-05  7658   0.218E-02    0.154E-01
DAV:  11    -0.148523520042E+03   -0.16461E-03   -0.40343E-05  7602   0.457E-02    0.108E-01
DAV:  12    -0.148523720278E+03   -0.20024E-03   -0.46870E-05  7546   0.592E-02    0.715E-02
DAV:  13    -0.148523762045E+03   -0.41767E-04   -0.10989E-05  7322   0.133E-02    0.631E-02
DAV:  14    -0.148523867943E+03   -0.10590E-03   -0.21622E-05  7812   0.283E-02    0.394E-02
DAV:  15    -0.148523995575E+03   -0.12763E-03   -0.40985E-05  7980   0.378E-02    0.877E-03
DAV:  16    -0.148524042221E+03   -0.46647E-04   -0.63934E-06  6048   0.902E-03    0.559E-03
DAV:  17    -0.148524079340E+03   -0.37118E-04   -0.65954E-07  4256   0.448E-03    0.365E-03
DAV:  18    -0.148524119584E+03   -0.40245E-04   -0.71954E-07  4368   0.345E-03    0.321E-03
DAV:  19    -0.148524145573E+03   -0.25989E-04   -0.57836E-07  4284   0.356E-03    0.223E-03
DAV:  20    -0.148524157677E+03   -0.12105E-04   -0.34626E-07  3822   0.220E-03    0.135E-03
DAV:  21    -0.148524167852E+03   -0.10175E-04   -0.22529E-07  3892   0.187E-03    0.110E-03
DAV:  22    -0.148524182979E+03   -0.15127E-04   -0.32307E-07  4228   0.165E-03    0.155E-03
DAV:  23    -0.148524196045E+03   -0.13066E-04   -0.33085E-07  4172   0.186E-03    0.866E-04
DAV:  24    -0.148524196848E+03   -0.80304E-06   -0.12750E-07  3906   0.122E-03
  34 F= -.15477923E+03 E0= -.15477921E+03  d E =-.323087E-01  mag=    29.9997
       N       E                     dE             d eps       ncg     rms          rms(c)
DAV:   1    -0.148498979002E+03    0.25217E-01   -0.37344E+00  5544   0.384E+00    0.126E+00
DAV:   2    -0.148526340735E+03   -0.27362E-01   -0.24702E-01  7994   0.165E+00    0.630E-01
DAV:   3    -0.148529790848E+03   -0.34501E-02   -0.56548E-03  7952   0.351E-01    0.342E-01
DAV:   4    -0.148529488166E+03    0.30268E-03   -0.71093E-04  8596   0.933E-02    0.249E-01
DAV:   5    -0.148529292773E+03    0.19539E-03   -0.81714E-04  7644   0.802E-02    0.165E-01
DAV:   6    -0.148529302971E+03   -0.10198E-04   -0.50428E-04  8218   0.827E-02    0.687E-02
DAV:   7    -0.148529386421E+03   -0.83450E-04   -0.12197E-04  8190   0.421E-02    0.476E-02
DAV:   8    -0.148529500676E+03   -0.11426E-03   -0.21649E-04  7812   0.315E-02    0.989E-02
DAV:   9    -0.148529452568E+03    0.48108E-04   -0.11564E-05  6930   0.144E-02    0.993E-02
DAV:  10    -0.148529416150E+03    0.36418E-04   -0.13739E-06  4956   0.707E-03    0.102E-01
DAV:  11    -0.148529444421E+03   -0.28271E-04   -0.49932E-05  7322   0.688E-02    0.514E-02
DAV:  12    -0.148529457277E+03   -0.12856E-04   -0.44620E-05  7714   0.545E-02    0.180E-02
DAV:  13    -0.148529537259E+03   -0.79982E-04   -0.13461E-05  7882   0.165E-02    0.197E-02
DAV:  14    -0.148529643454E+03   -0.10619E-03   -0.59350E-06  7266   0.144E-02    0.961E-03
DAV:  15    -0.148529679317E+03   -0.35863E-04   -0.15006E-06  5390   0.753E-03    0.562E-03
DAV:  16    -0.148529701484E+03   -0.22167E-04   -0.61905E-07  4046   0.283E-03    0.442E-03
DAV:  17    -0.148529724601E+03   -0.23117E-04   -0.35736E-07  4088   0.223E-03    0.295E-03
DAV:  18    -0.148529751320E+03   -0.26719E-04   -0.48050E-07  4158   0.283E-03    0.114E-03
DAV:  19    -0.148529764290E+03   -0.12970E-04   -0.41582E-07  4172   0.218E-03    0.991E-04
DAV:  20    -0.148529770357E+03   -0.60669E-05   -0.17342E-07  3780   0.141E-03    0.998E-04
DAV:  21    -0.148529773788E+03   -0.34310E-05   -0.96448E-08  3864   0.110E-03    0.866E-04
DAV:  22    -0.148529779610E+03   -0.58217E-05   -0.91786E-08  3962   0.831E-04    0.623E-04
DAV:  23    -0.148529787177E+03   -0.75672E-05   -0.13866E-07  4144   0.887E-04    0.480E-04
DAV:  24    -0.148529789947E+03   -0.27705E-05   -0.84193E-08  3864   0.877E-04    0.363E-04
DAV:  25    -0.148529790499E+03   -0.55196E-06   -0.42918E-08  3850   0.618E-04
  35 F= -.15478413E+03 E0= -.15478403E+03  d E =-.372012E-01  mag=    29.9985
       N       E                     dE             d eps       ncg     rms          rms(c)
DAV:   1    -0.148457141109E+03    0.72649E-01   -0.10204E+01  5544   0.643E+00    0.224E+00
DAV:   2    -0.148537003768E+03   -0.79863E-01   -0.68109E-01  8092   0.271E+00    0.108E+00
DAV:   3    -0.148547401683E+03   -0.10398E-01   -0.15117E-02  7994   0.566E-01    0.605E-01
DAV:   4    -0.148546727045E+03    0.67464E-03   -0.17197E-03  8512   0.143E-01    0.453E-01
DAV:   5    -0.148546409142E+03    0.31790E-03   -0.19791E-03  7756   0.127E-01    0.301E-01
DAV:   6    -0.148546748189E+03   -0.33905E-03   -0.17502E-03  8036   0.949E-02    0.137E-01
DAV:   7    -0.148546885261E+03   -0.13707E-03   -0.27533E-04  7882   0.591E-02    0.161E-01
DAV:   8    -0.148546766482E+03    0.11878E-03   -0.19073E-05  6160   0.179E-02    0.163E-01
DAV:   9    -0.148546729982E+03    0.36500E-04   -0.46020E-05  7644   0.355E-02    0.117E-01
DAV:  10    -0.148546855841E+03   -0.12586E-03   -0.18404E-04  7602   0.926E-02    0.585E-02
DAV:  11    -0.148546931718E+03   -0.75877E-04   -0.44068E-05  7980   0.254E-02    0.571E-02
DAV:  12    -0.148546994630E+03   -0.62912E-04   -0.27946E-05  7994   0.372E-02    0.151E-02
DAV:  13    -0.148547039162E+03   -0.44532E-04   -0.81948E-06  7616   0.133E-02    0.100E-02
DAV:  14    -0.148547072526E+03   -0.33364E-04   -0.82686E-07  4662   0.567E-03    0.789E-03
DAV:  15    -0.148547120651E+03   -0.48125E-04   -0.11120E-06  4312   0.441E-03    0.617E-03
DAV:  16    -0.148547151174E+03   -0.30523E-04   -0.99144E-07  4396   0.386E-03    0.433E-03
DAV:  17    -0.148547160897E+03   -0.97232E-05   -0.49710E-07  4158   0.274E-03    0.365E-03
DAV:  18    -0.148547173961E+03   -0.13064E-04   -0.30039E-07  4088   0.270E-03    0.255E-03
DAV:  19    -0.148547189157E+03   -0.15196E-04   -0.35276E-07  4284   0.256E-03    0.140E-03
DAV:  20    -0.148547198469E+03   -0.93121E-05   -0.35458E-07  4172   0.192E-03    0.791E-04
DAV:  21    -0.148547200094E+03   -0.16246E-05   -0.16185E-07  3906   0.155E-03    0.729E-04
DAV:  22    -0.148547201270E+03   -0.11764E-05   -0.80678E-08  3766   0.871E-04    0.481E-04
DAV:  23    -0.148547203134E+03   -0.18639E-05   -0.59224E-08  3752   0.830E-04    0.476E-04
DAV:  24    -0.148547205205E+03   -0.20712E-05   -0.68136E-08  4060   0.682E-04    0.380E-04
DAV:  25    -0.148547206463E+03   -0.12578E-05   -0.50337E-08  3724   0.689E-04    0.401E-04
DAV:  26    -0.148547206656E+03   -0.19335E-06   -0.23727E-08  3906   0.485E-04
  36 F= -.15480231E+03 E0= -.15480218E+03  d E =-.181892E-01  mag=    29.9977
       N       E                     dE             d eps       ncg     rms          rms(c)
DAV:   1    -0.148542550395E+03    0.46561E-02   -0.58909E-01  5558   0.154E+00    0.532E-01
DAV:   2    -0.148546864175E+03   -0.43138E-02   -0.39237E-02  7798   0.654E-01    0.252E-01
DAV:   3    -0.148547709659E+03   -0.84548E-03   -0.94233E-04  7938   0.149E-01    0.144E-01
DAV:   4    -0.148547672169E+03    0.37490E-04   -0.97821E-05  8386   0.365E-02    0.107E-01
DAV:   5    -0.148547657261E+03    0.14907E-04   -0.12082E-04  7350   0.295E-02    0.721E-02
DAV:   6    -0.148547682463E+03   -0.25202E-04   -0.95730E-05  7756   0.238E-02    0.229E-02
DAV:   7    -0.148547696860E+03   -0.14397E-04   -0.24788E-05  7406   0.141E-02    0.274E-02
DAV:   8    -0.148547694403E+03    0.24567E-05   -0.19355E-06  4578   0.567E-03    0.294E-02
DAV:   9    -0.148547678094E+03    0.16309E-04   -0.37907E-06  6048   0.150E-02    0.341E-02
DAV:  10    -0.148547679310E+03   -0.12159E-05   -0.58073E-07  4592   0.560E-03    0.381E-02
DAV:  11    -0.148547697139E+03   -0.17829E-04   -0.11174E-05  6706   0.306E-02    0.793E-03
DAV:  12    -0.148547709606E+03   -0.12467E-04   -0.23377E-06  5334   0.521E-03    0.373E-03
DAV:  13    -0.148547715815E+03   -0.62096E-05   -0.80907E-07  3836   0.358E-03    0.287E-03
DAV:  14    -0.148547721753E+03   -0.59376E-05   -0.43186E-07  4060   0.284E-03    0.208E-03
DAV:  15    -0.148547727858E+03   -0.61051E-05   -0.34763E-07  3920   0.227E-03    0.138E-03
DAV:  16    -0.148547731554E+03   -0.36964E-05   -0.17203E-07  3850   0.188E-03    0.112E-03
DAV:  17    -0.148547735678E+03   -0.41240E-05   -0.96415E-08  3878   0.118E-03    0.824E-04
DAV:  18    -0.148547739517E+03   -0.38389E-05   -0.75579E-08  3934   0.101E-03    0.613E-04
DAV:  19    -0.148547742460E+03   -0.29430E-05   -0.92425E-08  3948   0.876E-04    0.518E-04
DAV:  20    -0.148547742927E+03   -0.46647E-06   -0.38624E-08  3906   0.809E-04
  37 F= -.15480302E+03 E0= -.15480287E+03  d E =-.188965E-01  mag=    29.9974
       N       E                     dE             d eps       ncg     rms          rms(c)
DAV:   1    -0.148503808300E+03    0.43934E-01   -0.50811E+00  5544   0.456E+00    0.165E+00
DAV:   2    -0.148544021624E+03   -0.40213E-01   -0.29564E-01  7910   0.177E+00    0.810E-01
DAV:   3    -0.148555835832E+03   -0.11814E-01   -0.83439E-03  7686   0.380E-01    0.391E-01
DAV:   4    -0.148555604491E+03    0.23134E-03   -0.84121E-04  8190   0.979E-02    0.292E-01
DAV:   5    -0.148555931688E+03   -0.32720E-03   -0.13433E-03  7630   0.979E-02    0.187E-01
DAV:   6    -0.148556364286E+03   -0.43260E-03   -0.89601E-04  8078   0.757E-02    0.149E-01
DAV:   7    -0.148556312953E+03    0.51333E-04   -0.48612E-05  7294   0.290E-02    0.156E-01
DAV:   8    -0.148556231932E+03    0.81022E-04   -0.86923E-06  7168   0.188E-02    0.159E-01
DAV:   9    -0.148556045004E+03    0.18693E-03   -0.10422E-04  7644   0.850E-02    0.206E-01
DAV:  10    -0.148556272808E+03   -0.22780E-03   -0.55135E-05  7252   0.676E-02    0.151E-01
DAV:  11    -0.148556363382E+03   -0.90574E-04   -0.22419E-04  7560   0.102E-01    0.237E-02
DAV:  12    -0.148556454948E+03   -0.91566E-04   -0.25299E-05  6300   0.205E-02    0.159E-02
DAV:  13    -0.148556493628E+03   -0.38680E-04   -0.20327E-06  4956   0.107E-02    0.116E-02
DAV:  14    -0.148556548098E+03   -0.54469E-04   -0.32491E-06  5740   0.905E-03    0.804E-03
DAV:  15    -0.148556596890E+03   -0.48792E-04   -0.23088E-06  4956   0.686E-03    0.450E-03
DAV:  16    -0.148556619163E+03   -0.22273E-04   -0.12992E-06  4704   0.426E-03    0.310E-03
DAV:  17    -0.148556643651E+03   -0.24488E-04   -0.44859E-07  4200   0.360E-03    0.233E-03
DAV:  18    -0.148556660771E+03   -0.17120E-04   -0.66885E-07  4242   0.311E-03    0.210E-03
DAV:  19    -0.148556665696E+03   -0.49253E-05   -0.33883E-07  4004   0.209E-03    0.107E-03
DAV:  20    -0.148556669450E+03   -0.37536E-05   -0.16450E-07  3850   0.145E-03    0.110E-03
DAV:  21    -0.148556672690E+03   -0.32398E-05   -0.12606E-07  3808   0.135E-03    0.492E-04
DAV:  22    -0.148556675182E+03   -0.24927E-05   -0.11777E-07  3920   0.102E-03    0.480E-04
DAV:  23    -0.148556675749E+03   -0.56706E-06   -0.55930E-08  3878   0.863E-04
  38 F= -.15481329E+03 E0= -.15481305E+03  d E =-.102672E-01  mag=    29.9958
       N       E                     dE             d eps       ncg     rms          rms(c)
DAV:   1    -0.148525346980E+03    0.31328E-01   -0.31551E+00  5544   0.360E+00    0.130E+00
DAV:   2    -0.148549830221E+03   -0.24483E-01   -0.18314E-01  7812   0.139E+00    0.627E-01
DAV:   3    -0.148557567534E+03   -0.77373E-02   -0.52551E-03  7420   0.299E-01    0.306E-01
DAV:   4    -0.148557420186E+03    0.14735E-03   -0.51005E-04  8274   0.729E-02    0.229E-01
DAV:   5    -0.148557629182E+03   -0.20900E-03   -0.84282E-04  7420   0.787E-02    0.144E-01
DAV:   6    -0.148557904818E+03   -0.27564E-03   -0.55629E-04  7966   0.595E-02    0.111E-01
DAV:   7    -0.148557877309E+03    0.27509E-04   -0.30555E-05  7392   0.228E-02    0.116E-01
DAV:   8    -0.148557824234E+03    0.53074E-04   -0.56537E-06  6776   0.154E-02    0.119E-01
DAV:   9    -0.148557726351E+03    0.97884E-04   -0.52134E-05  7616   0.611E-02    0.155E-01
DAV:  10    -0.148557870218E+03   -0.14387E-03   -0.74768E-05  7294   0.831E-02    0.835E-02
DAV:  11    -0.148557934444E+03   -0.64227E-04   -0.11220E-04  7700   0.501E-02    0.163E-02
DAV:  12    -0.148557988173E+03   -0.53728E-04   -0.93835E-06  7252   0.161E-02    0.111E-02
DAV:  13    -0.148558020612E+03   -0.32440E-04   -0.94788E-07  4410   0.777E-03    0.840E-03
DAV:  14    -0.148558073924E+03   -0.53312E-04   -0.35087E-06  5572   0.826E-03    0.522E-03
DAV:  15    -0.148558093642E+03   -0.19718E-04   -0.96059E-07  4242   0.476E-03    0.331E-03
DAV:  16    -0.148558111363E+03   -0.17721E-04   -0.62677E-07  4396   0.322E-03    0.275E-03
DAV:  17    -0.148558127107E+03   -0.15744E-04   -0.61898E-07  4256   0.268E-03    0.167E-03
DAV:  18    -0.148558134934E+03   -0.78274E-05   -0.34729E-07  3990   0.226E-03    0.106E-03
DAV:  19    -0.148558137373E+03   -0.24383E-05   -0.17442E-07  3850   0.163E-03    0.898E-04
DAV:  20    -0.148558138950E+03   -0.15776E-05   -0.96803E-08  3780   0.121E-03    0.577E-04
DAV:  21    -0.148558140928E+03   -0.19778E-05   -0.89670E-08  3962   0.974E-04    0.439E-04
DAV:  22    -0.148558141934E+03   -0.10064E-05   -0.65796E-08  3780   0.877E-04    0.328E-04
DAV:  23    -0.148558142012E+03   -0.78046E-07   -0.25835E-08  3836   0.600E-04
  39 F= -.15481576E+03 E0= -.15481544E+03  d E =-.127359E-01  mag=    29.9942
       N       E                     dE             d eps       ncg     rms          rms(c)
DAV:   1    -0.148500086503E+03    0.58055E-01   -0.68661E+00  5544   0.522E+00    0.194E+00
DAV:   2    -0.148555011932E+03   -0.54925E-01   -0.44244E-01  8092   0.225E+00    0.978E-01
DAV:   3    -0.148563648538E+03   -0.86366E-02   -0.97393E-03  7854   0.437E-01    0.489E-01
DAV:   4    -0.148563161242E+03    0.48730E-03   -0.13452E-03  8218   0.150E-01    0.365E-01
DAV:   5    -0.148562800745E+03    0.36050E-03   -0.15566E-03  7980   0.151E-01    0.240E-01
DAV:   6    -0.148563008635E+03   -0.20789E-03   -0.19259E-03  8246   0.119E-01    0.163E-01
DAV:   7    -0.148563190545E+03   -0.18191E-03   -0.48190E-04  7840   0.591E-02    0.201E-01
DAV:   8    -0.148562928926E+03    0.26162E-03   -0.47629E-05  7098   0.396E-02    0.207E-01
DAV:   9    -0.148562965570E+03   -0.36644E-04   -0.64017E-06  6888   0.235E-02    0.190E-01
DAV:  10    -0.148563137785E+03   -0.17222E-03   -0.34137E-04  7602   0.161E-01    0.543E-02
DAV:  11    -0.148563367510E+03   -0.22972E-03   -0.87014E-05  7952   0.541E-02    0.308E-02
DAV:  12    -0.148563561788E+03   -0.19428E-03   -0.19464E-05  8106   0.244E-02    0.154E-02
DAV:  13    -0.148563740036E+03   -0.17825E-03   -0.48645E-06  6622   0.132E-02    0.114E-02
DAV:  14    -0.148563938947E+03   -0.19891E-03   -0.61924E-06  6846   0.113E-02    0.751E-03
DAV:  15    -0.148564078723E+03   -0.13978E-03   -0.34110E-06  5726   0.716E-03    0.526E-03
DAV:  16    -0.148564179428E+03   -0.10071E-03   -0.32101E-06  5684   0.720E-03    0.317E-03
DAV:  17    -0.148564222686E+03   -0.43258E-04   -0.13842E-06  4928   0.401E-03    0.195E-03
DAV:  18    -0.148564243102E+03   -0.20416E-04   -0.59202E-07  4368   0.295E-03    0.141E-03
DAV:  19    -0.148564247049E+03   -0.39466E-05   -0.23454E-07  3906   0.188E-03    0.898E-04
DAV:  20    -0.148564250950E+03   -0.39012E-05   -0.15027E-07  3892   0.126E-03    0.758E-04
DAV:  21    -0.148564254171E+03   -0.32211E-05   -0.11190E-07  3766   0.111E-03    0.485E-04
DAV:  22    -0.148564256516E+03   -0.23451E-05   -0.90735E-08  3920   0.903E-04    0.364E-04
DAV:  23    -0.148564257580E+03   -0.10638E-05   -0.56314E-08  3850   0.760E-04    0.223E-04
DAV:  24    -0.148564258042E+03   -0.46227E-06   -0.31166E-08  3780   0.528E-04
  40 F= -.15482300E+03 E0= -.15482245E+03  d E =-.724657E-02  mag=    29.9894
       N       E                     dE             d eps       ncg     rms          rms(c)
DAV:   1    -0.148559683635E+03    0.45739E-02   -0.49855E-01  5544   0.140E+00    0.522E-01
DAV:   2    -0.148563227041E+03   -0.35434E-02   -0.31391E-02  7854   0.593E-01    0.245E-01
DAV:   3    -0.148564184211E+03   -0.95717E-03   -0.81061E-04  7560   0.121E-01    0.131E-01
DAV:   4    -0.148564145877E+03    0.38334E-04   -0.90404E-05  8260   0.343E-02    0.980E-02
DAV:   5    -0.148564102649E+03    0.43228E-04   -0.11032E-04  7966   0.442E-02    0.691E-02
DAV:   6    -0.148564099514E+03    0.31359E-05   -0.15660E-04  8316   0.403E-02    0.444E-02
DAV:   7    -0.148564114260E+03   -0.14746E-04   -0.37158E-05  7476   0.165E-02    0.524E-02
DAV:   8    -0.148564093875E+03    0.20384E-04   -0.14888E-06  4662   0.598E-03    0.532E-02
DAV:   9    -0.148564100361E+03   -0.64859E-05   -0.18677E-06  5712   0.124E-02    0.432E-02
DAV:  10    -0.148564119284E+03   -0.18922E-04   -0.12917E-05  7504   0.304E-02    0.189E-02
DAV:  11    -0.148564151897E+03   -0.32613E-04   -0.97157E-06  7322   0.193E-02    0.139E-02
DAV:  12    -0.148564189205E+03   -0.37308E-04   -0.32222E-06  6790   0.124E-02    0.578E-03
DAV:  13    -0.148564214335E+03   -0.25130E-04   -0.64928E-07  4284   0.553E-03    0.317E-03
DAV:  14    -0.148564240948E+03   -0.26613E-04   -0.61056E-07  4326   0.332E-03    0.266E-03
DAV:  15    -0.148564261645E+03   -0.20697E-04   -0.49889E-07  4298   0.265E-03    0.189E-03
DAV:  16    -0.148564279071E+03   -0.17426E-04   -0.52154E-07  4326   0.265E-03    0.143E-03
DAV:  17    -0.148564284077E+03   -0.50062E-05   -0.30912E-07  3990   0.203E-03    0.911E-04
DAV:  18    -0.148564287214E+03   -0.31368E-05   -0.18035E-07  3864   0.129E-03    0.670E-04
DAV:  19    -0.148564289162E+03   -0.19477E-05   -0.11199E-07  3808   0.112E-03    0.427E-04
DAV:  20    -0.148564290515E+03   -0.13534E-05   -0.78341E-08  3724   0.810E-04    0.319E-04
DAV:  21    -0.148564291160E+03   -0.64453E-06   -0.48527E-08  3836   0.697E-04
  41 F= -.15482333E+03 E0= -.15482270E+03  d E =-.756799E-02  mag=    29.9878
       N       E                     dE             d eps       ncg     rms          rms(c)
DAV:   1    -0.148532559326E+03    0.31731E-01   -0.33074E+00  5544   0.365E+00    0.136E+00
DAV:   2    -0.148557836553E+03   -0.25277E-01   -0.18297E-01  7938   0.141E+00    0.667E-01
DAV:   3    -0.148565404480E+03   -0.75679E-02   -0.66188E-03  7882   0.373E-01    0.332E-01
DAV:   4    -0.148565168697E+03    0.23578E-03   -0.61911E-04  8484   0.117E-01    0.242E-01
DAV:   5    -0.148565118124E+03    0.50572E-04   -0.55646E-04  8596   0.135E-01    0.190E-01
DAV:   6    -0.148565143575E+03   -0.25451E-04   -0.65842E-04  8344   0.155E-01    0.829E-02
DAV:   7    -0.148565293986E+03   -0.15041E-03   -0.25386E-04  8498   0.647E-02    0.620E-02
DAV:   8    -0.148565377610E+03   -0.83625E-04   -0.13596E-04  7756   0.237E-02    0.839E-02
DAV:   9    -0.148565287804E+03    0.89806E-04   -0.27540E-05  7112   0.275E-02    0.871E-02
DAV:  10    -0.148565310008E+03   -0.22204E-04   -0.18288E-06  5488   0.110E-02    0.795E-02
DAV:  11    -0.148565478348E+03   -0.16834E-03   -0.81461E-05  7574   0.647E-02    0.209E-02
DAV:  12    -0.148565664866E+03   -0.18652E-03   -0.15900E-05  7910   0.160E-02    0.141E-02
DAV:  13    -0.148565863161E+03   -0.19830E-03   -0.62734E-06  6720   0.845E-03    0.722E-03
DAV:  14    -0.148566004408E+03   -0.14125E-03   -0.17940E-06  5082   0.717E-03    0.570E-03
DAV:  15    -0.148566150005E+03   -0.14560E-03   -0.25746E-06  5376   0.483E-03    0.430E-03
DAV:  16    -0.148566269568E+03   -0.11956E-03   -0.21255E-06  5320   0.463E-03    0.264E-03
DAV:  17    -0.148566337118E+03   -0.67550E-04   -0.13372E-06  4886   0.312E-03    0.153E-03
DAV:  18    -0.148566371076E+03   -0.33958E-04   -0.63539E-07  4368   0.278E-03    0.120E-03
DAV:  19    -0.148566381859E+03   -0.10783E-04   -0.37204E-07  4018   0.217E-03    0.820E-04
DAV:  20    -0.148566387130E+03   -0.52708E-05   -0.22135E-07  3780   0.146E-03    0.577E-04
DAV:  21    -0.148566392487E+03   -0.53568E-05   -0.18839E-07  4172   0.123E-03    0.497E-04
DAV:  22    -0.148566394551E+03   -0.20641E-05   -0.11419E-07  3822   0.108E-03    0.322E-04
DAV:  23    -0.148566395228E+03   -0.67731E-06   -0.61998E-08  3780   0.733E-04
  42 F= -.15482674E+03 E0= -.15482591E+03  d E =-.341482E-02  mag=    29.9831
       N       E                     dE             d eps       ncg     rms          rms(c)
DAV:   1    -0.148565450235E+03    0.94432E-03   -0.79431E-02  5614   0.566E-01    0.211E-01
DAV:   2    -0.148565876464E+03   -0.42623E-03   -0.43588E-03  7812   0.221E-01    0.102E-01
DAV:   3    -0.148566200452E+03   -0.32399E-03   -0.17602E-04  7700   0.709E-02    0.525E-02
DAV:   4    -0.148566190319E+03    0.10133E-04   -0.16448E-05  8344   0.267E-02    0.374E-02
DAV:   5    -0.148566183585E+03    0.67336E-05   -0.10835E-05  7938   0.191E-02    0.303E-02
DAV:   6    -0.148566171222E+03    0.12364E-04   -0.19410E-05  7994   0.190E-02    0.116E-02
DAV:   7    -0.148566180635E+03   -0.94132E-05   -0.41948E-06  5264   0.710E-03    0.704E-03
DAV:   8    -0.148566188802E+03   -0.81675E-05   -0.57007E-06  3780   0.500E-03    0.116E-02
DAV:   9    -0.148566186368E+03    0.24346E-05   -0.39118E-07  3808   0.320E-03    0.120E-02
DAV:  10    -0.148566185201E+03    0.11665E-05   -0.89676E-08  3766   0.187E-03    0.130E-02
DAV:  11    -0.148566191401E+03   -0.62003E-05   -0.33116E-07  3850   0.545E-03    0.830E-03
DAV:  12    -0.148566203860E+03   -0.12458E-04   -0.12265E-06  4676   0.690E-03    0.315E-03
DAV:  13    -0.148566213929E+03   -0.10069E-04   -0.42595E-07  3920   0.227E-03    0.244E-03
DAV:  14    -0.148566222330E+03   -0.84010E-05   -0.15499E-07  3794   0.145E-03    0.165E-03
DAV:  15    -0.148566236033E+03   -0.13703E-04   -0.21468E-07  4018   0.152E-03    0.108E-03
DAV:  16    -0.148566244011E+03   -0.79785E-05   -0.16731E-07  4004   0.156E-03    0.968E-04
DAV:  17    -0.148566246822E+03   -0.28111E-05   -0.85311E-08  3836   0.106E-03    0.726E-04
DAV:  18    -0.148566249921E+03   -0.30983E-05   -0.58332E-08  3738   0.796E-04    0.541E-04
DAV:  19    -0.148566253988E+03   -0.40670E-05   -0.67199E-08  3948   0.709E-04    0.409E-04
DAV:  20    -0.148566258292E+03   -0.43039E-05   -0.11171E-07  4060   0.782E-04    0.392E-04
DAV:  21    -0.148566258851E+03   -0.55979E-06   -0.51693E-08  3864   0.823E-04
  43 F= -.15482680E+03 E0= -.15482594E+03  d E =-.347718E-02  mag=    29.9823
       N       E                     dE             d eps       ncg     rms          rms(c)
DAV:   1    -0.148543548031E+03    0.22710E-01   -0.24842E+00  5544   0.316E+00    0.113E+00
DAV:   2    -0.148561034095E+03   -0.17486E-01   -0.13464E-01  7798   0.118E+00    0.551E-01
DAV:   3    -0.148567022382E+03   -0.59883E-02   -0.47769E-03  7728   0.334E-01    0.276E-01
DAV:   4    -0.148566862821E+03    0.15956E-03   -0.42368E-04  8358   0.120E-01    0.202E-01
DAV:   5    -0.148566803796E+03    0.59025E-04   -0.33100E-04  8498   0.131E-01    0.175E-01
DAV:   6    -0.148566681567E+03    0.12223E-03   -0.64426E-04  8414   0.134E-01    0.767E-02
DAV:   7    -0.148566797334E+03   -0.11577E-03   -0.32521E-04  8428   0.500E-02    0.789E-02
DAV:   8    -0.148566790608E+03    0.67260E-05   -0.16918E-05  7154   0.140E-02    0.839E-02
DAV:   9    -0.148566736518E+03    0.54090E-04   -0.15090E-05  6776   0.200E-02    0.863E-02
DAV:  10    -0.148566718531E+03    0.17987E-04   -0.23842E-05  7630   0.368E-02    0.109E-01
DAV:  11    -0.148566807031E+03   -0.88500E-04   -0.42802E-05  7294   0.606E-02    0.605E-02
DAV:  12    -0.148566999820E+03   -0.19279E-03   -0.66375E-05  7826   0.458E-02    0.131E-02
DAV:  13    -0.148567173704E+03   -0.17388E-03   -0.10645E-05  6552   0.111E-02    0.850E-03
DAV:  14    -0.148567332847E+03   -0.15914E-03   -0.23007E-06  5068   0.796E-03    0.678E-03
DAV:  15    -0.148567491613E+03   -0.15877E-03   -0.40137E-06  5936   0.698E-03    0.508E-03
DAV:  16    -0.148567610764E+03   -0.11915E-03   -0.17120E-06  5012   0.459E-03    0.331E-03
DAV:  17    -0.148567700842E+03   -0.90079E-04   -0.20216E-06  5306   0.425E-03    0.214E-03
DAV:  18    -0.148567727080E+03   -0.26237E-04   -0.51258E-07  4480   0.311E-03    0.146E-03
DAV:  19    -0.148567746714E+03   -0.19634E-04   -0.47445E-07  4144   0.221E-03    0.124E-03
DAV:  20    -0.148567754906E+03   -0.81918E-05   -0.28867E-07  4060   0.184E-03    0.672E-04
DAV:  21    -0.148567758492E+03   -0.35866E-05   -0.16478E-07  3780   0.132E-03    0.566E-04
DAV:  22    -0.148567761634E+03   -0.31414E-05   -0.12290E-07  4088   0.109E-03    0.377E-04
DAV:  23    -0.148567763811E+03   -0.21769E-05   -0.91287E-08  3892   0.873E-04    0.300E-04
DAV:  24    -0.148567764807E+03   -0.99599E-06   -0.56818E-08  3780   0.737E-04
  44 F= -.15482977E+03 E0= -.15482877E+03  d E =-.297007E-02  mag=    29.9791
       N       E                     dE             d eps       ncg     rms          rms(c)
DAV:   1    -0.148559319518E+03    0.84443E-02   -0.82981E-01  5544   0.183E+00    0.649E-01
DAV:   2    -0.148564663647E+03   -0.53441E-02   -0.44854E-02  7700   0.687E-01    0.318E-01
DAV:   3    -0.148567084892E+03   -0.24212E-02   -0.17099E-03  7798   0.225E-01    0.165E-01
DAV:   4    -0.148567012428E+03    0.72464E-04   -0.16962E-04  8232   0.951E-02    0.117E-01
DAV:   5    -0.148566972794E+03    0.39633E-04   -0.92411E-05  8610   0.693E-02    0.100E-01
DAV:   6    -0.148566888165E+03    0.84629E-04   -0.23296E-04  8050   0.606E-02    0.393E-02
DAV:   7    -0.148566936548E+03   -0.48383E-04   -0.81078E-05  7910   0.211E-02    0.321E-02
DAV:   8    -0.148566966318E+03   -0.29770E-04   -0.30039E-05  5712   0.119E-02    0.420E-02
DAV:   9    -0.148566937625E+03    0.28692E-04   -0.84292E-06  6398   0.149E-02    0.433E-02
DAV:  10    -0.148566935774E+03    0.18517E-05   -0.67318E-07  4858   0.696E-03    0.486E-02
DAV:  11    -0.148566996329E+03   -0.60556E-04   -0.21440E-05  7154   0.400E-02    0.120E-02
DAV:  12    -0.148567076899E+03   -0.80570E-04   -0.52887E-06  6986   0.879E-03    0.656E-03
DAV:  13    -0.148567155846E+03   -0.78947E-04   -0.16305E-06  4718   0.656E-03    0.493E-03
DAV:  14    -0.148567232396E+03   -0.76550E-04   -0.15922E-06  4872   0.597E-03    0.349E-03
DAV:  15    -0.148567289764E+03   -0.57368E-04   -0.12927E-06  4522   0.361E-03    0.307E-03
DAV:  16    -0.148567329017E+03   -0.39253E-04   -0.79400E-07  4564   0.330E-03    0.191E-03
DAV:  17    -0.148567351372E+03   -0.22355E-04   -0.49204E-07  4130   0.241E-03    0.168E-03
DAV:  18    -0.148567371450E+03   -0.20079E-04   -0.46196E-07  4158   0.242E-03    0.112E-03
DAV:  19    -0.148567383327E+03   -0.11876E-04   -0.43383E-07  4130   0.188E-03    0.798E-04
DAV:  20    -0.148567387471E+03   -0.41445E-05   -0.22002E-07  3850   0.159E-03    0.422E-04
DAV:  21    -0.148567388873E+03   -0.14018E-05   -0.11950E-07  3794   0.106E-03    0.321E-04
DAV:  22    -0.148567390566E+03   -0.16926E-05   -0.84444E-08  3920   0.808E-04    0.237E-04
DAV:  23    -0.148567391939E+03   -0.13737E-05   -0.63869E-08  3808   0.706E-04    0.161E-04
DAV:  24    -0.148567392736E+03   -0.79629E-06   -0.48409E-08  3864   0.586E-04
  45 F= -.15483023E+03 E0= -.15482914E+03  d E =-.342804E-02  mag=    29.9770
       N       E                     dE             d eps       ncg     rms          rms(c)
DAV:   1    -0.148549888071E+03    0.17504E-01   -0.22644E+00  5544   0.300E+00    0.102E+00
DAV:   2    -0.148565436859E+03   -0.15549E-01   -0.14468E-01  7854   0.125E+00    0.493E-01
DAV:   3    -0.148568712088E+03   -0.32752E-02   -0.34378E-03  7924   0.290E-01    0.278E-01
DAV:   4    -0.148568607823E+03    0.10427E-03   -0.33840E-04  8148   0.955E-02    0.209E-01
DAV:   5    -0.148568635586E+03   -0.27763E-04   -0.27531E-04  8638   0.113E-01    0.177E-01
DAV:   6    -0.148568768894E+03   -0.13331E-03   -0.52538E-04  8386   0.128E-01    0.867E-02
DAV:   7    -0.148568863029E+03   -0.94135E-04   -0.29647E-04  8624   0.514E-02    0.727E-02
DAV:   8    -0.148568849690E+03    0.13339E-04   -0.17100E-05  7028   0.139E-02    0.784E-02
DAV:   9    -0.148568796473E+03    0.53217E-04   -0.22346E-05  7238   0.247E-02    0.817E-02
DAV:  10    -0.148568765879E+03    0.30594E-04   -0.17544E-05  7826   0.332E-02    0.104E-01
DAV:  11    -0.148568852228E+03   -0.86349E-04   -0.62475E-05  7294   0.735E-02    0.421E-02
DAV:  12    -0.148568880550E+03   -0.28322E-04   -0.36238E-05  7798   0.300E-02    0.108E-02
DAV:  13    -0.148568900967E+03   -0.20417E-04   -0.51145E-06  5936   0.881E-03    0.738E-03
DAV:  14    -0.148568915832E+03   -0.14866E-04   -0.11675E-06  3962   0.680E-03    0.552E-03
DAV:  15    -0.148568929020E+03   -0.13188E-04   -0.18875E-06  4844   0.628E-03    0.448E-03
DAV:  16    -0.148568936216E+03   -0.71958E-05   -0.10251E-06  4284   0.465E-03    0.263E-03
DAV:  17    -0.148568941312E+03   -0.50957E-05   -0.51273E-07  4116   0.309E-03    0.197E-03
DAV:  18    -0.148568944422E+03   -0.31099E-05   -0.30464E-07  3836   0.261E-03    0.135E-03
DAV:  19    -0.148568945948E+03   -0.15264E-05   -0.27465E-07  4046   0.188E-03    0.104E-03
DAV:  20    -0.148568946364E+03   -0.41574E-06   -0.82299E-08  3850   0.136E-03
  46 F= -.15483279E+03 E0= -.15483164E+03  d E =-.256275E-02  mag=    29.9754
       N       E                     dE             d eps       ncg     rms          rms(c)
DAV:   1    -0.148557698105E+03    0.11248E-01   -0.13177E+00  5544   0.229E+00    0.778E-01
DAV:   2    -0.148566512251E+03   -0.88141E-02   -0.84162E-02  7840   0.952E-01    0.375E-01
DAV:   3    -0.148568624328E+03   -0.21121E-02   -0.20495E-03  7882   0.236E-01    0.215E-01
DAV:   4    -0.148568560783E+03    0.63545E-04   -0.21267E-04  8078   0.890E-02    0.160E-01
DAV:   5    -0.148568571895E+03   -0.11112E-04   -0.13510E-04  8568   0.846E-02    0.138E-01
DAV:   6    -0.148568663333E+03   -0.91439E-04   -0.32843E-04  8358   0.879E-02    0.642E-02
DAV:   7    -0.148568725012E+03   -0.61679E-04   -0.16082E-04  8218   0.335E-02    0.480E-02
DAV:   8    -0.148568727522E+03   -0.25096E-05   -0.23044E-05  6650   0.128E-02    0.561E-02
DAV:   9    -0.148568686052E+03    0.41470E-04   -0.18958E-05  6902   0.226E-02    0.591E-02
DAV:  10    -0.148568688574E+03   -0.25229E-05   -0.20276E-06  5978   0.104E-02    0.671E-02
DAV:  11    -0.148568725529E+03   -0.36955E-04   -0.43008E-05  7126   0.599E-02    0.151E-02
DAV:  12    -0.148568748404E+03   -0.22874E-04   -0.10506E-05  6846   0.923E-03    0.771E-03
DAV:  13    -0.148568758420E+03   -0.10017E-04   -0.12884E-06  4270   0.472E-03    0.605E-03
DAV:  14    -0.148568769660E+03   -0.11240E-04   -0.12016E-06  3948   0.612E-03    0.424E-03
DAV:  15    -0.148568775804E+03   -0.61439E-05   -0.13798E-06  4690   0.454E-03    0.315E-03
DAV:  16    -0.148568779540E+03   -0.37358E-05   -0.33318E-07  3906   0.286E-03    0.226E-03
DAV:  17    -0.148568782984E+03   -0.34443E-05   -0.27207E-07  3962   0.210E-03    0.171E-03
DAV:  18    -0.148568785539E+03   -0.25545E-05   -0.22281E-07  3794   0.212E-03    0.110E-03
DAV:  19    -0.148568786686E+03   -0.11476E-05   -0.24466E-07  3990   0.176E-03    0.678E-04
DAV:  20    -0.148568786801E+03   -0.11495E-06   -0.59437E-08  3752   0.111E-03
  47 F= -.15483338E+03 E0= -.15483218E+03  d E =-.315256E-02  mag=    29.9741
       N       E                     dE             d eps       ncg     rms          rms(c)
DAV:   1    -0.148550902098E+03    0.17885E-01   -0.22754E+00  5544   0.303E+00    0.103E+00
DAV:   2    -0.148566643913E+03   -0.15742E-01   -0.14303E-01  7980   0.123E+00    0.497E-01
DAV:   3    -0.148570391736E+03   -0.37478E-02   -0.33087E-03  7420   0.242E-01    0.263E-01
DAV:   4    -0.148570242833E+03    0.14890E-03   -0.32940E-04  8400   0.588E-02    0.200E-01
DAV:   5    -0.148570115652E+03    0.12718E-03   -0.52277E-04  8232   0.801E-02    0.142E-01
DAV:   6    -0.148570079509E+03    0.36143E-04   -0.30778E-04  8414   0.927E-02    0.702E-02
DAV:   7    -0.148570124226E+03   -0.44717E-04   -0.61561E-05  8190   0.664E-02    0.398E-02
DAV:   8    -0.148570250798E+03   -0.12657E-03   -0.31290E-04  8064   0.344E-02    0.680E-02
DAV:   9    -0.148570246475E+03    0.43237E-05   -0.36464E-05  7014   0.195E-02    0.744E-02
DAV:  10    -0.148570216126E+03    0.30348E-04   -0.20271E-06  5236   0.764E-03    0.719E-02
DAV:  11    -0.148570214283E+03    0.18433E-05   -0.12959E-05  7448   0.319E-02    0.468E-02
DAV:  12    -0.148570286615E+03   -0.72332E-04   -0.22095E-05  7644   0.392E-02    0.132E-02
DAV:  13    -0.148570420747E+03   -0.13413E-03   -0.83200E-06  7154   0.103E-02    0.553E-03
DAV:  14    -0.148570521010E+03   -0.10026E-03   -0.12496E-06  4662   0.542E-03    0.493E-03
DAV:  15    -0.148570622188E+03   -0.10118E-03   -0.17895E-06  5222   0.548E-03    0.323E-03
DAV:  16    -0.148570683354E+03   -0.61166E-04   -0.90134E-07  4522   0.359E-03    0.242E-03
DAV:  17    -0.148570721195E+03   -0.37841E-04   -0.59851E-07  4186   0.286E-03    0.201E-03
DAV:  18    -0.148570748064E+03   -0.26869E-04   -0.52403E-07  4312   0.236E-03    0.132E-03
DAV:  19    -0.148570774159E+03   -0.26096E-04   -0.52025E-07  4102   0.209E-03    0.109E-03
DAV:  20    -0.148570786189E+03   -0.12030E-04   -0.37534E-07  4186   0.200E-03    0.808E-04
DAV:  21    -0.148570793119E+03   -0.69299E-05   -0.25809E-07  3864   0.149E-03    0.665E-04
DAV:  22    -0.148570796359E+03   -0.32399E-05   -0.16026E-07  3892   0.124E-03    0.381E-04
DAV:  23    -0.148570800667E+03   -0.43078E-05   -0.17259E-07  4116   0.938E-04    0.334E-04
DAV:  24    -0.148570802514E+03   -0.18475E-05   -0.10970E-07  3766   0.103E-03    0.222E-04
DAV:  25    -0.148570802531E+03   -0.16948E-07   -0.47170E-08  3780   0.643E-04
  48 F= -.15483491E+03 E0= -.15483371E+03  d E =-.152823E-02  mag=    29.9743
       N       E                     dE             d eps       ncg     rms          rms(c)
DAV:   1    -0.148570797493E+03    0.50208E-05   -0.28541E-03  6048   0.107E-01    0.364E-02
DAV:   2    -0.148570796884E+03    0.60927E-06   -0.17910E-04  7952   0.435E-02    0.174E-02
DAV:   3    -0.148570818538E+03   -0.21654E-04   -0.43198E-06  5852   0.108E-02    0.968E-03
DAV:   4    -0.148570818099E+03    0.43878E-06   -0.51617E-07  3878   0.510E-03
  49 F= -.15483491E+03 E0= -.15483371E+03  d E =-.152597E-02  mag=    29.9743
       N       E                     dE             d eps       ncg     rms          rms(c)
DAV:   1    -0.148567282917E+03    0.35356E-02   -0.61673E-01  5544   0.157E+00    0.526E-01
DAV:   2    -0.148571397446E+03   -0.41145E-02   -0.37878E-02  8008   0.626E-01    0.255E-01
DAV:   3    -0.148572590477E+03   -0.11930E-02   -0.86579E-04  7336   0.120E-01    0.137E-01
DAV:   4    -0.148572563822E+03    0.26656E-04   -0.93932E-05  8414   0.380E-02    0.105E-01
DAV:   5    -0.148572585131E+03   -0.21310E-04   -0.12028E-04  8162   0.553E-02    0.808E-02
DAV:   6    -0.148572609559E+03   -0.24427E-04   -0.11872E-04  8330   0.701E-02    0.396E-02
DAV:   7    -0.148572637940E+03   -0.28382E-04   -0.99941E-05  8400   0.335E-02    0.466E-02
DAV:   8    -0.148572629712E+03    0.82281E-05   -0.62138E-06  5460   0.885E-03    0.502E-02
DAV:   9    -0.148572610285E+03    0.19427E-04   -0.21814E-06  5656   0.109E-02    0.547E-02
DAV:  10    -0.148572611568E+03   -0.12830E-05   -0.27610E-07  3836   0.217E-03    0.552E-02
DAV:  11    -0.148572617452E+03   -0.58840E-05   -0.39286E-07  3906   0.524E-03    0.524E-02
DAV:  12    -0.148572635741E+03   -0.18289E-04   -0.88881E-06  7308   0.239E-02    0.383E-02
DAV:  13    -0.148572643513E+03   -0.77722E-05   -0.22396E-05  7714   0.390E-02    0.251E-02
DAV:  14    -0.148572658789E+03   -0.15275E-04   -0.47981E-06  6048   0.721E-03    0.204E-02
DAV:  15    -0.148572666059E+03   -0.72707E-05   -0.29660E-06  5026   0.728E-03    0.100E-02
DAV:  16    -0.148572672406E+03   -0.63464E-05   -0.23669E-06  4634   0.585E-03    0.465E-03
DAV:  17    -0.148572680391E+03   -0.79851E-05   -0.12731E-06  4242   0.418E-03    0.408E-03
DAV:  18    -0.148572685855E+03   -0.54645E-05   -0.43265E-07  3864   0.309E-03    0.382E-03
DAV:  19    -0.148572692613E+03   -0.67581E-05   -0.27210E-07  4032   0.273E-03    0.298E-03
DAV:  20    -0.148572696279E+03   -0.36659E-05   -0.34020E-07  4032   0.202E-03    0.145E-03
DAV:  21    -0.148572697840E+03   -0.15608E-05   -0.13929E-07  3752   0.143E-03    0.123E-03
DAV:  22    -0.148572698733E+03   -0.89283E-06   -0.67287E-08  3836   0.117E-03
  50 F= -.15483561E+03 E0= -.15483443E+03  d E =-.705321E-03  mag=    29.9746
