CrCl3 2x2 + Fe S1 top-Cl (D3, U=0) (a_2x
   1.00000000000000     
    12.0925489970493256    0.0000000000000000    0.0000000000000000
    -6.0462744985246628   10.4724546279527502    0.0000000000000000
     0.0000000000000000    0.0000000000000000   20.0000000000000000
   Cr   Cl   Fe
     8    24     1
Direct
     0.1649684450437094    0.3269645252778073    0.5066497781326055
     0.3259494245141930    0.1539841782183257    0.4927376350192589
     0.6740505754858069    0.3280347537041184    0.4927376350192589
     0.8361182081514846    0.1608273072993943    0.4935752019608577
     0.1638817918485155    0.8247090991478959    0.4935752019608577
     0.3324513431782889    0.6631250640648303    0.5073318625150447
     0.6675486568217109    0.8306737208865275    0.5073318625150447
     0.8350315549562902    0.6619960802341122    0.5066497781326055
     0.1794986259192199    0.4954505295998708    0.4408856192556063
     0.5000000000000000    0.1796281822173579    0.4221213939590119
     0.3248318834559548    0.3303159481531960    0.4381912883883569
     0.3145448673901968    0.4945986467335525    0.5820424743069486
     0.9917384497715916    0.3199731995226369    0.5638936613465891
     0.1763125894435961    0.1712676264962315    0.5706185505948632
     0.6751681165440456    0.5054840646972412    0.4381912883883569
     0.0116690941687784    0.1744492825176639    0.4337196479740354
     0.8234155726349415    0.3049398250819756    0.4181184313379605
     0.8236874105564043    0.4949550370526355    0.5706185505948632
     0.5000000000000000    0.2993804041686082    0.5810125397128832
     0.6765775915383795    0.1627849435116241    0.5573057891254749
     0.1765844273650584    0.9815242524470340    0.4181184313379605
     0.5000000000000000    0.6627959443143300    0.4472514329726466
     0.3180229986791602    0.8023312140875249    0.4303816992741588
     0.3234224084616205    0.9862073519732444    0.5573057891254749
     0.0082615502284081    0.8282347497510452    0.5638936613465891
     0.1780396957031081    0.6809640878338317    0.5700217432542793
     0.6819770013208396    0.9843082154083649    0.4303816992741588
     0.9883309058312215    0.6627801883488855    0.4337196479740354
     0.8205013740807803    0.8159519036806512    0.4408856192556063
     0.8219603042968917    0.0029243921307235    0.5700217432542793
     0.5000000000000000    0.8258205711797657    0.5704294672739728
     0.6854551326098034    0.6800537793433553    0.5820424743069486
     0.5000000000000000    0.5229108324838321    0.6475245943693297
 
  0.00000000E+00  0.00000000E+00  0.00000000E+00
  0.00000000E+00  0.00000000E+00  0.00000000E+00
  0.00000000E+00  0.00000000E+00  0.00000000E+00
  0.00000000E+00  0.00000000E+00  0.00000000E+00
  0.00000000E+00  0.00000000E+00  0.00000000E+00
  0.00000000E+00  0.00000000E+00  0.00000000E+00
  0.00000000E+00  0.00000000E+00  0.00000000E+00
  0.00000000E+00  0.00000000E+00  0.00000000E+00
  0.00000000E+00  0.00000000E+00  0.00000000E+00
  0.00000000E+00  0.00000000E+00  0.00000000E+00
  0.00000000E+00  0.00000000E+00  0.00000000E+00
  0.00000000E+00  0.00000000E+00  0.00000000E+00
  0.00000000E+00  0.00000000E+00  0.00000000E+00
  0.00000000E+00  0.00000000E+00  0.00000000E+00
  0.00000000E+00  0.00000000E+00  0.00000000E+00
  0.00000000E+00  0.00000000E+00  0.00000000E+00
  0.00000000E+00  0.00000000E+00  0.00000000E+00
  0.00000000E+00  0.00000000E+00  0.00000000E+00
  0.00000000E+00  0.00000000E+00  0.00000000E+00
  0.00000000E+00  0.00000000E+00  0.00000000E+00
  0.00000000E+00  0.00000000E+00  0.00000000E+00
  0.00000000E+00  0.00000000E+00  0.00000000E+00
  0.00000000E+00  0.00000000E+00  0.00000000E+00
  0.00000000E+00  0.00000000E+00  0.00000000E+00
  0.00000000E+00  0.00000000E+00  0.00000000E+00
  0.00000000E+00  0.00000000E+00  0.00000000E+00
  0.00000000E+00  0.00000000E+00  0.00000000E+00
  0.00000000E+00  0.00000000E+00  0.00000000E+00
  0.00000000E+00  0.00000000E+00  0.00000000E+00
  0.00000000E+00  0.00000000E+00  0.00000000E+00
  0.00000000E+00  0.00000000E+00  0.00000000E+00
  0.00000000E+00  0.00000000E+00  0.00000000E+00
  0.00000000E+00  0.00000000E+00  0.00000000E+00
