Cr2Cl6 Monolayer 1x1 Primitive Cell     
   1.0000000000000000     
     6.0101092435209953    0.0000000000000000    0.0000000000000000
    -3.0050546217604976    5.2049072844088569    0.0000000000000000
     0.0000000000000000    0.0000000000000000   17.6700000000000017
  Cr              Cl            
     2     6
Direct
     0.3333333333333357    0.6666666666666643    0.5000000000000000
     0.6666666666666643    0.3333333333333357    0.5000000000000000
     0.3555352153134960    0.0000000000000000    0.4238690202523372
     0.0000000000000000    0.3555352153134960    0.4238690202523372
     0.6444647846865040    0.6444647846865040    0.4238690202523372
     0.6444647846865040    0.0000000000000000    0.5761309797476629
     0.0000000000000000    0.6444647846865040    0.5761309797476629
     0.3555352153134960    0.3555352153134960    0.5761309797476629

  0.00000000E+00  0.00000000E+00  0.00000000E+00
  0.00000000E+00  0.00000000E+00  0.00000000E+00
  0.00000000E+00  0.00000000E+00  0.00000000E+00
  0.00000000E+00  0.00000000E+00  0.00000000E+00
  0.00000000E+00  0.00000000E+00  0.00000000E+00
  0.00000000E+00  0.00000000E+00  0.00000000E+00
  0.00000000E+00  0.00000000E+00  0.00000000E+00
  0.00000000E+00  0.00000000E+00  0.00000000E+00
