       N       E                     dE             d eps       ncg     rms          rms(c)
DAV:   1     0.518779730070E+03    0.51878E+03   -0.15613E+04  2304   0.922E+02
DAV:   2     0.853686535019E+02   -0.43341E+03   -0.41214E+03  2960   0.244E+02
DAV:   3    -0.339388498903E+02   -0.11931E+03   -0.11668E+03  3280   0.132E+02
DAV:   4    -0.414639415128E+02   -0.75251E+01   -0.73577E+01  3220   0.461E+01
DAV:   5    -0.417091281066E+02   -0.24519E+00   -0.24438E+00  3240   0.799E+00    0.197E+01
DAV:   6    -0.390661687899E+02    0.26430E+01   -0.38804E+01  3404   0.616E+01    0.206E+01
DAV:   7    -0.377575487049E+02    0.13086E+01   -0.51715E+00  3448   0.500E+01    0.951E+00
DAV:   8    -0.378727871143E+02   -0.11524E+00   -0.11202E+00  2980   0.502E+00    0.451E+00
DAV:   9    -0.378452216753E+02    0.27565E-01   -0.20543E-01  3440   0.752E+00    0.133E+00
DAV:  10    -0.378462949978E+02   -0.10733E-02   -0.54067E-02  3384   0.318E+00    0.502E-01
DAV:  11    -0.378534487730E+02   -0.71538E-02   -0.36403E-03  3360   0.671E-01    0.257E-01
DAV:  12    -0.378648713778E+02   -0.11423E-01   -0.12574E-03  3424   0.374E-01    0.147E-01
DAV:  13    -0.378700295905E+02   -0.51582E-02   -0.26196E-04  3444   0.194E-01    0.502E-02
DAV:  14    -0.378722545348E+02   -0.22249E-02   -0.72645E-05  3276   0.100E-01    0.381E-02
DAV:  15    -0.378741003955E+02   -0.18459E-02   -0.32892E-05  3288   0.411E-02    0.176E-02
DAV:  16    -0.378764090618E+02   -0.23087E-02   -0.52699E-05  2984   0.516E-02    0.156E-02
DAV:  17    -0.378765836232E+02   -0.17456E-03   -0.34399E-06  2308   0.103E-02    0.132E-02
DAV:  18    -0.378768190623E+02   -0.23544E-03   -0.91247E-06  2388   0.114E-02    0.587E-03
DAV:  19    -0.378768697824E+02   -0.50720E-04   -0.54572E-06  2512   0.148E-02    0.309E-03
DAV:  20    -0.378768649287E+02    0.48537E-05   -0.26503E-06  1976   0.652E-03    0.270E-03
DAV:  21    -0.378768755105E+02   -0.10582E-04   -0.10411E-06  1964   0.384E-03    0.200E-03
DAV:  22    -0.378768921332E+02   -0.16623E-04   -0.31302E-07  1728   0.353E-03    0.147E-03
DAV:  23    -0.378769100727E+02   -0.17939E-04   -0.34601E-07  1720   0.337E-03    0.110E-03
DAV:  24    -0.378769316404E+02   -0.21568E-04   -0.96511E-07  1828   0.363E-03    0.986E-04
DAV:  25    -0.378769338698E+02   -0.22294E-05   -0.14722E-07  1600   0.270E-03    0.404E-04
DAV:  26    -0.378769352396E+02   -0.13698E-05   -0.85916E-08  1452   0.134E-03    0.412E-04
DAV:  27    -0.378769376498E+02   -0.24102E-05   -0.67758E-08  1496   0.120E-03    0.232E-04
DAV:  28    -0.378769388491E+02   -0.11992E-05   -0.46929E-08  1392   0.927E-04    0.148E-04
DAV:  29    -0.378769396535E+02   -0.80444E-06   -0.23112E-08  1392   0.809E-04
   1 F= -.38796131E+02 E0= -.38796131E+02  d E =-.387961E+02  mag=     6.0000
       N       E                     dE             d eps       ncg     rms          rms(c)
DAV:   1    -0.379308425082E+02   -0.53904E-01   -0.26346E+00  2532   0.904E+00    0.195E+00
DAV:   2    -0.378888467034E+02    0.41996E-01   -0.18429E-01  3324   0.339E+00    0.916E-01
DAV:   3    -0.378789241074E+02    0.99226E-02   -0.39646E-02  3412   0.263E+00    0.664E-01
DAV:   4    -0.378769318851E+02    0.19922E-02   -0.42528E-03  3404   0.971E-01    0.357E-01
DAV:   5    -0.378763844049E+02    0.54748E-03   -0.23899E-03  2568   0.225E-01    0.223E-01
DAV:   6    -0.378764165333E+02   -0.32128E-04   -0.41158E-04  3396   0.380E-01    0.896E-02
DAV:   7    -0.378764406825E+02   -0.24149E-04   -0.19127E-04  3432   0.212E-01    0.302E-02
DAV:   8    -0.378764775748E+02   -0.36892E-04   -0.31835E-05  3452   0.468E-02    0.158E-02
DAV:   9    -0.378765295886E+02   -0.52014E-04   -0.25122E-06  1920   0.880E-03    0.440E-03
DAV:  10    -0.378765499647E+02   -0.20376E-04   -0.84617E-07  1512   0.617E-03    0.227E-03
DAV:  11    -0.378765538608E+02   -0.38961E-05   -0.29635E-07  1452   0.462E-03    0.128E-03
DAV:  12    -0.378765641295E+02   -0.10269E-04   -0.33720E-07  1540   0.291E-03    0.118E-03
DAV:  13    -0.378765797156E+02   -0.15586E-04   -0.80540E-07  1648   0.433E-03    0.147E-03
DAV:  14    -0.378765824157E+02   -0.27000E-05   -0.22445E-07  1380   0.354E-03    0.586E-04
DAV:  15    -0.378765840496E+02   -0.16340E-05   -0.21109E-07  1560   0.201E-03    0.530E-04
DAV:  16    -0.378765850808E+02   -0.10311E-05   -0.11228E-07  1500   0.229E-03    0.357E-04
DAV:  17    -0.378765856379E+02   -0.55707E-06   -0.68488E-08  1464   0.140E-03
   2 F= -.38806293E+02 E0= -.38806293E+02  d E =-.101613E-01  mag=     6.0000
       N       E                     dE             d eps       ncg     rms          rms(c)
DAV:   1    -0.378801488853E+02   -0.35638E-02   -0.69247E-02  2560   0.147E+00    0.311E-01
DAV:   2    -0.378790457077E+02    0.11032E-02   -0.48201E-03  3284   0.550E-01    0.149E-01
DAV:   3    -0.378787744295E+02    0.27128E-03   -0.10587E-03  3420   0.440E-01    0.110E-01
DAV:   4    -0.378787148558E+02    0.59574E-04   -0.11165E-04  3520   0.157E-01    0.570E-02
DAV:   5    -0.378786935937E+02    0.21262E-04   -0.63933E-05  2516   0.353E-02    0.360E-02
DAV:   6    -0.378786926501E+02    0.94361E-06   -0.10871E-05  3432   0.627E-02    0.155E-02
DAV:   7    -0.378786942794E+02   -0.16293E-05   -0.39156E-06  2388   0.359E-02    0.556E-03
DAV:   8    -0.378786960917E+02   -0.18123E-05   -0.15624E-06  1420   0.104E-02    0.240E-03
DAV:   9    -0.378786983446E+02   -0.22529E-05   -0.69679E-07  1408   0.692E-03    0.236E-03
DAV:  10    -0.378787012292E+02   -0.28846E-05   -0.28983E-07  1424   0.550E-03    0.899E-04
DAV:  11    -0.378787025624E+02   -0.13332E-05   -0.14744E-07  1460   0.385E-03    0.816E-04
DAV:  12    -0.378787033005E+02   -0.73807E-06   -0.70660E-08  1448   0.208E-03
   3 F= -.38806696E+02 E0= -.38806696E+02  d E =-.105644E-01  mag=     6.0000
