Cr2Cl6 Monolayer 1x1 Primitive Cell     
   1.0000000000000000     
     6.0853289204838381    0.0000000000000000    0.0000000000000000
    -3.0426644602419191    5.2700494355231369    0.0000000000000000
     0.0000000000000000    0.0000000000000000   17.6700000000000017
  Cr              Cl            
     2     6
Direct
     0.3333333333333357    0.6666666666666643    0.5000000000000000
     0.6666666666666643    0.3333333333333357    0.5000000000000000
     0.3542040574224876    0.0000000000000000    0.4228054811208347
     0.0000000000000000    0.3542040574224876    0.4228054811208347
     0.6457959425775124    0.6457959425775124    0.4228054811208347
     0.6457959425775124    0.0000000000000000    0.5771945188791653
     1.0000000000000000    0.6457959425775124    0.5771945188791653
     0.3542040574224876    0.3542040574224876    0.5771945188791653

  0.00000000E+00  0.00000000E+00  0.00000000E+00
  0.00000000E+00  0.00000000E+00  0.00000000E+00
  0.00000000E+00  0.00000000E+00  0.00000000E+00
  0.00000000E+00  0.00000000E+00  0.00000000E+00
  0.00000000E+00  0.00000000E+00  0.00000000E+00
  0.00000000E+00  0.00000000E+00  0.00000000E+00
  0.00000000E+00  0.00000000E+00  0.00000000E+00
  0.00000000E+00  0.00000000E+00  0.00000000E+00
