       N       E                     dE             d eps       ncg     rms          rms(c)
DAV:   1     0.526151118459E+03    0.52615E+03   -0.15612E+04  2304   0.922E+02
DAV:   2     0.904034688779E+02   -0.43575E+03   -0.41443E+03  2992   0.243E+02
DAV:   3    -0.280531700441E+02   -0.11846E+03   -0.11550E+03  3252   0.133E+02
DAV:   4    -0.350384396404E+02   -0.69853E+01   -0.68817E+01  3108   0.458E+01
DAV:   5    -0.352748089216E+02   -0.23637E+00   -0.23578E+00  3248   0.828E+00    0.196E+01
DAV:   6    -0.333416054442E+02    0.19332E+01   -0.41886E+01  3432   0.608E+01    0.180E+01
DAV:   7    -0.333908935300E+02   -0.49288E-01   -0.43352E+00  3396   0.317E+01    0.935E+00
DAV:   8    -0.335686007518E+02   -0.17771E+00   -0.78719E-01  3144   0.461E+00    0.485E+00
DAV:   9    -0.335951694714E+02   -0.26569E-01   -0.15910E-01  3500   0.660E+00    0.105E+00
DAV:  10    -0.336103041335E+02   -0.15135E-01   -0.47644E-02  3264   0.231E+00    0.437E-01
DAV:  11    -0.336190491960E+02   -0.87451E-02   -0.23470E-03  3236   0.350E-01    0.307E-01
DAV:  12    -0.336334169417E+02   -0.14368E-01   -0.16373E-03  3316   0.412E-01    0.164E-01
DAV:  13    -0.336423248628E+02   -0.89079E-02   -0.42805E-04  3004   0.130E-01    0.609E-02
DAV:  14    -0.336456047303E+02   -0.32799E-02   -0.12055E-04  3204   0.179E-01    0.384E-02
DAV:  15    -0.336475484266E+02   -0.19437E-02   -0.25830E-05  3196   0.420E-02    0.214E-02
DAV:  16    -0.336534533047E+02   -0.59049E-02   -0.49001E-05  3060   0.739E-02    0.169E-02
DAV:  17    -0.336540898298E+02   -0.63653E-03   -0.10143E-05  2436   0.181E-02    0.118E-02
DAV:  18    -0.336545459249E+02   -0.45610E-03   -0.47281E-06  2308   0.152E-02    0.705E-03
DAV:  19    -0.336548174462E+02   -0.27152E-03   -0.46362E-06  2144   0.140E-02    0.269E-03
DAV:  20    -0.336548402359E+02   -0.22790E-04   -0.25209E-06  1940   0.751E-03    0.301E-03
DAV:  21    -0.336548202822E+02    0.19954E-04   -0.10631E-06  1800   0.488E-03    0.281E-03
DAV:  22    -0.336548327690E+02   -0.12487E-04   -0.44409E-07  1772   0.541E-03    0.237E-03
DAV:  23    -0.336548465710E+02   -0.13802E-04   -0.27965E-07  1724   0.417E-03    0.153E-03
DAV:  24    -0.336548571560E+02   -0.10585E-04   -0.12660E-07  1504   0.281E-03    0.109E-03
DAV:  25    -0.336548833880E+02   -0.26232E-04   -0.36396E-07  1740   0.235E-03    0.862E-04
DAV:  26    -0.336548887380E+02   -0.53499E-05   -0.22884E-07  1748   0.208E-03    0.725E-04
DAV:  27    -0.336548893780E+02   -0.63999E-06   -0.72198E-08  1596   0.158E-03
   1 F= -.34574081E+02 E0= -.34574081E+02  d E =-.345741E+02  mag=     6.0000
       N       E                     dE             d eps       ncg     rms          rms(c)
DAV:   1    -0.337544619212E+02   -0.99573E-01   -0.43922E+00  2528   0.117E+01    0.229E+00
DAV:   2    -0.337017907051E+02    0.52671E-01   -0.36514E-01  3496   0.460E+00    0.108E+00
DAV:   3    -0.336874943092E+02    0.14296E-01   -0.52210E-02  3244   0.291E+00    0.968E-01
DAV:   4    -0.336854096973E+02    0.20846E-02   -0.59323E-03  3544   0.548E-01    0.428E-01
DAV:   5    -0.336842291855E+02    0.11805E-02   -0.26095E-03  3120   0.250E-01    0.274E-01
DAV:   6    -0.336841203422E+02    0.10884E-03   -0.50564E-04  3352   0.309E-01    0.103E-01
DAV:   7    -0.336842040632E+02   -0.83721E-04   -0.19385E-04  3472   0.174E-01    0.270E-02
DAV:   8    -0.336842954102E+02   -0.91347E-04   -0.42442E-05  3084   0.332E-02    0.213E-02
DAV:   9    -0.336844030459E+02   -0.10764E-03   -0.58058E-06  2864   0.265E-02    0.105E-02
DAV:  10    -0.336844368500E+02   -0.33804E-04   -0.10296E-06  1836   0.129E-02    0.211E-03
DAV:  11    -0.336844588630E+02   -0.22013E-04   -0.12778E-06  1796   0.511E-03    0.174E-03
DAV:  12    -0.336844900530E+02   -0.31190E-04   -0.18907E-06  2108   0.512E-03    0.170E-03
DAV:  13    -0.336845114555E+02   -0.21402E-04   -0.14174E-06  2048   0.422E-03    0.114E-03
DAV:  14    -0.336845193965E+02   -0.79410E-05   -0.53955E-07  1824   0.315E-03    0.108E-03
DAV:  15    -0.336845215704E+02   -0.21739E-05   -0.27021E-07  1608   0.335E-03    0.845E-04
DAV:  16    -0.336845231550E+02   -0.15847E-05   -0.27120E-07  1680   0.252E-03    0.611E-04
DAV:  17    -0.336845234193E+02   -0.26430E-06   -0.10274E-07  1532   0.238E-03
   2 F= -.34591425E+02 E0= -.34591425E+02  d E =-.173436E-01  mag=     6.0000
       N       E                     dE             d eps       ncg     rms          rms(c)
DAV:   1    -0.336848477553E+02   -0.32460E-03   -0.10574E-01  2568   0.180E+00    0.363E-01
DAV:   2    -0.336835806590E+02    0.12671E-02   -0.89964E-03  3540   0.720E-01    0.167E-01
DAV:   3    -0.336832252952E+02    0.35536E-03   -0.12264E-03  3124   0.447E-01    0.148E-01
DAV:   4    -0.336831782718E+02    0.47023E-04   -0.14537E-04  3596   0.851E-02    0.661E-02
DAV:   5    -0.336831542240E+02    0.24048E-04   -0.62250E-05  3024   0.374E-02    0.423E-02
DAV:   6    -0.336831655518E+02   -0.11328E-04   -0.13801E-05  3316   0.491E-02    0.148E-02
DAV:   7    -0.336831762464E+02   -0.10695E-04   -0.31318E-06  2148   0.244E-02    0.411E-03
DAV:   8    -0.336831838976E+02   -0.76512E-05   -0.27416E-06  1804   0.923E-03    0.384E-03
DAV:   9    -0.336831923692E+02   -0.84717E-05   -0.36250E-07  1392   0.597E-03    0.245E-03
DAV:  10    -0.336831957490E+02   -0.33798E-05   -0.14541E-07  1496   0.299E-03    0.842E-04
DAV:  11    -0.336831978922E+02   -0.21431E-05   -0.74423E-08  1444   0.202E-03    0.863E-04
DAV:  12    -0.336831979962E+02   -0.10407E-06   -0.34284E-08  1424   0.179E-03
   3 F= -.34592007E+02 E0= -.34592007E+02  d E =-.179263E-01  mag=     6.0000
       N       E                     dE             d eps       ncg     rms          rms(c)
DAV:   1    -0.336834217496E+02   -0.22386E-03   -0.12485E-03  2452   0.196E-01    0.392E-02
DAV:   2    -0.336834080463E+02    0.13703E-04   -0.10582E-04  3564   0.781E-02    0.180E-02
DAV:   3    -0.336834039207E+02    0.41256E-05   -0.14301E-05  2916   0.486E-02    0.161E-02
DAV:   4    -0.336834031243E+02    0.79634E-06   -0.13303E-06  1520   0.985E-03
   4 F= -.34592005E+02 E0= -.34592005E+02  d E =-.179239E-01  mag=     6.0000
       N       E                     dE             d eps       ncg     rms          rms(c)
DAV:   1    -0.336831033689E+02    0.30055E-03   -0.30046E-02  2584   0.793E-01    0.119E-01
DAV:   2    -0.336831121201E+02   -0.87512E-05   -0.27236E-03  3300   0.313E-01    0.657E-02
DAV:   3    -0.336830770935E+02    0.35027E-04   -0.84138E-05  3208   0.131E-01    0.493E-02
DAV:   4    -0.336830690059E+02    0.80876E-05   -0.19611E-05  3220   0.289E-02    0.260E-02
DAV:   5    -0.336830648377E+02    0.41682E-05   -0.16320E-05  3408   0.257E-02    0.159E-02
DAV:   6    -0.336830651413E+02   -0.30360E-06   -0.26613E-06  2272   0.285E-02
   5 F= -.34592319E+02 E0= -.34592319E+02  d E =-.313922E-03  mag=     6.0000
       N       E                     dE             d eps       ncg     rms          rms(c)
DAV:   1    -0.336819735725E+02    0.10913E-02   -0.26993E-01  2592   0.238E+00    0.356E-01
DAV:   2    -0.336820772882E+02   -0.10372E-03   -0.24651E-02  3332   0.935E-01    0.198E-01
DAV:   3    -0.336817471428E+02    0.33015E-03   -0.73142E-04  3148   0.387E-01    0.148E-01
DAV:   4    -0.336816684905E+02    0.78652E-04   -0.17660E-04  3228   0.861E-02    0.811E-02
DAV:   5    -0.336816189019E+02    0.49589E-04   -0.15754E-04  3380   0.790E-02    0.498E-02
DAV:   6    -0.336816143403E+02    0.45616E-05   -0.31059E-05  3316   0.876E-02    0.225E-02
DAV:   7    -0.336816183570E+02   -0.40167E-05   -0.37996E-06  2192   0.164E-02    0.904E-03
DAV:   8    -0.336816212684E+02   -0.29114E-05   -0.19753E-06  1924   0.104E-02    0.507E-03
DAV:   9    -0.336816233219E+02   -0.20535E-05   -0.47193E-07  1540   0.673E-03    0.218E-03
DAV:  10    -0.336816253803E+02   -0.20584E-05   -0.20040E-07  1516   0.369E-03    0.155E-03
DAV:  11    -0.336816269905E+02   -0.16102E-05   -0.60027E-08  1536   0.257E-03    0.389E-04
DAV:  12    -0.336816281442E+02   -0.11536E-05   -0.44285E-08  1476   0.162E-03    0.422E-04
DAV:  13    -0.336816291268E+02   -0.98260E-06   -0.25719E-08  1460   0.122E-03
   6 F= -.34592828E+02 E0= -.34592828E+02  d E =-.823034E-03  mag=     6.0000
