       N       E                     dE             d eps       ncg     rms          rms(c)
DAV:   1     0.214082043024E+04    0.21408E+04   -0.63762E+04  5544   0.893E+02
DAV:   2     0.396485449141E+03   -0.17443E+04   -0.16268E+04  6958   0.240E+02
DAV:   3    -0.117860314157E+03   -0.51435E+03   -0.50380E+03  7910   0.134E+02
DAV:   4    -0.154893965950E+03   -0.37034E+02   -0.36713E+02  8190   0.538E+01
DAV:   5    -0.155572106414E+03   -0.67814E+00   -0.67638E+00  8428   0.828E+00    0.425E+01
DAV:   6    -0.150288410146E+03    0.52837E+01   -0.15650E+02  8988   0.645E+01    0.565E+01
DAV:   7    -0.147188437340E+03    0.31000E+01   -0.37033E+01  7504   0.473E+01    0.293E+01
DAV:   8    -0.146277232704E+03    0.91120E+00   -0.80960E+00  9408   0.320E+01    0.180E+01
DAV:   9    -0.146737333392E+03   -0.46010E+00   -0.30526E+00  8358   0.149E+01    0.149E+01
DAV:  10    -0.146375235208E+03    0.36210E+00   -0.20089E+00  8050   0.148E+01    0.737E+00
DAV:  11    -0.147303807115E+03   -0.92857E+00   -0.62601E-01  9240   0.579E+00    0.398E+00
DAV:  12    -0.147363682605E+03   -0.59875E-01   -0.24773E-01  7854   0.459E+00    0.206E+00
DAV:  13    -0.147447249386E+03   -0.83567E-01   -0.83204E-02  8218   0.227E+00    0.118E+00
DAV:  14    -0.147481920293E+03   -0.34671E-01   -0.25416E-02  8610   0.731E-01    0.695E-01
DAV:  15    -0.147517415922E+03   -0.35496E-01   -0.67460E-03  8680   0.871E-01    0.395E-01
DAV:  16    -0.147558159603E+03   -0.40744E-01   -0.73736E-03  8190   0.624E-01    0.290E-01
DAV:  17    -0.147581565829E+03   -0.23406E-01   -0.36965E-03  7644   0.291E-01    0.166E-01
DAV:  18    -0.147607302045E+03   -0.25736E-01   -0.88156E-04  8148   0.135E-01    0.112E-01
DAV:  19    -0.147633181414E+03   -0.25879E-01   -0.83514E-04  7826   0.145E-01    0.895E-02
DAV:  20    -0.147649439780E+03   -0.16258E-01   -0.37248E-04  8582   0.728E-02    0.688E-02
DAV:  21    -0.147666783600E+03   -0.17344E-01   -0.47825E-04  7336   0.583E-02    0.482E-02
DAV:  22    -0.147672438428E+03   -0.56548E-02   -0.16116E-04  7644   0.379E-02    0.339E-02
DAV:  23    -0.147673954999E+03   -0.15166E-02   -0.38849E-05  7294   0.270E-02    0.224E-02
DAV:  24    -0.147674752801E+03   -0.79780E-03   -0.23019E-05  8302   0.302E-02    0.977E-03
DAV:  25    -0.147675091499E+03   -0.33870E-03   -0.14573E-05  7686   0.207E-02    0.617E-03
DAV:  26    -0.147675159443E+03   -0.67944E-04   -0.36470E-06  6034   0.573E-03    0.513E-03
DAV:  27    -0.147675209351E+03   -0.49907E-04   -0.13071E-06  5404   0.109E-02    0.273E-03
DAV:  28    -0.147675240234E+03   -0.30884E-04   -0.10587E-06  4452   0.307E-03    0.207E-03
DAV:  29    -0.147675258719E+03   -0.18485E-04   -0.36583E-07  4074   0.381E-03    0.155E-03
DAV:  30    -0.147675270853E+03   -0.12133E-04   -0.27418E-07  4018   0.184E-03    0.138E-03
DAV:  31    -0.147675285731E+03   -0.14878E-04   -0.23217E-07  3962   0.139E-03    0.101E-03
DAV:  32    -0.147675300883E+03   -0.15152E-04   -0.23060E-07  4228   0.196E-03    0.769E-04
DAV:  33    -0.147675308160E+03   -0.72765E-05   -0.19802E-07  3892   0.142E-03    0.734E-04
DAV:  34    -0.147675311280E+03   -0.31199E-05   -0.10694E-07  3808   0.103E-03    0.782E-04
DAV:  35    -0.147675313822E+03   -0.25426E-05   -0.52360E-08  3780   0.863E-04    0.313E-04
DAV:  36    -0.147675317582E+03   -0.37597E-05   -0.53557E-08  3864   0.812E-04    0.322E-04
DAV:  37    -0.147675319104E+03   -0.15223E-05   -0.32725E-08  3850   0.633E-04    0.437E-04
DAV:  38    -0.147675319532E+03   -0.42730E-06   -0.16891E-08  3766   0.413E-04
   1 F= -.15393824E+03 E0= -.15393824E+03  d E =-.153938E+03  mag=    30.0001
       N       E                     dE             d eps       ncg     rms          rms(c)
DAV:   1    -0.147677188125E+03   -0.18690E-02   -0.59924E-01  5628   0.144E+00    0.510E-01
DAV:   2    -0.147681253082E+03   -0.40650E-02   -0.33583E-02  8260   0.649E-01    0.296E-01
DAV:   3    -0.147681719751E+03   -0.46667E-03   -0.86582E-04  7392   0.130E-01    0.146E-01
DAV:   4    -0.147681670839E+03    0.48912E-04   -0.12058E-04  8218   0.318E-02    0.102E-01
DAV:   5    -0.147681645231E+03    0.25608E-04   -0.13790E-04  6930   0.303E-02    0.551E-02
DAV:   6    -0.147681664759E+03   -0.19528E-04   -0.57861E-05  7714   0.188E-02    0.145E-02
DAV:   7    -0.147681672788E+03   -0.80294E-05   -0.38198E-06  6146   0.927E-03    0.118E-02
DAV:   8    -0.147681678443E+03   -0.56551E-05   -0.14887E-06  4312   0.517E-03    0.820E-03
DAV:   9    -0.147681684417E+03   -0.59735E-05   -0.11942E-06  4158   0.360E-03    0.434E-03
DAV:  10    -0.147681688955E+03   -0.45382E-05   -0.84741E-07  3822   0.355E-03    0.225E-03
DAV:  11    -0.147681692263E+03   -0.33077E-05   -0.47737E-07  3752   0.310E-03    0.135E-03
DAV:  12    -0.147681694666E+03   -0.24035E-05   -0.26983E-07  3822   0.217E-03    0.101E-03
DAV:  13    -0.147681696749E+03   -0.20825E-05   -0.13170E-07  3780   0.143E-03    0.744E-04
DAV:  14    -0.147681698697E+03   -0.19483E-05   -0.78355E-08  3724   0.103E-03    0.573E-04
DAV:  15    -0.147681700813E+03   -0.21163E-05   -0.79381E-08  3934   0.871E-04    0.446E-04
DAV:  16    -0.147681701653E+03   -0.83964E-06   -0.56471E-08  3836   0.783E-04
   2 F= -.15394301E+03 E0= -.15394301E+03  d E =-.477249E-02  mag=    30.0000
       N       E                     dE             d eps       ncg     rms          rms(c)
DAV:   1    -0.147675996719E+03    0.57041E-02   -0.14353E+00  5544   0.224E+00    0.785E-01
DAV:   2    -0.147685850116E+03   -0.98534E-02   -0.80203E-02  8218   0.100E+00    0.460E-01
DAV:   3    -0.147686858058E+03   -0.10079E-02   -0.20559E-03  7378   0.199E-01    0.220E-01
DAV:   4    -0.147686739993E+03    0.11807E-03   -0.28859E-04  8148   0.490E-02    0.153E-01
DAV:   5    -0.147686683311E+03    0.56682E-04   -0.30993E-04  6944   0.455E-02    0.845E-02
DAV:   6    -0.147686724142E+03   -0.40831E-04   -0.13658E-04  7910   0.284E-02    0.218E-02
DAV:   7    -0.147686740192E+03   -0.16050E-04   -0.10535E-05  7630   0.140E-02    0.180E-02
DAV:   8    -0.147686751360E+03   -0.11168E-04   -0.25949E-06  5488   0.682E-03    0.120E-02
DAV:   9    -0.147686763011E+03   -0.11651E-04   -0.19309E-06  4830   0.437E-03    0.616E-03
DAV:  10    -0.147686772495E+03   -0.94840E-05   -0.11759E-06  4214   0.341E-03    0.289E-03
DAV:  11    -0.147686778401E+03   -0.59052E-05   -0.51542E-07  3794   0.332E-03    0.178E-03
DAV:  12    -0.147686783459E+03   -0.50580E-05   -0.33488E-07  3906   0.216E-03    0.139E-03
DAV:  13    -0.147686787572E+03   -0.41136E-05   -0.18779E-07  3752   0.176E-03    0.108E-03
DAV:  14    -0.147686792745E+03   -0.51732E-05   -0.19949E-07  3976   0.136E-03    0.789E-04
DAV:  15    -0.147686795549E+03   -0.28034E-05   -0.15517E-07  3948   0.127E-03    0.605E-04
DAV:  16    -0.147686796923E+03   -0.13740E-05   -0.10395E-07  3738   0.967E-04    0.368E-04
DAV:  17    -0.147686797429E+03   -0.50616E-06   -0.53814E-08  3864   0.793E-04
   3 F= -.15394560E+03 E0= -.15394560E+03  d E =-.736635E-02  mag=    30.0000
       N       E                     dE             d eps       ncg     rms          rms(c)
DAV:   1    -0.147686305988E+03    0.49094E-03   -0.21865E-01  5544   0.941E-01    0.338E-01
DAV:   2    -0.147687875944E+03   -0.15700E-02   -0.12575E-02  7868   0.370E-01    0.168E-01
DAV:   3    -0.147688362103E+03   -0.48616E-03   -0.45449E-04  7672   0.919E-02    0.831E-02
DAV:   4    -0.147688343642E+03    0.18461E-04   -0.47419E-05  8456   0.244E-02    0.567E-02
DAV:   5    -0.147688348426E+03   -0.47845E-05   -0.43551E-05  7588   0.170E-02    0.352E-02
DAV:   6    -0.147688372868E+03   -0.24442E-04   -0.29262E-05  7434   0.136E-02    0.105E-02
DAV:   7    -0.147688382561E+03   -0.96929E-05   -0.35936E-06  6076   0.639E-03    0.759E-03
DAV:   8    -0.147688387333E+03   -0.47717E-05   -0.68785E-07  3780   0.322E-03    0.483E-03
DAV:   9    -0.147688389622E+03   -0.22890E-05   -0.43696E-07  3780   0.300E-03    0.318E-03
DAV:  10    -0.147688391989E+03   -0.23666E-05   -0.62408E-07  3962   0.264E-03    0.190E-03
DAV:  11    -0.147688393079E+03   -0.10907E-05   -0.31170E-07  3850   0.260E-03    0.117E-03
DAV:  12    -0.147688394187E+03   -0.11076E-05   -0.13677E-07  3668   0.168E-03    0.872E-04
DAV:  13    -0.147688395398E+03   -0.12111E-05   -0.90686E-08  3696   0.123E-03    0.566E-04
DAV:  14    -0.147688396033E+03   -0.63532E-06   -0.60400E-08  3808   0.856E-04
   4 F= -.15394650E+03 E0= -.15394650E+03  d E =-.894076E-03  mag=    30.0000
       N       E                     dE             d eps       ncg     rms          rms(c)
DAV:   1    -0.147688448320E+03   -0.52922E-04   -0.28432E-02  5628   0.339E-01    0.122E-01
DAV:   2    -0.147688617982E+03   -0.16966E-03   -0.16290E-03  7658   0.133E-01    0.602E-02
DAV:   3    -0.147688711079E+03   -0.93097E-04   -0.58785E-05  7588   0.327E-02    0.300E-02
DAV:   4    -0.147688708496E+03    0.25829E-05   -0.57524E-06  6902   0.869E-03    0.206E-02
DAV:   5    -0.147688709653E+03   -0.11564E-05   -0.65871E-06  6132   0.663E-03    0.134E-02
DAV:   6    -0.147688714591E+03   -0.49380E-05   -0.41663E-06  5768   0.517E-03    0.402E-03
DAV:   7    -0.147688716579E+03   -0.19881E-05   -0.46697E-07  3584   0.266E-03    0.275E-03
DAV:   8    -0.147688717823E+03   -0.12443E-05   -0.19955E-07  3710   0.201E-03    0.202E-03
DAV:   9    -0.147688718391E+03   -0.56821E-06   -0.13748E-07  3724   0.153E-03
   5 F= -.15394656E+03 E0= -.15394656E+03  d E =-.962068E-03  mag=    30.0000
       N       E                     dE             d eps       ncg     rms          rms(c)
DAV:   1    -0.147688165215E+03    0.55261E-03   -0.11870E-01  5656   0.691E-01    0.246E-01
DAV:   2    -0.147689154104E+03   -0.98889E-03   -0.69876E-03  7672   0.277E-01    0.117E-01
DAV:   3    -0.147689328031E+03   -0.17393E-03   -0.20588E-04  7658   0.652E-02    0.590E-02
DAV:   4    -0.147689315053E+03    0.12978E-04   -0.20794E-05  8344   0.162E-02    0.428E-02
DAV:   5    -0.147689294910E+03    0.20143E-04   -0.19968E-05  7140   0.114E-02    0.290E-02
DAV:   6    -0.147689284818E+03    0.10092E-04   -0.17273E-05  7434   0.966E-03    0.784E-03
DAV:   7    -0.147689292800E+03   -0.79820E-05   -0.16010E-06  4158   0.444E-03    0.413E-03
DAV:   8    -0.147689303445E+03   -0.10645E-04   -0.59697E-07  3892   0.328E-03    0.333E-03
DAV:   9    -0.147689309754E+03   -0.63093E-05   -0.35370E-07  3836   0.244E-03    0.207E-03
DAV:  10    -0.147689317167E+03   -0.74125E-05   -0.24324E-07  3724   0.193E-03    0.167E-03
DAV:  11    -0.147689325089E+03   -0.79222E-05   -0.18395E-07  3962   0.166E-03    0.117E-03
DAV:  12    -0.147689333647E+03   -0.85580E-05   -0.17886E-07  3948   0.153E-03    0.792E-04
DAV:  13    -0.147689339117E+03   -0.54705E-05   -0.15484E-07  3822   0.127E-03    0.731E-04
DAV:  14    -0.147689340909E+03   -0.17916E-05   -0.68881E-08  3864   0.956E-04    0.419E-04
DAV:  15    -0.147689343320E+03   -0.24112E-05   -0.61993E-08  3822   0.679E-04    0.395E-04
DAV:  16    -0.147689345252E+03   -0.19317E-05   -0.52232E-08  3738   0.686E-04    0.260E-04
DAV:  17    -0.147689346307E+03   -0.10552E-05   -0.47971E-08  3710   0.586E-04    0.223E-04
DAV:  18    -0.147689346439E+03   -0.13180E-06   -0.20808E-08  3906   0.512E-04
   6 F= -.15394703E+03 E0= -.15394703E+03  d E =-.466963E-03  mag=    30.0000
