 vasp.6.2.0 18Jan21 (build Jul 28 2023 11:58:00) complex                         
 executed on             LinuxGNU date 2026.09.15  04:11:38
 running on   64 total cores
 distrk:  each k-point on   64 cores,    1 groups
 distr:  one band on NCORE=   8 cores,    8 groups


--------------------------------------------------------------------------------------------------------


 -----------------------------------------------------------------------------
|                                                                             |
|           W    W    AA    RRRRR   N    N  II  N    N   GGGG   !!!           |
|           W    W   A  A   R    R  NN   N  II  NN   N  G    G  !!!           |
|           W    W  A    A  R    R  N N  N  II  N N  N  G       !!!           |
|           W WW W  AAAAAA  RRRRR   N  N N  II  N  N N  G  GGG   !            |
|           WW  WW  A    A  R   R   N   NN  II  N   NN  G    G                |
|           W    W  A    A  R    R  N    N  II  N    N   GGGG   !!!           |
|                                                                             |
|     Found issues when parsing the INCAR file                                |
|     In line 35: Tagname CELL VECTORS AND VACUUM THICKNESS (C contains       |
|     invalid characters.                                                     |
|     Please check if the interpretation in the OUTCAR file is correct.       |
|                                                                             |
 -----------------------------------------------------------------------------

 INCAR:
   SYSTEM = CrCl3 3x3 + H (S2 hollow) (No vdW, U\=0eV)
   PREC = Accurate
   ENCUT = 400.0
   ALGO = Normal
   EDIFF = 1.0E-06
   NELM = 100
   ISPIN = 2
   MAGMOM = 18*3.0 54*0.0 1*0.0
   ISMEAR = 0
   SIGMA = 0.05
   NCORE = 8
   LREAL = Auto
   IBRION = 2
   NSW = 100
   ISIF = 2
   EDIFFG = -0.025
   LASPH = .TRUE.
   LMAXMIX = 4
   LDAU = .FALSE.
   LDIPOL = .TRUE.
   IDIPOL = 3
   DIPOL = 0.5 0.5 0.5
   LWAVE = .FALSE.
   LCHARG = .FALSE.

 POTCAR:    PAW_PBE Cr 06Sep2000                  
 POTCAR:    PAW_PBE Cl 06Sep2000                  
 POTCAR:    PAW_PBE H 15Jun2001                   
 POTCAR:    PAW_PBE Cr 06Sep2000                  
   SHA256 =  56e7271fac8042f322b235801e26979132a24da65eb043fa6a03029023cb2fcc Cr/POTCAR             
   COPYR  = (c) Copyright 06Sep2000 Georg Kresse                                                    
   COPYR  = This file is part of the software VASP. Any use, copying, and all other rights are regul
   COPYR  = If you do not have a valid VASP license, you may not use, copy or distribute this file. 
   VRHFIN =Cr : d5 s1                                                                               
   LEXCH  = PE                                                                                      
   EATOM  =   276.8859 eV,   20.3505 Ry                                                             
                                                                                                    
   TITEL  = PAW_PBE Cr 06Sep2000                                                                    
   LULTRA =        F    use ultrasoft PP ?                                                          
   IUNSCR =        1    unscreen: 0-lin 1-nonlin 2-no                                               
   RPACOR =    2.080    partial core radius                                                         
   POMASS =   51.996; ZVAL   =    6.000    mass and valenz                                          
   RCORE  =    2.500    outmost cutoff radius                                                       
   RWIGS  =    2.500; RWIGS  =    1.323    wigner-seitz radius (au A)                               
   ENMAX  =  227.080; ENMIN  =  170.310 eV                                                          
   RCLOC  =    1.721    cutoff for local pot                                                        
   LCOR   =        T    correct aug charges                                                         
   LPAW   =        T    paw PP                                                                      
   EAUG   =  402.108                                                                                
   DEXC   =    0.000                                                                                
   RMAX   =    2.552    core radius for proj-oper                                                   
   RAUG   =    1.300    factor for augmentation sphere                                              
   RDEP   =    2.609    radius for radial grids                                                     
   RDEPT  =    2.065    core radius for aug-charge                                                  
                                                                                                    
   Atomic configuration                                                                             
    9 entries                                                                                       
     n  l   j            E        occ.                                                              
     1  0  0.50     -5880.4963   2.0000                                                             
     2  0  0.50      -667.0865   2.0000                                                             
     2  1  1.50      -560.6250   6.0000                                                             
     3  0  0.50       -73.9860   2.0000                                                             
     3  1  1.50       -45.4378   6.0000                                                             
     3  2  2.50        -2.9137   5.0000                                                             
     4  0  0.50        -4.0071   1.0000                                                             
     4  1  0.50        -1.2789   0.0000                                                             
     4  3  2.50        -1.3606   0.0000                                                             
   Description                                                                                      
     l       E           TYP  RCUT    TYP  RCUT                                                     
     2     -2.9136677     23  2.500                                                                 
     2     -4.2742503     23  2.500                                                                 
     0     -4.0071322     23  2.500                                                                 
     0      9.4498801     23  2.500                                                                 
     1     -5.4423304     23  2.500                                                                 
     1     27.2116520     23  2.500                                                                 
  local pseudopotential read in
  partial core-charges read in
  partial kinetic energy density read in
  atomic valenz-charges read in
  non local Contribution for L=           2  read in
    real space projection operators read in
  non local Contribution for L=           2  read in
    real space projection operators read in
  non local Contribution for L=           0  read in
    real space projection operators read in
  non local Contribution for L=           0  read in
    real space projection operators read in
  non local Contribution for L=           1  read in
    real space projection operators read in
  non local Contribution for L=           1  read in
    real space projection operators read in
    PAW grid and wavefunctions read in

   number of l-projection  operators is LMAX  =           6
   number of lm-projection operators is LMMAX =          18

 POTCAR:    PAW_PBE Cl 06Sep2000                  
   SHA256 =  9f1b6e6ed4247ac726a768b330d26d7667cc3c95a39ff49c1d064c2d9dcce931 Cl/POTCAR             
   COPYR  = (c) Copyright 06Sep2000 Georg Kresse                                                    
   COPYR  = This file is part of the software VASP. Any use, copying, and all other rights are regul
   COPYR  = If you do not have a valid VASP license, you may not use, copy or distribute this file. 
   VRHFIN =Cl: s2p5                                                                                 
   LEXCH  = PE                                                                                      
   EATOM  =   409.7259 eV,   30.1140 Ry                                                             
                                                                                                    
   TITEL  = PAW_PBE Cl 06Sep2000                                                                    
   LULTRA =        F    use ultrasoft PP ?                                                          
   IUNSCR =        1    unscreen: 0-lin 1-nonlin 2-no                                               
   RPACOR =    1.500    partial core radius                                                         
   POMASS =   35.453; ZVAL   =    7.000    mass and valenz                                          
   RCORE  =    1.900    outmost cutoff radius                                                       
   RWIGS  =    2.100; RWIGS  =    1.111    wigner-seitz radius (au A)                               
   ENMAX  =  262.472; ENMIN  =  196.854 eV                                                          
   ICORE  =        2    local potential                                                             
   LCOR   =        T    correct aug charges                                                         
   LPAW   =        T    paw PP                                                                      
   EAUG   =  356.192                                                                                
   DEXC   =    0.000                                                                                
   RMAX   =    1.945    core radius for proj-oper                                                   
   RAUG   =    1.300    factor for augmentation sphere                                              
   RDEP   =    2.020    radius for radial grids                                                     
   RDEPT  =    1.678    core radius for aug-charge                                                  
                                                                                                    
   Atomic configuration                                                                             
    6 entries                                                                                       
     n  l   j            E        occ.                                                              
     1  0  0.50     -2751.1850   2.0000                                                             
     2  0  0.50      -252.6861   2.0000                                                             
     2  1  1.50      -191.6157   6.0000                                                             
     3  0  0.50       -20.6916   2.0000                                                             
     3  1  0.50        -8.5949   5.0000                                                             
     3  2  1.50        -8.1635   0.0000                                                             
   Description                                                                                      
     l       E           TYP  RCUT    TYP  RCUT                                                     
     0    -20.6915656     23  1.900                                                                 
     0    -22.0521482     23  1.900                                                                 
     1     -8.5948577     23  1.900                                                                 
     1     -5.3847331     23  1.900                                                                 
     2     -8.1634956     23  1.900                                                                 
  local pseudopotential read in
  partial core-charges read in
  partial kinetic energy density read in
  atomic valenz-charges read in
  non local Contribution for L=           0  read in
    real space projection operators read in
  non local Contribution for L=           0  read in
    real space projection operators read in
  non local Contribution for L=           1  read in
    real space projection operators read in
  non local Contribution for L=           1  read in
    real space projection operators read in
    PAW grid and wavefunctions read in

   number of l-projection  operators is LMAX  =           4
   number of lm-projection operators is LMMAX =           8

 POTCAR:    PAW_PBE H 15Jun2001                   
   SHA256 =  030f79b5d3ab3cf0e668861823c8fb652ff669f3e15e46930bd03bfd63a607b6 H/POTCAR              
   COPYR  = (c) Copyright 15Jun2001 Georg Kresse                                                    
   COPYR  = This file is part of the software VASP. Any use, copying, and all other rights are regul
   COPYR  = If you do not have a valid VASP license, you may not use, copy or distribute this file. 
   VRHFIN =H: ultrasoft test                                                                        
   LEXCH  = PE                                                                                      
   EATOM  =    12.4884 eV,    0.9179 Ry                                                             
                                                                                                    
   TITEL  = PAW_PBE H 15Jun2001                                                                     
   LULTRA =        F    use ultrasoft PP ?                                                          
   IUNSCR =        0    unscreen: 0-lin 1-nonlin 2-no                                               
   RPACOR =    0.000    partial core radius                                                         
   POMASS =    1.000; ZVAL   =    1.000    mass and valenz                                          
   RCORE  =    1.100    outmost cutoff radius                                                       
   RWIGS  =    0.700; RWIGS  =    0.370    wigner-seitz radius (au A)                               
   ENMAX  =  250.000; ENMIN  =  200.000 eV                                                          
   RCLOC  =    0.701    cutoff for local pot                                                        
   LCOR   =        T    correct aug charges                                                         
   LPAW   =        T    paw PP                                                                      
   EAUG   =  400.000                                                                                
   RMAX   =    1.123    core radius for proj-oper                                                   
   RAUG   =    1.200    factor for augmentation sphere                                              
   RDEP   =    1.112    radius for radial grids                                                     
   RDEPT  =    0.926    core radius for aug-charge                                                  
                                                                                                    
   Atomic configuration                                                                             
    2 entries                                                                                       
     n  l   j            E        occ.                                                              
     1  0  0.50        -6.4927   1.0000                                                             
     2  1  0.50        -3.4015   0.0000                                                             
   Description                                                                                      
     l       E           TYP  RCUT    TYP  RCUT                                                     
     0     -6.4927494     23  1.100                                                                 
     0      6.8029130     23  1.100                                                                 
     1     -4.0817478     23  1.100                                                                 
  local pseudopotential read in
  atomic valenz-charges read in
  non local Contribution for L=           0  read in
    real space projection operators read in
  non local Contribution for L=           0  read in
    real space projection operators read in
  non local Contribution for L=           1  read in
    real space projection operators read in
    PAW grid and wavefunctions read in

   number of l-projection  operators is LMAX  =           3
   number of lm-projection operators is LMMAX =           5

 Optimization of the real space projectors (new method)

 maximal supplied QI-value         = 15.12
 optimisation between [QCUT,QGAM] = [ 10.13, 20.41] = [ 28.73,116.64] Ry 
 Optimized for a Real-space Cutoff    1.55 Angstroem

   l    n(q)    QCUT    max X(q) W(low)/X(q) W(high)/X(q)  e(spline) 
   2      9    10.129    94.395    0.23E-03    0.29E-03    0.30E-06
   2      9    10.129    88.078    0.23E-03    0.29E-03    0.30E-06
   0      9    10.129    50.173    0.57E-04    0.58E-04    0.11E-06
   0      9    10.129    24.906    0.50E-04    0.51E-04    0.96E-07
   1      9    10.129    12.133    0.24E-03    0.21E-04    0.16E-06
   1      9    10.129     7.290    0.17E-03    0.12E-04    0.12E-06
 Optimization of the real space projectors (new method)

 maximal supplied QI-value         = 19.84
 optimisation between [QCUT,QGAM] = [ 10.12, 20.44] = [ 28.68,116.96] Ry 
 Optimized for a Real-space Cutoff    1.42 Angstroem

   l    n(q)    QCUT    max X(q) W(low)/X(q) W(high)/X(q)  e(spline) 
   0      9    10.119   168.010    0.50E-04    0.84E-04    0.57E-07
   0      9    10.119   164.674    0.49E-04    0.82E-04    0.55E-07
   1      8    10.119    69.222    0.16E-03    0.16E-03    0.24E-06
   1      8    10.119    56.786    0.16E-03    0.16E-03    0.23E-06
 Optimization of the real space projectors (new method)

 maximal supplied QI-value         = 34.20
 optimisation between [QCUT,QGAM] = [  9.92, 20.18] = [ 27.55,114.04] Ry 
 Optimized for a Real-space Cutoff    1.34 Angstroem

   l    n(q)    QCUT    max X(q) W(low)/X(q) W(high)/X(q)  e(spline) 
   0      8     9.919    19.460    0.16E-03    0.20E-03    0.36E-06
   0      8     9.919    12.209    0.16E-03    0.20E-03    0.35E-06
   1      8     9.919     4.655    0.19E-03    0.46E-03    0.40E-06
  PAW_PBE Cr 06Sep2000                  :
 energy of atom  1       EATOM= -276.8859
 kinetic energy error for atom=    0.0018 (will be added to EATOM!!)
  PAW_PBE Cl 06Sep2000                  :
 energy of atom  2       EATOM= -409.7259
 kinetic energy error for atom=    0.0089 (will be added to EATOM!!)
  PAW_PBE H 15Jun2001                   :
 energy of atom  3       EATOM=  -12.4884
 kinetic energy error for atom=    0.0098 (will be added to EATOM!!)


 POSCAR: CrCl3 3x3 + H S2 hollow (no_vdw, U=0) (a
  positions in direct lattice
  No initial velocities read in
 exchange correlation table for  LEXCH =        8
   RHO(1)=    0.500       N(1)  =     2000
   RHO(2)=  100.500       N(2)  =     4000



--------------------------------------------------------------------------------------------------------


 ion  position               nearest neighbor table
   1  0.111  0.222  0.500-  24 2.36  21 2.36  22 2.36  56 2.36  19 2.36  23 2.36
   2  0.222  0.111  0.500-  21 2.36  24 2.36  31 2.36  41 2.36  34 2.36  20 2.36
   3  0.111  0.556  0.500-  30 2.36  28 2.36  25 2.36  29 2.36  27 2.36  62 2.36
   4  0.222  0.444  0.500-  27 2.36  22 2.36  19 2.36  26 2.36  30 2.36  47 2.36
   5  0.111  0.889  0.500-  36 2.36  33 2.36  34 2.36  68 2.36  31 2.36  35 2.36
   6  0.222  0.778  0.500-  33 2.36  36 2.36  25 2.36  53 2.36  32 2.36  28 2.36
   7  0.444  0.222  0.500-  20 2.36  39 2.36  41 2.36  40 2.36  37 2.36  42 2.36
   8  0.556  0.111  0.500-  38 2.36  42 2.36  59 2.36  49 2.36  52 2.36  39 2.36
   9  0.444  0.556  0.500-  43 2.36  47 2.36  46 2.36  26 2.36  45 2.36  48 2.36
  10  0.556  0.444  0.500-  40 2.36  44 2.36  37 2.36  65 2.36  48 2.36  45 2.36
  11  0.444  0.889  0.500-  32 2.36  51 2.36  53 2.36  52 2.36  49 2.36  54 2.36
  12  0.556  0.778  0.500-  50 2.36  54 2.36  71 2.36  51 2.36  46 2.36  43 2.36
  13  0.778  0.222  0.500-  60 2.36  57 2.36  58 2.36  38 2.36  59 2.36  55 2.36
  14  0.889  0.111  0.500-  57 2.36  60 2.36  23 2.36  67 2.36  56 2.36  70 2.36
  15  0.778  0.556  0.500-  66 2.36  64 2.36  61 2.36  44 2.36  65 2.36  63 2.36
  16  0.889  0.444  0.500-  63 2.36  58 2.36  55 2.36  62 2.36  29 2.36  66 2.36
  17  0.778  0.889  0.500-  72 2.36  69 2.36  70 2.36  50 2.36  71 2.36  67 2.36
  18  0.889  0.778  0.500-  69 2.36  72 2.36  35 2.36  61 2.36  64 2.36  68 2.36
  19  0.120  0.333  0.433-   4 2.36   1 2.36
  20  0.333  0.120  0.433-   7 2.36   2 2.36
  21  0.214  0.214  0.433-   2 2.36   1 2.36
  22  0.214  0.333  0.567-   4 2.36   1 2.36
  23  0.000  0.214  0.567-  14 2.36   1 2.36
  24  0.120  0.120  0.567-   1 2.36   2 2.36
  25  0.120  0.667  0.433-   3 2.36   6 2.36
  26  0.333  0.453  0.433-   9 2.36   4 2.36
  27  0.214  0.547  0.433-   4 2.36   3 2.36
  28  0.214  0.667  0.567-   3 2.36   6 2.36
  29  0.000  0.547  0.567-   3 2.36  16 2.36
  30  0.120  0.453  0.567-   3 2.36   4 2.36
  31  0.120  0.000  0.433-   2 2.36   5 2.36
  32  0.333  0.786  0.433-  11 2.36   6 2.36
  33  0.214  0.880  0.433-   6 2.36   5 2.36
  34  0.214  0.000  0.567-   5 2.36   2 2.36
  35  0.000  0.880  0.567-  18 2.36   5 2.36
  36  0.120  0.786  0.567-   5 2.36   6 2.36
  37  0.453  0.333  0.433-  10 2.36   7 2.36
  38  0.667  0.120  0.433-   8 2.36  13 2.36
  39  0.547  0.214  0.433-   7 2.36   8 2.36
  40  0.547  0.333  0.567-  10 2.36   7 2.36
  41  0.333  0.214  0.567-   7 2.36   2 2.36
  42  0.453  0.120  0.567-   8 2.36   7 2.36
  43  0.453  0.667  0.433-   9 2.36  12 2.36
  44  0.667  0.453  0.433-  10 2.36  15 2.36
  45  0.547  0.547  0.433-   9 2.36  10 2.36
  46  0.547  0.667  0.567-   9 2.36  12 2.36
  47  0.333  0.547  0.567-   9 2.36   4 2.36
  48  0.453  0.453  0.567-   9 2.36  10 2.36
  49  0.453  0.000  0.433-   8 2.36  11 2.36
  50  0.667  0.786  0.433-  12 2.36  17 2.36
  51  0.547  0.880  0.433-  11 2.36  12 2.36
  52  0.547  0.000  0.567-   8 2.36  11 2.36
  53  0.333  0.880  0.567-  11 2.36   6 2.36
  54  0.453  0.786  0.567-  12 2.36  11 2.36
  55  0.786  0.333  0.433-  16 2.36  13 2.36
  56  0.000  0.120  0.433-   1 2.36  14 2.36
  57  0.880  0.214  0.433-  14 2.36  13 2.36
  58  0.880  0.333  0.567-  16 2.36  13 2.36
  59  0.667  0.214  0.567-   8 2.36  13 2.36
  60  0.786  0.120  0.567-  13 2.36  14 2.36
  61  0.786  0.667  0.433-  15 2.36  18 2.36
  62  0.000  0.453  0.433-   3 2.36  16 2.36
  63  0.880  0.547  0.433-  16 2.36  15 2.36
  64  0.880  0.667  0.567-  15 2.36  18 2.36
  65  0.667  0.547  0.567-  10 2.36  15 2.36
  66  0.786  0.453  0.567-  15 2.36  16 2.36
  67  0.786  0.000  0.433-  14 2.36  17 2.36
  68  0.000  0.786  0.433-   5 2.36  18 2.36
  69  0.880  0.880  0.433-  18 2.36  17 2.36
  70  0.880  0.000  0.567-  17 2.36  14 2.36
  71  0.667  0.880  0.567-  12 2.36  17 2.36
  72  0.786  0.786  0.567-  17 2.36  18 2.36
  73  0.333  0.333  0.580-

  LATTYP: Found a hexagonal cell.
 ALAT       =    18.1388234956
 C/A-ratio  =     1.1026073441
  
  Lattice vectors:
  
 A1 = (  18.1388234956,   0.0000000000,   0.0000000000)
 A2 = (  -9.0694117478,  15.7086819419,   0.0000000000)
 A3 = (   0.0000000000,   0.0000000000,  20.0000000000)


Analysis of symmetry for initial positions (statically):
=====================================================================
 Subroutine PRICEL returns:
 Original cell was already a primitive cell.
 

 Routine SETGRP: Setting up the symmetry group for a 
 hexagonal supercell.


 Subroutine GETGRP returns: Found  6 space group operations
 (whereof  2 operations were pure point group operations)
 out of a pool of 24 trial point group operations.


The static configuration has the point symmetry C_1h.
 The point group associated with its full space group is C_3v.


Analysis of symmetry for dynamics (positions and initial velocities):
=====================================================================
 Subroutine PRICEL returns:
 Original cell was already a primitive cell.
 

 Routine SETGRP: Setting up the symmetry group for a 
 hexagonal supercell.


 Subroutine GETGRP returns: Found  6 space group operations
 (whereof  2 operations were pure point group operations)
 out of a pool of 24 trial point group operations.


The dynamic configuration has the point symmetry C_1h.
 The point group associated with its full space group is C_3v.


Analysis of structural, dynamic, and magnetic symmetry:
=====================================================================
 Subroutine PRICEL returns:
 Original cell was already a primitive cell.
 

 Routine SETGRP: Setting up the symmetry group for a 
 hexagonal supercell.


 Subroutine GETGRP returns: Found  6 space group operations
 (whereof  2 operations were pure point group operations)
 out of a pool of 24 trial point group operations.


The overall configuration has the point symmetry C_1h.
 The point group associated with its full space group is C_3v.


 Subroutine INISYM returns: Found  6 space group operations
 (whereof  2 operations are pure point group operations),
 and found     1 'primitive' translations


----------------------------------------------------------------------------------------

                                     Primitive cell                                     

  volume of cell :    5698.7402

  direct lattice vectors                    reciprocal lattice vectors
    18.138823496  0.000000000  0.000000000     0.055130367  0.031829532 -0.000000000
    -9.069411748 15.708681942  0.000000000     0.000000000  0.063659065  0.000000000
     0.000000000  0.000000000 20.000000000     0.000000000 -0.000000000  0.050000000

  length of vectors
    18.138823496 18.138823496 20.000000000     0.063659065  0.063659065  0.050000000

  position of ions in fractional coordinates (direct lattice)
     0.111111111  0.222222222  0.500000000
     0.222222222  0.111111111  0.500000000
     0.111111111  0.555555556  0.500000000
     0.222222222  0.444444444  0.500000000
     0.111111111  0.888888889  0.500000000
     0.222222222  0.777777778  0.500000000
     0.444444444  0.222222222  0.500000000
     0.555555556  0.111111111  0.500000000
     0.444444444  0.555555556  0.500000000
     0.555555556  0.444444444  0.500000000
     0.444444444  0.888888889  0.500000000
     0.555555556  0.777777778  0.500000000
     0.777777778  0.222222222  0.500000000
     0.888888889  0.111111111  0.500000000
     0.777777778  0.555555556  0.500000000
     0.888888889  0.444444444  0.500000000
     0.777777778  0.888888889  0.500000000
     0.888888889  0.777777778  0.500000000
     0.119766732  0.333333333  0.433213807
     0.333333333  0.119766732  0.433213807
     0.213566601  0.213566601  0.433213807
     0.213566601  0.333333333  0.566786193
     0.000000000  0.213566601  0.566786193
     0.119766732  0.119766732  0.566786193
     0.119766732  0.666666667  0.433213807
     0.333333333  0.453100066  0.433213807
     0.213566601  0.546899934  0.433213807
     0.213566601  0.666666667  0.566786193
     0.000000000  0.546899934  0.566786193
     0.119766732  0.453100066  0.566786193
     0.119766732  0.000000000  0.433213807
     0.333333333  0.786433399  0.433213807
     0.213566601  0.880233268  0.433213807
     0.213566601  0.000000000  0.566786193
     0.000000000  0.880233268  0.566786193
     0.119766732  0.786433399  0.566786193
     0.453100066  0.333333333  0.433213807
     0.666666667  0.119766732  0.433213807
     0.546899934  0.213566601  0.433213807
     0.546899934  0.333333333  0.566786193
     0.333333333  0.213566601  0.566786193
     0.453100066  0.119766732  0.566786193
     0.453100066  0.666666667  0.433213807
     0.666666667  0.453100066  0.433213807
     0.546899934  0.546899934  0.433213807
     0.546899934  0.666666667  0.566786193
     0.333333333  0.546899934  0.566786193
     0.453100066  0.453100066  0.566786193
     0.453100066  0.000000000  0.433213807
     0.666666667  0.786433399  0.433213807
     0.546899934  0.880233268  0.433213807
     0.546899934  0.000000000  0.566786193
     0.333333333  0.880233268  0.566786193
     0.453100066  0.786433399  0.566786193
     0.786433399  0.333333333  0.433213807
     0.000000000  0.119766732  0.433213807
     0.880233268  0.213566601  0.433213807
     0.880233268  0.333333333  0.566786193
     0.666666667  0.213566601  0.566786193
     0.786433399  0.119766732  0.566786193
     0.786433399  0.666666667  0.433213807
     0.000000000  0.453100066  0.433213807
     0.880233268  0.546899934  0.433213807
     0.880233268  0.666666667  0.566786193
     0.666666667  0.546899934  0.566786193
     0.786433399  0.453100066  0.566786193
     0.786433399  0.000000000  0.433213807
     0.000000000  0.786433399  0.433213807
     0.880233268  0.880233268  0.433213807
     0.880233268  0.000000000  0.566786193
     0.666666667  0.880233268  0.566786193
     0.786433399  0.786433399  0.566786193
     0.333333333  0.333333333  0.580000000

  ion indices of the primitive-cell ions
   primitive index   ion index
                 1           1
                 2           2
                 3           3
                 4           4
                 5           5
                 6           6
                 7           7
                 8           8
                 9           9
                10          10
                11          11
                12          12
                13          13
                14          14
                15          15
                16          16
                17          17
                18          18
                19          19
                20          20
                21          21
                22          22
                23          23
                24          24
                25          25
                26          26
                27          27
                28          28
                29          29
                30          30
                31          31
                32          32
                33          33
                34          34
                35          35
                36          36
                37          37
                38          38
                39          39
                40          40
                41          41
                42          42
                43          43
                44          44
                45          45
                46          46
                47          47
                48          48
                49          49
                50          50
                51          51
                52          52
                53          53
                54          54
                55          55
                56          56
                57          57
                58          58
                59          59
                60          60
                61          61
                62          62
                63          63
                64          64
                65          65
                66          66
                67          67
                68          68
                69          69
                70          70
                71          71
                72          72
                73          73

----------------------------------------------------------------------------------------



 KPOINTS: K-Points 5x5x1 Gamma-centered (CrCl3 3x3

Automatic generation of k-mesh.
 Grid dimensions read from file:
 generate k-points for:    5    5    1

 Generating k-lattice:

  Cartesian coordinates                     Fractional coordinates (reciprocal lattice)
     0.011026073  0.006365906 -0.000000000     0.200000000 -0.000000000  0.000000000
     0.000000000  0.012731813  0.000000000     0.000000000  0.200000000  0.000000000
     0.000000000 -0.000000000  0.050000000     0.000000000  0.000000000  1.000000000

  Length of vectors
     0.012731813  0.012731813  0.050000000

  Shift w.r.t. Gamma in fractional coordinates (k-lattice)
     0.000000000  0.000000000  0.000000000

 
 Subroutine IBZKPT returns following result:
 ===========================================
 
 Found      5 irreducible k-points:
 
 Following reciprocal coordinates:
            Coordinates               Weight
  0.000000  0.000000  0.000000      1.000000
  0.200000  0.000000  0.000000      6.000000
  0.400000  0.000000  0.000000      6.000000
  0.200000  0.200000  0.000000      6.000000
  0.400000  0.200000  0.000000      6.000000
 
 Following cartesian coordinates:
            Coordinates               Weight
  0.000000  0.000000  0.000000      1.000000
  0.011026  0.006366  0.000000      6.000000
  0.022052  0.012732  0.000000      6.000000
  0.011026  0.019098  0.000000      6.000000
  0.022052  0.025464  0.000000      6.000000
 


--------------------------------------------------------------------------------------------------------




 Dimension of arrays:
   k-points           NKPTS =      5   k-points in BZ     NKDIM =      5   number of bands    NBANDS=    320
   number of dos      NEDOS =    301   number of ions     NIONS =     73
   non local maximal  LDIM  =      6   non local SUM 2l+1 LMDIM =     18
   total plane-waves  NPLWV = ******
   max r-space proj   IRMAX =   5608   max aug-charges    IRDMAX=  18270
   dimension x,y,z NGX =   120 NGY =  120 NGZ =  140
   dimension x,y,z NGXF=   240 NGYF=  240 NGZF=  280
   support grid    NGXF=   240 NGYF=  240 NGZF=  280
   ions per type =              18  54   1
   NGX,Y,Z   is equivalent  to a cutoff of  11.00, 11.00, 11.64 a.u.
   NGXF,Y,Z  is equivalent  to a cutoff of  22.00, 22.00, 23.27 a.u.

 SYSTEM =  CrCl3 3x3 + H (S2 hollow) (No vdW, U=0eV
 POSCAR =  CrCl3 3x3 + H S2 hollow (no_vdw, U=0) (a

 Startparameter for this run:
   NWRITE =      2    write-flag & timer
   PREC   = accura    normal or accurate (medium, high low for compatibility)
   ISTART =      0    job   : 0-new  1-cont  2-samecut
   ICHARG =      2    charge: 1-file 2-atom 10-const
   ISPIN  =      2    spin polarized calculation?
   LNONCOLLINEAR =      F non collinear calculations
   LSORBIT =      F    spin-orbit coupling
   INIWAV =      1    electr: 0-lowe 1-rand  2-diag
   LASPH  =      T    aspherical Exc in radial PAW
   METAGGA=      F    non-selfconsistent MetaGGA calc.

 Electronic Relaxation 1
   ENCUT  =  400.0 eV  29.40 Ry    5.42 a.u.  29.58 29.58 32.61*2*pi/ulx,y,z
   ENINI  =  400.0     initial cutoff
   ENAUG  =  402.1 eV  augmentation charge cutoff
   NELM   =    100;   NELMIN=  2; NELMDL= -5     # of ELM steps 
   EDIFF  = 0.1E-05   stopping-criterion for ELM
   LREAL  =      T    real-space projection
   NLSPLINE    = F    spline interpolate recip. space projectors
   LCOMPAT=      F    compatible to vasp.4.4
   GGA_COMPAT  = T    GGA compatible to vasp.4.4-vasp.4.6
   LMAXPAW     = -100 max onsite density
   LMAXMIX     =    4 max onsite mixed and CHGCAR
   VOSKOWN=      0    Vosko Wilk Nusair interpolation
   ROPT   =   -0.00025  -0.00025  -0.00025
 Ionic relaxation
   EDIFFG = -.3E-01   stopping-criterion for IOM
   NSW    =    100    number of steps for IOM
   NBLOCK =      1;   KBLOCK =    100    inner block; outer block 
   IBRION =      2    ionic relax: 0-MD 1-quasi-New 2-CG
   NFREE  =      1    steps in history (QN), initial steepest desc. (CG)
   ISIF   =      2    stress and relaxation
   IWAVPR =     11    prediction:  0-non 1-charg 2-wave 3-comb
   ISYM   =      2    0-nonsym 1-usesym 2-fastsym
   LCORR  =      T    Harris-Foulkes like correction to forces

   POTIM  = 0.5000    time-step for ionic-motion
   TEIN   =    0.0    initial temperature
   TEBEG  =    0.0;   TEEND  =   0.0 temperature during run
   SMASS  =  -3.00    Nose mass-parameter (am)
   estimated Nose-frequenzy (Omega)   =  0.10E-29 period in steps = 0.13E+47 mass=  -0.752E-26a.u.
   SCALEE = 1.0000    scale energy and forces
   NPACO  =    256;   APACO  = 16.0  distance and # of slots for P.C.
   PSTRESS=    0.0 pullay stress

  Mass of Ions in am
   POMASS =  52.00 35.45  1.00
  Ionic Valenz
   ZVAL   =   6.00  7.00  1.00
  Atomic Wigner-Seitz radii
   RWIGS  =  -1.00 -1.00 -1.00
  virtual crystal weights 
   VCA    =   1.00  1.00  1.00
   NELECT =     487.0000    total number of electrons
   NUPDOWN=      -1.0000    fix difference up-down

 DOS related values:
   EMIN   =  10.00;   EMAX   =-10.00  energy-range for DOS
   EFERMI =   0.00
   ISMEAR =     0;   SIGMA  =   0.05  broadening in eV -4-tet -1-fermi 0-gaus

 Electronic relaxation 2 (details)
   IALGO  =     38    algorithm
   LDIAG  =      T    sub-space diagonalisation (order eigenvalues)
   LSUBROT=      F    optimize rotation matrix (better conditioning)
   TURBO    =      0    0=normal 1=particle mesh
   IRESTART =      0    0=no restart 2=restart with 2 vectors
   NREBOOT  =      0    no. of reboots
   NMIN     =      0    reboot dimension
   EREF     =   0.00    reference energy to select bands
   IMIX   =      4    mixing-type and parameters
     AMIX     =   0.40;   BMIX     =  1.00
     AMIX_MAG =   1.60;   BMIX_MAG =  1.00
     AMIN     =   0.10
     WC   =   100.;   INIMIX=   1;  MIXPRE=   1;  MAXMIX= -45

 Intra band minimization:
   WEIMIN = 0.0010     energy-eigenvalue tresh-hold
   EBREAK =  0.78E-09  absolut break condition
   DEPER  =   0.30     relativ break condition  

   TIME   =   0.40     timestep for ELM

  volume/ion in A,a.u.               =      78.06       526.81
  Fermi-wavevector in a.u.,A,eV,Ry     =   0.721093  1.362669  7.074699  0.519976
  Thomas-Fermi vector in A             =   1.810713

 Write flags
   LWAVE        =      F    write WAVECAR
   LDOWNSAMPLE  =      F    k-point downsampling of WAVECAR
   LCHARG       =      F    write CHGCAR
   LVTOT        =      F    write LOCPOT, total local potential
   LVHAR        =      F    write LOCPOT, Hartree potential only
   LELF         =      F    write electronic localiz. function (ELF)
   LORBIT       =      0    0 simple, 1 ext, 2 COOP (PROOUT), +10 PAW based schemes


 Dipole corrections
   LMONO  =      F    monopole corrections only (constant potential shift)
   LDIPOL =      T    correct potential (dipole corrections)
   IDIPOL =      3    1-x, 2-y, 3-z, 4-all directions 
   EPSILON=  1.0000000 bulk dielectric constant

 Exchange correlation treatment:
   GGA     =    --    GGA type
   LEXCH   =     8    internal setting for exchange type
   VOSKOWN=      0    Vosko Wilk Nusair interpolation
   LHFCALC =     F    Hartree Fock is set to
   LHFONE  =     F    Hartree Fock one center treatment
   AEXX    =    0.0000 exact exchange contribution

 Linear response parameters
   LEPSILON=     F    determine dielectric tensor
   LRPA    =     F    only Hartree local field effects (RPA)
   LNABLA  =     F    use nabla operator in PAW spheres
   LVEL    =     F    velocity operator in full k-point grid
   LINTERFAST=   F  fast interpolation
   KINTER  =     0    interpolate to denser k-point grid
   CSHIFT  =0.1000    complex shift for real part using Kramers Kronig
   OMEGAMAX=  -1.0    maximum frequency
   DEG_THRESHOLD= 0.2000000E-02 threshold for treating states as degnerate
   RTIME   =   -0.100 relaxation time in fs
  (WPLASMAI=    0.000 imaginary part of plasma frequency in eV, 0.658/RTIME)
   DFIELD  = 0.0000000 0.0000000 0.0000000 field for delta impulse in time

 Orbital magnetization related:
   ORBITALMAG=     F  switch on orbital magnetization
   LCHIMAG   =     F  perturbation theory with respect to B field
   DQ        =  0.001000  dq finite difference perturbation B field
   LLRAUG    =     F  two centre corrections for induced B field



--------------------------------------------------------------------------------------------------------


 conjugate gradient relaxation of ions
 charge density and potential will be updated during run
 spin polarized calculation
 Variant of blocked Davidson
 Davidson routine will perform the subspace rotation
 perform sub-space diagonalisation
    after iterative eigenvector-optimisation
 modified Broyden-mixing scheme, WC =      100.0
 initial mixing is a Kerker type mixing with AMIX =  0.4000 and BMIX =      1.0000
 Hartree-type preconditioning will be used
 using additional bands           76
 real space projection scheme for non local part
 use partial core corrections
 calculate Harris-corrections to forces   (improved forces if not selfconsistent)
 use gradient corrections 
 use of overlap-Matrix (Vanderbilt PP)
 Gauss-broadening in eV      SIGMA  =   0.05


--------------------------------------------------------------------------------------------------------


  energy-cutoff  :      400.00
  volume of cell :     5698.74
      direct lattice vectors                 reciprocal lattice vectors
    18.138823496  0.000000000  0.000000000     0.055130367  0.031829532 -0.000000000
    -9.069411748 15.708681942  0.000000000     0.000000000  0.063659065  0.000000000
     0.000000000  0.000000000 20.000000000     0.000000000 -0.000000000  0.050000000

  length of vectors
    18.138823496 18.138823496 20.000000000     0.063659065  0.063659065  0.050000000



 k-points in units of 2pi/SCALE and weight: K-Points 5x5x1 Gamma-centered (CrCl3 3x3
   0.00000000  0.00000000  0.00000000       0.040
   0.01102607  0.00636591  0.00000000       0.240
   0.02205215  0.01273181  0.00000000       0.240
   0.01102607  0.01909772  0.00000000       0.240
   0.02205215  0.02546363  0.00000000       0.240

 k-points in reciprocal lattice and weights: K-Points 5x5x1 Gamma-centered (CrCl3 3x3
   0.00000000  0.00000000  0.00000000       0.040
   0.20000000  0.00000000  0.00000000       0.240
   0.40000000  0.00000000  0.00000000       0.240
   0.20000000  0.20000000  0.00000000       0.240
   0.40000000  0.20000000  0.00000000       0.240

 position of ions in fractional coordinates (direct lattice) 
   0.11111111  0.22222222  0.50000000
   0.22222222  0.11111111  0.50000000
   0.11111111  0.55555556  0.50000000
   0.22222222  0.44444444  0.50000000
   0.11111111  0.88888889  0.50000000
   0.22222222  0.77777778  0.50000000
   0.44444444  0.22222222  0.50000000
   0.55555556  0.11111111  0.50000000
   0.44444444  0.55555556  0.50000000
   0.55555556  0.44444444  0.50000000
   0.44444444  0.88888889  0.50000000
   0.55555556  0.77777778  0.50000000
   0.77777778  0.22222222  0.50000000
   0.88888889  0.11111111  0.50000000
   0.77777778  0.55555556  0.50000000
   0.88888889  0.44444444  0.50000000
   0.77777778  0.88888889  0.50000000
   0.88888889  0.77777778  0.50000000
   0.11976673  0.33333333  0.43321381
   0.33333333  0.11976673  0.43321381
   0.21356660  0.21356660  0.43321381
   0.21356660  0.33333333  0.56678619
   0.00000000  0.21356660  0.56678619
   0.11976673  0.11976673  0.56678619
   0.11976673  0.66666667  0.43321381
   0.33333333  0.45310007  0.43321381
   0.21356660  0.54689993  0.43321381
   0.21356660  0.66666667  0.56678619
   0.00000000  0.54689993  0.56678619
   0.11976673  0.45310007  0.56678619
   0.11976673  0.00000000  0.43321381
   0.33333333  0.78643340  0.43321381
   0.21356660  0.88023327  0.43321381
   0.21356660  0.00000000  0.56678619
   0.00000000  0.88023327  0.56678619
   0.11976673  0.78643340  0.56678619
   0.45310007  0.33333333  0.43321381
   0.66666667  0.11976673  0.43321381
   0.54689993  0.21356660  0.43321381
   0.54689993  0.33333333  0.56678619
   0.33333333  0.21356660  0.56678619
   0.45310007  0.11976673  0.56678619
   0.45310007  0.66666667  0.43321381
   0.66666667  0.45310007  0.43321381
   0.54689993  0.54689993  0.43321381
   0.54689993  0.66666667  0.56678619
   0.33333333  0.54689993  0.56678619
   0.45310007  0.45310007  0.56678619
   0.45310007  0.00000000  0.43321381
   0.66666667  0.78643340  0.43321381
   0.54689993  0.88023327  0.43321381
   0.54689993  0.00000000  0.56678619
   0.33333333  0.88023327  0.56678619
   0.45310007  0.78643340  0.56678619
   0.78643340  0.33333333  0.43321381
   0.00000000  0.11976673  0.43321381
   0.88023327  0.21356660  0.43321381
   0.88023327  0.33333333  0.56678619
   0.66666667  0.21356660  0.56678619
   0.78643340  0.11976673  0.56678619
   0.78643340  0.66666667  0.43321381
   0.00000000  0.45310007  0.43321381
   0.88023327  0.54689993  0.43321381
   0.88023327  0.66666667  0.56678619
   0.66666667  0.54689993  0.56678619
   0.78643340  0.45310007  0.56678619
   0.78643340  0.00000000  0.43321381
   0.00000000  0.78643340  0.43321381
   0.88023327  0.88023327  0.43321381
   0.88023327  0.00000000  0.56678619
   0.66666667  0.88023327  0.56678619
   0.78643340  0.78643340  0.56678619
   0.33333333  0.33333333  0.58000000

 position of ions in cartesian coordinates  (Angst):
   0.00000000  3.49081821 10.00000000
   3.02313725  1.74540910 10.00000000
  -3.02313725  8.72704552 10.00000000
  -0.00000000  6.98163642 10.00000000
  -6.04627450 13.96327284 10.00000000
  -3.02313725 12.21786373 10.00000000
   6.04627450  3.49081821 10.00000000
   9.06941175  1.74540910 10.00000000
   3.02313725  8.72704552 10.00000000
   6.04627450  6.98163642 10.00000000
  -0.00000000 13.96327284 10.00000000
   3.02313725 12.21786373 10.00000000
  12.09254900  3.49081821 10.00000000
  15.11568625  1.74540910 10.00000000
   9.06941175  8.72704552 10.00000000
  12.09254900  6.98163642 10.00000000
   6.04627450 13.96327284 10.00000000
   9.06941175 12.21786373 10.00000000
  -0.85070963  5.23622731  8.66427613
   4.96006069  1.88137750  8.66427613
   1.93692344  3.35484981  8.66427613
   0.85070963  5.23622731 11.33572387
  -1.93692344  3.35484981 11.33572387
   1.08621381  1.88137750 11.33572387
  -3.87384688 10.47245463  8.66427613
   1.93692344  7.11760482  8.66427613
  -1.08621381  8.59107712  8.66427613
  -2.17242762 10.47245463 11.33572387
  -4.96006069  8.59107712 11.33572387
  -1.93692344  7.11760482 11.33572387
   2.17242762  0.00000000  8.66427613
  -1.08621381 12.35383213  8.66427613
  -4.10935106 13.82730444  8.66427613
   3.87384688  0.00000000 11.33572387
  -7.98319794 13.82730444 11.33572387
  -4.96006069 12.35383213 11.33572387
   5.19556487  5.23622731  8.66427613
  11.00633519  1.88137750  8.66427613
   7.98319794  3.35484981  8.66427613
   6.89698413  5.23622731 11.33572387
   4.10935106  3.35484981 11.33572387
   7.13248831  1.88137750 11.33572387
   2.17242762 10.47245463  8.66427613
   7.98319794  7.11760482  8.66427613
   4.96006069  8.59107712  8.66427613
   3.87384688 10.47245463 11.33572387
   1.08621381  8.59107712 11.33572387
   4.10935106  7.11760482 11.33572387
   8.21870212  0.00000000  8.66427613
   4.96006069 12.35383213  8.66427613
   1.93692344 13.82730444  8.66427613
   9.92012138  0.00000000 11.33572387
  -1.93692344 13.82730444 11.33572387
   1.08621381 12.35383213 11.33572387
  11.24183937  5.23622731  8.66427613
  -1.08621381  1.88137750  8.66427613
  14.02947244  3.35484981  8.66427613
  12.94325863  5.23622731 11.33572387
  10.15562556  3.35484981 11.33572387
  13.17876281  1.88137750 11.33572387
   8.21870212 10.47245463  8.66427613
  -4.10935106  7.11760482  8.66427613
  11.00633519  8.59107712  8.66427613
   9.92012138 10.47245463 11.33572387
   7.13248831  8.59107712 11.33572387
  10.15562556  7.11760482 11.33572387
  14.26497661  0.00000000  8.66427613
  -7.13248831 12.35383213  8.66427613
   7.98319794 13.82730444  8.66427613
  15.96639588  0.00000000 11.33572387
   4.10935106 13.82730444 11.33572387
   7.13248831 12.35383213 11.33572387
   3.02313725  5.23622731 11.60000000



--------------------------------------------------------------------------------------------------------


 k-point   1 :   0.0000 0.0000 0.0000  plane waves:  103487
 k-point   2 :   0.2000 0.0000 0.0000  plane waves:  103561
 k-point   3 :   0.4000 0.0000 0.0000  plane waves:  103540
 k-point   4 :   0.2000 0.2000 0.0000  plane waves:  103525
 k-point   5 :   0.4000 0.2000 0.0000  plane waves:  103548

 maximum and minimum number of plane-waves per node :     12979    12907

 maximum number of plane-waves:    103561
 maximum index in each direction: 
   IXMAX=   29   IYMAX=   29   IZMAX=   32
   IXMIN=  -29   IYMIN=  -29   IZMIN=  -32


 real space projection operators:
  total allocation   :      27705.18 KBytes
  max/ min on nodes  :       3512.07       3431.84


 parallel 3D FFT for wavefunctions:
    minimum data exchange during FFTs selected (reduces bandwidth)
 parallel 3D FFT for charge:
    minimum data exchange during FFTs selected (reduces bandwidth)


 total amount of memory used by VASP MPI-rank0   185571. kBytes
=======================================================================

   base      :      30000. kBytes
   nonlr-proj:      11221. kBytes
   fftplans  :      16369. kBytes
   grid      :      44010. kBytes
   one-center:        311. kBytes
   wavefun   :      83660. kBytes

     INWAV:  cpu time    0.0001: real time    0.0001
 Broyden mixing: mesh for mixing (old mesh)
   NGX = 59   NGY = 59   NGZ = 65
  (NGX  =240   NGY  =240   NGZ  =280)
  gives a total of 226265 points

 initial charge density was supplied:
 charge density of overlapping atoms calculated
 number of electron     487.0000000 magnetization      54.0000000
 keeping initial charge density in first step


--------------------------------------------------------------------------------------------------------


 Maximum index for non-local projection operator          669
 Maximum index for augmentation-charges          687 (set IRDMAX)


--------------------------------------------------------------------------------------------------------


 First call to EWALD:  gamma=   0.099
 Maximum number of real-space cells 3x 3x 3
 Maximum number of reciprocal cells 3x 3x 3

    FEWALD:  cpu time    0.0058: real time    0.0058


--------------------------------------- Iteration      1(   1)  ---------------------------------------


    POTLOK:  cpu time    1.1701: real time    1.9325
    SETDIJ:  cpu time    0.8197: real time    0.8250
     EDDAV:  cpu time   35.2357: real time   35.5174
       DOS:  cpu time    0.0090: real time    0.0090
    --------------------------------------------
      LOOP:  cpu time   37.2345: real time   38.2840

 eigenvalue-minimisations  :  6608
 total energy-change (2. order) : 0.4654893E+04  (-0.1388391E+05)
 number of electron     487.0000000 magnetization      54.0000000
 augmentation part      487.0000000 magnetization      54.0000000

 DIPCOR: dipole corrections for dipol
 direction  3 min pos     1,
 dipolmoment           0.000000      0.000000     -0.000005 electrons x Angstroem
 Tr[quadrupol]    -26929.919156

 energy correction for charged system         0.000000 eV
 dipol+quadrupol energy correction           -0.000000 eV
 added-field ion interaction          0.000000 eV  (added to PSCEN)


 Free energy of the ion-electron system (eV)
  ---------------------------------------------------
  alpha Z        PSCENC =       245.39953904
  Ewald energy   TEWEN  =     54867.64093928
  -Hartree energ DENC   =    -78972.84849944
  -exchange      EXHF   =         0.00000000
  -V(xc)+E(xc)   XCENC  =       745.27605624
  PAW double counting   =     22545.45053227   -22197.50608897
  entropy T*S    EENTRO =        -0.07859734
  eigenvalues    EBANDS =       300.44998198
  atomic energy  EATOM  =     27121.10918193
  Solvation  Ediel_sol  =         0.00000000
  ---------------------------------------------------
  free energy    TOTEN  =      4654.89304499 eV

  energy without entropy =     4654.97164234  energy(sigma->0) =     4654.93234366


--------------------------------------------------------------------------------------------------------




--------------------------------------- Iteration      1(   2)  ---------------------------------------


     EDDAV:  cpu time   63.6513: real time   64.0663
       DOS:  cpu time    0.0077: real time    0.0077
    --------------------------------------------
      LOOP:  cpu time   63.6590: real time   64.0741

 eigenvalue-minimisations  :  7656
 total energy-change (2. order) :-0.3716135E+04  (-0.3445991E+04)
 number of electron     487.0000000 magnetization      54.0000000
 augmentation part      487.0000000 magnetization      54.0000000

 DIPCOR: dipole corrections for dipol
 direction  3 min pos     1,
 dipolmoment           0.000000      0.000000     -0.000005 electrons x Angstroem
 Tr[quadrupol]    -26929.919156

 energy correction for charged system         0.000000 eV
 dipol+quadrupol energy correction           -0.000000 eV
 added-field ion interaction          0.000000 eV  (added to PSCEN)


 Free energy of the ion-electron system (eV)
  ---------------------------------------------------
  alpha Z        PSCENC =       245.39953904
  Ewald energy   TEWEN  =     54867.64093928
  -Hartree energ DENC   =    -78972.84849944
  -exchange      EXHF   =         0.00000000
  -V(xc)+E(xc)   XCENC  =       745.27605624
  PAW double counting   =     22545.45053227   -22197.50608897
  entropy T*S    EENTRO =        -0.05354527
  eigenvalues    EBANDS =     -3415.71009758
  atomic energy  EATOM  =     27121.10918193
  Solvation  Ediel_sol  =         0.00000000
  ---------------------------------------------------
  free energy    TOTEN  =       938.75801751 eV

  energy without entropy =      938.81156278  energy(sigma->0) =      938.78479014


--------------------------------------------------------------------------------------------------------




--------------------------------------- Iteration      1(   3)  ---------------------------------------


     EDDAV:  cpu time   46.1741: real time   46.5110
       DOS:  cpu time    0.0051: real time    0.0052
    --------------------------------------------
      LOOP:  cpu time   46.1792: real time   46.5161

 eigenvalue-minimisations  :  9424
 total energy-change (2. order) :-0.1219563E+04  (-0.1179110E+04)
 number of electron     487.0000000 magnetization      54.0000000
 augmentation part      487.0000000 magnetization      54.0000000

 DIPCOR: dipole corrections for dipol
 direction  3 min pos     1,
 dipolmoment           0.000000      0.000000     -0.000005 electrons x Angstroem
 Tr[quadrupol]    -26929.919156

 energy correction for charged system         0.000000 eV
 dipol+quadrupol energy correction           -0.000000 eV
 added-field ion interaction          0.000000 eV  (added to PSCEN)


 Free energy of the ion-electron system (eV)
  ---------------------------------------------------
  alpha Z        PSCENC =       245.39953904
  Ewald energy   TEWEN  =     54867.64093928
  -Hartree energ DENC   =    -78972.84849944
  -exchange      EXHF   =         0.00000000
  -V(xc)+E(xc)   XCENC  =       745.27605624
  PAW double counting   =     22545.45053227   -22197.50608897
  entropy T*S    EENTRO =        -0.00001480
  eigenvalues    EBANDS =     -4635.32708495
  atomic energy  EATOM  =     27121.10918193
  Solvation  Ediel_sol  =         0.00000000
  ---------------------------------------------------
  free energy    TOTEN  =      -280.80543939 eV

  energy without entropy =     -280.80542459  energy(sigma->0) =     -280.80543199


--------------------------------------------------------------------------------------------------------




--------------------------------------- Iteration      1(   4)  ---------------------------------------


     EDDAV:  cpu time   48.1663: real time   48.5177
       DOS:  cpu time    0.0053: real time    0.0054
    --------------------------------------------
      LOOP:  cpu time   48.1717: real time   48.5231

 eigenvalue-minimisations  :  9936
 total energy-change (2. order) :-0.1070583E+03  (-0.1053398E+03)
 number of electron     487.0000000 magnetization      54.0000000
 augmentation part      487.0000000 magnetization      54.0000000

 DIPCOR: dipole corrections for dipol
 direction  3 min pos     1,
 dipolmoment           0.000000      0.000000     -0.000005 electrons x Angstroem
 Tr[quadrupol]    -26929.919156

 energy correction for charged system         0.000000 eV
 dipol+quadrupol energy correction           -0.000000 eV
 added-field ion interaction          0.000000 eV  (added to PSCEN)


 Free energy of the ion-electron system (eV)
  ---------------------------------------------------
  alpha Z        PSCENC =       245.39953904
  Ewald energy   TEWEN  =     54867.64093928
  -Hartree energ DENC   =    -78972.84849944
  -exchange      EXHF   =         0.00000000
  -V(xc)+E(xc)   XCENC  =       745.27605624
  PAW double counting   =     22545.45053227   -22197.50608897
  entropy T*S    EENTRO =        -0.00000757
  eigenvalues    EBANDS =     -4742.38540383
  atomic energy  EATOM  =     27121.10918193
  Solvation  Ediel_sol  =         0.00000000
  ---------------------------------------------------
  free energy    TOTEN  =      -387.86375105 eV

  energy without entropy =     -387.86374348  energy(sigma->0) =     -387.86374726


--------------------------------------------------------------------------------------------------------




--------------------------------------- Iteration      1(   5)  ---------------------------------------


     EDDAV:  cpu time   46.7955: real time   47.1405
       DOS:  cpu time    0.0045: real time    0.0045
    CHARGE:  cpu time    2.3496: real time    2.3642
    MIXING:  cpu time    0.0079: real time    0.0080
    --------------------------------------------
      LOOP:  cpu time   49.1575: real time   49.5172

 eigenvalue-minimisations  : 10032
 total energy-change (2. order) :-0.2268372E+01  (-0.2204431E+01)
 number of electron     486.9999959 magnetization      53.8562715
 augmentation part      -18.9901367 magnetization      30.8694850

 DIPCOR: dipole corrections for dipol
 direction  3 min pos     1,
 dipolmoment           0.000000      0.000000     -0.000005 electrons x Angstroem
 Tr[quadrupol]    -26929.919156

 energy correction for charged system         0.000000 eV
 dipol+quadrupol energy correction           -0.000000 eV
 added-field ion interaction          0.000000 eV  (added to PSCEN)


 Broyden mixing:
  rms(total) = 0.61910E+01    rms(broyden)= 0.61896E+01
  rms(prec ) = 0.65443E+01
  weight for this iteration     100.00

 Free energy of the ion-electron system (eV)
  ---------------------------------------------------
  alpha Z        PSCENC =       245.39953904
  Ewald energy   TEWEN  =     54867.64093928
  -Hartree energ DENC   =    -78972.84849944
  -exchange      EXHF   =         0.00000000
  -V(xc)+E(xc)   XCENC  =       745.27605624
  PAW double counting   =     22545.45053227   -22197.50608897
  entropy T*S    EENTRO =        -0.00035870
  eigenvalues    EBANDS =     -4744.65342450
  atomic energy  EATOM  =     27121.10918193
  Solvation  Ediel_sol  =         0.00000000
  ---------------------------------------------------
  free energy    TOTEN  =      -390.13212285 eV

  energy without entropy =     -390.13176415  energy(sigma->0) =     -390.13194350


--------------------------------------------------------------------------------------------------------




--------------------------------------- Iteration      1(   6)  ---------------------------------------


    POTLOK:  cpu time    0.4208: real time    0.4237
    SETDIJ:  cpu time    0.8719: real time    0.8773
     EDDAV:  cpu time   50.1450: real time   50.5039
       DOS:  cpu time    0.0021: real time    0.0021
    CHARGE:  cpu time    2.3395: real time    2.3540
    MIXING:  cpu time    0.0095: real time    0.0096
    --------------------------------------------
      LOOP:  cpu time   53.7890: real time   54.1707

 eigenvalue-minimisations  :  9432
 total energy-change (2. order) : 0.1908401E+02  (-0.3642935E+02)
 number of electron     486.9999963 magnetization      53.7973127
 augmentation part        9.1218721 magnetization      35.6582693

 DIPCOR: dipole corrections for dipol
 direction  3 min pos     1,
 dipolmoment           0.000000      0.000000      0.117252 electrons x Angstroem
 Tr[quadrupol]    -26926.810483

 energy correction for charged system         0.000000 eV
 dipol+quadrupol energy correction           -0.000225 eV
 added-field ion interaction         -0.006150 eV  (added to PSCEN)


 Broyden mixing:
  rms(total) = 0.65709E+01    rms(broyden)= 0.65706E+01
  rms(prec ) = 0.68406E+01
  weight for this iteration     100.00

 eigenvalues of (default mixing * dielectric matrix)
  average eigenvalue GAMMA=   0.3165
  0.3165

 Free energy of the ion-electron system (eV)
  ---------------------------------------------------
  alpha Z        PSCENC =       245.39316340
  Ewald energy   TEWEN  =     54867.64093928
  -Hartree energ DENC   =    -78842.13642704
  -exchange      EXHF   =         0.00000000
  -V(xc)+E(xc)   XCENC  =       771.77627350
  PAW double counting   =     25700.30932828   -25311.36819713
  entropy T*S    EENTRO =        -0.00329696
  eigenvalues    EBANDS =     -4923.76907314
  atomic energy  EATOM  =     27121.10918193
  Solvation  Ediel_sol  =         0.00000000
  ---------------------------------------------------
  free energy    TOTEN  =      -371.04810787 eV

  energy without entropy =     -371.04481091  energy(sigma->0) =     -371.04645939


--------------------------------------------------------------------------------------------------------




--------------------------------------- Iteration      1(   7)  ---------------------------------------


    POTLOK:  cpu time    0.9534: real time    0.9591
    SETDIJ:  cpu time    0.8884: real time    0.8928
     EDDAV:  cpu time   47.3334: real time   47.6690
       DOS:  cpu time    0.0181: real time    0.0182
    CHARGE:  cpu time    2.5206: real time    2.5363
    MIXING:  cpu time    0.0097: real time    0.0098
    --------------------------------------------
      LOOP:  cpu time   51.7237: real time   52.0852

 eigenvalue-minimisations  :  9200
 total energy-change (2. order) : 0.1940103E+02  (-0.6457008E+01)
 number of electron     486.9999961 magnetization      53.9298725
 augmentation part       -5.7571603 magnetization      35.2629727

 DIPCOR: dipole corrections for dipol
 direction  3 min pos     1,
 dipolmoment           0.000000      0.000000     -0.000356 electrons x Angstroem
 Tr[quadrupol]    -26929.763880

 energy correction for charged system         0.000000 eV
 dipol+quadrupol energy correction           -0.000000 eV
 added-field ion interaction          0.000019 eV  (added to PSCEN)


 Broyden mixing:
  rms(total) = 0.30904E+01    rms(broyden)= 0.30902E+01
  rms(prec ) = 0.31188E+01
  weight for this iteration     100.00

 eigenvalues of (default mixing * dielectric matrix)
  average eigenvalue GAMMA=   0.7094
  1.0341  0.3846

 Free energy of the ion-electron system (eV)
  ---------------------------------------------------
  alpha Z        PSCENC =       245.39955744
  Ewald energy   TEWEN  =     54867.64093928
  -Hartree energ DENC   =    -78949.88345440
  -exchange      EXHF   =         0.00000000
  -V(xc)+E(xc)   XCENC  =       767.71569848
  PAW double counting   =     27293.99880361   -26937.22426543
  entropy T*S    EENTRO =        -0.05886229
  eigenvalues    EBANDS =     -4760.34467985
  atomic energy  EATOM  =     27121.10918193
  Solvation  Ediel_sol  =         0.00000000
  ---------------------------------------------------
  free energy    TOTEN  =      -351.64708124 eV

  energy without entropy =     -351.58821894  energy(sigma->0) =     -351.61765009


--------------------------------------------------------------------------------------------------------




--------------------------------------- Iteration      1(   8)  ---------------------------------------


    POTLOK:  cpu time    0.4267: real time    0.4296
    SETDIJ:  cpu time    0.8738: real time    0.8789
     EDDAV:  cpu time   47.9351: real time   48.2808
       DOS:  cpu time    0.0057: real time    0.0057
    CHARGE:  cpu time    2.3783: real time    2.3932
    MIXING:  cpu time    0.0087: real time    0.0088
    --------------------------------------------
      LOOP:  cpu time   51.6283: real time   51.9970

 eigenvalue-minimisations  :  9432
 total energy-change (2. order) :-0.1365029E+01  (-0.1647139E+01)
 number of electron     486.9999961 magnetization      53.8094566
 augmentation part       -6.8359501 magnetization      36.8101688

 DIPCOR: dipole corrections for dipol
 direction  3 min pos     1,
 dipolmoment           0.000000      0.000000     -0.162921 electrons x Angstroem
 Tr[quadrupol]    -26930.709515

 energy correction for charged system         0.000000 eV
 dipol+quadrupol energy correction           -0.000435 eV
 added-field ion interaction          0.008545 eV  (added to PSCEN)


 Broyden mixing:
  rms(total) = 0.16001E+01    rms(broyden)= 0.16001E+01
  rms(prec ) = 0.16468E+01
  weight for this iteration     100.00

 eigenvalues of (default mixing * dielectric matrix)
  average eigenvalue GAMMA=   0.8724
  1.6086  0.5044  0.5044

 Free energy of the ion-electron system (eV)
  ---------------------------------------------------
  alpha Z        PSCENC =       245.40764891
  Ewald energy   TEWEN  =     54867.64093928
  -Hartree energ DENC   =    -78965.06343932
  -exchange      EXHF   =         0.00000000
  -V(xc)+E(xc)   XCENC  =       773.82835576
  PAW double counting   =     30573.84146165   -30230.48526017
  entropy T*S    EENTRO =        -0.00302364
  eigenvalues    EBANDS =     -4739.28797436
  atomic energy  EATOM  =     27121.10918193
  Solvation  Ediel_sol  =         0.00000000
  ---------------------------------------------------
  free energy    TOTEN  =      -353.01210996 eV

  energy without entropy =     -353.00908632  energy(sigma->0) =     -353.01059814


--------------------------------------------------------------------------------------------------------




--------------------------------------- Iteration      1(   9)  ---------------------------------------


    POTLOK:  cpu time    0.4114: real time    0.4144
    SETDIJ:  cpu time    0.8609: real time    0.8656
     EDDAV:  cpu time   46.6971: real time   47.0334
       DOS:  cpu time    0.0042: real time    0.0042
    CHARGE:  cpu time    2.3827: real time    2.3971
    MIXING:  cpu time    0.0083: real time    0.0084
    --------------------------------------------
      LOOP:  cpu time   50.3646: real time   50.7231

 eigenvalue-minimisations  :  9272
 total energy-change (2. order) : 0.6670625E+00  (-0.4985815E+00)
 number of electron     486.9999961 magnetization      53.7288344
 augmentation part       -4.7997661 magnetization      37.3939048

 DIPCOR: dipole corrections for dipol
 direction  3 min pos     1,
 dipolmoment           0.000000      0.000000     -0.114174 electrons x Angstroem
 Tr[quadrupol]    -26931.387778

 energy correction for charged system         0.000000 eV
 dipol+quadrupol energy correction           -0.000214 eV
 added-field ion interaction          0.005988 eV  (added to PSCEN)


 Broyden mixing:
  rms(total) = 0.85741E+00    rms(broyden)= 0.85736E+00
  rms(prec ) = 0.87371E+00
  weight for this iteration     100.00

 eigenvalues of (default mixing * dielectric matrix)
  average eigenvalue GAMMA=   0.9322
  2.0911  0.6617  0.4705  0.5054

 Free energy of the ion-electron system (eV)
  ---------------------------------------------------
  alpha Z        PSCENC =       245.40531352
  Ewald energy   TEWEN  =     54867.64093928
  -Hartree energ DENC   =    -78978.17610242
  -exchange      EXHF   =         0.00000000
  -V(xc)+E(xc)   XCENC  =       776.38508700
  PAW double counting   =     32802.46362911   -32463.83548205
  entropy T*S    EENTRO =        -0.00000000
  eigenvalues    EBANDS =     -4723.33761384
  atomic energy  EATOM  =     27121.10918193
  Solvation  Ediel_sol  =         0.00000000
  ---------------------------------------------------
  free energy    TOTEN  =      -352.34504747 eV

  energy without entropy =     -352.34504747  energy(sigma->0) =     -352.34504747


--------------------------------------------------------------------------------------------------------




--------------------------------------- Iteration      1(  10)  ---------------------------------------


    POTLOK:  cpu time    0.4335: real time    0.4369
    SETDIJ:  cpu time    0.8794: real time    0.8841
     EDDAV:  cpu time   47.4859: real time   47.8303
       DOS:  cpu time    0.0035: real time    0.0035
    CHARGE:  cpu time    2.4559: real time    2.4703
    MIXING:  cpu time    0.0085: real time    0.0085
    --------------------------------------------
      LOOP:  cpu time   51.2667: real time   51.6337

 eigenvalue-minimisations  :  9312
 total energy-change (2. order) : 0.1920099E+00  (-0.1299025E+00)
 number of electron     486.9999961 magnetization      53.6382941
 augmentation part       -4.4461007 magnetization      37.3463509

 DIPCOR: dipole corrections for dipol
 direction  3 min pos     1,
 dipolmoment           0.000000      0.000000     -0.066151 electrons x Angstroem
 Tr[quadrupol]    -26931.765253

 energy correction for charged system         0.000000 eV
 dipol+quadrupol energy correction           -0.000072 eV
 added-field ion interaction          0.003470 eV  (added to PSCEN)


 Broyden mixing:
  rms(total) = 0.38392E+00    rms(broyden)= 0.38390E+00
  rms(prec ) = 0.39414E+00
  weight for this iteration     100.00

 eigenvalues of (default mixing * dielectric matrix)
  average eigenvalue GAMMA=   0.9514
  2.3132  0.8394  0.4372  0.6367  0.5305

 Free energy of the ion-electron system (eV)
  ---------------------------------------------------
  alpha Z        PSCENC =       245.40293666
  Ewald energy   TEWEN  =     54867.64093928
  -Hartree energ DENC   =    -78987.46443571
  -exchange      EXHF   =         0.00000000
  -V(xc)+E(xc)   XCENC  =       777.76453178
  PAW double counting   =     33226.62878527   -32890.13230559
  entropy T*S    EENTRO =        -0.00000000
  eigenvalues    EBANDS =     -4713.10267123
  atomic energy  EATOM  =     27121.10918193
  Solvation  Ediel_sol  =         0.00000000
  ---------------------------------------------------
  free energy    TOTEN  =      -352.15303761 eV

  energy without entropy =     -352.15303761  energy(sigma->0) =     -352.15303761


--------------------------------------------------------------------------------------------------------




--------------------------------------- Iteration      1(  11)  ---------------------------------------


    POTLOK:  cpu time    6.1199: real time    6.1764
    SETDIJ:  cpu time    1.0518: real time    1.0575
     EDDAV:  cpu time   47.1653: real time   47.5043
       DOS:  cpu time    0.0053: real time    0.0053
    CHARGE:  cpu time    2.3134: real time    2.3272
    MIXING:  cpu time    0.0108: real time    0.0108
    --------------------------------------------
      LOOP:  cpu time   56.6665: real time   57.0816

 eigenvalue-minimisations  :  9072
 total energy-change (2. order) :-0.1079252E+00  (-0.3815560E-01)
 number of electron     486.9999961 magnetization      53.5312390
 augmentation part       -4.6690302 magnetization      37.1629537

 DIPCOR: dipole corrections for dipol
 direction  3 min pos     1,
 dipolmoment           0.000000      0.000000     -0.044334 electrons x Angstroem
 Tr[quadrupol]    -26932.149919

 energy correction for charged system         0.000000 eV
 dipol+quadrupol energy correction           -0.000032 eV
 added-field ion interaction          0.002325 eV  (added to PSCEN)


 Broyden mixing:
  rms(total) = 0.18292E+00    rms(broyden)= 0.18291E+00
  rms(prec ) = 0.18841E+00
  weight for this iteration     100.00

 eigenvalues of (default mixing * dielectric matrix)
  average eigenvalue GAMMA=   0.9709
  2.4591  1.0661  0.6738  0.6738  0.4414  0.5113

 Free energy of the ion-electron system (eV)
  ---------------------------------------------------
  alpha Z        PSCENC =       245.40183190
  Ewald energy   TEWEN  =     54867.64093928
  -Hartree energ DENC   =    -78996.21203195
  -exchange      EXHF   =         0.00000000
  -V(xc)+E(xc)   XCENC  =       778.06767472
  PAW double counting   =     33401.85114910   -33066.75920550
  entropy T*S    EENTRO =        -0.00000000
  eigenvalues    EBANDS =     -4703.36050226
  atomic energy  EATOM  =     27121.10918193
  Solvation  Ediel_sol  =         0.00000000
  ---------------------------------------------------
  free energy    TOTEN  =      -352.26096279 eV

  energy without entropy =     -352.26096279  energy(sigma->0) =     -352.26096279


--------------------------------------------------------------------------------------------------------




--------------------------------------- Iteration      1(  12)  ---------------------------------------


    POTLOK:  cpu time    0.4211: real time    0.4237
    SETDIJ:  cpu time    0.8626: real time    0.8672
     EDDAV:  cpu time   46.2287: real time   46.5730
       DOS:  cpu time    0.0033: real time    0.0033
    CHARGE:  cpu time    2.3534: real time    2.3684
    MIXING:  cpu time    0.0094: real time    0.0095
    --------------------------------------------
      LOOP:  cpu time   49.8785: real time   50.2451

 eigenvalue-minimisations  :  9392
 total energy-change (2. order) :-0.1063738E+00  (-0.1321904E-01)
 number of electron     486.9999961 magnetization      53.4635723
 augmentation part       -4.7751733 magnetization      37.0380357

 DIPCOR: dipole corrections for dipol
 direction  3 min pos     1,
 dipolmoment           0.000000      0.000000     -0.047988 electrons x Angstroem
 Tr[quadrupol]    -26932.532015

 energy correction for charged system         0.000000 eV
 dipol+quadrupol energy correction           -0.000038 eV
 added-field ion interaction          0.002517 eV  (added to PSCEN)


 Broyden mixing:
  rms(total) = 0.93214E-01    rms(broyden)= 0.93204E-01
  rms(prec ) = 0.95862E-01
  weight for this iteration     100.00

 eigenvalues of (default mixing * dielectric matrix)
  average eigenvalue GAMMA=   0.9984
  2.4940  1.1348  1.1348  0.6311  0.6311  0.4433  0.5194

 Free energy of the ion-electron system (eV)
  ---------------------------------------------------
  alpha Z        PSCENC =       245.40201800
  Ewald energy   TEWEN  =     54867.64093928
  -Hartree energ DENC   =    -79003.93975106
  -exchange      EXHF   =         0.00000000
  -V(xc)+E(xc)   XCENC  =       777.69083934
  PAW double counting   =     33514.97707817   -33180.40369001
  entropy T*S    EENTRO =        -0.00000000
  eigenvalues    EBANDS =     -4694.84395221
  atomic energy  EATOM  =     27121.10918193
  Solvation  Ediel_sol  =         0.00000000
  ---------------------------------------------------
  free energy    TOTEN  =      -352.36733656 eV

  energy without entropy =     -352.36733656  energy(sigma->0) =     -352.36733656


--------------------------------------------------------------------------------------------------------




--------------------------------------- Iteration      1(  13)  ---------------------------------------


    POTLOK:  cpu time    1.1081: real time    1.1155
    SETDIJ:  cpu time    0.9180: real time    0.9231
     EDDAV:  cpu time   45.6308: real time   45.9532
       DOS:  cpu time    0.0028: real time    0.0028
    CHARGE:  cpu time    2.4594: real time    2.4746
    MIXING:  cpu time    0.0097: real time    0.0098
    --------------------------------------------
      LOOP:  cpu time   50.1289: real time   50.4789

 eigenvalue-minimisations  :  9248
 total energy-change (2. order) :-0.5126924E-01  (-0.3918270E-02)
 number of electron     486.9999961 magnetization      53.3820049
 augmentation part       -4.7771862 magnetization      36.9203443

 DIPCOR: dipole corrections for dipol
 direction  3 min pos     1,
 dipolmoment           0.000000      0.000000     -0.053252 electrons x Angstroem
 Tr[quadrupol]    -26932.733618

 energy correction for charged system         0.000000 eV
 dipol+quadrupol energy correction           -0.000046 eV
 added-field ion interaction          0.002793 eV  (added to PSCEN)


 Broyden mixing:
  rms(total) = 0.62271E-01    rms(broyden)= 0.62266E-01
  rms(prec ) = 0.64807E-01
  weight for this iteration     100.00

 eigenvalues of (default mixing * dielectric matrix)
  average eigenvalue GAMMA=   1.0159
  2.3591  1.3041  1.3041  0.9152  0.4430  0.6891  0.5562  0.5562

 Free energy of the ion-electron system (eV)
  ---------------------------------------------------
  alpha Z        PSCENC =       245.40228539
  Ewald energy   TEWEN  =     54867.64093928
  -Hartree energ DENC   =    -79008.32960668
  -exchange      EXHF   =         0.00000000
  -V(xc)+E(xc)   XCENC  =       777.62065902
  PAW double counting   =     33458.09444634   -33123.43306576
  entropy T*S    EENTRO =        -0.00000000
  eigenvalues    EBANDS =     -4690.52344533
  atomic energy  EATOM  =     27121.10918193
  Solvation  Ediel_sol  =         0.00000000
  ---------------------------------------------------
  free energy    TOTEN  =      -352.41860580 eV

  energy without entropy =     -352.41860580  energy(sigma->0) =     -352.41860580


--------------------------------------------------------------------------------------------------------




--------------------------------------- Iteration      1(  14)  ---------------------------------------


    POTLOK:  cpu time    0.4274: real time    0.4302
    SETDIJ:  cpu time    0.8783: real time    0.8837
     EDDAV:  cpu time   46.5998: real time   46.9410
       DOS:  cpu time    0.0047: real time    0.0048
    CHARGE:  cpu time    2.3548: real time    2.3685
    MIXING:  cpu time    0.0092: real time    0.0093
    --------------------------------------------
      LOOP:  cpu time   50.2742: real time   50.6375

 eigenvalue-minimisations  :  9296
 total energy-change (2. order) :-0.5088203E-01  (-0.1312543E-02)
 number of electron     486.9999961 magnetization      53.3082715
 augmentation part       -4.7896743 magnetization      36.8327863

 DIPCOR: dipole corrections for dipol
 direction  3 min pos     1,
 dipolmoment           0.000000      0.000000     -0.051982 electrons x Angstroem
 Tr[quadrupol]    -26932.977494

 energy correction for charged system         0.000000 eV
 dipol+quadrupol energy correction           -0.000044 eV
 added-field ion interaction          0.002726 eV  (added to PSCEN)


 Broyden mixing:
  rms(total) = 0.35682E-01    rms(broyden)= 0.35679E-01
  rms(prec ) = 0.37638E-01
  weight for this iteration     100.00

 eigenvalues of (default mixing * dielectric matrix)
  average eigenvalue GAMMA=   1.0297
  2.2999  1.8926  1.0790  1.0790  0.8020  0.4449  0.5350  0.5673  0.5673

 Free energy of the ion-electron system (eV)
  ---------------------------------------------------
  alpha Z        PSCENC =       245.40222093
  Ewald energy   TEWEN  =     54867.64093928
  -Hartree energ DENC   =    -79013.79175191
  -exchange      EXHF   =         0.00000000
  -V(xc)+E(xc)   XCENC  =       777.54959315
  PAW double counting   =     33364.87294823   -33030.00539412
  entropy T*S    EENTRO =        -0.00000000
  eigenvalues    EBANDS =     -4685.24722532
  atomic energy  EATOM  =     27121.10918193
  Solvation  Ediel_sol  =         0.00000000
  ---------------------------------------------------
  free energy    TOTEN  =      -352.46948783 eV

  energy without entropy =     -352.46948783  energy(sigma->0) =     -352.46948783


--------------------------------------------------------------------------------------------------------




--------------------------------------- Iteration      1(  15)  ---------------------------------------


    POTLOK:  cpu time    0.4097: real time    0.4130
    SETDIJ:  cpu time    0.8650: real time    0.8713
     EDDAV:  cpu time   48.5163: real time   48.8645
       DOS:  cpu time    0.0040: real time    0.0040
    CHARGE:  cpu time    2.4255: real time    2.4396
    MIXING:  cpu time    0.0098: real time    0.0099
    --------------------------------------------
      LOOP:  cpu time   52.2303: real time   52.6022

 eigenvalue-minimisations  :  8920
 total energy-change (2. order) :-0.3330445E-01  (-0.3247230E-03)
 number of electron     486.9999961 magnetization      53.2679700
 augmentation part       -4.7850733 magnetization      36.7866922

 DIPCOR: dipole corrections for dipol
 direction  3 min pos     1,
 dipolmoment           0.000000      0.000000     -0.049957 electrons x Angstroem
 Tr[quadrupol]    -26933.209609

 energy correction for charged system         0.000000 eV
 dipol+quadrupol energy correction           -0.000041 eV
 added-field ion interaction          0.002620 eV  (added to PSCEN)


 Broyden mixing:
  rms(total) = 0.19729E-01    rms(broyden)= 0.19727E-01
  rms(prec ) = 0.21622E-01
  weight for this iteration     100.00

 eigenvalues of (default mixing * dielectric matrix)
  average eigenvalue GAMMA=   1.0404
  2.4218  2.1628  1.0371  1.0371  1.0505  0.6188  0.6188  0.4433  0.5070  0.5070

 Free energy of the ion-electron system (eV)
  ---------------------------------------------------
  alpha Z        PSCENC =       245.40211810
  Ewald energy   TEWEN  =     54867.64093928
  -Hartree energ DENC   =    -79018.61018136
  -exchange      EXHF   =         0.00000000
  -V(xc)+E(xc)   XCENC  =       777.54142753
  PAW double counting   =     33345.27165976   -33010.38829526
  entropy T*S    EENTRO =        -0.00000000
  eigenvalues    EBANDS =     -4680.46964226
  atomic energy  EATOM  =     27121.10918193
  Solvation  Ediel_sol  =         0.00000000
  ---------------------------------------------------
  free energy    TOTEN  =      -352.50279228 eV

  energy without entropy =     -352.50279228  energy(sigma->0) =     -352.50279228


--------------------------------------------------------------------------------------------------------




--------------------------------------- Iteration      1(  16)  ---------------------------------------


    POTLOK:  cpu time    0.4125: real time    0.4152
    SETDIJ:  cpu time    0.8641: real time    0.8688
     EDDAV:  cpu time   46.2088: real time   46.5422
       DOS:  cpu time    0.0070: real time    0.0070
    CHARGE:  cpu time    2.4337: real time    2.4479
    MIXING:  cpu time    0.0115: real time    0.0116
    --------------------------------------------
      LOOP:  cpu time   49.9375: real time   50.2927

 eigenvalue-minimisations  :  9296
 total energy-change (2. order) :-0.1410544E-01  (-0.8682557E-04)
 number of electron     486.9999961 magnetization      53.2282491
 augmentation part       -4.7793457 magnetization      36.7470936

 DIPCOR: dipole corrections for dipol
 direction  3 min pos     1,
 dipolmoment           0.000000      0.000000     -0.050339 electrons x Angstroem
 Tr[quadrupol]    -26933.338319

 energy correction for charged system         0.000000 eV
 dipol+quadrupol energy correction           -0.000042 eV
 added-field ion interaction          0.002640 eV  (added to PSCEN)


 Broyden mixing:
  rms(total) = 0.13703E-01    rms(broyden)= 0.13703E-01
  rms(prec ) = 0.15459E-01
  weight for this iteration     100.00

 eigenvalues of (default mixing * dielectric matrix)
  average eigenvalue GAMMA=   1.0330
  2.3071  2.3071  1.1406  1.1406  1.0938  0.6806  0.6806  0.5531  0.5531  0.4484
  0.4583

 Free energy of the ion-electron system (eV)
  ---------------------------------------------------
  alpha Z        PSCENC =       245.40213753
  Ewald energy   TEWEN  =     54867.64093928
  -Hartree energ DENC   =    -79021.09077809
  -exchange      EXHF   =         0.00000000
  -V(xc)+E(xc)   XCENC  =       777.55310398
  PAW double counting   =     33342.63214588   -33007.74823348
  entropy T*S    EENTRO =        -0.00000000
  eigenvalues    EBANDS =     -4678.01539475
  atomic energy  EATOM  =     27121.10918193
  Solvation  Ediel_sol  =         0.00000000
  ---------------------------------------------------
  free energy    TOTEN  =      -352.51689772 eV

  energy without entropy =     -352.51689772  energy(sigma->0) =     -352.51689772


--------------------------------------------------------------------------------------------------------




--------------------------------------- Iteration      1(  17)  ---------------------------------------


    POTLOK:  cpu time    4.7895: real time    6.1752
    SETDIJ:  cpu time    1.0412: real time    1.2937
     EDDAV:  cpu time   77.7575: real time   79.0282
       DOS:  cpu time    0.0309: real time    0.0311
    CHARGE:  cpu time    2.6489: real time    2.6661
    MIXING:  cpu time    0.0158: real time    0.0159
    --------------------------------------------
      LOOP:  cpu time   86.2839: real time   89.2103

 eigenvalue-minimisations  :  9256
 total energy-change (2. order) :-0.1113238E-01  (-0.3920159E-04)
 number of electron     486.9999961 magnetization      53.1495029
 augmentation part       -4.7765110 magnetization      36.6704039

 DIPCOR: dipole corrections for dipol
 direction  3 min pos     1,
 dipolmoment           0.000000      0.000000     -0.050774 electrons x Angstroem
 Tr[quadrupol]    -26933.464548

 energy correction for charged system         0.000000 eV
 dipol+quadrupol energy correction           -0.000042 eV
 added-field ion interaction          0.002663 eV  (added to PSCEN)


 Broyden mixing:
  rms(total) = 0.82525E-02    rms(broyden)= 0.82523E-02
  rms(prec ) = 0.10227E-01
  weight for this iteration     100.00

 eigenvalues of (default mixing * dielectric matrix)
  average eigenvalue GAMMA=   1.1180
  2.4277  2.4277  2.0811  1.0659  1.0659  1.0103  0.6816  0.5877  0.5877  0.4443
  0.5287  0.5077

 Free energy of the ion-electron system (eV)
  ---------------------------------------------------
  alpha Z        PSCENC =       245.40215964
  Ewald energy   TEWEN  =     54867.64093928
  -Hartree energ DENC   =    -79023.37174106
  -exchange      EXHF   =         0.00000000
  -V(xc)+E(xc)   XCENC  =       777.56845067
  PAW double counting   =     33333.97465910   -32999.05804468
  entropy T*S    EENTRO =        -0.00000000
  eigenvalues    EBANDS =     -4675.79363498
  atomic energy  EATOM  =     27121.10918193
  Solvation  Ediel_sol  =         0.00000000
  ---------------------------------------------------
  free energy    TOTEN  =      -352.52803010 eV

  energy without entropy =     -352.52803010  energy(sigma->0) =     -352.52803010


--------------------------------------------------------------------------------------------------------




--------------------------------------- Iteration      1(  18)  ---------------------------------------


    POTLOK:  cpu time    0.4620: real time    0.4655
    SETDIJ:  cpu time    0.8588: real time    0.8642
     EDDAV:  cpu time   37.4936: real time   37.7917
       DOS:  cpu time    0.0026: real time    0.0026
    CHARGE:  cpu time    1.9921: real time    2.0063
    MIXING:  cpu time    0.0096: real time    0.0097
    --------------------------------------------
      LOOP:  cpu time   40.8187: real time   41.1400

 eigenvalue-minimisations  :  7944
 total energy-change (2. order) :-0.1557090E-01  (-0.8147279E-04)
 number of electron     486.9999961 magnetization      53.1340753
 augmentation part       -4.7689682 magnetization      36.6589650

 DIPCOR: dipole corrections for dipol
 direction  3 min pos     1,
 dipolmoment           0.000000      0.000000     -0.050096 electrons x Angstroem
 Tr[quadrupol]    -26933.719894

 energy correction for charged system         0.000000 eV
 dipol+quadrupol energy correction           -0.000041 eV
 added-field ion interaction          0.002628 eV  (added to PSCEN)


 Broyden mixing:
  rms(total) = 0.73090E-02    rms(broyden)= 0.73089E-02
  rms(prec ) = 0.84129E-02
  weight for this iteration     100.00

 eigenvalues of (default mixing * dielectric matrix)
  average eigenvalue GAMMA=   1.0890
  2.4027  2.4027  2.1639  1.0496  1.0496  0.9829  0.8643  0.4438  0.5855  0.5855
  0.5567  0.5567  0.5136

 Free energy of the ion-electron system (eV)
  ---------------------------------------------------
  alpha Z        PSCENC =       245.40212518
  Ewald energy   TEWEN  =     54867.64093928
  -Hartree energ DENC   =    -79027.97990842
  -exchange      EXHF   =         0.00000000
  -V(xc)+E(xc)   XCENC  =       777.60276255
  PAW double counting   =     33319.94297700   -32984.98328550
  entropy T*S    EENTRO =        -0.00000000
  eigenvalues    EBANDS =     -4671.27839302
  atomic energy  EATOM  =     27121.10918193
  Solvation  Ediel_sol  =         0.00000000
  ---------------------------------------------------
  free energy    TOTEN  =      -352.54360100 eV

  energy without entropy =     -352.54360100  energy(sigma->0) =     -352.54360100


--------------------------------------------------------------------------------------------------------




--------------------------------------- Iteration      1(  19)  ---------------------------------------


    POTLOK:  cpu time    6.6541: real time    6.6931
    SETDIJ:  cpu time    1.7311: real time    1.7416
     EDDAV:  cpu time   62.8369: real time   63.2945
       DOS:  cpu time    0.0040: real time    0.0041
    CHARGE:  cpu time    2.1901: real time    2.2061
    MIXING:  cpu time    0.0102: real time    0.0103
    --------------------------------------------
      LOOP:  cpu time   73.4265: real time   73.9497

 eigenvalue-minimisations  :  9136
 total energy-change (2. order) :-0.2103158E-02  (-0.1135252E-04)
 number of electron     486.9999961 magnetization      53.0889170
 augmentation part       -4.7677046 magnetization      36.6140286

 DIPCOR: dipole corrections for dipol
 direction  3 min pos     1,
 dipolmoment           0.000000      0.000000     -0.049821 electrons x Angstroem
 Tr[quadrupol]    -26933.776800

 energy correction for charged system         0.000000 eV
 dipol+quadrupol energy correction           -0.000041 eV
 added-field ion interaction          0.002613 eV  (added to PSCEN)


 Broyden mixing:
  rms(total) = 0.48465E-02    rms(broyden)= 0.48465E-02
  rms(prec ) = 0.60806E-02
  weight for this iteration     100.00

 eigenvalues of (default mixing * dielectric matrix)
  average eigenvalue GAMMA=   1.1039
  2.5775  2.1682  2.1682  1.1950  1.1950  1.1225  0.8814  0.8814  0.6156  0.6156
  0.4441  0.5482  0.5482  0.4940

 Free energy of the ion-electron system (eV)
  ---------------------------------------------------
  alpha Z        PSCENC =       245.40211122
  Ewald energy   TEWEN  =     54867.64093928
  -Hartree energ DENC   =    -79028.95274795
  -exchange      EXHF   =         0.00000000
  -V(xc)+E(xc)   XCENC  =       777.61034751
  PAW double counting   =     33321.05094060   -32986.10083849
  entropy T*S    EENTRO =        -0.00000000
  eigenvalues    EBANDS =     -4670.30563825
  atomic energy  EATOM  =     27121.10918193
  Solvation  Ediel_sol  =         0.00000000
  ---------------------------------------------------
  free energy    TOTEN  =      -352.54570416 eV

  energy without entropy =     -352.54570416  energy(sigma->0) =     -352.54570416


--------------------------------------------------------------------------------------------------------




--------------------------------------- Iteration      1(  20)  ---------------------------------------


    POTLOK:  cpu time    0.4131: real time    0.4164
    SETDIJ:  cpu time    0.8777: real time    0.8832
     EDDAV:  cpu time   43.0291: real time   43.3797
       DOS:  cpu time    0.0038: real time    0.0038
    CHARGE:  cpu time    2.6598: real time    2.6782
    MIXING:  cpu time    0.0123: real time    0.0123
    --------------------------------------------
      LOOP:  cpu time   46.9956: real time   47.3736

 eigenvalue-minimisations  :  8400
 total energy-change (2. order) :-0.4647275E-02  (-0.2240307E-04)
 number of electron     486.9999961 magnetization      53.0422304
 augmentation part       -4.7694718 magnetization      36.5668554

 DIPCOR: dipole corrections for dipol
 direction  3 min pos     1,
 dipolmoment           0.000000      0.000000     -0.049412 electrons x Angstroem
 Tr[quadrupol]    -26933.943298

 energy correction for charged system         0.000000 eV
 dipol+quadrupol energy correction           -0.000040 eV
 added-field ion interaction          0.002592 eV  (added to PSCEN)


 Broyden mixing:
  rms(total) = 0.25219E-02    rms(broyden)= 0.25218E-02
  rms(prec ) = 0.35948E-02
  weight for this iteration     100.00

 eigenvalues of (default mixing * dielectric matrix)
  average eigenvalue GAMMA=   1.1571
  3.0216  2.1323  2.1323  1.8208  1.2467  1.2467  0.9148  0.9148  0.6283  0.6283
  0.6333  0.4441  0.5496  0.5496  0.4933

 Free energy of the ion-electron system (eV)
  ---------------------------------------------------
  alpha Z        PSCENC =       245.40209043
  Ewald energy   TEWEN  =     54867.64093928
  -Hartree energ DENC   =    -79031.69255208
  -exchange      EXHF   =         0.00000000
  -V(xc)+E(xc)   XCENC  =       777.62641134
  PAW double counting   =     33320.88328491   -32985.94032269
  entropy T*S    EENTRO =        -0.00000000
  eigenvalues    EBANDS =     -4667.57938456
  atomic energy  EATOM  =     27121.10918193
  Solvation  Ediel_sol  =         0.00000000
  ---------------------------------------------------
  free energy    TOTEN  =      -352.55035143 eV

  energy without entropy =     -352.55035143  energy(sigma->0) =     -352.55035143


--------------------------------------------------------------------------------------------------------




--------------------------------------- Iteration      1(  21)  ---------------------------------------


    POTLOK:  cpu time    0.9140: real time    0.9197
    SETDIJ:  cpu time    0.9005: real time    0.9055
     EDDAV:  cpu time   39.5387: real time   39.8581
       DOS:  cpu time    0.0028: real time    0.0029
    CHARGE:  cpu time    2.5916: real time    2.6095
    MIXING:  cpu time    0.0129: real time    0.0130
    --------------------------------------------
      LOOP:  cpu time   43.9606: real time   44.3087

 eigenvalue-minimisations  :  7736
 total energy-change (2. order) :-0.2939827E-02  (-0.2437529E-04)
 number of electron     486.9999961 magnetization      53.0151351
 augmentation part       -4.7709558 magnetization      36.5391371

 DIPCOR: dipole corrections for dipol
 direction  3 min pos     1,
 dipolmoment           0.000000      0.000000     -0.049276 electrons x Angstroem
 Tr[quadrupol]    -26934.123345

 energy correction for charged system         0.000000 eV
 dipol+quadrupol energy correction           -0.000040 eV
 added-field ion interaction          0.002585 eV  (added to PSCEN)


 Broyden mixing:
  rms(total) = 0.28751E-02    rms(broyden)= 0.28751E-02
  rms(prec ) = 0.32659E-02
  weight for this iteration     100.00

 eigenvalues of (default mixing * dielectric matrix)
  average eigenvalue GAMMA=   1.2363
  4.1153  2.5884  2.2386  1.6737  1.1691  1.1691  1.1749  0.8625  0.7474  0.7474
  0.6262  0.6262  0.4441  0.5523  0.5523  0.4940

 Free energy of the ion-electron system (eV)
  ---------------------------------------------------
  alpha Z        PSCENC =       245.40208350
  Ewald energy   TEWEN  =     54867.64093928
  -Hartree energ DENC   =    -79034.56943834
  -exchange      EXHF   =         0.00000000
  -V(xc)+E(xc)   XCENC  =       777.63684319
  PAW double counting   =     33318.90292382   -32983.95798371
  entropy T*S    EENTRO =        -0.00000000
  eigenvalues    EBANDS =     -4664.71784094
  atomic energy  EATOM  =     27121.10918193
  Solvation  Ediel_sol  =         0.00000000
  ---------------------------------------------------
  free energy    TOTEN  =      -352.55329126 eV

  energy without entropy =     -352.55329126  energy(sigma->0) =     -352.55329126


--------------------------------------------------------------------------------------------------------




--------------------------------------- Iteration      1(  22)  ---------------------------------------


    POTLOK:  cpu time    0.4189: real time    0.4220
    SETDIJ:  cpu time    0.8766: real time    0.8824
     EDDAV:  cpu time   39.9272: real time   40.2519
       DOS:  cpu time    0.0051: real time    0.0051
    CHARGE:  cpu time    2.1977: real time    2.2131
    MIXING:  cpu time    0.0118: real time    0.0119
    --------------------------------------------
      LOOP:  cpu time   43.4372: real time   43.7864

 eigenvalue-minimisations  :  8144
 total energy-change (2. order) :-0.7121474E-03  (-0.7239466E-05)
 number of electron     486.9999961 magnetization      53.0039883
 augmentation part       -4.7713224 magnetization      36.5279798

 DIPCOR: dipole corrections for dipol
 direction  3 min pos     1,
 dipolmoment           0.000000      0.000000     -0.049221 electrons x Angstroem
 Tr[quadrupol]    -26934.239512

 energy correction for charged system         0.000000 eV
 dipol+quadrupol energy correction           -0.000040 eV
 added-field ion interaction          0.002582 eV  (added to PSCEN)


 Broyden mixing:
  rms(total) = 0.20305E-02    rms(broyden)= 0.20305E-02
  rms(prec ) = 0.22342E-02
  weight for this iteration     100.00

 eigenvalues of (default mixing * dielectric matrix)
  average eigenvalue GAMMA=   1.2888
  5.0795  2.4806  2.4806  1.3743  1.3743  1.2568  1.2568  0.9656  0.9656  0.7398
  0.6795  0.6071  0.6071  0.4441  0.5520  0.5520  0.4936

 Free energy of the ion-electron system (eV)
  ---------------------------------------------------
  alpha Z        PSCENC =       245.40208070
  Ewald energy   TEWEN  =     54867.64093928
  -Hartree energ DENC   =    -79036.32175532
  -exchange      EXHF   =         0.00000000
  -V(xc)+E(xc)   XCENC  =       777.64490139
  PAW double counting   =     33318.08140207   -32983.13067946
  entropy T*S    EENTRO =        -0.00000000
  eigenvalues    EBANDS =     -4662.98007400
  atomic energy  EATOM  =     27121.10918193
  Solvation  Ediel_sol  =         0.00000000
  ---------------------------------------------------
  free energy    TOTEN  =      -352.55400341 eV

  energy without entropy =     -352.55400341  energy(sigma->0) =     -352.55400341


--------------------------------------------------------------------------------------------------------




--------------------------------------- Iteration      1(  23)  ---------------------------------------


    POTLOK:  cpu time    6.5150: real time    6.5527
    SETDIJ:  cpu time    1.1216: real time    1.1286
     EDDAV:  cpu time   70.0496: real time   70.5340
       DOS:  cpu time    0.0050: real time    0.0051
    CHARGE:  cpu time    2.6281: real time    2.6448
    MIXING:  cpu time    0.0139: real time    0.0140
    --------------------------------------------
      LOOP:  cpu time   80.3332: real time   80.8792

 eigenvalue-minimisations  :  8976
 total energy-change (2. order) :-0.2033370E-03  (-0.3183882E-05)
 number of electron     486.9999961 magnetization      53.0002831
 augmentation part       -4.7703644 magnetization      36.5246068

 DIPCOR: dipole corrections for dipol
 direction  3 min pos     1,
 dipolmoment           0.000000      0.000000     -0.048996 electrons x Angstroem
 Tr[quadrupol]    -26934.302881

 energy correction for charged system         0.000000 eV
 dipol+quadrupol energy correction           -0.000039 eV
 added-field ion interaction          0.002570 eV  (added to PSCEN)


 Broyden mixing:
  rms(total) = 0.75880E-03    rms(broyden)= 0.75874E-03
  rms(prec ) = 0.97560E-03
  weight for this iteration     100.00

 eigenvalues of (default mixing * dielectric matrix)
  average eigenvalue GAMMA=   1.2933
  5.4703  2.4508  2.4508  1.3946  1.3946  1.5184  1.1457  1.0168  1.0168  0.7588
  0.7588  0.4441  0.4923  0.5522  0.5522  0.6143  0.6143  0.6337

 Free energy of the ion-electron system (eV)
  ---------------------------------------------------
  alpha Z        PSCENC =       245.40206929
  Ewald energy   TEWEN  =     54867.64093928
  -Hartree energ DENC   =    -79037.17500501
  -exchange      EXHF   =         0.00000000
  -V(xc)+E(xc)   XCENC  =       777.64999550
  PAW double counting   =     33318.79259222   -32983.84171736
  entropy T*S    EENTRO =        -0.00000000
  eigenvalues    EBANDS =     -4662.13226259
  atomic energy  EATOM  =     27121.10918193
  Solvation  Ediel_sol  =         0.00000000
  ---------------------------------------------------
  free energy    TOTEN  =      -352.55420674 eV

  energy without entropy =     -352.55420674  energy(sigma->0) =     -352.55420674


--------------------------------------------------------------------------------------------------------




--------------------------------------- Iteration      1(  24)  ---------------------------------------


    POTLOK:  cpu time    0.4278: real time    0.4309
    SETDIJ:  cpu time    0.8589: real time    0.8639
     EDDAV:  cpu time   33.6925: real time   33.9587
       DOS:  cpu time    0.0039: real time    0.0039
    CHARGE:  cpu time    2.4475: real time    2.4631
    MIXING:  cpu time    0.0129: real time    0.0130
    --------------------------------------------
      LOOP:  cpu time   37.4434: real time   37.7335

 eigenvalue-minimisations  :  6376
 total energy-change (2. order) :-0.1737436E-03  (-0.4452561E-06)
 number of electron     486.9999961 magnetization      52.9972211
 augmentation part       -4.7703909 magnetization      36.5214788

 DIPCOR: dipole corrections for dipol
 direction  3 min pos     1,
 dipolmoment           0.000000      0.000000     -0.048945 electrons x Angstroem
 Tr[quadrupol]    -26934.338124

 energy correction for charged system         0.000000 eV
 dipol+quadrupol energy correction           -0.000039 eV
 added-field ion interaction          0.002567 eV  (added to PSCEN)


 Broyden mixing:
  rms(total) = 0.64867E-03    rms(broyden)= 0.64866E-03
  rms(prec ) = 0.79921E-03
  weight for this iteration     100.00

 eigenvalues of (default mixing * dielectric matrix)
  average eigenvalue GAMMA=   1.3252
  5.6962  2.5616  2.1420  2.1420  1.3735  1.3735  1.2636  1.0992  1.0992  1.0090
  0.8513  0.4441  0.4922  0.5528  0.5528  0.6481  0.6481  0.6144  0.6144

 Free energy of the ion-electron system (eV)
  ---------------------------------------------------
  alpha Z        PSCENC =       245.40206668
  Ewald energy   TEWEN  =     54867.64093928
  -Hartree energ DENC   =    -79037.57445151
  -exchange      EXHF   =         0.00000000
  -V(xc)+E(xc)   XCENC  =       777.65072508
  PAW double counting   =     33318.72329857   -32983.77213592
  entropy T*S    EENTRO =        -0.00000000
  eigenvalues    EBANDS =     -4661.73400460
  atomic energy  EATOM  =     27121.10918193
  Solvation  Ediel_sol  =         0.00000000
  ---------------------------------------------------
  free energy    TOTEN  =      -352.55438049 eV

  energy without entropy =     -352.55438049  energy(sigma->0) =     -352.55438049


--------------------------------------------------------------------------------------------------------




--------------------------------------- Iteration      1(  25)  ---------------------------------------


    POTLOK:  cpu time    0.4354: real time    0.4385
    SETDIJ:  cpu time    0.8813: real time    0.8865
     EDDAV:  cpu time   35.8983: real time   36.1797
       DOS:  cpu time    0.0035: real time    0.0035
    CHARGE:  cpu time    2.4204: real time    2.4358
    MIXING:  cpu time    0.0155: real time    0.0156
    --------------------------------------------
      LOOP:  cpu time   39.6543: real time   39.9595

 eigenvalue-minimisations  :  6784
 total energy-change (2. order) :-0.2871544E-03  (-0.6425588E-06)
 number of electron     486.9999961 magnetization      52.9960654
 augmentation part       -4.7704884 magnetization      36.5203508

 DIPCOR: dipole corrections for dipol
 direction  3 min pos     1,
 dipolmoment           0.000000      0.000000     -0.048950 electrons x Angstroem
 Tr[quadrupol]    -26934.387768

 energy correction for charged system         0.000000 eV
 dipol+quadrupol energy correction           -0.000039 eV
 added-field ion interaction          0.002567 eV  (added to PSCEN)


 Broyden mixing:
  rms(total) = 0.38831E-03    rms(broyden)= 0.38830E-03
  rms(prec ) = 0.47238E-03
  weight for this iteration     100.00

 eigenvalues of (default mixing * dielectric matrix)
  average eigenvalue GAMMA=   1.3667
  6.1777  2.6538  2.6538  2.0710  1.7899  1.4024  1.4024  1.0609  1.0609  0.9022
  0.9022  0.4441  0.6808  0.6808  0.4923  0.5528  0.5528  0.6147  0.6147  0.6240

 Free energy of the ion-electron system (eV)
  ---------------------------------------------------
  alpha Z        PSCENC =       245.40206694
  Ewald energy   TEWEN  =     54867.64093928
  -Hartree energ DENC   =    -79038.07446774
  -exchange      EXHF   =         0.00000000
  -V(xc)+E(xc)   XCENC  =       777.65210636
  PAW double counting   =     33318.98490601   -32984.03387354
  entropy T*S    EENTRO =        -0.00000000
  eigenvalues    EBANDS =     -4661.23552688
  atomic energy  EATOM  =     27121.10918193
  Solvation  Ediel_sol  =         0.00000000
  ---------------------------------------------------
  free energy    TOTEN  =      -352.55466764 eV

  energy without entropy =     -352.55466764  energy(sigma->0) =     -352.55466764


--------------------------------------------------------------------------------------------------------




--------------------------------------- Iteration      1(  26)  ---------------------------------------


    POTLOK:  cpu time    2.0984: real time    2.1112
    SETDIJ:  cpu time    0.8775: real time    0.8827
     EDDAV:  cpu time   33.6195: real time   33.8826
       DOS:  cpu time    0.0026: real time    0.0026
    CHARGE:  cpu time    2.3466: real time    2.3612
    MIXING:  cpu time    0.0120: real time    0.0121
    --------------------------------------------
      LOOP:  cpu time   38.9566: real time   39.2524

 eigenvalue-minimisations  :  6080
 total energy-change (2. order) :-0.9401131E-04  (-0.3458277E-06)
 number of electron     486.9999961 magnetization      52.9960788
 augmentation part       -4.7702697 magnetization      36.5204553

 DIPCOR: dipole corrections for dipol
 direction  3 min pos     1,
 dipolmoment           0.000000      0.000000     -0.048921 electrons x Angstroem
 Tr[quadrupol]    -26934.412065

 energy correction for charged system         0.000000 eV
 dipol+quadrupol energy correction           -0.000039 eV
 added-field ion interaction          0.002566 eV  (added to PSCEN)


 Broyden mixing:
  rms(total) = 0.24835E-03    rms(broyden)= 0.24834E-03
  rms(prec ) = 0.31493E-03
  weight for this iteration     100.00

 eigenvalues of (default mixing * dielectric matrix)
  average eigenvalue GAMMA=   1.3760
  6.6139  3.0732  2.3550  2.3550  1.3737  1.3737  1.3490  1.3490  1.0454  1.0454
  0.8391  0.8391  0.7149  0.7149  0.4441  0.6106  0.6106  0.4922  0.5524  0.5524
  0.5917

 Free energy of the ion-electron system (eV)
  ---------------------------------------------------
  alpha Z        PSCENC =       245.40206546
  Ewald energy   TEWEN  =     54867.64093928
  -Hartree energ DENC   =    -79038.30118031
  -exchange      EXHF   =         0.00000000
  -V(xc)+E(xc)   XCENC  =       777.65336569
  PAW double counting   =     33319.30560414   -32984.35498790
  entropy T*S    EENTRO =        -0.00000000
  eigenvalues    EBANDS =     -4661.00974994
  atomic energy  EATOM  =     27121.10918193
  Solvation  Ediel_sol  =         0.00000000
  ---------------------------------------------------
  free energy    TOTEN  =      -352.55476165 eV

  energy without entropy =     -352.55476165  energy(sigma->0) =     -352.55476165


--------------------------------------------------------------------------------------------------------




--------------------------------------- Iteration      1(  27)  ---------------------------------------


    POTLOK:  cpu time    0.4252: real time    0.4281
    SETDIJ:  cpu time    0.8796: real time    0.8846
     EDDAV:  cpu time   25.5318: real time   25.7316
       DOS:  cpu time    0.0018: real time    0.0018
    CHARGE:  cpu time    2.4478: real time    2.4629
    MIXING:  cpu time    0.0146: real time    0.0147
    --------------------------------------------
      LOOP:  cpu time   29.3007: real time   29.5237

 eigenvalue-minimisations  :  4064
 total energy-change (2. order) :-0.4988379E-04  (-0.6385518E-07)
 number of electron     486.9999961 magnetization      52.9965884
 augmentation part       -4.7704959 magnetization      36.5208680

 DIPCOR: dipole corrections for dipol
 direction  3 min pos     1,
 dipolmoment           0.000000      0.000000     -0.048867 electrons x Angstroem
 Tr[quadrupol]    -26934.425186

 energy correction for charged system         0.000000 eV
 dipol+quadrupol energy correction           -0.000039 eV
 added-field ion interaction          0.002563 eV  (added to PSCEN)


 Broyden mixing:
  rms(total) = 0.20360E-03    rms(broyden)= 0.20359E-03
  rms(prec ) = 0.25776E-03
  weight for this iteration     100.00

 eigenvalues of (default mixing * dielectric matrix)
  average eigenvalue GAMMA=   1.3742
  6.8020  3.0848  2.3781  2.3781  1.3965  1.3965  1.3814  1.3814  1.1649  1.1649
  0.8794  0.8794  0.7969  0.4441  0.6559  0.6559  0.6133  0.6133  0.4924  0.5526
  0.5526  0.5686

 Free energy of the ion-electron system (eV)
  ---------------------------------------------------
  alpha Z        PSCENC =       245.40206270
  Ewald energy   TEWEN  =     54867.64093928
  -Hartree energ DENC   =    -79038.39943241
  -exchange      EXHF   =         0.00000000
  -V(xc)+E(xc)   XCENC  =       777.65309792
  PAW double counting   =     33319.14872710   -32984.19752064
  entropy T*S    EENTRO =        -0.00000000
  eigenvalues    EBANDS =     -4660.91186742
  atomic energy  EATOM  =     27121.10918193
  Solvation  Ediel_sol  =         0.00000000
  ---------------------------------------------------
  free energy    TOTEN  =      -352.55481154 eV

  energy without entropy =     -352.55481154  energy(sigma->0) =     -352.55481154


--------------------------------------------------------------------------------------------------------




--------------------------------------- Iteration      1(  28)  ---------------------------------------


    POTLOK:  cpu time    2.3338: real time    2.3484
    SETDIJ:  cpu time    0.8762: real time    0.8817
     EDDAV:  cpu time   26.3601: real time   26.5555
       DOS:  cpu time    0.0034: real time    0.0034
    CHARGE:  cpu time    2.4421: real time    2.4580
    MIXING:  cpu time    0.0143: real time    0.0144
    --------------------------------------------
      LOOP:  cpu time   32.0298: real time   32.2614

 eigenvalue-minimisations  :  4328
 total energy-change (2. order) :-0.5150841E-04  (-0.8001973E-07)
 number of electron     486.9999961 magnetization      52.9976321
 augmentation part       -4.7703968 magnetization      36.5219662

 DIPCOR: dipole corrections for dipol
 direction  3 min pos     1,
 dipolmoment           0.000000      0.000000     -0.048802 electrons x Angstroem
 Tr[quadrupol]    -26934.438646

 energy correction for charged system         0.000000 eV
 dipol+quadrupol energy correction           -0.000039 eV
 added-field ion interaction          0.002560 eV  (added to PSCEN)


 Broyden mixing:
  rms(total) = 0.15977E-03    rms(broyden)= 0.15977E-03
  rms(prec ) = 0.20337E-03
  weight for this iteration     100.00

 eigenvalues of (default mixing * dielectric matrix)
  average eigenvalue GAMMA=   1.3899
  6.9439  3.4081  2.2923  2.2923  1.7762  1.4355  1.4355  1.4210  1.4210  1.0312
  1.0312  0.8091  0.7740  0.7740  0.4441  0.6540  0.6540  0.6032  0.6032  0.4925
  0.5500  0.5500  0.5713

 Free energy of the ion-electron system (eV)
  ---------------------------------------------------
  alpha Z        PSCENC =       245.40205941
  Ewald energy   TEWEN  =     54867.64093928
  -Hartree energ DENC   =    -79038.48593409
  -exchange      EXHF   =         0.00000000
  -V(xc)+E(xc)   XCENC  =       777.65316032
  PAW double counting   =     33319.14997046   -32984.19846870
  entropy T*S    EENTRO =        -0.00000000
  eigenvalues    EBANDS =     -4660.82577165
  atomic energy  EATOM  =     27121.10918193
  Solvation  Ediel_sol  =         0.00000000
  ---------------------------------------------------
  free energy    TOTEN  =      -352.55486304 eV

  energy without entropy =     -352.55486304  energy(sigma->0) =     -352.55486304


--------------------------------------------------------------------------------------------------------




--------------------------------------- Iteration      1(  29)  ---------------------------------------


    POTLOK:  cpu time    0.4231: real time    0.4264
    SETDIJ:  cpu time    0.8805: real time    0.8857
     EDDAV:  cpu time   29.0200: real time   29.2478
       DOS:  cpu time    0.0063: real time    0.0064
    CHARGE:  cpu time    2.4256: real time    2.4415
    MIXING:  cpu time    0.0154: real time    0.0155
    --------------------------------------------
      LOOP:  cpu time   32.7709: real time   33.0234

 eigenvalue-minimisations  :  4936
 total energy-change (2. order) :-0.4589013E-04  (-0.1356959E-06)
 number of electron     486.9999961 magnetization      52.9980553
 augmentation part       -4.7703964 magnetization      36.5224094

 DIPCOR: dipole corrections for dipol
 direction  3 min pos     1,
 dipolmoment           0.000000      0.000000     -0.048730 electrons x Angstroem
 Tr[quadrupol]    -26934.454079

 energy correction for charged system         0.000000 eV
 dipol+quadrupol energy correction           -0.000039 eV
 added-field ion interaction          0.002556 eV  (added to PSCEN)


 Broyden mixing:
  rms(total) = 0.13482E-03    rms(broyden)= 0.13482E-03
  rms(prec ) = 0.16229E-03
  weight for this iteration     100.00

 eigenvalues of (default mixing * dielectric matrix)
  average eigenvalue GAMMA=   1.4000
  7.1247  3.5560  2.5919  2.1846  2.1846  1.3897  1.3897  1.3449  1.3449  1.1029
  1.0281  1.0281  0.7996  0.7996  0.4441  0.6510  0.6510  0.6138  0.6138  0.4925
  0.5508  0.5508  0.6038  0.5605

 Free energy of the ion-electron system (eV)
  ---------------------------------------------------
  alpha Z        PSCENC =       245.40205576
  Ewald energy   TEWEN  =     54867.64093928
  -Hartree energ DENC   =    -79038.56735143
  -exchange      EXHF   =         0.00000000
  -V(xc)+E(xc)   XCENC  =       777.65339072
  PAW double counting   =     33319.15621926   -32984.20451553
  entropy T*S    EENTRO =        -0.00000000
  eigenvalues    EBANDS =     -4660.74482893
  atomic energy  EATOM  =     27121.10918193
  Solvation  Ediel_sol  =         0.00000000
  ---------------------------------------------------
  free energy    TOTEN  =      -352.55490893 eV

  energy without entropy =     -352.55490893  energy(sigma->0) =     -352.55490893


--------------------------------------------------------------------------------------------------------




--------------------------------------- Iteration      1(  30)  ---------------------------------------


    POTLOK:  cpu time    0.7493: real time    0.7542
    SETDIJ:  cpu time    0.8807: real time    0.8860
     EDDAV:  cpu time   25.5593: real time   25.7599
       DOS:  cpu time    0.0014: real time    0.0015
    CHARGE:  cpu time    2.3239: real time    2.3393
    MIXING:  cpu time    0.0134: real time    0.0135
    --------------------------------------------
      LOOP:  cpu time   29.5280: real time   29.7544

 eigenvalue-minimisations  :  4056
 total energy-change (2. order) :-0.1216306E-04  (-0.3698687E-07)
 number of electron     486.9999961 magnetization      52.9985412
 augmentation part       -4.7704274 magnetization      36.5228787

 DIPCOR: dipole corrections for dipol
 direction  3 min pos     1,
 dipolmoment           0.000000      0.000000     -0.048689 electrons x Angstroem
 Tr[quadrupol]    -26934.462201

 energy correction for charged system         0.000000 eV
 dipol+quadrupol energy correction           -0.000039 eV
 added-field ion interaction          0.002554 eV  (added to PSCEN)


 Broyden mixing:
  rms(total) = 0.99815E-04    rms(broyden)= 0.99814E-04
  rms(prec ) = 0.12355E-03
  weight for this iteration     100.00

 eigenvalues of (default mixing * dielectric matrix)
  average eigenvalue GAMMA=   1.3803
  7.1564  3.5578  2.3776  2.3776  2.3188  1.3558  1.3558  1.4290  1.4290  1.0990
  1.0990  1.0909  0.7908  0.7908  0.6733  0.6733  0.4441  0.6123  0.6123  0.5519
  0.5519  0.5897  0.5897  0.4920  0.4877

 Free energy of the ion-electron system (eV)
  ---------------------------------------------------
  alpha Z        PSCENC =       245.40205365
  Ewald energy   TEWEN  =     54867.64093928
  -Hartree energ DENC   =    -79038.61444003
  -exchange      EXHF   =         0.00000000
  -V(xc)+E(xc)   XCENC  =       777.65354684
  PAW double counting   =     33319.17263611   -32984.22119954
  entropy T*S    EENTRO =        -0.00000000
  eigenvalues    EBANDS =     -4660.69763933
  atomic energy  EATOM  =     27121.10918193
  Solvation  Ediel_sol  =         0.00000000
  ---------------------------------------------------
  free energy    TOTEN  =      -352.55492110 eV

  energy without entropy =     -352.55492110  energy(sigma->0) =     -352.55492110


--------------------------------------------------------------------------------------------------------




--------------------------------------- Iteration      1(  31)  ---------------------------------------


    POTLOK:  cpu time    0.4208: real time    0.4239
    SETDIJ:  cpu time    0.8762: real time    0.8819
     EDDAV:  cpu time   25.3056: real time   25.5038
       DOS:  cpu time    0.0046: real time    0.0046
    CHARGE:  cpu time    2.4525: real time    2.4685
    MIXING:  cpu time    0.0163: real time    0.0164
    --------------------------------------------
      LOOP:  cpu time   29.0761: real time   29.2991

 eigenvalue-minimisations  :  3920
 total energy-change (2. order) :-0.1019983E-04  (-0.3238566E-07)
 number of electron     486.9999961 magnetization      52.9993865
 augmentation part       -4.7704390 magnetization      36.5237280

 DIPCOR: dipole corrections for dipol
 direction  3 min pos     1,
 dipolmoment           0.000000      0.000000     -0.048659 electrons x Angstroem
 Tr[quadrupol]    -26934.468762

 energy correction for charged system         0.000000 eV
 dipol+quadrupol energy correction           -0.000039 eV
 added-field ion interaction          0.002552 eV  (added to PSCEN)


 Broyden mixing:
  rms(total) = 0.98393E-04    rms(broyden)= 0.98392E-04
  rms(prec ) = 0.11489E-03
  weight for this iteration     100.00

 eigenvalues of (default mixing * dielectric matrix)
  average eigenvalue GAMMA=   1.3829
  7.2059  3.7658  2.5145  2.5145  2.0996  1.5703  1.5703  1.4001  1.4001  1.2723
  1.0423  1.0423  0.8256  0.8256  0.7097  0.7097  0.6559  0.6021  0.6021  0.5704
  0.5704  0.5494  0.5494  0.4441  0.4926  0.4507

 Free energy of the ion-electron system (eV)
  ---------------------------------------------------
  alpha Z        PSCENC =       245.40205213
  Ewald energy   TEWEN  =     54867.64093928
  -Hartree energ DENC   =    -79038.64582592
  -exchange      EXHF   =         0.00000000
  -V(xc)+E(xc)   XCENC  =       777.65354357
  PAW double counting   =     33319.11755481   -32984.16607021
  entropy T*S    EENTRO =        -0.00000000
  eigenvalues    EBANDS =     -4660.66630688
  atomic energy  EATOM  =     27121.10918193
  Solvation  Ediel_sol  =         0.00000000
  ---------------------------------------------------
  free energy    TOTEN  =      -352.55493130 eV

  energy without entropy =     -352.55493130  energy(sigma->0) =     -352.55493130


--------------------------------------------------------------------------------------------------------




--------------------------------------- Iteration      1(  32)  ---------------------------------------


    POTLOK:  cpu time    0.4221: real time    0.4252
    SETDIJ:  cpu time    0.8754: real time    0.8808
     EDDAV:  cpu time   26.4086: real time   26.6173
       DOS:  cpu time    0.0036: real time    0.0036
    CHARGE:  cpu time    2.4634: real time    2.4800
    MIXING:  cpu time    0.0154: real time    0.0155
    --------------------------------------------
      LOOP:  cpu time   30.1885: real time   30.4224

 eigenvalue-minimisations  :  4352
 total energy-change (2. order) :-0.1092762E-04  (-0.4915174E-07)
 number of electron     486.9999961 magnetization      52.9996874
 augmentation part       -4.7704615 magnetization      36.5239936

 DIPCOR: dipole corrections for dipol
 direction  3 min pos     1,
 dipolmoment           0.000000      0.000000     -0.048604 electrons x Angstroem
 Tr[quadrupol]    -26934.480657

 energy correction for charged system         0.000000 eV
 dipol+quadrupol energy correction           -0.000039 eV
 added-field ion interaction          0.002549 eV  (added to PSCEN)


 Broyden mixing:
  rms(total) = 0.11424E-03    rms(broyden)= 0.11424E-03
  rms(prec ) = 0.12046E-03
  weight for this iteration     100.00

 eigenvalues of (default mixing * dielectric matrix)
  average eigenvalue GAMMA=   1.4145
  7.3011  4.3429  2.6016  2.6016  1.9765  1.9765  1.3815  1.3815  1.5345  1.5345
  1.1172  1.0142  1.0142  0.8522  0.7698  0.7698  0.4441  0.6163  0.6163  0.6232
  0.6232  0.4924  0.5475  0.5475  0.5718  0.5718  0.3690

 Free energy of the ion-electron system (eV)
  ---------------------------------------------------
  alpha Z        PSCENC =       245.40204935
  Ewald energy   TEWEN  =     54867.64093928
  -Hartree energ DENC   =    -79038.70174847
  -exchange      EXHF   =         0.00000000
  -V(xc)+E(xc)   XCENC  =       777.65364103
  PAW double counting   =     33319.10085046   -32984.14948789
  entropy T*S    EENTRO =        -0.00000000
  eigenvalues    EBANDS =     -4660.61036791
  atomic energy  EATOM  =     27121.10918193
  Solvation  Ediel_sol  =         0.00000000
  ---------------------------------------------------
  free energy    TOTEN  =      -352.55494222 eV

  energy without entropy =     -352.55494222  energy(sigma->0) =     -352.55494222


--------------------------------------------------------------------------------------------------------




--------------------------------------- Iteration      1(  33)  ---------------------------------------


    POTLOK:  cpu time    0.4377: real time    0.4408
    SETDIJ:  cpu time    0.8742: real time    0.8795
     EDDAV:  cpu time   23.6006: real time   23.7895
       DOS:  cpu time    0.0024: real time    0.0024
    CHARGE:  cpu time    2.3923: real time    2.4081
    MIXING:  cpu time    0.0140: real time    0.0141
    --------------------------------------------
      LOOP:  cpu time   27.3213: real time   27.5343

 eigenvalue-minimisations  :  3608
 total energy-change (2. order) :-0.5590347E-05  (-0.1745893E-07)
 number of electron     486.9999961 magnetization      52.9999527
 augmentation part       -4.7704360 magnetization      36.5242786

 DIPCOR: dipole corrections for dipol
 direction  3 min pos     1,
 dipolmoment           0.000000      0.000000     -0.048582 electrons x Angstroem
 Tr[quadrupol]    -26934.485362

 energy correction for charged system         0.000000 eV
 dipol+quadrupol energy correction           -0.000039 eV
 added-field ion interaction          0.002548 eV  (added to PSCEN)


 Broyden mixing:
  rms(total) = 0.70437E-04    rms(broyden)= 0.70436E-04
  rms(prec ) = 0.75649E-04
  weight for this iteration     100.00

 eigenvalues of (default mixing * dielectric matrix)
  average eigenvalue GAMMA=   1.4115
  7.3342  4.6980  2.9544  2.3903  2.3903  1.8014  1.3570  1.3570  1.4857  1.4857
  1.1194  1.0557  1.0557  0.8036  0.8036  0.7669  0.4441  0.5899  0.5899  0.6512
  0.6512  0.6125  0.6125  0.4922  0.5504  0.5504  0.5613  0.3563

 Free energy of the ion-electron system (eV)
  ---------------------------------------------------
  alpha Z        PSCENC =       245.40204821
  Ewald energy   TEWEN  =     54867.64093928
  -Hartree energ DENC   =    -79038.72256324
  -exchange      EXHF   =         0.00000000
  -V(xc)+E(xc)   XCENC  =       777.65364227
  PAW double counting   =     33319.09439839   -32984.14296755
  entropy T*S    EENTRO =        -0.00000000
  eigenvalues    EBANDS =     -4660.58962711
  atomic energy  EATOM  =     27121.10918193
  Solvation  Ediel_sol  =         0.00000000
  ---------------------------------------------------
  free energy    TOTEN  =      -352.55494782 eV

  energy without entropy =     -352.55494782  energy(sigma->0) =     -352.55494782


--------------------------------------------------------------------------------------------------------




--------------------------------------- Iteration      1(  34)  ---------------------------------------


    POTLOK:  cpu time    2.0632: real time    2.0756
    SETDIJ:  cpu time    0.8659: real time    0.8712
     EDDAV:  cpu time   23.0839: real time   23.2688
       DOS:  cpu time    0.0048: real time    0.0048
    CHARGE:  cpu time    2.4844: real time    2.5007
    MIXING:  cpu time    0.0188: real time    0.0192
    --------------------------------------------
      LOOP:  cpu time   28.5210: real time   28.7403

 eigenvalue-minimisations  :  3568
 total energy-change (2. order) :-0.6280799E-05  (-0.1580259E-07)
 number of electron     486.9999961 magnetization      53.0000703
 augmentation part       -4.7704370 magnetization      36.5243824

 DIPCOR: dipole corrections for dipol
 direction  3 min pos     1,
 dipolmoment           0.000000      0.000000     -0.048555 electrons x Angstroem
 Tr[quadrupol]    -26934.489190

 energy correction for charged system         0.000000 eV
 dipol+quadrupol energy correction           -0.000039 eV
 added-field ion interaction          0.002547 eV  (added to PSCEN)


 Broyden mixing:
  rms(total) = 0.54890E-04    rms(broyden)= 0.54890E-04
  rms(prec ) = 0.57654E-04
  weight for this iteration     100.00

 eigenvalues of (default mixing * dielectric matrix)
  average eigenvalue GAMMA=   1.4181
  7.3304  4.9166  3.2271  2.4122  2.4122  1.9658  1.5024  1.5024  1.3616  1.3616
  1.0585  1.0585  1.0437  1.0437  0.7956  0.7895  0.6723  0.6723  0.4441  0.6654
  0.6157  0.6157  0.5511  0.5511  0.4922  0.5989  0.5874  0.5341  0.3419

 Free energy of the ion-electron system (eV)
  ---------------------------------------------------
  alpha Z        PSCENC =       245.40204682
  Ewald energy   TEWEN  =     54867.64093928
  -Hartree energ DENC   =    -79038.73705243
  -exchange      EXHF   =         0.00000000
  -V(xc)+E(xc)   XCENC  =       777.65362100
  PAW double counting   =     33319.09410263   -32984.14265085
  entropy T*S    EENTRO =        -0.00000000
  eigenvalues    EBANDS =     -4660.57514248
  atomic energy  EATOM  =     27121.10918193
  Solvation  Ediel_sol  =         0.00000000
  ---------------------------------------------------
  free energy    TOTEN  =      -352.55495410 eV

  energy without entropy =     -352.55495410  energy(sigma->0) =     -352.55495410


--------------------------------------------------------------------------------------------------------




--------------------------------------- Iteration      1(  35)  ---------------------------------------


    POTLOK:  cpu time    0.4628: real time    0.4661
    SETDIJ:  cpu time    0.8762: real time    0.8814
     EDDAV:  cpu time   23.5273: real time   23.7115
       DOS:  cpu time    0.0033: real time    0.0034
    CHARGE:  cpu time    2.4254: real time    2.4411
    MIXING:  cpu time    0.0161: real time    0.0162
    --------------------------------------------
      LOOP:  cpu time   27.3111: real time   27.5197

 eigenvalue-minimisations  :  3576
 total energy-change (2. order) :-0.6139908E-05  (-0.8318593E-08)
 number of electron     486.9999961 magnetization      53.0001320
 augmentation part       -4.7704327 magnetization      36.5244562

 DIPCOR: dipole corrections for dipol
 direction  3 min pos     1,
 dipolmoment           0.000000      0.000000     -0.048535 electrons x Angstroem
 Tr[quadrupol]    -26934.491458

 energy correction for charged system         0.000000 eV
 dipol+quadrupol energy correction           -0.000039 eV
 added-field ion interaction          0.002546 eV  (added to PSCEN)


 Broyden mixing:
  rms(total) = 0.39995E-04    rms(broyden)= 0.39995E-04
  rms(prec ) = 0.42018E-04
  weight for this iteration     100.00

 eigenvalues of (default mixing * dielectric matrix)
  average eigenvalue GAMMA=   1.4341
  7.4045  5.2860  3.4288  2.4985  2.3130  2.0118  1.6308  1.6308  1.3979  1.3979
  1.2447  1.2447  0.9907  0.9907  0.8358  0.8358  0.7324  0.6725  0.6725  0.5875
  0.5875  0.6026  0.6026  0.4441  0.5512  0.5512  0.4924  0.5246  0.5246  0.3365

 Free energy of the ion-electron system (eV)
  ---------------------------------------------------
  alpha Z        PSCENC =       245.40204582
  Ewald energy   TEWEN  =     54867.64093928
  -Hartree energ DENC   =    -79038.74413693
  -exchange      EXHF   =         0.00000000
  -V(xc)+E(xc)   XCENC  =       777.65353934
  PAW double counting   =     33319.08546521   -32984.13392468
  entropy T*S    EENTRO =        -0.00000000
  eigenvalues    EBANDS =     -4660.56807020
  atomic energy  EATOM  =     27121.10918193
  Solvation  Ediel_sol  =         0.00000000
  ---------------------------------------------------
  free energy    TOTEN  =      -352.55496024 eV

  energy without entropy =     -352.55496024  energy(sigma->0) =     -352.55496024


--------------------------------------------------------------------------------------------------------




--------------------------------------- Iteration      1(  36)  ---------------------------------------


    POTLOK:  cpu time    0.4302: real time    0.4332
    SETDIJ:  cpu time    0.8792: real time    0.8850
     EDDAV:  cpu time   23.5662: real time   23.7515
       DOS:  cpu time    0.0032: real time    0.0032
    CHARGE:  cpu time    2.3794: real time    2.3945
    MIXING:  cpu time    0.0178: real time    0.0179
    --------------------------------------------
      LOOP:  cpu time   27.2760: real time   27.4853

 eigenvalue-minimisations  :  3584
 total energy-change (2. order) :-0.4393023E-05  (-0.7189887E-08)
 number of electron     486.9999961 magnetization      53.0001597
 augmentation part       -4.7704421 magnetization      36.5244773

 DIPCOR: dipole corrections for dipol
 direction  3 min pos     1,
 dipolmoment           0.000000      0.000000     -0.048519 electrons x Angstroem
 Tr[quadrupol]    -26934.493278

 energy correction for charged system         0.000000 eV
 dipol+quadrupol energy correction           -0.000039 eV
 added-field ion interaction          0.002545 eV  (added to PSCEN)


 Broyden mixing:
  rms(total) = 0.60765E-04    rms(broyden)= 0.60765E-04
  rms(prec ) = 0.61695E-04
  weight for this iteration     100.00

 eigenvalues of (default mixing * dielectric matrix)
  average eigenvalue GAMMA=   1.4627
  7.5630  6.0258  3.6243  2.6447  2.3284  1.7799  1.7799  1.6861  1.6861  1.3701
  1.3701  1.0530  1.0530  1.0241  1.0241  0.8027  0.8027  0.6860  0.6860  0.6051
  0.6051  0.4441  0.6016  0.6016  0.4923  0.5502  0.5502  0.5774  0.5774  0.4194
  0.3293

 Free energy of the ion-electron system (eV)
  ---------------------------------------------------
  alpha Z        PSCENC =       245.40204503
  Ewald energy   TEWEN  =     54867.64093928
  -Hartree energ DENC   =    -79038.75028004
  -exchange      EXHF   =         0.00000000
  -V(xc)+E(xc)   XCENC  =       777.65353378
  PAW double counting   =     33319.08242980   -32984.13087594
  entropy T*S    EENTRO =        -0.00000000
  eigenvalues    EBANDS =     -4660.56193849
  atomic energy  EATOM  =     27121.10918193
  Solvation  Ediel_sol  =         0.00000000
  ---------------------------------------------------
  free energy    TOTEN  =      -352.55496463 eV

  energy without entropy =     -352.55496463  energy(sigma->0) =     -352.55496463


--------------------------------------------------------------------------------------------------------




--------------------------------------- Iteration      1(  37)  ---------------------------------------


    POTLOK:  cpu time    0.4244: real time    0.4273
    SETDIJ:  cpu time    0.8817: real time    0.8868
     EDDAV:  cpu time   23.5928: real time   23.7814
       DOS:  cpu time    0.0027: real time    0.0027
    CHARGE:  cpu time    2.3899: real time    2.4065
    MIXING:  cpu time    0.0175: real time    0.0176
    --------------------------------------------
      LOOP:  cpu time   27.3089: real time   27.5223

 eigenvalue-minimisations  :  3576
 total energy-change (2. order) :-0.2097677E-05  (-0.3803240E-08)
 number of electron     486.9999961 magnetization      53.0001555
 augmentation part       -4.7704298 magnetization      36.5244840

 DIPCOR: dipole corrections for dipol
 direction  3 min pos     1,
 dipolmoment           0.000000      0.000000     -0.048513 electrons x Angstroem
 Tr[quadrupol]    -26934.494231

 energy correction for charged system         0.000000 eV
 dipol+quadrupol energy correction           -0.000039 eV
 added-field ion interaction          0.002545 eV  (added to PSCEN)


 Broyden mixing:
  rms(total) = 0.29942E-04    rms(broyden)= 0.29942E-04
  rms(prec ) = 0.30820E-04
  weight for this iteration     100.00

 eigenvalues of (default mixing * dielectric matrix)
  average eigenvalue GAMMA=   1.4581
  7.6486  6.4072  3.6059  2.6203  2.2838  1.8815  1.8815  1.5936  1.5936  1.3631
  1.3631  1.1529  1.1529  0.9949  0.9949  0.8723  0.8723  0.6395  0.6395  0.6735
  0.6735  0.4441  0.6119  0.6119  0.5934  0.5934  0.5505  0.5505  0.4923  0.5561
  0.4179  0.3281

 Free energy of the ion-electron system (eV)
  ---------------------------------------------------
  alpha Z        PSCENC =       245.40204472
  Ewald energy   TEWEN  =     54867.64093928
  -Hartree energ DENC   =    -79038.75322619
  -exchange      EXHF   =         0.00000000
  -V(xc)+E(xc)   XCENC  =       777.65354711
  PAW double counting   =     33319.08630453   -32984.13476485
  entropy T*S    EENTRO =        -0.00000000
  eigenvalues    EBANDS =     -4660.55899325
  atomic energy  EATOM  =     27121.10918193
  Solvation  Ediel_sol  =         0.00000000
  ---------------------------------------------------
  free energy    TOTEN  =      -352.55496673 eV

  energy without entropy =     -352.55496673  energy(sigma->0) =     -352.55496673


--------------------------------------------------------------------------------------------------------




--------------------------------------- Iteration      1(  38)  ---------------------------------------


    POTLOK:  cpu time    0.4220: real time    0.4255
    SETDIJ:  cpu time    0.8653: real time    0.8711
     EDDAV:  cpu time   23.8080: real time   23.9955
       DOS:  cpu time    0.0039: real time    0.0039
    --------------------------------------------
      LOOP:  cpu time   25.0993: real time   25.2960

 eigenvalue-minimisations  :  3616
 total energy-change (2. order) :-0.9051473E-06  (-0.2170148E-08)
 number of electron     486.9999961 magnetization      53.0001555
 augmentation part       -4.7704298 magnetization      36.5244840

 DIPCOR: dipole corrections for dipol
 direction  3 min pos     1,
 dipolmoment           0.000000      0.000000     -0.048511 electrons x Angstroem
 Tr[quadrupol]    -26934.494625

 energy correction for charged system         0.000000 eV
 dipol+quadrupol energy correction           -0.000039 eV
 added-field ion interaction          0.002544 eV  (added to PSCEN)


 Free energy of the ion-electron system (eV)
  ---------------------------------------------------
  alpha Z        PSCENC =       245.40204463
  Ewald energy   TEWEN  =     54867.64093928
  -Hartree energ DENC   =    -79038.75431364
  -exchange      EXHF   =         0.00000000
  -V(xc)+E(xc)   XCENC  =       777.65355230
  PAW double counting   =     33319.08526761   -32984.13374447
  entropy T*S    EENTRO =        -0.00000000
  eigenvalues    EBANDS =     -4660.55789528
  atomic energy  EATOM  =     27121.10918193
  Solvation  Ediel_sol  =         0.00000000
  ---------------------------------------------------
  free energy    TOTEN  =      -352.55496763 eV

  energy without entropy =     -352.55496763  energy(sigma->0) =     -352.55496763


--------------------------------------------------------------------------------------------------------




 average (electrostatic) potential at core
  the test charge radii are     1.1394  0.9406  0.5201
  (the norm of the test charge is              1.0000)
       1 -52.8376       2 -52.8376       3 -52.8588       4 -52.8376       5 -52.8588
       6 -52.8614       7 -52.8376       8 -52.8588       9 -52.8376      10 -52.8376
      11 -52.8614      12 -52.8588      13 -52.8614      14 -52.8588      15 -52.8588
      16 -52.8614      17 -52.8614      18 -52.8614      19 -99.2789      20 -99.2789
      21 -99.2996      22 -99.6335      23 -99.2915      24 -99.2999      25 -99.2886
      26 -99.2996      27 -99.2948      28 -99.2893      29 -99.2894      30 -99.2915
      31 -99.2948      32 -99.2892      33 -99.2877      34 -99.2915      35 -99.2893
      36 -99.2894      37 -99.2996      38 -99.2886      39 -99.2948      40 -99.2999
      41 -99.6335      42 -99.2915      43 -99.2948      44 -99.2948      45 -99.2789
      46 -99.2915      47 -99.2999      48 -99.6335      49 -99.2877      50 -99.2877
      51 -99.2886      52 -99.2894      53 -99.2897      54 -99.2893      55 -99.2892
      56 -99.2948      57 -99.2877      58 -99.2897      59 -99.2893      60 -99.2894
      61 -99.2877      62 -99.2877      63 -99.2886      64 -99.2894      65 -99.2915
      66 -99.2893      67 -99.2886      68 -99.2886      69 -99.2892      70 -99.2893
      71 -99.2894      72 -99.2897      73 -39.1638



 E-fermi :  -2.8613     XC(G=0):  -2.9574     alpha+bet : -2.3869

 Fermi energy:        -2.8612748430

 spin component 1

 k-point     1 :       0.0000    0.0000    0.0000
  band No.  band energies     occupation 
      1     -19.6490      1.00000
      2     -19.4715      1.00000
      3     -19.4500      1.00000
      4     -19.4500      1.00000
      5     -19.4070      1.00000
      6     -19.4070      1.00000
      7     -19.4065      1.00000
      8     -19.1752      1.00000
      9     -19.1752      1.00000
     10     -19.1275      1.00000
     11     -19.1275      1.00000
     12     -18.9584      1.00000
     13     -18.9392      1.00000
     14     -18.9392      1.00000
     15     -18.8744      1.00000
     16     -18.8744      1.00000
     17     -18.8732      1.00000
     18     -18.8459      1.00000
     19     -18.7812      1.00000
     20     -18.7629      1.00000
     21     -18.7629      1.00000
     22     -18.7573      1.00000
     23     -18.7411      1.00000
     24     -18.7125      1.00000
     25     -18.7125      1.00000
     26     -18.7122      1.00000
     27     -18.7082      1.00000
     28     -18.7082      1.00000
     29     -18.6802      1.00000
     30     -18.6781      1.00000
     31     -18.6781      1.00000
     32     -18.6742      1.00000
     33     -18.6508      1.00000
     34     -18.6508      1.00000
     35     -18.6252      1.00000
     36     -18.6252      1.00000
     37     -18.6165      1.00000
     38     -18.6165      1.00000
     39     -18.6109      1.00000
     40     -18.5880      1.00000
     41     -18.5866      1.00000
     42     -18.5866      1.00000
     43     -18.5711      1.00000
     44     -18.5690      1.00000
     45     -18.5690      1.00000
     46     -18.5673      1.00000
     47     -18.5638      1.00000
     48     -18.5588      1.00000
     49     -18.5588      1.00000
     50     -18.5565      1.00000
     51     -18.5565      1.00000
     52     -18.5541      1.00000
     53     -18.5281      1.00000
     54     -18.5281      1.00000
     55      -9.3608      1.00000
     56      -9.3458      1.00000
     57      -9.3364      1.00000
     58      -9.3364      1.00000
     59      -9.3086      1.00000
     60      -9.3031      1.00000
     61      -9.3031      1.00000
     62      -8.9858      1.00000
     63      -8.9349      1.00000
     64      -8.9349      1.00000
     65      -8.9268      1.00000
     66      -8.9268      1.00000
     67      -8.8865      1.00000
     68      -8.8339      1.00000
     69      -8.8339      1.00000
     70      -8.8090      1.00000
     71      -8.8084      1.00000
     72      -8.8084      1.00000
     73      -8.7109      1.00000
     74      -8.6224      1.00000
     75      -8.5463      1.00000
     76      -8.5457      1.00000
     77      -8.5457      1.00000
     78      -8.5001      1.00000
     79      -8.5001      1.00000
     80      -8.4993      1.00000
     81      -8.4703      1.00000
     82      -8.4690      1.00000
     83      -8.4690      1.00000
     84      -8.4492      1.00000
     85      -8.4492      1.00000
     86      -8.4376      1.00000
     87      -8.4298      1.00000
     88      -8.4298      1.00000
     89      -8.4225      1.00000
     90      -8.4225      1.00000
     91      -8.4195      1.00000
     92      -8.4195      1.00000
     93      -8.4103      1.00000
     94      -8.3932      1.00000
     95      -8.3932      1.00000
     96      -8.3789      1.00000
     97      -8.3789      1.00000
     98      -8.3706      1.00000
     99      -8.3706      1.00000
    100      -8.3684      1.00000
    101      -8.1913      1.00000
    102      -8.1792      1.00000
    103      -8.1792      1.00000
    104      -8.1759      1.00000
    105      -8.1682      1.00000
    106      -8.1682      1.00000
    107      -8.1505      1.00000
    108      -8.1505      1.00000
    109      -8.1220      1.00000
    110      -8.1220      1.00000
    111      -8.1183      1.00000
    112      -8.1159      1.00000
    113      -8.1155      1.00000
    114      -8.1155      1.00000
    115      -8.1138      1.00000
    116      -8.1138      1.00000
    117      -8.0096      1.00000
    118      -7.9816      1.00000
    119      -7.9726      1.00000
    120      -7.9397      1.00000
    121      -7.9383      1.00000
    122      -7.9383      1.00000
    123      -7.8649      1.00000
    124      -7.8469      1.00000
    125      -7.8366      1.00000
    126      -7.8366      1.00000
    127      -7.8352      1.00000
    128      -7.8341      1.00000
    129      -7.8341      1.00000
    130      -7.7393      1.00000
    131      -7.7393      1.00000
    132      -7.7360      1.00000
    133      -7.7264      1.00000
    134      -7.7247      1.00000
    135      -7.7247      1.00000
    136      -7.3477      1.00000
    137      -7.3229      1.00000
    138      -7.2999      1.00000
    139      -7.2999      1.00000
    140      -7.2903      1.00000
    141      -7.2862      1.00000
    142      -7.2862      1.00000
    143      -7.1994      1.00000
    144      -7.1994      1.00000
    145      -7.1809      1.00000
    146      -7.1468      1.00000
    147      -6.9559      1.00000
    148      -6.9559      1.00000
    149      -6.9260      1.00000
    150      -6.8956      1.00000
    151      -6.8956      1.00000
    152      -6.8907      1.00000
    153      -6.8601      1.00000
    154      -6.7999      1.00000
    155      -6.7999      1.00000
    156      -6.7715      1.00000
    157      -6.7715      1.00000
    158      -6.7662      1.00000
    159      -6.7558      1.00000
    160      -6.7450      1.00000
    161      -6.7321      1.00000
    162      -6.7281      1.00000
    163      -6.7281      1.00000
    164      -6.7021      1.00000
    165      -6.6999      1.00000
    166      -6.6999      1.00000
    167      -6.6371      1.00000
    168      -6.6371      1.00000
    169      -6.6251      1.00000
    170      -6.6251      1.00000
    171      -6.6188      1.00000
    172      -6.5501      1.00000
    173      -6.5501      1.00000
    174      -6.5133      1.00000
    175      -6.5133      1.00000
    176      -6.5058      1.00000
    177      -6.5058      1.00000
    178      -6.5053      1.00000
    179      -6.5017      1.00000
    180      -6.5017      1.00000
    181      -6.4406      1.00000
    182      -6.3100      1.00000
    183      -6.3035      1.00000
    184      -6.3035      1.00000
    185      -6.2731      1.00000
    186      -6.2722      1.00000
    187      -6.2722      1.00000
    188      -6.2331      1.00000
    189      -6.2331      1.00000
    190      -6.1937      1.00000
    191      -6.1886      1.00000
    192      -6.1886      1.00000
    193      -6.1846      1.00000
    194      -6.1489      1.00000
    195      -6.1002      1.00000
    196      -6.0754      1.00000
    197      -6.0265      1.00000
    198      -6.0265      1.00000
    199      -5.9969      1.00000
    200      -5.9969      1.00000
    201      -5.9900      1.00000
    202      -5.9900      1.00000
    203      -5.8566      1.00000
    204      -5.8129      1.00000
    205      -5.8129      1.00000
    206      -5.7953      1.00000
    207      -5.7953      1.00000
    208      -5.7892      1.00000
    209      -5.7639      1.00000
    210      -5.7623      1.00000
    211      -5.7623      1.00000
    212      -5.7505      1.00000
    213      -5.7505      1.00000
    214      -5.7499      1.00000
    215      -5.6803      1.00000
    216      -5.6803      1.00000
    217      -5.1705      1.00000
    218      -5.1303      1.00000
    219      -5.1259      1.00000
    220      -5.1259      1.00000
    221      -5.1227      1.00000
    222      -5.1227      1.00000
    223      -5.1171      1.00000
    224      -5.0849      1.00000
    225      -5.0625      1.00000
    226      -4.8744      1.00000
    227      -4.8744      1.00000
    228      -4.8717      1.00000
    229      -4.8681      1.00000
    230      -4.8681      1.00000
    231      -4.8582      1.00000
    232      -4.8464      1.00000
    233      -4.8445      1.00000
    234      -4.8445      1.00000
    235      -4.8400      1.00000
    236      -4.8400      1.00000
    237      -4.8357      1.00000
    238      -4.8281      1.00000
    239      -4.8281      1.00000
    240      -4.7518      1.00000
    241      -4.7518      1.00000
    242      -4.7435      1.00000
    243      -4.7420      1.00000
    244      -4.7420      1.00000
    245      -4.6677      1.00000
    246      -4.6144      1.00000
    247      -4.6105      1.00000
    248      -4.6105      1.00000
    249      -4.6060      1.00000
    250      -4.6060      1.00000
    251      -4.5798      1.00000
    252      -4.5697      1.00000
    253      -4.5697      1.00000
    254      -4.5584      1.00000
    255      -4.5556      1.00000
    256      -4.5556      1.00000
    257      -4.5498      1.00000
    258      -4.5460      1.00000
    259      -4.5460      1.00000
    260      -4.5386      1.00000
    261      -4.5353      1.00000
    262      -4.5353      1.00000
    263      -4.5209      1.00000
    264      -4.5209      1.00000
    265      -4.4039      1.00000
    266      -4.4039      1.00000
    267      -4.4010      1.00000
    268      -4.3974      1.00000
    269      -4.3974      1.00000
    270      -4.3955      1.00000
    271      -2.6289      0.00000
    272      -2.5927      0.00000
    273      -2.5810      0.00000
    274      -2.5630      0.00000
    275      -2.5630      0.00000
    276      -2.5602      0.00000
    277      -2.5602      0.00000
    278      -2.5593      0.00000
    279      -2.5541      0.00000
    280      -2.5541      0.00000
    281      -2.5525      0.00000
    282      -2.5525      0.00000
    283      -2.5488      0.00000
    284      -2.5451      0.00000
    285      -2.5451      0.00000
    286      -2.5326      0.00000
    287      -2.5255      0.00000
    288      -2.5255      0.00000
    289      -2.5209      0.00000
    290      -2.5209      0.00000
    291      -2.4989      0.00000
    292      -2.4918      0.00000
    293      -2.4918      0.00000
    294      -2.4904      0.00000
    295      -2.4775      0.00000
    296      -2.4775      0.00000
    297      -2.4073      0.00000
    298      -2.4073      0.00000
    299      -2.4035      0.00000
    300      -2.3974      0.00000
    301      -2.3974      0.00000
    302      -2.3939      0.00000
    303      -2.3149      0.00000
    304      -2.3149      0.00000
    305      -2.3071      0.00000
    306      -2.2929      0.00000
    307      -0.4600      0.00000
    308       1.4043      0.00000
    309       1.9758      0.00000
    310       2.1994      0.00000
    311       2.1994      0.00000
    312       2.2138      0.00000
    313       2.2138      0.00000
    314       2.2174      0.00000
    315       2.2369      0.00000
    316       2.4906      0.00000
    317       2.5097      0.00000
    318       2.5098      0.00000
    319       2.5210      0.00000
    320       2.5219      0.00000

 k-point     2 :       0.2000    0.0000    0.0000
  band No.  band energies     occupation 
      1     -19.6412      1.00000
      2     -19.5120      1.00000
      3     -19.4642      1.00000
      4     -19.4542      1.00000
      5     -19.4052      1.00000
      6     -19.3816      1.00000
      7     -19.3471      1.00000
      8     -19.2176      1.00000
      9     -19.2141      1.00000
     10     -19.0952      1.00000
     11     -19.0886      1.00000
     12     -18.9872      1.00000
     13     -18.9604      1.00000
     14     -18.9510      1.00000
     15     -18.8904      1.00000
     16     -18.8751      1.00000
     17     -18.8377      1.00000
     18     -18.8257      1.00000
     19     -18.7783      1.00000
     20     -18.7636      1.00000
     21     -18.7572      1.00000
     22     -18.7493      1.00000
     23     -18.7346      1.00000
     24     -18.7303      1.00000
     25     -18.7188      1.00000
     26     -18.7116      1.00000
     27     -18.7015      1.00000
     28     -18.6965      1.00000
     29     -18.6810      1.00000
     30     -18.6803      1.00000
     31     -18.6741      1.00000
     32     -18.6734      1.00000
     33     -18.6574      1.00000
     34     -18.6533      1.00000
     35     -18.6373      1.00000
     36     -18.6352      1.00000
     37     -18.6178      1.00000
     38     -18.6110      1.00000
     39     -18.6043      1.00000
     40     -18.5950      1.00000
     41     -18.5910      1.00000
     42     -18.5832      1.00000
     43     -18.5786      1.00000
     44     -18.5734      1.00000
     45     -18.5675      1.00000
     46     -18.5651      1.00000
     47     -18.5613      1.00000
     48     -18.5594      1.00000
     49     -18.5576      1.00000
     50     -18.5542      1.00000
     51     -18.5500      1.00000
     52     -18.5490      1.00000
     53     -18.5296      1.00000
     54     -18.5290      1.00000
     55      -9.3530      1.00000
     56      -9.3454      1.00000
     57      -9.3307      1.00000
     58      -9.3236      1.00000
     59      -9.3073      1.00000
     60      -9.2944      1.00000
     61      -9.2880      1.00000
     62      -9.0512      1.00000
     63      -9.0372      1.00000
     64      -8.9828      1.00000
     65      -8.8918      1.00000
     66      -8.8703      1.00000
     67      -8.8547      1.00000
     68      -8.8432      1.00000
     69      -8.8394      1.00000
     70      -8.8232      1.00000
     71      -8.8035      1.00000
     72      -8.7771      1.00000
     73      -8.6948      1.00000
     74      -8.6005      1.00000
     75      -8.5499      1.00000
     76      -8.5480      1.00000
     77      -8.5419      1.00000
     78      -8.5095      1.00000
     79      -8.5073      1.00000
     80      -8.4965      1.00000
     81      -8.4834      1.00000
     82      -8.4716      1.00000
     83      -8.4691      1.00000
     84      -8.4510      1.00000
     85      -8.4468      1.00000
     86      -8.4458      1.00000
     87      -8.4435      1.00000
     88      -8.4390      1.00000
     89      -8.4342      1.00000
     90      -8.4271      1.00000
     91      -8.4194      1.00000
     92      -8.4090      1.00000
     93      -8.4062      1.00000
     94      -8.3997      1.00000
     95      -8.3918      1.00000
     96      -8.3850      1.00000
     97      -8.3846      1.00000
     98      -8.3503      1.00000
     99      -8.3426      1.00000
    100      -8.2987      1.00000
    101      -8.2230      1.00000
    102      -8.2016      1.00000
    103      -8.1926      1.00000
    104      -8.1805      1.00000
    105      -8.1662      1.00000
    106      -8.1488      1.00000
    107      -8.1434      1.00000
    108      -8.1395      1.00000
    109      -8.1317      1.00000
    110      -8.1257      1.00000
    111      -8.1222      1.00000
    112      -8.1142      1.00000
    113      -8.1135      1.00000
    114      -8.1098      1.00000
    115      -8.1076      1.00000
    116      -8.1059      1.00000
    117      -8.0069      1.00000
    118      -7.9762      1.00000
    119      -7.9742      1.00000
    120      -7.9472      1.00000
    121      -7.9405      1.00000
    122      -7.9350      1.00000
    123      -7.9235      1.00000
    124      -7.9106      1.00000
    125      -7.8776      1.00000
    126      -7.8650      1.00000
    127      -7.8426      1.00000
    128      -7.8400      1.00000
    129      -7.7978      1.00000
    130      -7.7711      1.00000
    131      -7.7214      1.00000
    132      -7.7101      1.00000
    133      -7.6068      1.00000
    134      -7.5991      1.00000
    135      -7.5909      1.00000
    136      -7.3839      1.00000
    137      -7.3454      1.00000
    138      -7.3420      1.00000
    139      -7.3171      1.00000
    140      -7.2810      1.00000
    141      -7.2731      1.00000
    142      -7.2542      1.00000
    143      -7.2080      1.00000
    144      -7.1749      1.00000
    145      -7.1658      1.00000
    146      -7.1509      1.00000
    147      -7.0880      1.00000
    148      -7.0463      1.00000
    149      -7.0316      1.00000
    150      -6.9493      1.00000
    151      -6.9262      1.00000
    152      -6.8981      1.00000
    153      -6.8922      1.00000
    154      -6.8793      1.00000
    155      -6.8701      1.00000
    156      -6.8415      1.00000
    157      -6.8086      1.00000
    158      -6.8000      1.00000
    159      -6.7824      1.00000
    160      -6.7618      1.00000
    161      -6.7488      1.00000
    162      -6.6995      1.00000
    163      -6.6939      1.00000
    164      -6.6861      1.00000
    165      -6.6775      1.00000
    166      -6.6605      1.00000
    167      -6.6575      1.00000
    168      -6.6139      1.00000
    169      -6.6103      1.00000
    170      -6.5892      1.00000
    171      -6.5727      1.00000
    172      -6.5543      1.00000
    173      -6.5502      1.00000
    174      -6.4951      1.00000
    175      -6.4730      1.00000
    176      -6.4650      1.00000
    177      -6.4503      1.00000
    178      -6.4346      1.00000
    179      -6.4241      1.00000
    180      -6.3638      1.00000
    181      -6.3564      1.00000
    182      -6.3226      1.00000
    183      -6.3128      1.00000
    184      -6.2985      1.00000
    185      -6.2757      1.00000
    186      -6.2594      1.00000
    187      -6.2304      1.00000
    188      -6.2182      1.00000
    189      -6.2144      1.00000
    190      -6.1777      1.00000
    191      -6.1748      1.00000
    192      -6.1741      1.00000
    193      -6.1693      1.00000
    194      -6.1666      1.00000
    195      -6.1294      1.00000
    196      -6.1057      1.00000
    197      -6.0477      1.00000
    198      -6.0130      1.00000
    199      -6.0016      1.00000
    200      -5.9941      1.00000
    201      -5.9616      1.00000
    202      -5.9587      1.00000
    203      -5.8656      1.00000
    204      -5.8482      1.00000
    205      -5.8374      1.00000
    206      -5.8287      1.00000
    207      -5.8167      1.00000
    208      -5.8023      1.00000
    209      -5.7927      1.00000
    210      -5.7855      1.00000
    211      -5.7794      1.00000
    212      -5.7754      1.00000
    213      -5.7745      1.00000
    214      -5.7443      1.00000
    215      -5.7374      1.00000
    216      -5.6973      1.00000
    217      -5.1630      1.00000
    218      -5.1570      1.00000
    219      -5.1266      1.00000
    220      -5.1220      1.00000
    221      -5.0958      1.00000
    222      -5.0944      1.00000
    223      -5.0880      1.00000
    224      -5.0854      1.00000
    225      -5.0595      1.00000
    226      -4.8794      1.00000
    227      -4.8785      1.00000
    228      -4.8780      1.00000
    229      -4.8697      1.00000
    230      -4.8665      1.00000
    231      -4.8546      1.00000
    232      -4.8539      1.00000
    233      -4.8381      1.00000
    234      -4.8371      1.00000
    235      -4.8352      1.00000
    236      -4.8306      1.00000
    237      -4.8277      1.00000
    238      -4.8232      1.00000
    239      -4.8205      1.00000
    240      -4.7732      1.00000
    241      -4.7704      1.00000
    242      -4.7564      1.00000
    243      -4.7511      1.00000
    244      -4.7301      1.00000
    245      -4.6662      1.00000
    246      -4.6261      1.00000
    247      -4.6157      1.00000
    248      -4.6109      1.00000
    249      -4.6028      1.00000
    250      -4.6002      1.00000
    251      -4.5872      1.00000
    252      -4.5720      1.00000
    253      -4.5663      1.00000
    254      -4.5603      1.00000
    255      -4.5554      1.00000
    256      -4.5523      1.00000
    257      -4.5517      1.00000
    258      -4.5453      1.00000
    259      -4.5436      1.00000
    260      -4.5395      1.00000
    261      -4.5373      1.00000
    262      -4.5347      1.00000
    263      -4.4873      1.00000
    264      -4.4832      1.00000
    265      -4.4371      1.00000
    266      -4.4252      1.00000
    267      -4.4217      1.00000
    268      -4.3960      1.00000
    269      -4.3915      1.00000
    270      -4.3751      1.00000
    271      -2.6310      0.00000
    272      -2.5931      0.00000
    273      -2.5869      0.00000
    274      -2.5798      0.00000
    275      -2.5719      0.00000
    276      -2.5618      0.00000
    277      -2.5605      0.00000
    278      -2.5587      0.00000
    279      -2.5566      0.00000
    280      -2.5520      0.00000
    281      -2.5511      0.00000
    282      -2.5455      0.00000
    283      -2.5428      0.00000
    284      -2.5406      0.00000
    285      -2.5334      0.00000
    286      -2.5300      0.00000
    287      -2.5286      0.00000
    288      -2.5251      0.00000
    289      -2.5193      0.00000
    290      -2.5148      0.00000
    291      -2.5067      0.00000
    292      -2.5014      0.00000
    293      -2.4979      0.00000
    294      -2.4851      0.00000
    295      -2.4798      0.00000
    296      -2.4608      0.00000
    297      -2.4336      0.00000
    298      -2.4063      0.00000
    299      -2.3970      0.00000
    300      -2.3799      0.00000
    301      -2.3751      0.00000
    302      -2.3700      0.00000
    303      -2.3349      0.00000
    304      -2.3182      0.00000
    305      -2.3174      0.00000
    306      -2.3034      0.00000
    307      -0.4593      0.00000
    308       1.4425      0.00000
    309       1.9506      0.00000
    310       2.0004      0.00000
    311       2.0878      0.00000
    312       2.1068      0.00000
    313       2.3319      0.00000
    314       2.3679      0.00000
    315       2.3770      0.00000
    316       2.4343      0.00000
    317       2.4351      0.00000
    318       2.5062      0.00000
    319       2.5320      0.00000
    320       2.6287      0.00000

 k-point     3 :       0.4000    0.0000    0.0000
  band No.  band energies     occupation 
      1     -19.6215      1.00000
      2     -19.5568      1.00000
      3     -19.4781      1.00000
      4     -19.4713      1.00000
      5     -19.3584      1.00000
      6     -19.3368      1.00000
      7     -19.2993      1.00000
      8     -19.2689      1.00000
      9     -19.2683      1.00000
     10     -19.0632      1.00000
     11     -19.0475      1.00000
     12     -19.0267      1.00000
     13     -18.9842      1.00000
     14     -18.9800      1.00000
     15     -18.8885      1.00000
     16     -18.8769      1.00000
     17     -18.8172      1.00000
     18     -18.8077      1.00000
     19     -18.7731      1.00000
     20     -18.7593      1.00000
     21     -18.7486      1.00000
     22     -18.7324      1.00000
     23     -18.7304      1.00000
     24     -18.7284      1.00000
     25     -18.7186      1.00000
     26     -18.7162      1.00000
     27     -18.7013      1.00000
     28     -18.6958      1.00000
     29     -18.6858      1.00000
     30     -18.6806      1.00000
     31     -18.6739      1.00000
     32     -18.6677      1.00000
     33     -18.6601      1.00000
     34     -18.6566      1.00000
     35     -18.6535      1.00000
     36     -18.6493      1.00000
     37     -18.6205      1.00000
     38     -18.6146      1.00000
     39     -18.6038      1.00000
     40     -18.5983      1.00000
     41     -18.5908      1.00000
     42     -18.5864      1.00000
     43     -18.5820      1.00000
     44     -18.5719      1.00000
     45     -18.5695      1.00000
     46     -18.5663      1.00000
     47     -18.5600      1.00000
     48     -18.5573      1.00000
     49     -18.5541      1.00000
     50     -18.5525      1.00000
     51     -18.5416      1.00000
     52     -18.5409      1.00000
     53     -18.5337      1.00000
     54     -18.5317      1.00000
     55      -9.3519      1.00000
     56      -9.3426      1.00000
     57      -9.3233      1.00000
     58      -9.3012      1.00000
     59      -9.2864      1.00000
     60      -9.2641      1.00000
     61      -9.2387      1.00000
     62      -9.1619      1.00000
     63      -9.1491      1.00000
     64      -8.9957      1.00000
     65      -8.8860      1.00000
     66      -8.8742      1.00000
     67      -8.8652      1.00000
     68      -8.8315      1.00000
     69      -8.8242      1.00000
     70      -8.8179      1.00000
     71      -8.8009      1.00000
     72      -8.7492      1.00000
     73      -8.6764      1.00000
     74      -8.5628      1.00000
     75      -8.5552      1.00000
     76      -8.5483      1.00000
     77      -8.5347      1.00000
     78      -8.5244      1.00000
     79      -8.5240      1.00000
     80      -8.5145      1.00000
     81      -8.4854      1.00000
     82      -8.4728      1.00000
     83      -8.4712      1.00000
     84      -8.4616      1.00000
     85      -8.4597      1.00000
     86      -8.4567      1.00000
     87      -8.4484      1.00000
     88      -8.4432      1.00000
     89      -8.4354      1.00000
     90      -8.4339      1.00000
     91      -8.4273      1.00000
     92      -8.4179      1.00000
     93      -8.4096      1.00000
     94      -8.3977      1.00000
     95      -8.3540      1.00000
     96      -8.3520      1.00000
     97      -8.3362      1.00000
     98      -8.3340      1.00000
     99      -8.3298      1.00000
    100      -8.2542      1.00000
    101      -8.2489      1.00000
    102      -8.2274      1.00000
    103      -8.2011      1.00000
    104      -8.1952      1.00000
    105      -8.1778      1.00000
    106      -8.1683      1.00000
    107      -8.1545      1.00000
    108      -8.1477      1.00000
    109      -8.1328      1.00000
    110      -8.1203      1.00000
    111      -8.1131      1.00000
    112      -8.1077      1.00000
    113      -8.1025      1.00000
    114      -8.1006      1.00000
    115      -8.0966      1.00000
    116      -8.0587      1.00000
    117      -8.0208      1.00000
    118      -8.0029      1.00000
    119      -8.0014      1.00000
    120      -7.9642      1.00000
    121      -7.9534      1.00000
    122      -7.9479      1.00000
    123      -7.9336      1.00000
    124      -7.9255      1.00000
    125      -7.9143      1.00000
    126      -7.9125      1.00000
    127      -7.9080      1.00000
    128      -7.7480      1.00000
    129      -7.6884      1.00000
    130      -7.6768      1.00000
    131      -7.6729      1.00000
    132      -7.6704      1.00000
    133      -7.5423      1.00000
    134      -7.5233      1.00000
    135      -7.5019      1.00000
    136      -7.4944      1.00000
    137      -7.3335      1.00000
    138      -7.3260      1.00000
    139      -7.2872      1.00000
    140      -7.2694      1.00000
    141      -7.2596      1.00000
    142      -7.2416      1.00000
    143      -7.2261      1.00000
    144      -7.1626      1.00000
    145      -7.1609      1.00000
    146      -7.1341      1.00000
    147      -7.1297      1.00000
    148      -7.1141      1.00000
    149      -7.1074      1.00000
    150      -7.0948      1.00000
    151      -7.0765      1.00000
    152      -7.0488      1.00000
    153      -7.0049      1.00000
    154      -6.9578      1.00000
    155      -6.9500      1.00000
    156      -6.9117      1.00000
    157      -6.8390      1.00000
    158      -6.8187      1.00000
    159      -6.7662      1.00000
    160      -6.7411      1.00000
    161      -6.7284      1.00000
    162      -6.7113      1.00000
    163      -6.7034      1.00000
    164      -6.6902      1.00000
    165      -6.6666      1.00000
    166      -6.6534      1.00000
    167      -6.6505      1.00000
    168      -6.6362      1.00000
    169      -6.6225      1.00000
    170      -6.5518      1.00000
    171      -6.5260      1.00000
    172      -6.5081      1.00000
    173      -6.4871      1.00000
    174      -6.4848      1.00000
    175      -6.4528      1.00000
    176      -6.4326      1.00000
    177      -6.3408      1.00000
    178      -6.3283      1.00000
    179      -6.3043      1.00000
    180      -6.2939      1.00000
    181      -6.2726      1.00000
    182      -6.2481      1.00000
    183      -6.2442      1.00000
    184      -6.2399      1.00000
    185      -6.2265      1.00000
    186      -6.2168      1.00000
    187      -6.2095      1.00000
    188      -6.1904      1.00000
    189      -6.1839      1.00000
    190      -6.1788      1.00000
    191      -6.1671      1.00000
    192      -6.1619      1.00000
    193      -6.1553      1.00000
    194      -6.1490      1.00000
    195      -6.1414      1.00000
    196      -6.1124      1.00000
    197      -6.0907      1.00000
    198      -6.0068      1.00000
    199      -5.9902      1.00000
    200      -5.9821      1.00000
    201      -5.9397      1.00000
    202      -5.9319      1.00000
    203      -5.9302      1.00000
    204      -5.9107      1.00000
    205      -5.9059      1.00000
    206      -5.9008      1.00000
    207      -5.8961      1.00000
    208      -5.8671      1.00000
    209      -5.8375      1.00000
    210      -5.8321      1.00000
    211      -5.8255      1.00000
    212      -5.8023      1.00000
    213      -5.7992      1.00000
    214      -5.7741      1.00000
    215      -5.7419      1.00000
    216      -5.7224      1.00000
    217      -5.1877      1.00000
    218      -5.1249      1.00000
    219      -5.1067      1.00000
    220      -5.1030      1.00000
    221      -5.0935      1.00000
    222      -5.0901      1.00000
    223      -5.0777      1.00000
    224      -5.0526      1.00000
    225      -5.0463      1.00000
    226      -4.8821      1.00000
    227      -4.8775      1.00000
    228      -4.8706      1.00000
    229      -4.8629      1.00000
    230      -4.8611      1.00000
    231      -4.8576      1.00000
    232      -4.8512      1.00000
    233      -4.8452      1.00000
    234      -4.8310      1.00000
    235      -4.8218      1.00000
    236      -4.8204      1.00000
    237      -4.8194      1.00000
    238      -4.8172      1.00000
    239      -4.8142      1.00000
    240      -4.8102      1.00000
    241      -4.8024      1.00000
    242      -4.7804      1.00000
    243      -4.7742      1.00000
    244      -4.7006      1.00000
    245      -4.6681      1.00000
    246      -4.6442      1.00000
    247      -4.6214      1.00000
    248      -4.6147      1.00000
    249      -4.5995      1.00000
    250      -4.5929      1.00000
    251      -4.5924      1.00000
    252      -4.5828      1.00000
    253      -4.5615      1.00000
    254      -4.5563      1.00000
    255      -4.5521      1.00000
    256      -4.5485      1.00000
    257      -4.5453      1.00000
    258      -4.5430      1.00000
    259      -4.5410      1.00000
    260      -4.5271      1.00000
    261      -4.5175      1.00000
    262      -4.5158      1.00000
    263      -4.4825      1.00000
    264      -4.4565      1.00000
    265      -4.4532      1.00000
    266      -4.4425      1.00000
    267      -4.4372      1.00000
    268      -4.4102      1.00000
    269      -4.4051      1.00000
    270      -4.3634      1.00000
    271      -2.6345      0.00000
    272      -2.5968      0.00000
    273      -2.5910      0.00000
    274      -2.5874      0.00000
    275      -2.5818      0.00000
    276      -2.5653      0.00000
    277      -2.5615      0.00000
    278      -2.5603      0.00000
    279      -2.5568      0.00000
    280      -2.5517      0.00000
    281      -2.5464      0.00000
    282      -2.5430      0.00000
    283      -2.5401      0.00000
    284      -2.5384      0.00000
    285      -2.5364      0.00000
    286      -2.5332      0.00000
    287      -2.5279      0.00000
    288      -2.5206      0.00000
    289      -2.5138      0.00000
    290      -2.5124      0.00000
    291      -2.5081      0.00000
    292      -2.5052      0.00000
    293      -2.4960      0.00000
    294      -2.4903      0.00000
    295      -2.4587      0.00000
    296      -2.4520      0.00000
    297      -2.4430      0.00000
    298      -2.3881      0.00000
    299      -2.3802      0.00000
    300      -2.3699      0.00000
    301      -2.3594      0.00000
    302      -2.3545      0.00000
    303      -2.3471      0.00000
    304      -2.3439      0.00000
    305      -2.3289      0.00000
    306      -2.3268      0.00000
    307      -0.4581      0.00000
    308       1.5523      0.00000
    309       1.7294      0.00000
    310       2.0246      0.00000
    311       2.0463      0.00000
    312       2.0713      0.00000
    313       2.1831      0.00000
    314       2.3930      0.00000
    315       2.3934      0.00000
    316       2.5559      0.00000
    317       2.5592      0.00000
    318       2.6151      0.00000
    319       2.7362      0.00000
    320       2.7522      0.00000

 k-point     4 :       0.2000    0.2000    0.0000
  band No.  band energies     occupation 
      1     -19.6269      1.00000
      2     -19.5390      1.00000
      3     -19.5096      1.00000
      4     -19.4129      1.00000
      5     -19.4099      1.00000
      6     -19.3412      1.00000
      7     -19.3051      1.00000
      8     -19.2705      1.00000
      9     -19.2385      1.00000
     10     -19.0792      1.00000
     11     -19.0503      1.00000
     12     -19.0198      1.00000
     13     -18.9969      1.00000
     14     -18.9409      1.00000
     15     -18.8998      1.00000
     16     -18.8835      1.00000
     17     -18.8145      1.00000
     18     -18.8136      1.00000
     19     -18.7724      1.00000
     20     -18.7522      1.00000
     21     -18.7496      1.00000
     22     -18.7400      1.00000
     23     -18.7386      1.00000
     24     -18.7279      1.00000
     25     -18.7218      1.00000
     26     -18.7111      1.00000
     27     -18.6995      1.00000
     28     -18.6982      1.00000
     29     -18.6861      1.00000
     30     -18.6808      1.00000
     31     -18.6695      1.00000
     32     -18.6673      1.00000
     33     -18.6622      1.00000
     34     -18.6600      1.00000
     35     -18.6498      1.00000
     36     -18.6419      1.00000
     37     -18.6218      1.00000
     38     -18.6112      1.00000
     39     -18.6080      1.00000
     40     -18.5956      1.00000
     41     -18.5945      1.00000
     42     -18.5845      1.00000
     43     -18.5759      1.00000
     44     -18.5742      1.00000
     45     -18.5680      1.00000
     46     -18.5658      1.00000
     47     -18.5644      1.00000
     48     -18.5604      1.00000
     49     -18.5516      1.00000
     50     -18.5509      1.00000
     51     -18.5445      1.00000
     52     -18.5430      1.00000
     53     -18.5324      1.00000
     54     -18.5310      1.00000
     55      -9.3444      1.00000
     56      -9.3392      1.00000
     57      -9.3313      1.00000
     58      -9.3105      1.00000
     59      -9.2952      1.00000
     60      -9.2770      1.00000
     61      -9.2501      1.00000
     62      -9.1499      1.00000
     63      -9.0985      1.00000
     64      -8.9997      1.00000
     65      -8.8909      1.00000
     66      -8.8697      1.00000
     67      -8.8580      1.00000
     68      -8.8512      1.00000
     69      -8.8479      1.00000
     70      -8.8001      1.00000
     71      -8.7817      1.00000
     72      -8.7585      1.00000
     73      -8.6807      1.00000
     74      -8.5720      1.00000
     75      -8.5523      1.00000
     76      -8.5513      1.00000
     77      -8.5370      1.00000
     78      -8.5220      1.00000
     79      -8.5175      1.00000
     80      -8.4999      1.00000
     81      -8.4947      1.00000
     82      -8.4772      1.00000
     83      -8.4726      1.00000
     84      -8.4617      1.00000
     85      -8.4550      1.00000
     86      -8.4539      1.00000
     87      -8.4505      1.00000
     88      -8.4414      1.00000
     89      -8.4343      1.00000
     90      -8.4285      1.00000
     91      -8.4240      1.00000
     92      -8.4166      1.00000
     93      -8.4018      1.00000
     94      -8.3831      1.00000
     95      -8.3829      1.00000
     96      -8.3683      1.00000
     97      -8.3564      1.00000
     98      -8.3498      1.00000
     99      -8.2914      1.00000
    100      -8.2827      1.00000
    101      -8.2196      1.00000
    102      -8.2147      1.00000
    103      -8.2013      1.00000
    104      -8.2005      1.00000
    105      -8.1739      1.00000
    106      -8.1667      1.00000
    107      -8.1622      1.00000
    108      -8.1408      1.00000
    109      -8.1406      1.00000
    110      -8.1286      1.00000
    111      -8.1224      1.00000
    112      -8.1071      1.00000
    113      -8.1063      1.00000
    114      -8.0978      1.00000
    115      -8.0791      1.00000
    116      -8.0770      1.00000
    117      -8.0125      1.00000
    118      -7.9861      1.00000
    119      -7.9742      1.00000
    120      -7.9714      1.00000
    121      -7.9664      1.00000
    122      -7.9637      1.00000
    123      -7.9586      1.00000
    124      -7.9274      1.00000
    125      -7.9174      1.00000
    126      -7.8359      1.00000
    127      -7.8208      1.00000
    128      -7.8149      1.00000
    129      -7.7869      1.00000
    130      -7.7686      1.00000
    131      -7.6908      1.00000
    132      -7.5696      1.00000
    133      -7.5511      1.00000
    134      -7.5374      1.00000
    135      -7.5301      1.00000
    136      -7.3805      1.00000
    137      -7.3797      1.00000
    138      -7.3463      1.00000
    139      -7.3271      1.00000
    140      -7.2857      1.00000
    141      -7.2507      1.00000
    142      -7.2432      1.00000
    143      -7.2253      1.00000
    144      -7.1620      1.00000
    145      -7.1499      1.00000
    146      -7.1372      1.00000
    147      -7.1326      1.00000
    148      -7.1049      1.00000
    149      -7.0878      1.00000
    150      -7.0683      1.00000
    151      -7.0604      1.00000
    152      -6.9791      1.00000
    153      -6.9479      1.00000
    154      -6.9292      1.00000
    155      -6.9152      1.00000
    156      -6.9006      1.00000
    157      -6.8901      1.00000
    158      -6.8893      1.00000
    159      -6.7755      1.00000
    160      -6.7599      1.00000
    161      -6.7542      1.00000
    162      -6.7187      1.00000
    163      -6.7141      1.00000
    164      -6.6835      1.00000
    165      -6.6776      1.00000
    166      -6.6457      1.00000
    167      -6.6283      1.00000
    168      -6.5964      1.00000
    169      -6.5720      1.00000
    170      -6.5649      1.00000
    171      -6.5250      1.00000
    172      -6.5146      1.00000
    173      -6.4524      1.00000
    174      -6.4522      1.00000
    175      -6.4253      1.00000
    176      -6.4240      1.00000
    177      -6.4112      1.00000
    178      -6.3605      1.00000
    179      -6.3400      1.00000
    180      -6.3250      1.00000
    181      -6.3029      1.00000
    182      -6.2885      1.00000
    183      -6.2852      1.00000
    184      -6.2703      1.00000
    185      -6.2264      1.00000
    186      -6.2230      1.00000
    187      -6.2098      1.00000
    188      -6.1917      1.00000
    189      -6.1911      1.00000
    190      -6.1762      1.00000
    191      -6.1752      1.00000
    192      -6.1656      1.00000
    193      -6.1544      1.00000
    194      -6.1434      1.00000
    195      -6.1407      1.00000
    196      -6.1227      1.00000
    197      -6.0843      1.00000
    198      -6.0105      1.00000
    199      -5.9941      1.00000
    200      -5.9877      1.00000
    201      -5.9396      1.00000
    202      -5.9336      1.00000
    203      -5.9230      1.00000
    204      -5.9161      1.00000
    205      -5.8712      1.00000
    206      -5.8497      1.00000
    207      -5.8359      1.00000
    208      -5.8339      1.00000
    209      -5.8280      1.00000
    210      -5.8215      1.00000
    211      -5.8069      1.00000
    212      -5.8023      1.00000
    213      -5.7999      1.00000
    214      -5.7797      1.00000
    215      -5.7754      1.00000
    216      -5.7352      1.00000
    217      -5.1607      1.00000
    218      -5.1511      1.00000
    219      -5.1329      1.00000
    220      -5.0964      1.00000
    221      -5.0824      1.00000
    222      -5.0810      1.00000
    223      -5.0729      1.00000
    224      -5.0721      1.00000
    225      -5.0519      1.00000
    226      -4.8802      1.00000
    227      -4.8766      1.00000
    228      -4.8740      1.00000
    229      -4.8698      1.00000
    230      -4.8639      1.00000
    231      -4.8560      1.00000
    232      -4.8388      1.00000
    233      -4.8379      1.00000
    234      -4.8335      1.00000
    235      -4.8320      1.00000
    236      -4.8280      1.00000
    237      -4.8234      1.00000
    238      -4.8141      1.00000
    239      -4.8106      1.00000
    240      -4.8100      1.00000
    241      -4.7931      1.00000
    242      -4.7832      1.00000
    243      -4.7635      1.00000
    244      -4.7084      1.00000
    245      -4.6660      1.00000
    246      -4.6384      1.00000
    247      -4.6265      1.00000
    248      -4.6055      1.00000
    249      -4.6037      1.00000
    250      -4.5957      1.00000
    251      -4.5927      1.00000
    252      -4.5801      1.00000
    253      -4.5618      1.00000
    254      -4.5617      1.00000
    255      -4.5535      1.00000
    256      -4.5514      1.00000
    257      -4.5423      1.00000
    258      -4.5403      1.00000
    259      -4.5357      1.00000
    260      -4.5279      1.00000
    261      -4.5259      1.00000
    262      -4.5212      1.00000
    263      -4.4732      1.00000
    264      -4.4632      1.00000
    265      -4.4630      1.00000
    266      -4.4373      1.00000
    267      -4.4275      1.00000
    268      -4.4264      1.00000
    269      -4.3773      1.00000
    270      -4.3755      1.00000
    271      -2.6338      0.00000
    272      -2.5953      0.00000
    273      -2.5924      0.00000
    274      -2.5869      0.00000
    275      -2.5716      0.00000
    276      -2.5670      0.00000
    277      -2.5623      0.00000
    278      -2.5608      0.00000
    279      -2.5594      0.00000
    280      -2.5559      0.00000
    281      -2.5510      0.00000
    282      -2.5491      0.00000
    283      -2.5408      0.00000
    284      -2.5331      0.00000
    285      -2.5324      0.00000
    286      -2.5307      0.00000
    287      -2.5257      0.00000
    288      -2.5199      0.00000
    289      -2.5198      0.00000
    290      -2.5094      0.00000
    291      -2.5002      0.00000
    292      -2.4971      0.00000
    293      -2.4925      0.00000
    294      -2.4855      0.00000
    295      -2.4774      0.00000
    296      -2.4764      0.00000
    297      -2.4139      0.00000
    298      -2.4118      0.00000
    299      -2.3742      0.00000
    300      -2.3709      0.00000
    301      -2.3672      0.00000
    302      -2.3540      0.00000
    303      -2.3518      0.00000
    304      -2.3374      0.00000
    305      -2.3231      0.00000
    306      -2.3203      0.00000
    307      -0.4584      0.00000
    308       1.5166      0.00000
    309       1.8470      0.00000
    310       1.8676      0.00000
    311       2.0477      0.00000
    312       2.2645      0.00000
    313       2.2711      0.00000
    314       2.2791      0.00000
    315       2.2907      0.00000
    316       2.5683      0.00000
    317       2.5703      0.00000
    318       2.5869      0.00000
    319       2.6704      0.00000
    320       2.6809      0.00000

 k-point     5 :       0.4000    0.2000    0.0000
  band No.  band energies     occupation 
      1     -19.6123      1.00000
      2     -19.5594      1.00000
      3     -19.5263      1.00000
      4     -19.4171      1.00000
      5     -19.3605      1.00000
      6     -19.3482      1.00000
      7     -19.2877      1.00000
      8     -19.2836      1.00000
      9     -19.2583      1.00000
     10     -19.0662      1.00000
     11     -19.0527      1.00000
     12     -19.0438      1.00000
     13     -18.9750      1.00000
     14     -18.9611      1.00000
     15     -18.9024      1.00000
     16     -18.8874      1.00000
     17     -18.8107      1.00000
     18     -18.8067      1.00000
     19     -18.7643      1.00000
     20     -18.7559      1.00000
     21     -18.7420      1.00000
     22     -18.7395      1.00000
     23     -18.7225      1.00000
     24     -18.7200      1.00000
     25     -18.7164      1.00000
     26     -18.7124      1.00000
     27     -18.7076      1.00000
     28     -18.6966      1.00000
     29     -18.6964      1.00000
     30     -18.6837      1.00000
     31     -18.6766      1.00000
     32     -18.6699      1.00000
     33     -18.6600      1.00000
     34     -18.6538      1.00000
     35     -18.6514      1.00000
     36     -18.6464      1.00000
     37     -18.6247      1.00000
     38     -18.6203      1.00000
     39     -18.6130      1.00000
     40     -18.5940      1.00000
     41     -18.5904      1.00000
     42     -18.5868      1.00000
     43     -18.5761      1.00000
     44     -18.5714      1.00000
     45     -18.5681      1.00000
     46     -18.5667      1.00000
     47     -18.5654      1.00000
     48     -18.5619      1.00000
     49     -18.5492      1.00000
     50     -18.5489      1.00000
     51     -18.5393      1.00000
     52     -18.5382      1.00000
     53     -18.5361      1.00000
     54     -18.5337      1.00000
     55      -9.3403      1.00000
     56      -9.3400      1.00000
     57      -9.3198      1.00000
     58      -9.3153      1.00000
     59      -9.2632      1.00000
     60      -9.2496      1.00000
     61      -9.2269      1.00000
     62      -9.1879      1.00000
     63      -9.1795      1.00000
     64      -9.0091      1.00000
     65      -8.8826      1.00000
     66      -8.8805      1.00000
     67      -8.8685      1.00000
     68      -8.8582      1.00000
     69      -8.8533      1.00000
     70      -8.7820      1.00000
     71      -8.7715      1.00000
     72      -8.7458      1.00000
     73      -8.6758      1.00000
     74      -8.5566      1.00000
     75      -8.5564      1.00000
     76      -8.5414      1.00000
     77      -8.5379      1.00000
     78      -8.5312      1.00000
     79      -8.5158      1.00000
     80      -8.5145      1.00000
     81      -8.4941      1.00000
     82      -8.4830      1.00000
     83      -8.4814      1.00000
     84      -8.4687      1.00000
     85      -8.4600      1.00000
     86      -8.4589      1.00000
     87      -8.4500      1.00000
     88      -8.4382      1.00000
     89      -8.4381      1.00000
     90      -8.4318      1.00000
     91      -8.4190      1.00000
     92      -8.4136      1.00000
     93      -8.4031      1.00000
     94      -8.3945      1.00000
     95      -8.3660      1.00000
     96      -8.3641      1.00000
     97      -8.3168      1.00000
     98      -8.3140      1.00000
     99      -8.2846      1.00000
    100      -8.2800      1.00000
    101      -8.2730      1.00000
    102      -8.2097      1.00000
    103      -8.1931      1.00000
    104      -8.1894      1.00000
    105      -8.1795      1.00000
    106      -8.1720      1.00000
    107      -8.1671      1.00000
    108      -8.1558      1.00000
    109      -8.1424      1.00000
    110      -8.1336      1.00000
    111      -8.1305      1.00000
    112      -8.1046      1.00000
    113      -8.1022      1.00000
    114      -8.0928      1.00000
    115      -8.0456      1.00000
    116      -8.0451      1.00000
    117      -8.0180      1.00000
    118      -8.0157      1.00000
    119      -8.0085      1.00000
    120      -7.9916      1.00000
    121      -7.9886      1.00000
    122      -7.9774      1.00000
    123      -7.9762      1.00000
    124      -7.8865      1.00000
    125      -7.8853      1.00000
    126      -7.8532      1.00000
    127      -7.8474      1.00000
    128      -7.8016      1.00000
    129      -7.7465      1.00000
    130      -7.6785      1.00000
    131      -7.6677      1.00000
    132      -7.6663      1.00000
    133      -7.5234      1.00000
    134      -7.5049      1.00000
    135      -7.4904      1.00000
    136      -7.3426      1.00000
    137      -7.3315      1.00000
    138      -7.3039      1.00000
    139      -7.3019      1.00000
    140      -7.2789      1.00000
    141      -7.2441      1.00000
    142      -7.2401      1.00000
    143      -7.2325      1.00000
    144      -7.1967      1.00000
    145      -7.1798      1.00000
    146      -7.1611      1.00000
    147      -7.1591      1.00000
    148      -7.1415      1.00000
    149      -7.1349      1.00000
    150      -7.0871      1.00000
    151      -7.0569      1.00000
    152      -7.0316      1.00000
    153      -7.0124      1.00000
    154      -6.9960      1.00000
    155      -6.9938      1.00000
    156      -6.9430      1.00000
    157      -6.9138      1.00000
    158      -6.8569      1.00000
    159      -6.8519      1.00000
    160      -6.7804      1.00000
    161      -6.7486      1.00000
    162      -6.7340      1.00000
    163      -6.7082      1.00000
    164      -6.6825      1.00000
    165      -6.6754      1.00000
    166      -6.6366      1.00000
    167      -6.6038      1.00000
    168      -6.5815      1.00000
    169      -6.5657      1.00000
    170      -6.5214      1.00000
    171      -6.4932      1.00000
    172      -6.4810      1.00000
    173      -6.4646      1.00000
    174      -6.4433      1.00000
    175      -6.4090      1.00000
    176      -6.4029      1.00000
    177      -6.3322      1.00000
    178      -6.3127      1.00000
    179      -6.2993      1.00000
    180      -6.2835      1.00000
    181      -6.2685      1.00000
    182      -6.2667      1.00000
    183      -6.2471      1.00000
    184      -6.2410      1.00000
    185      -6.2270      1.00000
    186      -6.2192      1.00000
    187      -6.2015      1.00000
    188      -6.1915      1.00000
    189      -6.1735      1.00000
    190      -6.1687      1.00000
    191      -6.1577      1.00000
    192      -6.1494      1.00000
    193      -6.1492      1.00000
    194      -6.1385      1.00000
    195      -6.1316      1.00000
    196      -6.1187      1.00000
    197      -6.0414      1.00000
    198      -6.0283      1.00000
    199      -6.0081      1.00000
    200      -6.0054      1.00000
    201      -5.9972      1.00000
    202      -5.9654      1.00000
    203      -5.9082      1.00000
    204      -5.9014      1.00000
    205      -5.8834      1.00000
    206      -5.8649      1.00000
    207      -5.8610      1.00000
    208      -5.8594      1.00000
    209      -5.8552      1.00000
    210      -5.8501      1.00000
    211      -5.8418      1.00000
    212      -5.8222      1.00000
    213      -5.8151      1.00000
    214      -5.7925      1.00000
    215      -5.7916      1.00000
    216      -5.7722      1.00000
    217      -5.1690      1.00000
    218      -5.1296      1.00000
    219      -5.1150      1.00000
    220      -5.0998      1.00000
    221      -5.0957      1.00000
    222      -5.0708      1.00000
    223      -5.0688      1.00000
    224      -5.0572      1.00000
    225      -5.0407      1.00000
    226      -4.8795      1.00000
    227      -4.8648      1.00000
    228      -4.8599      1.00000
    229      -4.8578      1.00000
    230      -4.8545      1.00000
    231      -4.8535      1.00000
    232      -4.8492      1.00000
    233      -4.8428      1.00000
    234      -4.8356      1.00000
    235      -4.8343      1.00000
    236      -4.8310      1.00000
    237      -4.8279      1.00000
    238      -4.8229      1.00000
    239      -4.8166      1.00000
    240      -4.8084      1.00000
    241      -4.8042      1.00000
    242      -4.7895      1.00000
    243      -4.7835      1.00000
    244      -4.6901      1.00000
    245      -4.6660      1.00000
    246      -4.6511      1.00000
    247      -4.6310      1.00000
    248      -4.6067      1.00000
    249      -4.5997      1.00000
    250      -4.5971      1.00000
    251      -4.5916      1.00000
    252      -4.5869      1.00000
    253      -4.5599      1.00000
    254      -4.5589      1.00000
    255      -4.5531      1.00000
    256      -4.5485      1.00000
    257      -4.5412      1.00000
    258      -4.5291      1.00000
    259      -4.5191      1.00000
    260      -4.5169      1.00000
    261      -4.5083      1.00000
    262      -4.5080      1.00000
    263      -4.5023      1.00000
    264      -4.4832      1.00000
    265      -4.4528      1.00000
    266      -4.4468      1.00000
    267      -4.4465      1.00000
    268      -4.3984      1.00000
    269      -4.3976      1.00000
    270      -4.3708      1.00000
    271      -2.6354      0.00000
    272      -2.5979      0.00000
    273      -2.5960      0.00000
    274      -2.5818      0.00000
    275      -2.5811      0.00000
    276      -2.5687      0.00000
    277      -2.5624      0.00000
    278      -2.5621      0.00000
    279      -2.5612      0.00000
    280      -2.5544      0.00000
    281      -2.5485      0.00000
    282      -2.5470      0.00000
    283      -2.5455      0.00000
    284      -2.5425      0.00000
    285      -2.5336      0.00000
    286      -2.5262      0.00000
    287      -2.5228      0.00000
    288      -2.5188      0.00000
    289      -2.5074      0.00000
    290      -2.5045      0.00000
    291      -2.5039      0.00000
    292      -2.5014      0.00000
    293      -2.4954      0.00000
    294      -2.4843      0.00000
    295      -2.4843      0.00000
    296      -2.4363      0.00000
    297      -2.4263      0.00000
    298      -2.4114      0.00000
    299      -2.3739      0.00000
    300      -2.3738      0.00000
    301      -2.3575      0.00000
    302      -2.3518      0.00000
    303      -2.3482      0.00000
    304      -2.3394      0.00000
    305      -2.3330      0.00000
    306      -2.3324      0.00000
    307      -0.4578      0.00000
    308       1.6421      0.00000
    309       1.6751      0.00000
    310       1.8265      0.00000
    311       2.1351      0.00000
    312       2.1423      0.00000
    313       2.2462      0.00000
    314       2.2539      0.00000
    315       2.4904      0.00000
    316       2.4993      0.00000
    317       2.5505      0.00000
    318       2.6947      0.00000
    319       2.7023      0.00000
    320       2.7380      0.00000
 Fermi energy:        -2.8612748430

 spin component 2

 k-point     1 :       0.0000    0.0000    0.0000
  band No.  band energies     occupation 
      1     -19.6358      1.00000
      2     -19.4643      1.00000
      3     -19.4409      1.00000
      4     -19.4409      1.00000
      5     -19.3892      1.00000
      6     -19.3892      1.00000
      7     -19.3888      1.00000
      8     -19.1760      1.00000
      9     -19.1760      1.00000
     10     -19.1193      1.00000
     11     -19.1193      1.00000
     12     -18.9857      1.00000
     13     -18.9511      1.00000
     14     -18.9511      1.00000
     15     -18.8776      1.00000
     16     -18.8776      1.00000
     17     -18.8770      1.00000
     18     -18.8544      1.00000
     19     -18.7942      1.00000
     20     -18.7777      1.00000
     21     -18.7777      1.00000
     22     -18.7696      1.00000
     23     -18.7536      1.00000
     24     -18.7244      1.00000
     25     -18.7244      1.00000
     26     -18.7244      1.00000
     27     -18.7199      1.00000
     28     -18.7199      1.00000
     29     -18.6933      1.00000
     30     -18.6916      1.00000
     31     -18.6916      1.00000
     32     -18.6879      1.00000
     33     -18.6642      1.00000
     34     -18.6642      1.00000
     35     -18.6372      1.00000
     36     -18.6372      1.00000
     37     -18.6286      1.00000
     38     -18.6286      1.00000
     39     -18.6212      1.00000
     40     -18.5978      1.00000
     41     -18.5978      1.00000
     42     -18.5952      1.00000
     43     -18.5806      1.00000
     44     -18.5790      1.00000
     45     -18.5790      1.00000
     46     -18.5780      1.00000
     47     -18.5725      1.00000
     48     -18.5680      1.00000
     49     -18.5680      1.00000
     50     -18.5651      1.00000
     51     -18.5651      1.00000
     52     -18.5625      1.00000
     53     -18.5380      1.00000
     54     -18.5380      1.00000
     55      -9.2856      1.00000
     56      -9.1022      1.00000
     57      -9.0957      1.00000
     58      -9.0957      1.00000
     59      -9.0600      1.00000
     60      -9.0544      1.00000
     61      -9.0544      1.00000
     62      -8.9079      1.00000
     63      -8.7009      1.00000
     64      -8.7009      1.00000
     65      -8.6901      1.00000
     66      -8.6901      1.00000
     67      -8.6098      1.00000
     68      -8.5725      1.00000
     69      -8.5725      1.00000
     70      -8.5414      1.00000
     71      -8.5402      1.00000
     72      -8.5402      1.00000
     73      -8.4763      1.00000
     74      -8.3782      1.00000
     75      -8.3782      1.00000
     76      -8.3320      1.00000
     77      -8.3307      1.00000
     78      -8.3307      1.00000
     79      -8.3120      1.00000
     80      -8.2761      1.00000
     81      -8.2638      1.00000
     82      -8.2638      1.00000
     83      -8.2402      1.00000
     84      -8.2335      1.00000
     85      -8.2335      1.00000
     86      -8.2246      1.00000
     87      -8.2246      1.00000
     88      -8.2191      1.00000
     89      -8.2137      1.00000
     90      -8.2137      1.00000
     91      -8.2086      1.00000
     92      -8.2086      1.00000
     93      -8.1284      1.00000
     94      -8.0973      1.00000
     95      -8.0973      1.00000
     96      -8.0571      1.00000
     97      -8.0571      1.00000
     98      -8.0505      1.00000
     99      -8.0505      1.00000
    100      -8.0427      1.00000
    101      -7.9390      1.00000
    102      -7.8839      1.00000
    103      -7.8691      1.00000
    104      -7.8691      1.00000
    105      -7.8553      1.00000
    106      -7.8553      1.00000
    107      -7.8538      1.00000
    108      -7.8345      1.00000
    109      -7.8345      1.00000
    110      -7.8256      1.00000
    111      -7.8182      1.00000
    112      -7.8148      1.00000
    113      -7.8148      1.00000
    114      -7.8066      1.00000
    115      -7.8066      1.00000
    116      -7.8052      1.00000
    117      -7.8052      1.00000
    118      -7.7085      1.00000
    119      -7.5975      1.00000
    120      -7.5885      1.00000
    121      -7.5486      1.00000
    122      -7.5267      1.00000
    123      -7.5267      1.00000
    124      -7.5258      1.00000
    125      -7.5155      1.00000
    126      -7.5073      1.00000
    127      -7.5073      1.00000
    128      -7.5036      1.00000
    129      -7.5036      1.00000
    130      -7.4198      1.00000
    131      -7.4181      1.00000
    132      -7.4181      1.00000
    133      -7.4022      1.00000
    134      -7.4022      1.00000
    135      -7.3998      1.00000
    136      -7.2181      1.00000
    137      -7.0457      1.00000
    138      -7.0069      1.00000
    139      -7.0069      1.00000
    140      -6.9932      1.00000
    141      -6.9932      1.00000
    142      -6.9893      1.00000
    143      -6.9848      1.00000
    144      -6.9619      1.00000
    145      -6.8647      1.00000
    146      -6.8647      1.00000
    147      -6.8120      1.00000
    148      -6.6822      1.00000
    149      -6.6573      1.00000
    150      -6.6572      1.00000
    151      -6.6572      1.00000
    152      -6.6498      1.00000
    153      -6.6498      1.00000
    154      -6.6127      1.00000
    155      -6.6090      1.00000
    156      -6.6090      1.00000
    157      -6.6050      1.00000
    158      -6.5803      1.00000
    159      -6.5803      1.00000
    160      -6.5716      1.00000
    161      -6.5148      1.00000
    162      -6.4937      1.00000
    163      -6.4937      1.00000
    164      -6.4532      1.00000
    165      -6.4532      1.00000
    166      -6.4287      1.00000
    167      -6.4287      1.00000
    168      -6.3930      1.00000
    169      -6.3929      1.00000
    170      -6.3929      1.00000
    171      -6.3847      1.00000
    172      -6.3779      1.00000
    173      -6.3779      1.00000
    174      -6.3656      1.00000
    175      -6.3625      1.00000
    176      -6.3625      1.00000
    177      -6.3577      1.00000
    178      -6.2369      1.00000
    179      -6.2369      1.00000
    180      -6.2207      1.00000
    181      -6.2154      1.00000
    182      -6.2154      1.00000
    183      -6.2116      1.00000
    184      -6.1514      1.00000
    185      -6.1514      1.00000
    186      -6.1235      1.00000
    187      -6.1218      1.00000
    188      -6.1218      1.00000
    189      -6.0182      1.00000
    190      -5.9742      1.00000
    191      -5.9742      1.00000
    192      -5.9619      1.00000
    193      -5.9098      1.00000
    194      -5.9078      1.00000
    195      -5.9078      1.00000
    196      -5.9069      1.00000
    197      -5.8204      1.00000
    198      -5.8204      1.00000
    199      -5.8136      1.00000
    200      -5.7914      1.00000
    201      -5.7914      1.00000
    202      -5.7767      1.00000
    203      -5.7767      1.00000
    204      -5.7299      1.00000
    205      -5.7299      1.00000
    206      -5.7244      1.00000
    207      -5.7244      1.00000
    208      -5.7217      1.00000
    209      -5.6699      1.00000
    210      -5.6699      1.00000
    211      -5.6490      1.00000
    212      -5.6490      1.00000
    213      -5.6431      1.00000
    214      -5.6424      1.00000
    215      -5.5905      1.00000
    216      -5.5905      1.00000
    217      -3.0892      1.00000
    218      -2.2107      0.00000
    219      -2.2107      0.00000
    220      -2.2103      0.00000
    221      -2.2073      0.00000
    222      -2.2073      0.00000
    223      -2.1924      0.00000
    224      -2.1924      0.00000
    225      -2.1899      0.00000
    226      -2.1899      0.00000
    227      -2.1793      0.00000
    228      -2.1440      0.00000
    229      -2.1440      0.00000
    230      -2.1430      0.00000
    231      -2.1430      0.00000
    232      -2.1381      0.00000
    233      -2.0911      0.00000
    234      -2.0527      0.00000
    235      -2.0527      0.00000
    236      -2.0036      0.00000
    237      -1.9576      0.00000
    238      -1.9576      0.00000
    239      -1.9554      0.00000
    240      -1.9510      0.00000
    241      -1.9406      0.00000
    242      -1.9394      0.00000
    243      -1.9394      0.00000
    244      -1.9388      0.00000
    245      -1.9383      0.00000
    246      -1.9285      0.00000
    247      -1.8484      0.00000
    248      -1.8484      0.00000
    249      -1.8387      0.00000
    250      -1.8207      0.00000
    251      -1.8180      0.00000
    252      -1.8180      0.00000
    253      -1.8168      0.00000
    254      -1.7510      0.00000
    255      -1.7510      0.00000
    256      -1.7024      0.00000
    257      -1.7024      0.00000
    258      -1.6981      0.00000
    259      -1.6974      0.00000
    260      -1.6974      0.00000
    261      -1.6946      0.00000
    262      -1.6946      0.00000
    263      -1.6932      0.00000
    264      -1.6931      0.00000
    265      -1.6894      0.00000
    266      -1.6894      0.00000
    267      -1.6728      0.00000
    268      -1.6728      0.00000
    269      -1.6680      0.00000
    270      -1.6680      0.00000
    271      -1.5505      0.00000
    272      -1.2546      0.00000
    273      -1.2546      0.00000
    274      -1.2467      0.00000
    275      -1.2450      0.00000
    276      -1.2450      0.00000
    277      -1.2197      0.00000
    278      -1.2197      0.00000
    279      -1.2156      0.00000
    280      -1.2080      0.00000
    281      -1.2013      0.00000
    282      -1.1972      0.00000
    283      -1.1951      0.00000
    284      -1.1951      0.00000
    285      -1.1940      0.00000
    286      -1.1940      0.00000
    287      -1.1668      0.00000
    288      -1.1654      0.00000
    289      -1.1654      0.00000
    290      -1.1588      0.00000
    291      -1.1544      0.00000
    292      -1.1544      0.00000
    293      -1.1527      0.00000
    294      -1.1527      0.00000
    295      -1.1492      0.00000
    296      -1.1492      0.00000
    297      -1.1220      0.00000
    298      -1.1021      0.00000
    299      -1.1021      0.00000
    300      -1.0954      0.00000
    301      -1.0933      0.00000
    302      -1.0933      0.00000
    303      -1.0802      0.00000
    304      -1.0659      0.00000
    305      -1.0567      0.00000
    306      -1.0522      0.00000
    307      -1.0522      0.00000
    308       1.5136      0.00000
    309       2.0009      0.00000
    310       2.2789      0.00000
    311       2.2789      0.00000
    312       2.2857      0.00000
    313       2.2919      0.00000
    314       2.2919      0.00000
    315       2.2939      0.00000
    316       2.5229      0.00000
    317       2.5506      0.00000
    318       2.5569      0.00000
    319       2.5659      0.00000
    320       2.5661      0.00000

 k-point     2 :       0.2000    0.0000    0.0000
  band No.  band energies     occupation 
      1     -19.6289      1.00000
      2     -19.5000      1.00000
      3     -19.4524      1.00000
      4     -19.4383      1.00000
      5     -19.3967      1.00000
      6     -19.3673      1.00000
      7     -19.3322      1.00000
      8     -19.2126      1.00000
      9     -19.2085      1.00000
     10     -19.0948      1.00000
     11     -19.0870      1.00000
     12     -19.0015      1.00000
     13     -18.9696      1.00000
     14     -18.9617      1.00000
     15     -18.8985      1.00000
     16     -18.8864      1.00000
     17     -18.8441      1.00000
     18     -18.8353      1.00000
     19     -18.7914      1.00000
     20     -18.7769      1.00000
     21     -18.7697      1.00000
     22     -18.7616      1.00000
     23     -18.7472      1.00000
     24     -18.7429      1.00000
     25     -18.7308      1.00000
     26     -18.7234      1.00000
     27     -18.7132      1.00000
     28     -18.7083      1.00000
     29     -18.6945      1.00000
     30     -18.6935      1.00000
     31     -18.6877      1.00000
     32     -18.6863      1.00000
     33     -18.6704      1.00000
     34     -18.6668      1.00000
     35     -18.6493      1.00000
     36     -18.6472      1.00000
     37     -18.6291      1.00000
     38     -18.6229      1.00000
     39     -18.6156      1.00000
     40     -18.6054      1.00000
     41     -18.6016      1.00000
     42     -18.5915      1.00000
     43     -18.5887      1.00000
     44     -18.5837      1.00000
     45     -18.5761      1.00000
     46     -18.5743      1.00000
     47     -18.5707      1.00000
     48     -18.5685      1.00000
     49     -18.5669      1.00000
     50     -18.5629      1.00000
     51     -18.5595      1.00000
     52     -18.5581      1.00000
     53     -18.5394      1.00000
     54     -18.5389      1.00000
     55      -9.2791      1.00000
     56      -9.1029      1.00000
     57      -9.0942      1.00000
     58      -9.0847      1.00000
     59      -9.0579      1.00000
     60      -9.0485      1.00000
     61      -9.0396      1.00000
     62      -8.9174      1.00000
     63      -8.7986      1.00000
     64      -8.7898      1.00000
     65      -8.6267      1.00000
     66      -8.6235      1.00000
     67      -8.6020      1.00000
     68      -8.5757      1.00000
     69      -8.5738      1.00000
     70      -8.5584      1.00000
     71      -8.5393      1.00000
     72      -8.5174      1.00000
     73      -8.4755      1.00000
     74      -8.3832      1.00000
     75      -8.3774      1.00000
     76      -8.3329      1.00000
     77      -8.3280      1.00000
     78      -8.3167      1.00000
     79      -8.3049      1.00000
     80      -8.2920      1.00000
     81      -8.2738      1.00000
     82      -8.2654      1.00000
     83      -8.2567      1.00000
     84      -8.2471      1.00000
     85      -8.2426      1.00000
     86      -8.2302      1.00000
     87      -8.2203      1.00000
     88      -8.2157      1.00000
     89      -8.2031      1.00000
     90      -8.1879      1.00000
     91      -8.1628      1.00000
     92      -8.1587      1.00000
     93      -8.1453      1.00000
     94      -8.1294      1.00000
     95      -8.1113      1.00000
     96      -8.0934      1.00000
     97      -8.0883      1.00000
     98      -8.0332      1.00000
     99      -8.0182      1.00000
    100      -7.9781      1.00000
    101      -7.9409      1.00000
    102      -7.9170      1.00000
    103      -7.9098      1.00000
    104      -7.8990      1.00000
    105      -7.8866      1.00000
    106      -7.8796      1.00000
    107      -7.8499      1.00000
    108      -7.8482      1.00000
    109      -7.8450      1.00000
    110      -7.8250      1.00000
    111      -7.8158      1.00000
    112      -7.8149      1.00000
    113      -7.7979      1.00000
    114      -7.7965      1.00000
    115      -7.7930      1.00000
    116      -7.7904      1.00000
    117      -7.7649      1.00000
    118      -7.6577      1.00000
    119      -7.6089      1.00000
    120      -7.5706      1.00000
    121      -7.5580      1.00000
    122      -7.5501      1.00000
    123      -7.5428      1.00000
    124      -7.5315      1.00000
    125      -7.5291      1.00000
    126      -7.5270      1.00000
    127      -7.5215      1.00000
    128      -7.5200      1.00000
    129      -7.5158      1.00000
    130      -7.4602      1.00000
    131      -7.4134      1.00000
    132      -7.4010      1.00000
    133      -7.2969      1.00000
    134      -7.2921      1.00000
    135      -7.2794      1.00000
    136      -7.2068      1.00000
    137      -7.0873      1.00000
    138      -7.0561      1.00000
    139      -7.0428      1.00000
    140      -6.9997      1.00000
    141      -6.9876      1.00000
    142      -6.9705      1.00000
    143      -6.9572      1.00000
    144      -6.9538      1.00000
    145      -6.8818      1.00000
    146      -6.8516      1.00000
    147      -6.8473      1.00000
    148      -6.7799      1.00000
    149      -6.7450      1.00000
    150      -6.7419      1.00000
    151      -6.7253      1.00000
    152      -6.6844      1.00000
    153      -6.6679      1.00000
    154      -6.6547      1.00000
    155      -6.6332      1.00000
    156      -6.6116      1.00000
    157      -6.6086      1.00000
    158      -6.5982      1.00000
    159      -6.5871      1.00000
    160      -6.5608      1.00000
    161      -6.5178      1.00000
    162      -6.5099      1.00000
    163      -6.4984      1.00000
    164      -6.4820      1.00000
    165      -6.4672      1.00000
    166      -6.4485      1.00000
    167      -6.4123      1.00000
    168      -6.4049      1.00000
    169      -6.3800      1.00000
    170      -6.3630      1.00000
    171      -6.3603      1.00000
    172      -6.3437      1.00000
    173      -6.3307      1.00000
    174      -6.3118      1.00000
    175      -6.3034      1.00000
    176      -6.2981      1.00000
    177      -6.2889      1.00000
    178      -6.2262      1.00000
    179      -6.2136      1.00000
    180      -6.2027      1.00000
    181      -6.1922      1.00000
    182      -6.1875      1.00000
    183      -6.1781      1.00000
    184      -6.1776      1.00000
    185      -6.1658      1.00000
    186      -6.1230      1.00000
    187      -6.0923      1.00000
    188      -6.0839      1.00000
    189      -6.0171      1.00000
    190      -5.9742      1.00000
    191      -5.9715      1.00000
    192      -5.9626      1.00000
    193      -5.9213      1.00000
    194      -5.9057      1.00000
    195      -5.8995      1.00000
    196      -5.8866      1.00000
    197      -5.8378      1.00000
    198      -5.8248      1.00000
    199      -5.8025      1.00000
    200      -5.7862      1.00000
    201      -5.7823      1.00000
    202      -5.7691      1.00000
    203      -5.7661      1.00000
    204      -5.7399      1.00000
    205      -5.7375      1.00000
    206      -5.7344      1.00000
    207      -5.7315      1.00000
    208      -5.7295      1.00000
    209      -5.6952      1.00000
    210      -5.6888      1.00000
    211      -5.6743      1.00000
    212      -5.6614      1.00000
    213      -5.6468      1.00000
    214      -5.6398      1.00000
    215      -5.6161      1.00000
    216      -5.5998      1.00000
    217      -3.0896      1.00000
    218      -2.2192      0.00000
    219      -2.2173      0.00000
    220      -2.2163      0.00000
    221      -2.2044      0.00000
    222      -2.2015      0.00000
    223      -2.1989      0.00000
    224      -2.1936      0.00000
    225      -2.1881      0.00000
    226      -2.1772      0.00000
    227      -2.1754      0.00000
    228      -2.1748      0.00000
    229      -2.1698      0.00000
    230      -2.1462      0.00000
    231      -2.1196      0.00000
    232      -2.1035      0.00000
    233      -2.0812      0.00000
    234      -2.0706      0.00000
    235      -2.0448      0.00000
    236      -1.9683      0.00000
    237      -1.9633      0.00000
    238      -1.9543      0.00000
    239      -1.9509      0.00000
    240      -1.9473      0.00000
    241      -1.9415      0.00000
    242      -1.9402      0.00000
    243      -1.9389      0.00000
    244      -1.9369      0.00000
    245      -1.9338      0.00000
    246      -1.9331      0.00000
    247      -1.8781      0.00000
    248      -1.8503      0.00000
    249      -1.8326      0.00000
    250      -1.8307      0.00000
    251      -1.8254      0.00000
    252      -1.8123      0.00000
    253      -1.8073      0.00000
    254      -1.7564      0.00000
    255      -1.7520      0.00000
    256      -1.7427      0.00000
    257      -1.7144      0.00000
    258      -1.7094      0.00000
    259      -1.7085      0.00000
    260      -1.7025      0.00000
    261      -1.6948      0.00000
    262      -1.6861      0.00000
    263      -1.6825      0.00000
    264      -1.6814      0.00000
    265      -1.6783      0.00000
    266      -1.6757      0.00000
    267      -1.6753      0.00000
    268      -1.6684      0.00000
    269      -1.6613      0.00000
    270      -1.6601      0.00000
    271      -1.5485      0.00000
    272      -1.2652      0.00000
    273      -1.2609      0.00000
    274      -1.2548      0.00000
    275      -1.2414      0.00000
    276      -1.2338      0.00000
    277      -1.2202      0.00000
    278      -1.2178      0.00000
    279      -1.2161      0.00000
    280      -1.2090      0.00000
    281      -1.1997      0.00000
    282      -1.1951      0.00000
    283      -1.1930      0.00000
    284      -1.1916      0.00000
    285      -1.1880      0.00000
    286      -1.1859      0.00000
    287      -1.1691      0.00000
    288      -1.1678      0.00000
    289      -1.1655      0.00000
    290      -1.1598      0.00000
    291      -1.1586      0.00000
    292      -1.1516      0.00000
    293      -1.1453      0.00000
    294      -1.1429      0.00000
    295      -1.1406      0.00000
    296      -1.1391      0.00000
    297      -1.1218      0.00000
    298      -1.1057      0.00000
    299      -1.1042      0.00000
    300      -1.0975      0.00000
    301      -1.0946      0.00000
    302      -1.0899      0.00000
    303      -1.0854      0.00000
    304      -1.0745      0.00000
    305      -1.0657      0.00000
    306      -1.0598      0.00000
    307      -1.0551      0.00000
    308       1.5501      0.00000
    309       2.0250      0.00000
    310       2.0356      0.00000
    311       2.1718      0.00000
    312       2.1786      0.00000
    313       2.3673      0.00000
    314       2.4377      0.00000
    315       2.4411      0.00000
    316       2.4720      0.00000
    317       2.4797      0.00000
    318       2.5707      0.00000
    319       2.5762      0.00000
    320       2.6717      0.00000

 k-point     3 :       0.4000    0.0000    0.0000
  band No.  band energies     occupation 
      1     -19.6129      1.00000
      2     -19.5385      1.00000
      3     -19.4647      1.00000
      4     -19.4552      1.00000
      5     -19.3543      1.00000
      6     -19.3269      1.00000
      7     -19.2879      1.00000
      8     -19.2578      1.00000
      9     -19.2567      1.00000
     10     -19.0705      1.00000
     11     -19.0561      1.00000
     12     -19.0301      1.00000
     13     -18.9860      1.00000
     14     -18.9817      1.00000
     15     -18.9067      1.00000
     16     -18.8907      1.00000
     17     -18.8251      1.00000
     18     -18.8220      1.00000
     19     -18.7857      1.00000
     20     -18.7717      1.00000
     21     -18.7611      1.00000
     22     -18.7446      1.00000
     23     -18.7420      1.00000
     24     -18.7404      1.00000
     25     -18.7298      1.00000
     26     -18.7281      1.00000
     27     -18.7136      1.00000
     28     -18.7081      1.00000
     29     -18.6991      1.00000
     30     -18.6925      1.00000
     31     -18.6863      1.00000
     32     -18.6807      1.00000
     33     -18.6728      1.00000
     34     -18.6690      1.00000
     35     -18.6665      1.00000
     36     -18.6615      1.00000
     37     -18.6317      1.00000
     38     -18.6265      1.00000
     39     -18.6151      1.00000
     40     -18.6090      1.00000
     41     -18.6017      1.00000
     42     -18.5959      1.00000
     43     -18.5916      1.00000
     44     -18.5808      1.00000
     45     -18.5783      1.00000
     46     -18.5747      1.00000
     47     -18.5695      1.00000
     48     -18.5663      1.00000
     49     -18.5638      1.00000
     50     -18.5618      1.00000
     51     -18.5510      1.00000
     52     -18.5506      1.00000
     53     -18.5433      1.00000
     54     -18.5416      1.00000
     55      -9.2677      1.00000
     56      -9.1030      1.00000
     57      -9.0961      1.00000
     58      -9.0661      1.00000
     59      -9.0484      1.00000
     60      -9.0354      1.00000
     61      -8.9914      1.00000
     62      -8.9391      1.00000
     63      -8.9052      1.00000
     64      -8.8570      1.00000
     65      -8.6108      1.00000
     66      -8.6062      1.00000
     67      -8.5872      1.00000
     68      -8.5701      1.00000
     69      -8.5666      1.00000
     70      -8.5619      1.00000
     71      -8.5413      1.00000
     72      -8.4969      1.00000
     73      -8.4775      1.00000
     74      -8.3887      1.00000
     75      -8.3746      1.00000
     76      -8.3305      1.00000
     77      -8.3271      1.00000
     78      -8.3137      1.00000
     79      -8.3059      1.00000
     80      -8.2916      1.00000
     81      -8.2853      1.00000
     82      -8.2659      1.00000
     83      -8.2580      1.00000
     84      -8.2450      1.00000
     85      -8.2389      1.00000
     86      -8.2306      1.00000
     87      -8.2255      1.00000
     88      -8.2235      1.00000
     89      -8.1962      1.00000
     90      -8.1720      1.00000
     91      -8.1631      1.00000
     92      -8.1387      1.00000
     93      -8.1288      1.00000
     94      -8.1153      1.00000
     95      -8.1046      1.00000
     96      -8.0758      1.00000
     97      -8.0726      1.00000
     98      -8.0184      1.00000
     99      -8.0130      1.00000
    100      -8.0077      1.00000
    101      -7.9939      1.00000
    102      -7.9480      1.00000
    103      -7.9410      1.00000
    104      -7.9166      1.00000
    105      -7.9042      1.00000
    106      -7.8988      1.00000
    107      -7.8807      1.00000
    108      -7.8633      1.00000
    109      -7.8196      1.00000
    110      -7.8076      1.00000
    111      -7.8048      1.00000
    112      -7.8009      1.00000
    113      -7.7903      1.00000
    114      -7.7836      1.00000
    115      -7.7792      1.00000
    116      -7.7718      1.00000
    117      -7.7312      1.00000
    118      -7.6385      1.00000
    119      -7.6191      1.00000
    120      -7.6085      1.00000
    121      -7.5950      1.00000
    122      -7.5787      1.00000
    123      -7.5717      1.00000
    124      -7.5513      1.00000
    125      -7.5456      1.00000
    126      -7.5344      1.00000
    127      -7.5188      1.00000
    128      -7.5024      1.00000
    129      -7.3902      1.00000
    130      -7.3731      1.00000
    131      -7.3691      1.00000
    132      -7.3579      1.00000
    133      -7.2740      1.00000
    134      -7.2151      1.00000
    135      -7.2073      1.00000
    136      -7.1996      1.00000
    137      -7.1318      1.00000
    138      -7.0723      1.00000
    139      -7.0540      1.00000
    140      -6.9892      1.00000
    141      -6.9872      1.00000
    142      -6.9452      1.00000
    143      -6.9389      1.00000
    144      -6.9276      1.00000
    145      -6.9119      1.00000
    146      -6.8957      1.00000
    147      -6.8844      1.00000
    148      -6.8731      1.00000
    149      -6.8690      1.00000
    150      -6.8452      1.00000
    151      -6.8004      1.00000
    152      -6.7601      1.00000
    153      -6.7303      1.00000
    154      -6.6550      1.00000
    155      -6.6490      1.00000
    156      -6.6427      1.00000
    157      -6.6255      1.00000
    158      -6.6009      1.00000
    159      -6.5766      1.00000
    160      -6.5646      1.00000
    161      -6.5446      1.00000
    162      -6.5416      1.00000
    163      -6.5361      1.00000
    164      -6.5282      1.00000
    165      -6.5064      1.00000
    166      -6.4313      1.00000
    167      -6.4047      1.00000
    168      -6.3787      1.00000
    169      -6.3541      1.00000
    170      -6.3493      1.00000
    171      -6.3411      1.00000
    172      -6.3272      1.00000
    173      -6.3001      1.00000
    174      -6.2926      1.00000
    175      -6.2824      1.00000
    176      -6.2574      1.00000
    177      -6.2426      1.00000
    178      -6.2158      1.00000
    179      -6.1875      1.00000
    180      -6.1568      1.00000
    181      -6.1554      1.00000
    182      -6.1359      1.00000
    183      -6.1299      1.00000
    184      -6.1030      1.00000
    185      -6.0926      1.00000
    186      -6.0635      1.00000
    187      -6.0435      1.00000
    188      -6.0199      1.00000
    189      -6.0016      1.00000
    190      -5.9756      1.00000
    191      -5.9636      1.00000
    192      -5.9488      1.00000
    193      -5.9271      1.00000
    194      -5.9189      1.00000
    195      -5.9109      1.00000
    196      -5.8711      1.00000
    197      -5.8573      1.00000
    198      -5.8447      1.00000
    199      -5.7973      1.00000
    200      -5.7847      1.00000
    201      -5.7737      1.00000
    202      -5.7721      1.00000
    203      -5.7571      1.00000
    204      -5.7556      1.00000
    205      -5.7529      1.00000
    206      -5.7458      1.00000
    207      -5.7437      1.00000
    208      -5.7385      1.00000
    209      -5.7378      1.00000
    210      -5.7315      1.00000
    211      -5.7247      1.00000
    212      -5.6856      1.00000
    213      -5.6822      1.00000
    214      -5.6618      1.00000
    215      -5.6333      1.00000
    216      -5.5857      1.00000
    217      -3.0902      1.00000
    218      -2.2283      0.00000
    219      -2.2211      0.00000
    220      -2.2189      0.00000
    221      -2.2149      0.00000
    222      -2.2067      0.00000
    223      -2.2050      0.00000
    224      -2.1974      0.00000
    225      -2.1944      0.00000
    226      -2.1920      0.00000
    227      -2.1619      0.00000
    228      -2.1549      0.00000
    229      -2.1539      0.00000
    230      -2.1377      0.00000
    231      -2.1186      0.00000
    232      -2.1149      0.00000
    233      -2.1113      0.00000
    234      -2.0236      0.00000
    235      -2.0171      0.00000
    236      -1.9868      0.00000
    237      -1.9704      0.00000
    238      -1.9589      0.00000
    239      -1.9506      0.00000
    240      -1.9490      0.00000
    241      -1.9390      0.00000
    242      -1.9373      0.00000
    243      -1.9302      0.00000
    244      -1.9174      0.00000
    245      -1.9043      0.00000
    246      -1.8986      0.00000
    247      -1.8835      0.00000
    248      -1.8697      0.00000
    249      -1.8634      0.00000
    250      -1.8615      0.00000
    251      -1.8225      0.00000
    252      -1.8137      0.00000
    253      -1.7963      0.00000
    254      -1.7889      0.00000
    255      -1.7711      0.00000
    256      -1.7431      0.00000
    257      -1.7241      0.00000
    258      -1.7173      0.00000
    259      -1.7132      0.00000
    260      -1.7081      0.00000
    261      -1.6972      0.00000
    262      -1.6853      0.00000
    263      -1.6820      0.00000
    264      -1.6800      0.00000
    265      -1.6736      0.00000
    266      -1.6657      0.00000
    267      -1.6616      0.00000
    268      -1.6585      0.00000
    269      -1.6550      0.00000
    270      -1.6528      0.00000
    271      -1.5454      0.00000
    272      -1.2731      0.00000
    273      -1.2570      0.00000
    274      -1.2555      0.00000
    275      -1.2449      0.00000
    276      -1.2399      0.00000
    277      -1.2384      0.00000
    278      -1.2167      0.00000
    279      -1.2147      0.00000
    280      -1.2012      0.00000
    281      -1.1949      0.00000
    282      -1.1927      0.00000
    283      -1.1859      0.00000
    284      -1.1838      0.00000
    285      -1.1790      0.00000
    286      -1.1753      0.00000
    287      -1.1740      0.00000
    288      -1.1651      0.00000
    289      -1.1613      0.00000
    290      -1.1601      0.00000
    291      -1.1577      0.00000
    292      -1.1386      0.00000
    293      -1.1347      0.00000
    294      -1.1289      0.00000
    295      -1.1238      0.00000
    296      -1.1214      0.00000
    297      -1.1197      0.00000
    298      -1.1144      0.00000
    299      -1.1103      0.00000
    300      -1.1036      0.00000
    301      -1.1022      0.00000
    302      -1.0984      0.00000
    303      -1.0955      0.00000
    304      -1.0886      0.00000
    305      -1.0772      0.00000
    306      -1.0702      0.00000
    307      -1.0632      0.00000
    308       1.6556      0.00000
    309       1.8217      0.00000
    310       2.0967      0.00000
    311       2.1116      0.00000
    312       2.1218      0.00000
    313       2.2151      0.00000
    314       2.4269      0.00000
    315       2.4367      0.00000
    316       2.6211      0.00000
    317       2.6265      0.00000
    318       2.6589      0.00000
    319       2.7986      0.00000
    320       2.8121      0.00000

 k-point     4 :       0.2000    0.2000    0.0000
  band No.  band energies     occupation 
      1     -19.6170      1.00000
      2     -19.5240      1.00000
      3     -19.4918      1.00000
      4     -19.4018      1.00000
      5     -19.3992      1.00000
      6     -19.3337      1.00000
      7     -19.2921      1.00000
      8     -19.2603      1.00000
      9     -19.2301      1.00000
     10     -19.0829      1.00000
     11     -19.0562      1.00000
     12     -19.0283      1.00000
     13     -18.9954      1.00000
     14     -18.9534      1.00000
     15     -18.9045      1.00000
     16     -18.9007      1.00000
     17     -18.8274      1.00000
     18     -18.8265      1.00000
     19     -18.7852      1.00000
     20     -18.7632      1.00000
     21     -18.7607      1.00000
     22     -18.7521      1.00000
     23     -18.7507      1.00000
     24     -18.7403      1.00000
     25     -18.7340      1.00000
     26     -18.7226      1.00000
     27     -18.7117      1.00000
     28     -18.7105      1.00000
     29     -18.6992      1.00000
     30     -18.6939      1.00000
     31     -18.6817      1.00000
     32     -18.6799      1.00000
     33     -18.6751      1.00000
     34     -18.6731      1.00000
     35     -18.6622      1.00000
     36     -18.6543      1.00000
     37     -18.6330      1.00000
     38     -18.6227      1.00000
     39     -18.6193      1.00000
     40     -18.6066      1.00000
     41     -18.6048      1.00000
     42     -18.5938      1.00000
     43     -18.5862      1.00000
     44     -18.5831      1.00000
     45     -18.5768      1.00000
     46     -18.5754      1.00000
     47     -18.5730      1.00000
     48     -18.5691      1.00000
     49     -18.5612      1.00000
     50     -18.5603      1.00000
     51     -18.5538      1.00000
     52     -18.5526      1.00000
     53     -18.5420      1.00000
     54     -18.5409      1.00000
     55      -9.2697      1.00000
     56      -9.1031      1.00000
     57      -9.0931      1.00000
     58      -9.0798      1.00000
     59      -9.0439      1.00000
     60      -9.0366      1.00000
     61      -9.0063      1.00000
     62      -8.9409      1.00000
     63      -8.8620      1.00000
     64      -8.8571      1.00000
     65      -8.6155      1.00000
     66      -8.6055      1.00000
     67      -8.5913      1.00000
     68      -8.5804      1.00000
     69      -8.5738      1.00000
     70      -8.5532      1.00000
     71      -8.5305      1.00000
     72      -8.5035      1.00000
     73      -8.4776      1.00000
     74      -8.3862      1.00000
     75      -8.3779      1.00000
     76      -8.3302      1.00000
     77      -8.3224      1.00000
     78      -8.3178      1.00000
     79      -8.3062      1.00000
     80      -8.2898      1.00000
     81      -8.2800      1.00000
     82      -8.2682      1.00000
     83      -8.2625      1.00000
     84      -8.2525      1.00000
     85      -8.2471      1.00000
     86      -8.2343      1.00000
     87      -8.2212      1.00000
     88      -8.1977      1.00000
     89      -8.1950      1.00000
     90      -8.1706      1.00000
     91      -8.1662      1.00000
     92      -8.1427      1.00000
     93      -8.1300      1.00000
     94      -8.1261      1.00000
     95      -8.1146      1.00000
     96      -8.0834      1.00000
     97      -8.0707      1.00000
     98      -8.0575      1.00000
     99      -7.9965      1.00000
    100      -7.9842      1.00000
    101      -7.9529      1.00000
    102      -7.9517      1.00000
    103      -7.9409      1.00000
    104      -7.9215      1.00000
    105      -7.9120      1.00000
    106      -7.8776      1.00000
    107      -7.8748      1.00000
    108      -7.8602      1.00000
    109      -7.8341      1.00000
    110      -7.8169      1.00000
    111      -7.8163      1.00000
    112      -7.8077      1.00000
    113      -7.7958      1.00000
    114      -7.7956      1.00000
    115      -7.7874      1.00000
    116      -7.7307      1.00000
    117      -7.7280      1.00000
    118      -7.6355      1.00000
    119      -7.6250      1.00000
    120      -7.6008      1.00000
    121      -7.6008      1.00000
    122      -7.5785      1.00000
    123      -7.5674      1.00000
    124      -7.5596      1.00000
    125      -7.5380      1.00000
    126      -7.5209      1.00000
    127      -7.4929      1.00000
    128      -7.4926      1.00000
    129      -7.4637      1.00000
    130      -7.4555      1.00000
    131      -7.4088      1.00000
    132      -7.2803      1.00000
    133      -7.2492      1.00000
    134      -7.2361      1.00000
    135      -7.2218      1.00000
    136      -7.1554      1.00000
    137      -7.1191      1.00000
    138      -7.1068      1.00000
    139      -7.0537      1.00000
    140      -7.0452      1.00000
    141      -6.9639      1.00000
    142      -6.9478      1.00000
    143      -6.9472      1.00000
    144      -6.9366      1.00000
    145      -6.9118      1.00000
    146      -6.8750      1.00000
    147      -6.8596      1.00000
    148      -6.8549      1.00000
    149      -6.8166      1.00000
    150      -6.8110      1.00000
    151      -6.7953      1.00000
    152      -6.7590      1.00000
    153      -6.6961      1.00000
    154      -6.6922      1.00000
    155      -6.6797      1.00000
    156      -6.6386      1.00000
    157      -6.6216      1.00000
    158      -6.6041      1.00000
    159      -6.6033      1.00000
    160      -6.5851      1.00000
    161      -6.5452      1.00000
    162      -6.5375      1.00000
    163      -6.5175      1.00000
    164      -6.4949      1.00000
    165      -6.4591      1.00000
    166      -6.4236      1.00000
    167      -6.4116      1.00000
    168      -6.3837      1.00000
    169      -6.3631      1.00000
    170      -6.3626      1.00000
    171      -6.3468      1.00000
    172      -6.3387      1.00000
    173      -6.2924      1.00000
    174      -6.2752      1.00000
    175      -6.2575      1.00000
    176      -6.2518      1.00000
    177      -6.2503      1.00000
    178      -6.2487      1.00000
    179      -6.1829      1.00000
    180      -6.1643      1.00000
    181      -6.1515      1.00000
    182      -6.1404      1.00000
    183      -6.1265      1.00000
    184      -6.1242      1.00000
    185      -6.1140      1.00000
    186      -6.0804      1.00000
    187      -6.0772      1.00000
    188      -6.0549      1.00000
    189      -6.0155      1.00000
    190      -5.9740      1.00000
    191      -5.9725      1.00000
    192      -5.9620      1.00000
    193      -5.9257      1.00000
    194      -5.9120      1.00000
    195      -5.8908      1.00000
    196      -5.8764      1.00000
    197      -5.8519      1.00000
    198      -5.8375      1.00000
    199      -5.7994      1.00000
    200      -5.7822      1.00000
    201      -5.7768      1.00000
    202      -5.7631      1.00000
    203      -5.7540      1.00000
    204      -5.7518      1.00000
    205      -5.7500      1.00000
    206      -5.7436      1.00000
    207      -5.7408      1.00000
    208      -5.7349      1.00000
    209      -5.7317      1.00000
    210      -5.7152      1.00000
    211      -5.7147      1.00000
    212      -5.6954      1.00000
    213      -5.6866      1.00000
    214      -5.6297      1.00000
    215      -5.6207      1.00000
    216      -5.6092      1.00000
    217      -3.0901      1.00000
    218      -2.2275      0.00000
    219      -2.2203      0.00000
    220      -2.2187      0.00000
    221      -2.2124      0.00000
    222      -2.2089      0.00000
    223      -2.2083      0.00000
    224      -2.1904      0.00000
    225      -2.1859      0.00000
    226      -2.1807      0.00000
    227      -2.1756      0.00000
    228      -2.1617      0.00000
    229      -2.1550      0.00000
    230      -2.1525      0.00000
    231      -2.1276      0.00000
    232      -2.1050      0.00000
    233      -2.0675      0.00000
    234      -2.0638      0.00000
    235      -2.0368      0.00000
    236      -1.9622      0.00000
    237      -1.9589      0.00000
    238      -1.9533      0.00000
    239      -1.9486      0.00000
    240      -1.9471      0.00000
    241      -1.9454      0.00000
    242      -1.9351      0.00000
    243      -1.9329      0.00000
    244      -1.9260      0.00000
    245      -1.9161      0.00000
    246      -1.9127      0.00000
    247      -1.8949      0.00000
    248      -1.8680      0.00000
    249      -1.8455      0.00000
    250      -1.8448      0.00000
    251      -1.8263      0.00000
    252      -1.8251      0.00000
    253      -1.7908      0.00000
    254      -1.7666      0.00000
    255      -1.7623      0.00000
    256      -1.7562      0.00000
    257      -1.7419      0.00000
    258      -1.7205      0.00000
    259      -1.7082      0.00000
    260      -1.6988      0.00000
    261      -1.6913      0.00000
    262      -1.6860      0.00000
    263      -1.6809      0.00000
    264      -1.6772      0.00000
    265      -1.6724      0.00000
    266      -1.6689      0.00000
    267      -1.6646      0.00000
    268      -1.6634      0.00000
    269      -1.6568      0.00000
    270      -1.6543      0.00000
    271      -1.5460      0.00000
    272      -1.2671      0.00000
    273      -1.2648      0.00000
    274      -1.2575      0.00000
    275      -1.2442      0.00000
    276      -1.2331      0.00000
    277      -1.2266      0.00000
    278      -1.2262      0.00000
    279      -1.2150      0.00000
    280      -1.2020      0.00000
    281      -1.1974      0.00000
    282      -1.1956      0.00000
    283      -1.1878      0.00000
    284      -1.1822      0.00000
    285      -1.1788      0.00000
    286      -1.1771      0.00000
    287      -1.1755      0.00000
    288      -1.1673      0.00000
    289      -1.1634      0.00000
    290      -1.1611      0.00000
    291      -1.1490      0.00000
    292      -1.1424      0.00000
    293      -1.1373      0.00000
    294      -1.1330      0.00000
    295      -1.1309      0.00000
    296      -1.1285      0.00000
    297      -1.1200      0.00000
    298      -1.1112      0.00000
    299      -1.1097      0.00000
    300      -1.1046      0.00000
    301      -1.1011      0.00000
    302      -1.0907      0.00000
    303      -1.0857      0.00000
    304      -1.0846      0.00000
    305      -1.0814      0.00000
    306      -1.0686      0.00000
    307      -1.0611      0.00000
    308       1.6210      0.00000
    309       1.9420      0.00000
    310       1.9471      0.00000
    311       2.0745      0.00000
    312       2.2944      0.00000
    313       2.3112      0.00000
    314       2.3538      0.00000
    315       2.3591      0.00000
    316       2.6095      0.00000
    317       2.6201      0.00000
    318       2.6323      0.00000
    319       2.7296      0.00000
    320       2.7441      0.00000

 k-point     5 :       0.4000    0.2000    0.0000
  band No.  band energies     occupation 
      1     -19.6063      1.00000
      2     -19.5393      1.00000
      3     -19.5083      1.00000
      4     -19.4057      1.00000
      5     -19.3556      1.00000
      6     -19.3384      1.00000
      7     -19.2758      1.00000
      8     -19.2740      1.00000
      9     -19.2450      1.00000
     10     -19.0753      1.00000
     11     -19.0588      1.00000
     12     -19.0468      1.00000
     13     -18.9777      1.00000
     14     -18.9644      1.00000
     15     -18.9083      1.00000
     16     -18.9081      1.00000
     17     -18.8237      1.00000
     18     -18.8232      1.00000
     19     -18.7767      1.00000
     20     -18.7686      1.00000
     21     -18.7541      1.00000
     22     -18.7499      1.00000
     23     -18.7346      1.00000
     24     -18.7323      1.00000
     25     -18.7281      1.00000
     26     -18.7231      1.00000
     27     -18.7192      1.00000
     28     -18.7092      1.00000
     29     -18.7080      1.00000
     30     -18.6961      1.00000
     31     -18.6894      1.00000
     32     -18.6825      1.00000
     33     -18.6728      1.00000
     34     -18.6664      1.00000
     35     -18.6639      1.00000
     36     -18.6593      1.00000
     37     -18.6361      1.00000
     38     -18.6313      1.00000
     39     -18.6239      1.00000
     40     -18.6051      1.00000
     41     -18.6013      1.00000
     42     -18.5962      1.00000
     43     -18.5863      1.00000
     44     -18.5804      1.00000
     45     -18.5764      1.00000
     46     -18.5756      1.00000
     47     -18.5749      1.00000
     48     -18.5705      1.00000
     49     -18.5589      1.00000
     50     -18.5586      1.00000
     51     -18.5488      1.00000
     52     -18.5479      1.00000
     53     -18.5455      1.00000
     54     -18.5437      1.00000
     55      -9.2632      1.00000
     56      -9.1009      1.00000
     57      -9.0960      1.00000
     58      -9.0822      1.00000
     59      -9.0287      1.00000
     60      -9.0101      1.00000
     61      -8.9787      1.00000
     62      -8.9486      1.00000
     63      -8.9383      1.00000
     64      -8.8812      1.00000
     65      -8.6117      1.00000
     66      -8.6073      1.00000
     67      -8.5891      1.00000
     68      -8.5822      1.00000
     69      -8.5821      1.00000
     70      -8.5342      1.00000
     71      -8.5231      1.00000
     72      -8.4949      1.00000
     73      -8.4830      1.00000
     74      -8.3868      1.00000
     75      -8.3784      1.00000
     76      -8.3307      1.00000
     77      -8.3241      1.00000
     78      -8.3193      1.00000
     79      -8.3042      1.00000
     80      -8.2879      1.00000
     81      -8.2861      1.00000
     82      -8.2647      1.00000
     83      -8.2596      1.00000
     84      -8.2522      1.00000
     85      -8.2463      1.00000
     86      -8.2315      1.00000
     87      -8.2212      1.00000
     88      -8.2124      1.00000
     89      -8.1923      1.00000
     90      -8.1755      1.00000
     91      -8.1677      1.00000
     92      -8.1441      1.00000
     93      -8.1388      1.00000
     94      -8.0858      1.00000
     95      -8.0578      1.00000
     96      -8.0575      1.00000
     97      -8.0519      1.00000
     98      -8.0437      1.00000
     99      -8.0341      1.00000
    100      -8.0308      1.00000
    101      -8.0181      1.00000
    102      -7.9630      1.00000
    103      -7.9473      1.00000
    104      -7.9312      1.00000
    105      -7.8911      1.00000
    106      -7.8901      1.00000
    107      -7.8891      1.00000
    108      -7.8624      1.00000
    109      -7.8254      1.00000
    110      -7.8102      1.00000
    111      -7.8071      1.00000
    112      -7.8018      1.00000
    113      -7.7947      1.00000
    114      -7.7871      1.00000
    115      -7.7491      1.00000
    116      -7.7355      1.00000
    117      -7.6949      1.00000
    118      -7.6699      1.00000
    119      -7.6252      1.00000
    120      -7.6251      1.00000
    121      -7.6133      1.00000
    122      -7.5890      1.00000
    123      -7.5824      1.00000
    124      -7.5576      1.00000
    125      -7.5217      1.00000
    126      -7.5157      1.00000
    127      -7.5050      1.00000
    128      -7.4756      1.00000
    129      -7.4742      1.00000
    130      -7.3845      1.00000
    131      -7.3480      1.00000
    132      -7.3236      1.00000
    133      -7.2361      1.00000
    134      -7.2223      1.00000
    135      -7.1973      1.00000
    136      -7.1268      1.00000
    137      -7.0901      1.00000
    138      -7.0588      1.00000
    139      -7.0450      1.00000
    140      -7.0381      1.00000
    141      -6.9639      1.00000
    142      -6.9572      1.00000
    143      -6.9502      1.00000
    144      -6.9431      1.00000
    145      -6.9321      1.00000
    146      -6.9164      1.00000
    147      -6.9071      1.00000
    148      -6.8915      1.00000
    149      -6.8831      1.00000
    150      -6.8246      1.00000
    151      -6.7793      1.00000
    152      -6.7686      1.00000
    153      -6.7642      1.00000
    154      -6.7434      1.00000
    155      -6.6961      1.00000
    156      -6.6772      1.00000
    157      -6.6120      1.00000
    158      -6.6025      1.00000
    159      -6.5907      1.00000
    160      -6.5808      1.00000
    161      -6.5693      1.00000
    162      -6.5537      1.00000
    163      -6.5343      1.00000
    164      -6.4884      1.00000
    165      -6.4563      1.00000
    166      -6.4440      1.00000
    167      -6.3997      1.00000
    168      -6.3856      1.00000
    169      -6.3787      1.00000
    170      -6.3637      1.00000
    171      -6.3530      1.00000
    172      -6.3156      1.00000
    173      -6.3041      1.00000
    174      -6.2633      1.00000
    175      -6.2517      1.00000
    176      -6.2516      1.00000
    177      -6.2055      1.00000
    178      -6.1984      1.00000
    179      -6.1561      1.00000
    180      -6.1534      1.00000
    181      -6.1279      1.00000
    182      -6.1266      1.00000
    183      -6.1022      1.00000
    184      -6.0995      1.00000
    185      -6.0863      1.00000
    186      -6.0254      1.00000
    187      -6.0246      1.00000
    188      -6.0023      1.00000
    189      -5.9808      1.00000
    190      -5.9576      1.00000
    191      -5.9508      1.00000
    192      -5.9462      1.00000
    193      -5.9418      1.00000
    194      -5.9301      1.00000
    195      -5.9235      1.00000
    196      -5.9001      1.00000
    197      -5.8743      1.00000
    198      -5.8458      1.00000
    199      -5.8452      1.00000
    200      -5.7899      1.00000
    201      -5.7835      1.00000
    202      -5.7667      1.00000
    203      -5.7598      1.00000
    204      -5.7583      1.00000
    205      -5.7572      1.00000
    206      -5.7550      1.00000
    207      -5.7509      1.00000
    208      -5.7459      1.00000
    209      -5.7442      1.00000
    210      -5.7422      1.00000
    211      -5.7133      1.00000
    212      -5.6781      1.00000
    213      -5.6605      1.00000
    214      -5.6585      1.00000
    215      -5.6513      1.00000
    216      -5.6011      1.00000
    217      -3.0905      1.00000
    218      -2.2320      0.00000
    219      -2.2259      0.00000
    220      -2.2227      0.00000
    221      -2.2153      0.00000
    222      -2.2124      0.00000
    223      -2.2025      0.00000
    224      -2.2000      0.00000
    225      -2.1876      0.00000
    226      -2.1758      0.00000
    227      -2.1677      0.00000
    228      -2.1638      0.00000
    229      -2.1410      0.00000
    230      -2.1399      0.00000
    231      -2.1304      0.00000
    232      -2.1273      0.00000
    233      -2.0773      0.00000
    234      -2.0421      0.00000
    235      -2.0325      0.00000
    236      -1.9670      0.00000
    237      -1.9570      0.00000
    238      -1.9552      0.00000
    239      -1.9526      0.00000
    240      -1.9523      0.00000
    241      -1.9347      0.00000
    242      -1.9277      0.00000
    243      -1.9273      0.00000
    244      -1.9117      0.00000
    245      -1.9069      0.00000
    246      -1.8962      0.00000
    247      -1.8850      0.00000
    248      -1.8690      0.00000
    249      -1.8589      0.00000
    250      -1.8530      0.00000
    251      -1.8514      0.00000
    252      -1.8368      0.00000
    253      -1.7866      0.00000
    254      -1.7816      0.00000
    255      -1.7737      0.00000
    256      -1.7556      0.00000
    257      -1.7366      0.00000
    258      -1.7305      0.00000
    259      -1.7124      0.00000
    260      -1.6999      0.00000
    261      -1.6951      0.00000
    262      -1.6813      0.00000
    263      -1.6812      0.00000
    264      -1.6693      0.00000
    265      -1.6688      0.00000
    266      -1.6639      0.00000
    267      -1.6621      0.00000
    268      -1.6570      0.00000
    269      -1.6566      0.00000
    270      -1.6544      0.00000
    271      -1.5445      0.00000
    272      -1.2684      0.00000
    273      -1.2559      0.00000
    274      -1.2554      0.00000
    275      -1.2518      0.00000
    276      -1.2497      0.00000
    277      -1.2302      0.00000
    278      -1.2174      0.00000
    279      -1.2173      0.00000
    280      -1.2000      0.00000
    281      -1.1949      0.00000
    282      -1.1933      0.00000
    283      -1.1874      0.00000
    284      -1.1850      0.00000
    285      -1.1790      0.00000
    286      -1.1781      0.00000
    287      -1.1670      0.00000
    288      -1.1648      0.00000
    289      -1.1582      0.00000
    290      -1.1491      0.00000
    291      -1.1442      0.00000
    292      -1.1398      0.00000
    293      -1.1302      0.00000
    294      -1.1286      0.00000
    295      -1.1239      0.00000
    296      -1.1178      0.00000
    297      -1.1148      0.00000
    298      -1.1141      0.00000
    299      -1.1113      0.00000
    300      -1.1094      0.00000
    301      -1.1081      0.00000
    302      -1.1055      0.00000
    303      -1.1044      0.00000
    304      -1.0860      0.00000
    305      -1.0761      0.00000
    306      -1.0726      0.00000
    307      -1.0703      0.00000
    308       1.7492      0.00000
    309       1.7633      0.00000
    310       1.9135      0.00000
    311       2.1601      0.00000
    312       2.1765      0.00000
    313       2.2821      0.00000
    314       2.3263      0.00000
    315       2.5632      0.00000
    316       2.5641      0.00000
    317       2.5958      0.00000
    318       2.7336      0.00000
    319       2.7517      0.00000
    320       2.7917      0.00000


--------------------------------------------------------------------------------------------------------


 soft charge-density along one line, spin component           1
         0         1         2         3         4         5         6         7         8         9
 total charge-density along one line

 soft charge-density along one line, spin component           2
         0         1         2         3         4         5         6         7         8         9
 total charge-density along one line

 pseudopotential strength for first ion, spin component:           1
 -9.696   0.191   0.005   0.006   0.005 -10.022   0.185   0.005
  0.191  -9.547   0.001  -0.010  -0.011   0.185  -9.877   0.001
  0.005   0.001  -9.850  -0.002   0.002   0.005   0.001 -10.170
  0.006  -0.010  -0.002  -9.560  -0.198   0.006  -0.009  -0.002
  0.005  -0.011   0.002  -0.198  -9.692   0.005  -0.011   0.002
-10.022   0.185   0.005   0.006   0.005 -10.310   0.178   0.005
  0.185  -9.877   0.001  -0.009  -0.011   0.178 -10.171   0.001
  0.005   0.001 -10.170  -0.002   0.002   0.005   0.001 -10.454
  0.006  -0.009  -0.002  -9.890  -0.191   0.005  -0.009  -0.002
  0.005  -0.011   0.002  -0.191 -10.018   0.005  -0.011   0.002
  0.003  -0.003   0.001   0.001   0.002   0.003  -0.003   0.001
  0.005  -0.007   0.002   0.002   0.003   0.005  -0.006   0.002
  0.000   0.002  -0.001   0.000  -0.004   0.000   0.002  -0.001
  0.000   0.002   0.001   0.000  -0.000   0.000   0.002   0.001
 -0.000   0.000  -0.000   0.001   0.000  -0.000   0.000  -0.000
  0.000   0.002  -0.001   0.000  -0.005   0.000   0.002  -0.001
  0.000   0.002   0.001   0.000  -0.000   0.000   0.002   0.001
 -0.001   0.000   0.000   0.001  -0.000  -0.001   0.000  -0.000
 pseudopotential strength for first ion, spin component:           2
 -8.044  -0.259   0.006   0.000  -0.005  -8.425  -0.250   0.006
 -0.259  -8.244   0.003  -0.000   0.005  -0.250  -8.618   0.002
  0.006   0.003  -7.862  -0.001   0.003   0.006   0.002  -8.249
  0.000  -0.000  -0.001  -8.240   0.254   0.000  -0.000  -0.001
 -0.005   0.005   0.003   0.254  -8.048  -0.005   0.004   0.003
 -8.425  -0.250   0.006   0.000  -0.005  -8.767  -0.242   0.006
 -0.250  -8.618   0.002  -0.000   0.004  -0.242  -8.954   0.002
  0.006   0.002  -8.249  -0.001   0.003   0.006   0.002  -8.598
  0.000  -0.000  -0.001  -8.614   0.246   0.000  -0.000  -0.001
 -0.005   0.004   0.003   0.246  -8.428  -0.004   0.004   0.003
 -0.001   0.003  -0.000   0.000  -0.001  -0.001   0.003  -0.001
 -0.001   0.006  -0.001  -0.000  -0.002  -0.002   0.007  -0.001
 -0.000   0.001  -0.001  -0.000  -0.002  -0.000   0.001  -0.001
 -0.000   0.001   0.001  -0.000   0.000  -0.000   0.001   0.001
  0.001  -0.000  -0.000   0.001   0.000   0.001  -0.000  -0.000
 -0.000   0.001  -0.001  -0.000  -0.001  -0.000   0.001  -0.001
 -0.000   0.001   0.001  -0.000   0.000  -0.000   0.001   0.001
  0.002  -0.000   0.000   0.001  -0.000   0.001  -0.000   0.000
 total augmentation occupancy for first ion, spin component:           1
  3.790  -1.250   0.008  -0.042  -0.040  -2.822   0.061  -0.009   0.028   0.038  -0.019   0.004  -0.010  -0.007   0.095  -0.000
 -1.250   2.824  -0.018   0.037  -0.000   0.060  -2.659   0.012  -0.037  -0.011  -0.001  -0.000  -0.004  -0.000  -0.039  -0.000
  0.008  -0.018   4.581   0.013  -0.003  -0.008   0.014  -2.754  -0.009   0.001   0.064  -0.009   0.002  -0.001   0.000  -0.000
 -0.042   0.037   0.013   2.787   1.265   0.026  -0.037  -0.008  -2.644  -0.077  -0.012   0.001   0.029  -0.008  -0.004  -0.001
 -0.040  -0.000  -0.003   1.265   3.807   0.038  -0.013  -0.000  -0.080  -2.821  -0.006   0.001   0.098  -0.004   0.000  -0.005
 -2.822   0.060  -0.008   0.026   0.038   2.805   0.856   0.008  -0.014  -0.027   0.010  -0.002   0.005   0.003  -0.106   0.000
  0.061  -2.659   0.014  -0.037  -0.013   0.856   3.274  -0.011   0.029   0.011  -0.001  -0.001   0.001  -0.000   0.030   0.000
 -0.009   0.012  -2.754  -0.008  -0.000   0.008  -0.011   2.053   0.006   0.002  -0.072   0.012  -0.001   0.001  -0.000   0.000
  0.028  -0.037  -0.009  -2.644  -0.080  -0.014   0.029   0.006   3.268  -0.841   0.006  -0.001  -0.026   0.004   0.003   0.001
  0.038  -0.011   0.001  -0.077  -2.821  -0.027   0.011   0.002  -0.841   2.798   0.005  -0.000  -0.108   0.003   0.001   0.005
 -0.019  -0.001   0.064  -0.012  -0.006   0.010  -0.001  -0.072   0.006   0.005   1.839  -0.222  -0.001  -0.001  -0.001   0.000
  0.004  -0.000  -0.009   0.001   0.001  -0.002  -0.001   0.012  -0.001  -0.000  -0.222   0.035  -0.000  -0.000  -0.000   0.000
 -0.010  -0.004   0.002   0.029   0.098   0.005   0.001  -0.001  -0.026  -0.108  -0.001  -0.000   0.282  -0.001  -0.001  -0.008
 -0.007  -0.000  -0.001  -0.008  -0.004   0.003  -0.000   0.001   0.004   0.003  -0.001  -0.000  -0.001   0.275  -0.001  -0.000
  0.095  -0.039   0.000  -0.004   0.000  -0.106   0.030  -0.000   0.003   0.001  -0.001  -0.000  -0.001  -0.001   0.283  -0.000
 -0.000  -0.000  -0.000  -0.001  -0.005   0.000   0.000   0.000   0.001   0.005   0.000   0.000  -0.008  -0.000  -0.000   0.000
 -0.001   0.000   0.001   0.000   0.000   0.000   0.000  -0.001   0.000  -0.000   0.000   0.000  -0.000  -0.008  -0.000   0.000
 -0.003  -0.000  -0.000   0.001   0.001   0.004   0.000   0.000  -0.000  -0.000   0.000   0.000  -0.000  -0.000  -0.008   0.000
 total augmentation occupancy for first ion, spin component:           2
  2.542  -2.110   0.008  -0.049  -0.032  -1.119   1.223  -0.008   0.034   0.027  -0.014   0.003  -0.006  -0.004   0.013   0.000
 -2.110   1.018  -0.020   0.034   0.033   1.236  -0.254   0.012  -0.017  -0.006   0.003  -0.002  -0.005  -0.005  -0.028   0.000
  0.008  -0.020   4.021   0.014  -0.004  -0.006   0.016  -1.975  -0.010   0.003  -0.008   0.004   0.001  -0.000  -0.000  -0.001
 -0.049   0.034   0.014   1.038   2.117   0.029  -0.025  -0.008  -0.250  -1.231  -0.007   0.001   0.024  -0.004  -0.002  -0.001
 -0.032   0.033  -0.004   2.117   2.549   0.019  -0.016   0.002  -1.238  -1.130  -0.004   0.001   0.016   0.001  -0.000  -0.000
 -1.119   1.236  -0.006   0.029   0.019   0.426  -0.757   0.005  -0.022  -0.022   0.011  -0.002   0.005   0.004  -0.004   0.000
  1.223  -0.254   0.016  -0.025  -0.016  -0.757  -0.095  -0.008   0.017   0.006  -0.002   0.001   0.002   0.002   0.014  -0.000
 -0.008   0.012  -1.975  -0.008   0.002   0.005  -0.008   0.965   0.006  -0.001   0.012  -0.003  -0.000   0.000   0.000   0.000
  0.034  -0.017  -0.010  -0.250  -1.238  -0.022   0.017   0.006  -0.104   0.762   0.006  -0.000  -0.010   0.004   0.001   0.000
  0.027  -0.006   0.003  -1.231  -1.130  -0.022   0.006  -0.001   0.762   0.434   0.003  -0.000  -0.004   0.001  -0.001  -0.000
 -0.014   0.003  -0.008  -0.007  -0.004   0.011  -0.002   0.012   0.006   0.003  -0.041   0.048  -0.000  -0.000   0.000  -0.000
  0.003  -0.002   0.004   0.001   0.001  -0.002   0.001  -0.003  -0.000  -0.000   0.048  -0.009  -0.000  -0.000  -0.000  -0.000
 -0.006  -0.005   0.001   0.024   0.016   0.005   0.002  -0.000  -0.010  -0.004  -0.000  -0.000   0.016  -0.001   0.000   0.001
 -0.004  -0.005  -0.000  -0.004   0.001   0.004   0.002   0.000   0.004   0.001  -0.000  -0.000  -0.001   0.013   0.000  -0.000
  0.013  -0.028  -0.000  -0.002  -0.000  -0.004   0.014   0.000   0.001  -0.001   0.000  -0.000   0.000   0.000   0.016  -0.000
  0.000   0.000  -0.001  -0.001  -0.000   0.000  -0.000   0.000   0.000  -0.000  -0.000  -0.000   0.001  -0.000  -0.000  -0.000
 -0.001   0.000   0.001   0.000   0.000   0.000  -0.000  -0.001  -0.000  -0.000  -0.000   0.000  -0.000   0.001  -0.000  -0.000
  0.001  -0.000  -0.000   0.001   0.001  -0.001   0.000   0.000  -0.000  -0.000   0.000   0.000  -0.000  -0.000   0.002  -0.000


------------------------ aborting loop because EDIFF is reached ----------------------------------------


    CHARGE:  cpu time    2.3457: real time    2.3611
    FORLOC:  cpu time    0.0430: real time    0.0434
    FORNL :  cpu time    7.1333: real time    7.1836
    STRESS:  cpu time   23.0587: real time   23.2148
    FORCOR:  cpu time    0.4200: real time    0.4229
    FORHAR:  cpu time    0.0968: real time    0.0974
    MIXING:  cpu time    0.0178: real time    0.0179
    OFIELD:  cpu time    0.0000: real time    0.0000

  FORCE on cell =-STRESS in cart. coord.  units (eV):
  Direction    XX          YY          ZZ          XY          YZ          ZX
  --------------------------------------------------------------------------------------
  Alpha Z   245.39954   245.39954   245.39954
  Ewald   70044.24568 70044.24568-85220.95945     0.00000    -0.00000    -0.00000
  Hartree 75589.70097 75589.70097-72140.64755    -0.00000     0.00000     0.00000
  E(xc)   -1886.50909 -1886.50911 -1889.45833    -0.00002    -0.00001    -0.00000
  Local  ************************148081.73706     0.00078     0.00002     0.00001
  n-local  4293.61625  4293.62647  4287.13595    -0.01515    -0.00007     0.00023
  augment  -529.66627  -529.66702  -532.13950    -0.00065     0.00001     0.00001
  Kinetic  7122.07416  7122.07655  7167.91738    -0.00440     0.01245    -0.00383
  Fock        0.00000     0.00000     0.00000     0.00000     0.00000     0.00000
  -------------------------------------------------------------------------------------
  Total      -0.11498    -0.11498    -1.01490     0.00000     0.00000     0.00000
  in kB      -0.03233    -0.03233    -0.28533     0.00000     0.00000     0.00000
  external pressure =       -0.12 kB  Pullay stress =        0.00 kB


 VOLUME and BASIS-vectors are now :
 -----------------------------------------------------------------------------
  energy-cutoff  :      400.00
  volume of cell :     5698.74
      direct lattice vectors                 reciprocal lattice vectors
    18.138823496  0.000000000  0.000000000     0.055130367  0.031829532 -0.000000000
    -9.069411748 15.708681942  0.000000000     0.000000000  0.063659065  0.000000000
     0.000000000  0.000000000 20.000000000     0.000000000 -0.000000000  0.050000000

  length of vectors
    18.138823496 18.138823496 20.000000000     0.063659065  0.063659065  0.050000000


 FORCES acting on ions
    electron-ion (+dipol)            ewald-force                    non-local-force                 convergence-correction
 -----------------------------------------------------------------------------------------------
   0.421E+01 0.235E+01 0.221E+01   -.438E+01 -.253E+01 -.240E+01   0.123E+00 0.153E+00 0.149E+00   0.605E-05 0.198E-05 0.266E-05
   -.710E-01 0.482E+01 0.221E+01   -.312E-11 -.505E+01 -.240E+01   0.711E-01 0.183E+00 0.149E+00   -.131E-05 0.622E-05 0.266E-05
   0.930E+00 -.536E+00 0.383E+00   -.933E+00 0.538E+00 -.386E+00   0.900E-02 -.630E-02 -.130E-02   0.885E-05 -.206E-05 -.252E-05
   0.421E+01 -.235E+01 0.221E+01   -.438E+01 0.253E+01 -.240E+01   0.123E+00 -.153E+00 0.149E+00   0.605E-05 -.198E-05 0.266E-05
   -.106E-02 0.107E+01 0.383E+00   -.807E-11 -.108E+01 -.386E+00   0.960E-03 0.109E-01 -.130E-02   -.264E-05 0.869E-05 -.252E-05
   0.125E+00 0.731E-01 0.259E+00   -.127E+00 -.731E-01 -.263E+00   0.612E-03 -.912E-03 0.153E-02   -.211E-06 -.116E-05 0.760E-06
   -.414E+01 0.247E+01 0.221E+01   0.438E+01 -.253E+01 -.240E+01   -.194E+00 0.301E-01 0.149E+00   -.473E-05 0.425E-05 0.266E-05
   -.929E+00 0.537E+00 0.383E+00   0.933E+00 -.538E+00 -.386E+00   -.996E-02 0.464E-02 -.130E-02   -.620E-05 0.663E-05 -.252E-05
   -.710E-01 -.482E+01 0.221E+01   0.482E-11 0.505E+01 -.240E+01   0.711E-01 -.183E+00 0.149E+00   -.131E-05 -.622E-05 0.266E-05
   -.414E+01 -.247E+01 0.221E+01   0.438E+01 0.253E+01 -.240E+01   -.194E+00 -.301E-01 0.149E+00   -.473E-05 -.425E-05 0.266E-05
   -.126E+00 -.713E-01 0.259E+00   0.127E+00 0.731E-01 -.263E+00   0.484E-03 -.986E-03 0.153E-02   0.111E-05 -.395E-06 0.760E-06
   -.106E-02 -.107E+01 0.383E+00   -.472E-11 0.108E+01 -.386E+00   0.960E-03 -.109E-01 -.130E-02   -.264E-05 -.869E-05 -.252E-05
   0.105E-02 0.144E+00 0.259E+00   0.323E-11 -.146E+00 -.263E+00   -.110E-02 0.738E-04 0.153E-02   -.896E-06 -.762E-06 0.760E-06
   0.930E+00 0.536E+00 0.383E+00   -.933E+00 -.538E+00 -.386E+00   0.900E-02 0.630E-02 -.130E-02   0.885E-05 0.206E-05 -.252E-05
   -.929E+00 -.537E+00 0.383E+00   0.933E+00 0.538E+00 -.386E+00   -.996E-02 -.464E-02 -.130E-02   -.620E-05 -.663E-05 -.252E-05
   0.104E-02 -.144E+00 0.259E+00   0.809E-11 0.146E+00 -.263E+00   -.110E-02 -.738E-04 0.153E-02   -.896E-06 0.761E-06 0.760E-06
   0.125E+00 -.731E-01 0.259E+00   -.127E+00 0.731E-01 -.263E+00   0.612E-03 0.912E-03 0.153E-02   -.211E-06 0.116E-05 0.760E-06
   -.126E+00 0.713E-01 0.259E+00   0.127E+00 -.731E-01 -.263E+00   0.484E-03 0.986E-03 0.153E-02   0.111E-05 0.395E-06 0.760E-06
   0.746E+02 0.888E-06 0.483E+03   -.766E+02 -.251E-10 -.486E+03   0.200E+01 -.396E-20 0.302E+01   0.482E-05 -.663E-09 0.352E-04
   -.373E+02 0.646E+02 0.483E+03   0.383E+02 -.663E+02 -.486E+03   -.100E+01 0.173E+01 0.302E+01   -.241E-05 0.418E-05 0.352E-04
   -.336E+02 -.582E+02 0.487E+03   0.346E+02 0.600E+02 -.490E+03   -.985E+00 -.171E+01 0.302E+01   -.566E-06 -.981E-06 0.411E-04
   -.520E+02 -.706E-06 -.479E+03   0.529E+02 -.203E-10 0.481E+03   -.858E+00 -.172E-19 -.280E+01   0.160E-04 0.385E-09 -.138E-04
   0.386E+02 -.609E+02 -.481E+03   -.396E+02 0.626E+02 0.484E+03   0.104E+01 -.171E+01 -.298E+01   0.794E-05 -.235E-05 -.214E-04
   0.389E+02 0.674E+02 -.481E+03   -.399E+02 -.691E+02 0.483E+03   0.997E+00 0.173E+01 -.294E+01   0.353E-05 0.611E-05 -.236E-04
   0.719E+02 -.162E+00 0.481E+03   -.739E+02 0.164E+00 -.484E+03   0.199E+01 0.561E-03 0.297E+01   0.377E-05 -.194E-05 0.275E-04
   -.336E+02 0.582E+02 0.487E+03   0.346E+02 -.600E+02 -.490E+03   -.985E+00 0.171E+01 0.302E+01   -.567E-06 0.981E-06 0.411E-04
   -.343E+02 -.632E+02 0.482E+03   0.353E+02 0.649E+02 -.485E+03   -.971E+00 -.176E+01 0.300E+01   0.814E-05 -.271E-05 0.323E-04
   -.708E+02 -.718E+00 -.481E+03   0.727E+02 0.718E+00 0.484E+03   -.199E+01 -.868E-04 -.297E+01   0.247E-05 -.525E-05 -.151E-04
   0.362E+02 -.622E+02 -.481E+03   -.372E+02 0.640E+02 0.484E+03   0.996E+00 -.173E+01 -.297E+01   0.294E-05 -.273E-05 -.133E-04
   0.386E+02 0.609E+02 -.481E+03   -.396E+02 -.626E+02 0.484E+03   0.104E+01 0.171E+01 -.298E+01   0.794E-05 0.235E-05 -.214E-04
   0.719E+02 0.188E+01 0.482E+03   -.738E+02 -.191E+01 -.485E+03   0.201E+01 0.392E-01 0.300E+01   -.172E-05 0.840E-05 0.323E-04
   -.356E+02 0.617E+02 0.482E+03   0.366E+02 -.634E+02 -.484E+03   -.996E+00 0.172E+01 0.297E+01   0.323E-05 -.559E-05 0.248E-04
   -.359E+02 -.612E+02 0.482E+03   0.369E+02 0.629E+02 -.485E+03   -.996E+00 -.173E+01 0.297E+01   -.357E-05 0.531E-05 0.288E-04
   -.720E+02 0.297E+01 -.481E+03   0.740E+02 -.302E+01 0.484E+03   -.200E+01 0.482E-01 -.298E+01   -.600E-05 0.570E-05 -.214E-04
   0.360E+02 -.609E+02 -.481E+03   -.370E+02 0.626E+02 0.484E+03   0.996E+00 -.172E+01 -.297E+01   0.332E-05 0.476E-05 -.151E-04
   0.358E+02 0.625E+02 -.481E+03   -.368E+02 -.642E+02 0.484E+03   0.997E+00 0.173E+01 -.297E+01   0.896E-06 0.391E-05 -.133E-04
   0.672E+02 0.875E-06 0.487E+03   -.692E+02 -.252E-10 -.490E+03   0.197E+01 -.484E-21 0.302E+01   0.113E-05 -.228E-09 0.411E-04
   -.361E+02 0.622E+02 0.481E+03   0.371E+02 -.639E+02 -.484E+03   -.996E+00 0.173E+01 0.297E+01   -.357E-05 0.230E-05 0.275E-04
   -.376E+02 -.613E+02 0.482E+03   0.386E+02 0.630E+02 -.485E+03   -.104E+01 -.172E+01 0.300E+01   -.642E-05 0.569E-05 0.323E-04
   -.779E+02 -.924E-06 -.481E+03   0.798E+02 -.130E-10 0.483E+03   -.199E+01 0.390E-20 -.294E+01   -.706E-05 0.579E-09 -.236E-04
   0.260E+02 -.450E+02 -.479E+03   -.264E+02 0.458E+02 0.481E+03   0.429E+00 -.743E+00 -.280E+01   -.802E-05 0.139E-04 -.138E-04
   0.334E+02 0.639E+02 -.481E+03   -.344E+02 -.656E+02 0.484E+03   0.961E+00 0.176E+01 -.298E+01   -.193E-05 0.805E-05 -.214E-04
   0.719E+02 -.188E+01 0.482E+03   -.738E+02 0.191E+01 -.485E+03   0.201E+01 -.392E-01 0.300E+01   -.172E-05 -.840E-05 0.323E-04
   -.376E+02 0.613E+02 0.482E+03   0.386E+02 -.630E+02 -.485E+03   -.104E+01 0.172E+01 0.300E+01   -.642E-05 -.569E-05 0.323E-04
   -.373E+02 -.646E+02 0.483E+03   0.383E+02 0.663E+02 -.486E+03   -.100E+01 -.173E+01 0.302E+01   -.241E-05 -.418E-05 0.352E-04
   -.720E+02 -.297E+01 -.481E+03   0.740E+02 0.302E+01 0.484E+03   -.200E+01 -.482E-01 -.298E+01   -.600E-05 -.570E-05 -.214E-04
   0.389E+02 -.674E+02 -.481E+03   -.399E+02 0.691E+02 0.483E+03   0.997E+00 -.173E+01 -.294E+01   0.353E-05 -.611E-05 -.236E-04
   0.260E+02 0.450E+02 -.479E+03   -.264E+02 -.458E+02 0.481E+03   0.429E+00 0.743E+00 -.280E+01   -.802E-05 -.139E-04 -.138E-04
   0.710E+02 0.524E+00 0.482E+03   -.730E+02 -.524E+00 -.485E+03   0.199E+01 -.273E-03 0.297E+01   -.282E-05 0.574E-05 0.288E-04
   -.359E+02 0.612E+02 0.482E+03   0.369E+02 -.629E+02 -.485E+03   -.996E+00 0.173E+01 0.297E+01   -.357E-05 -.531E-05 0.288E-04
   -.358E+02 -.623E+02 0.481E+03   0.368E+02 0.641E+02 -.484E+03   -.997E+00 -.173E+01 0.297E+01   -.202E-06 -.424E-05 0.275E-04
   -.720E+02 0.217E+00 -.481E+03   0.740E+02 -.217E+00 0.484E+03   -.199E+01 -.338E-03 -.297E+01   -.384E-05 0.118E-05 -.133E-04
   0.355E+02 -.616E+02 -.481E+03   -.365E+02 0.633E+02 0.484E+03   0.996E+00 -.173E+01 -.297E+01   -.891E-06 0.154E-05 -.104E-04
   0.360E+02 0.609E+02 -.481E+03   -.370E+02 -.626E+02 0.484E+03   0.996E+00 0.172E+01 -.297E+01   0.332E-05 -.476E-05 -.151E-04
   0.712E+02 0.887E-06 0.482E+03   -.732E+02 -.180E-10 -.484E+03   0.199E+01 -.156E-20 0.297E+01   -.646E-05 0.333E-09 0.248E-04
   -.343E+02 0.632E+02 0.482E+03   0.353E+02 -.649E+02 -.485E+03   -.971E+00 0.176E+01 0.300E+01   0.814E-05 0.271E-05 0.323E-04
   -.350E+02 -.617E+02 0.482E+03   0.360E+02 0.634E+02 -.485E+03   -.997E+00 -.173E+01 0.297E+01   0.638E-05 -.433E-06 0.288E-04
   -.711E+02 -.938E-06 -.481E+03   0.731E+02 -.132E-10 0.484E+03   -.199E+01 0.100E-20 -.297E+01   0.178E-05 -.178E-09 -.104E-04
   0.348E+02 -.616E+02 -.481E+03   -.358E+02 0.634E+02 0.484E+03   0.995E+00 -.172E+01 -.297E+01   -.578E-05 -.491E-06 -.151E-04
   0.362E+02 0.622E+02 -.481E+03   -.372E+02 -.640E+02 0.484E+03   0.996E+00 0.173E+01 -.297E+01   0.294E-05 0.273E-05 -.133E-04
   0.710E+02 -.524E+00 0.482E+03   -.730E+02 0.524E+00 -.485E+03   0.199E+01 0.273E-03 0.297E+01   -.282E-05 -.574E-05 0.288E-04
   -.350E+02 0.617E+02 0.482E+03   0.360E+02 -.634E+02 -.485E+03   -.997E+00 0.173E+01 0.297E+01   0.638E-05 0.432E-06 0.288E-04
   -.361E+02 -.622E+02 0.481E+03   0.371E+02 0.639E+02 -.484E+03   -.996E+00 -.173E+01 0.297E+01   -.357E-05 -.229E-05 0.275E-04
   -.720E+02 -.217E+00 -.481E+03   0.740E+02 0.217E+00 0.484E+03   -.199E+01 0.338E-03 -.297E+01   -.384E-05 -.118E-05 -.133E-04
   0.334E+02 -.639E+02 -.481E+03   -.344E+02 0.656E+02 0.484E+03   0.961E+00 -.176E+01 -.298E+01   -.193E-05 -.805E-05 -.214E-04
   0.348E+02 0.616E+02 -.481E+03   -.358E+02 -.634E+02 0.484E+03   0.995E+00 0.172E+01 -.297E+01   -.578E-05 0.491E-06 -.151E-04
   0.719E+02 0.162E+00 0.481E+03   -.739E+02 -.164E+00 -.484E+03   0.199E+01 -.561E-03 0.297E+01   0.377E-05 0.195E-05 0.275E-04
   -.358E+02 0.623E+02 0.481E+03   0.368E+02 -.641E+02 -.484E+03   -.997E+00 0.173E+01 0.297E+01   -.202E-06 0.424E-05 0.275E-04
   -.356E+02 -.617E+02 0.482E+03   0.366E+02 0.634E+02 -.484E+03   -.996E+00 -.172E+01 0.297E+01   0.323E-05 0.559E-05 0.248E-04
   -.708E+02 0.718E+00 -.481E+03   0.727E+02 -.718E+00 0.484E+03   -.199E+01 0.868E-04 -.297E+01   0.247E-05 0.525E-05 -.151E-04
   0.358E+02 -.625E+02 -.481E+03   -.368E+02 0.642E+02 0.484E+03   0.997E+00 -.173E+01 -.297E+01   0.897E-06 -.391E-05 -.133E-04
   0.355E+02 0.616E+02 -.481E+03   -.365E+02 -.633E+02 0.484E+03   0.996E+00 0.173E+01 -.297E+01   -.891E-06 -.154E-05 -.104E-04
   0.453E-07 0.784E-07 -.703E+02   -.176E-11 -.305E-11 0.703E+02   0.959E-22 0.202E-21 -.922E-02   -.918E-09 -.159E-08 -.400E-05
 -----------------------------------------------------------------------------------------------
   -.305E-06 -.528E-06 -.201E+01   -.235E-12 -.265E-12 -.284E-13   -.333E-15 0.666E-15 0.201E+01   -.202E-08 -.349E-08 0.394E-03


 POSITION                                       TOTAL-FORCE (eV/Angst)
 -----------------------------------------------------------------------------------
      0.00000      3.49082     10.00000        -0.046066     -0.026516     -0.044194
      3.02314      1.74541     10.00000         0.000070     -0.053152     -0.044194
     -3.02314      8.72705     10.00000         0.006329     -0.003533     -0.004964
     -0.00000      6.98164     10.00000        -0.046066      0.026516     -0.044194
     -6.04627     13.96327     10.00000        -0.000105      0.007248     -0.004964
     -3.02314     12.21786     10.00000        -0.001480     -0.000914     -0.002066
      6.04627      3.49082     10.00000         0.045996     -0.026636     -0.044194
      9.06941      1.74541     10.00000        -0.006225      0.003715     -0.004964
      3.02314      8.72705     10.00000         0.000070      0.053152     -0.044194
      6.04627      6.98164     10.00000         0.045996      0.026636     -0.044194
     -0.00000     13.96327     10.00000         0.001532      0.000825     -0.002066
      3.02314     12.21786     10.00000        -0.000105     -0.007248     -0.004964
     12.09255      3.49082     10.00000        -0.000052     -0.001739     -0.002066
     15.11569      1.74541     10.00000         0.006329      0.003533     -0.004964
      9.06941      8.72705     10.00000        -0.006225     -0.003715     -0.004964
     12.09255      6.98164     10.00000        -0.000052      0.001739     -0.002066
      6.04627     13.96327     10.00000        -0.001480      0.000914     -0.002066
      9.06941     12.21786     10.00000         0.001532     -0.000825     -0.002066
     -0.85071      5.23623      8.66428         0.021396      0.000000      0.000236
      4.96006      1.88138      8.66428        -0.010698      0.018530      0.000236
      1.93692      3.35485      8.66428         0.010168      0.017612      0.002964
      0.85071      5.23623     11.33572         0.008107      0.000000      0.034613
     -1.93692      3.35485     11.33572         0.005164      0.000374      0.005364
      1.08621      1.88138     11.33572         0.001025      0.001775      0.011854
     -3.87385     10.47245      8.66428         0.007104      0.002329      0.003915
      1.93692      7.11760      8.66428         0.010168     -0.017612      0.002964
     -1.08621      8.59108      8.66428         0.005022     -0.025096      0.020164
     -2.17243     10.47245     11.33572        -0.006345      0.000286     -0.001215
     -4.96006      8.59108     11.33572         0.003266     -0.006411     -0.002889
     -1.93692      7.11760     11.33572         0.005164     -0.000374      0.005364
      2.17243      0.00000      8.66428         0.019223      0.016897      0.020164
     -1.08621     12.35383      8.66428        -0.003663      0.006345      0.002770
     -4.10935     13.82730      8.66428        -0.003355     -0.006532      0.003321
      3.87385      0.00000     11.33572        -0.002258      0.004659      0.005364
     -7.98320     13.82730     11.33572         0.002925     -0.005638     -0.001215
     -4.96006     12.35383     11.33572         0.003919      0.006034     -0.002889
      5.19556      5.23623      8.66428        -0.020337      0.000000      0.002964
     11.00634      1.88138      8.66428        -0.001535      0.007317      0.003915
      7.98320      3.35485      8.66428        -0.024244     -0.008199      0.020164
      6.89698      5.23623     11.33572        -0.002050      0.000000      0.011854
      4.10935      3.35485     11.33572        -0.004054      0.007021      0.034613
      7.13249      1.88138     11.33572        -0.002906      0.004285      0.005364
      2.17243     10.47245      8.66428         0.019223     -0.016897      0.020164
      7.98320      7.11760      8.66428        -0.024244      0.008199      0.020164
      4.96006      8.59108      8.66428        -0.010698     -0.018530      0.000236
      3.87385     10.47245     11.33572        -0.002258     -0.004659      0.005364
      1.08621      8.59108     11.33572         0.001025     -0.001775      0.011854
      4.10935      7.11760     11.33572        -0.004054     -0.007021      0.034613
      8.21870      0.00000      8.66428         0.007335     -0.000360      0.003321
      4.96006     12.35383      8.66428        -0.003355      0.006532      0.003321
      1.93692     13.82730      8.66428        -0.005569     -0.004988      0.003915
      9.92012      0.00000     11.33572        -0.007185     -0.000377     -0.002889
     -1.93692     13.82730     11.33572         0.003461     -0.005994     -0.001802
      1.08621     12.35383     11.33572         0.002925      0.005638     -0.001215
     11.24184      5.23623      8.66428         0.007327      0.000000      0.002770
     -1.08621      1.88138      8.66428         0.005022      0.025096      0.020164
     14.02947      3.35485      8.66428        -0.003980     -0.006172      0.003321
     12.94326      5.23623     11.33572        -0.006922      0.000000     -0.001802
     10.15563      3.35485     11.33572         0.003420     -0.005352     -0.001215
     13.17876      1.88138     11.33572         0.003266      0.006411     -0.002889
      8.21870     10.47245      8.66428         0.007335      0.000360      0.003321
     -4.10935      7.11760      8.66428        -0.003980      0.006172      0.003321
     11.00634      8.59108      8.66428        -0.001535     -0.007317      0.003915
      9.92012     10.47245     11.33572        -0.007185      0.000377     -0.002889
      7.13249      8.59108     11.33572        -0.002906     -0.004285      0.005364
     10.15563      7.11760     11.33572         0.003420      0.005352     -0.001215
     14.26498      0.00000      8.66428         0.007104     -0.002329      0.003915
     -7.13249     12.35383      8.66428        -0.005569      0.004988      0.003915
      7.98320     13.82730      8.66428        -0.003663     -0.006345      0.002770
     15.96640      0.00000     11.33572        -0.006345     -0.000286     -0.001215
      4.10935     13.82730     11.33572         0.003919     -0.006034     -0.002889
      7.13249     12.35383     11.33572         0.003461      0.005994     -0.001802
      3.02314      5.23623     11.60000         0.000000      0.000000     -0.016516
 -----------------------------------------------------------------------------------
    total drift:                               -0.000000     -0.000001     -0.000125


--------------------------------------------------------------------------------------------------------



  FREE ENERGIE OF THE ION-ELECTRON SYSTEM (eV)
  ---------------------------------------------------
  free  energy   TOTEN  =      -352.55496763 eV

  energy  without entropy=     -352.55496763  energy(sigma->0) =     -352.55496763



--------------------------------------------------------------------------------------------------------


    POTLOK:  cpu time    1.2364: real time    1.2443


--------------------------------------------------------------------------------------------------------




--------------------------------------------------------------------------------------------------------


    WAVPRE:  cpu time    0.0544: real time    0.0580
    FEWALD:  cpu time    0.0051: real time    0.0051

 real space projection operators:
  total allocation   :      27722.62 KBytes
  max/ min on nodes  :       3513.45       3434.91

    ORTHCH:  cpu time    3.5809: real time    3.6061
     LOOP+:  cpu time 1728.1600: real time 1743.9804


--------------------------------------- Iteration      2(   1)  ---------------------------------------


    POTLOK:  cpu time    0.4204: real time    0.4233
    SETDIJ:  cpu time    0.8718: real time    0.8772
     EDDAV:  cpu time   36.3238: real time   36.6104
       DOS:  cpu time    0.0060: real time    0.0060
    CHARGE:  cpu time    2.4551: real time    2.4716
    MIXING:  cpu time    0.0094: real time    0.0094
    --------------------------------------------
      LOOP:  cpu time   40.0864: real time   40.3980

 eigenvalue-minimisations  :  6672
 total energy-change (2. order) : 0.6480946E-03  (-0.2046467E-01)
 number of electron     486.9999959 magnetization      53.0001106
 augmentation part       -4.7665459 magnetization      36.5219676

 DIPCOR: dipole corrections for dipol
 direction  3 min pos     1,
 dipolmoment           0.000000      0.000000     -0.048508 electrons x Angstroem
 Tr[quadrupol]    -26935.266629

 energy correction for charged system         0.000000 eV
 dipol+quadrupol energy correction           -0.000039 eV
 added-field ion interaction          0.002575 eV  (added to PSCEN)


 Broyden mixing:
  rms(total) = 0.35884E-01    rms(broyden)= 0.35855E-01
  rms(prec ) = 0.36107E-01
  weight for this iteration     100.00

 Free energy of the ion-electron system (eV)
  ---------------------------------------------------
  alpha Z        PSCENC =       245.40207566
  Ewald energy   TEWEN  =     54869.78344017
  -Hartree energ DENC   =    -79040.76009520
  -exchange      EXHF   =         0.00000000
  -V(xc)+E(xc)   XCENC  =       777.67300405
  PAW double counting   =     33319.08559186   -32984.13406916
  entropy T*S    EENTRO =        -0.00000000
  eigenvalues    EBANDS =     -4660.71344794
  atomic energy  EATOM  =     27121.10918193
  Solvation  Ediel_sol  =         0.00000000
  ---------------------------------------------------
  free energy    TOTEN  =      -352.55431863 eV

  energy without entropy =     -352.55431863  energy(sigma->0) =     -352.55431863


--------------------------------------------------------------------------------------------------------




--------------------------------------- Iteration      2(   2)  ---------------------------------------


    POTLOK:  cpu time    0.4104: real time    0.4135
    SETDIJ:  cpu time    0.8720: real time    0.8772
     EDDAV:  cpu time   41.9748: real time   42.3096
       DOS:  cpu time    0.0017: real time    0.0017
    CHARGE:  cpu time    2.0778: real time    2.0927
    MIXING:  cpu time    0.0075: real time    0.0075
    --------------------------------------------
      LOOP:  cpu time   45.3442: real time   45.7023

 eigenvalue-minimisations  :  8456
 total energy-change (2. order) :-0.1083697E-02  (-0.8436064E-03)
 number of electron     486.9999959 magnetization      53.0000989
 augmentation part       -4.7740239 magnetization      36.5189915

 DIPCOR: dipole corrections for dipol
 direction  3 min pos     1,
 dipolmoment           0.000000      0.000000     -0.044022 electrons x Angstroem
 Tr[quadrupol]    -26935.268295

 energy correction for charged system         0.000000 eV
 dipol+quadrupol energy correction           -0.000032 eV
 added-field ion interaction          0.002337 eV  (added to PSCEN)


 Broyden mixing:
  rms(total) = 0.15918E-01    rms(broyden)= 0.15914E-01
  rms(prec ) = 0.16108E-01
  weight for this iteration     100.00

 eigenvalues of (default mixing * dielectric matrix)
  average eigenvalue GAMMA=   0.6913
  0.6913

 Free energy of the ion-electron system (eV)
  ---------------------------------------------------
  alpha Z        PSCENC =       245.40184429
  Ewald energy   TEWEN  =     54869.78344017
  -Hartree energ DENC   =    -79040.83400902
  -exchange      EXHF   =         0.00000000
  -V(xc)+E(xc)   XCENC  =       777.66420398
  PAW double counting   =     33322.38160953   -32987.44827445
  entropy T*S    EENTRO =        -0.00000000
  eigenvalues    EBANDS =     -4660.61339875
  atomic energy  EATOM  =     27121.10918193
  Solvation  Ediel_sol  =         0.00000000
  ---------------------------------------------------
  free energy    TOTEN  =      -352.55540233 eV

  energy without entropy =     -352.55540233  energy(sigma->0) =     -352.55540233


--------------------------------------------------------------------------------------------------------




--------------------------------------- Iteration      2(   3)  ---------------------------------------


    POTLOK:  cpu time    0.4770: real time    0.4805
    SETDIJ:  cpu time    0.8618: real time    0.8668
     EDDAV:  cpu time   44.2814: real time   44.6301
       DOS:  cpu time    0.0042: real time    0.0042
    CHARGE:  cpu time    2.2578: real time    2.2724
    MIXING:  cpu time    0.0073: real time    0.0074
    --------------------------------------------
      LOOP:  cpu time   47.8895: real time   48.2614

 eigenvalue-minimisations  :  8856
 total energy-change (2. order) :-0.6184901E-03  (-0.6136680E-04)
 number of electron     486.9999959 magnetization      53.0000914
 augmentation part       -4.7688070 magnetization      36.5198982

 DIPCOR: dipole corrections for dipol
 direction  3 min pos     1,
 dipolmoment           0.000000      0.000000     -0.042447 electrons x Angstroem
 Tr[quadrupol]    -26935.268045

 energy correction for charged system         0.000000 eV
 dipol+quadrupol energy correction           -0.000030 eV
 added-field ion interaction          0.002254 eV  (added to PSCEN)


 Broyden mixing:
  rms(total) = 0.80973E-02    rms(broyden)= 0.80969E-02
  rms(prec ) = 0.82805E-02
  weight for this iteration     100.00

 eigenvalues of (default mixing * dielectric matrix)
  average eigenvalue GAMMA=   0.6025
  0.6257  0.5794

 Free energy of the ion-electron system (eV)
  ---------------------------------------------------
  alpha Z        PSCENC =       245.40176287
  Ewald energy   TEWEN  =     54869.78344017
  -Hartree energ DENC   =    -79040.81912887
  -exchange      EXHF   =         0.00000000
  -V(xc)+E(xc)   XCENC  =       777.66088823
  PAW double counting   =     33322.60777962   -32987.66145183
  entropy T*S    EENTRO =        -0.00000000
  eigenvalues    EBANDS =     -4660.63849294
  atomic energy  EATOM  =     27121.10918193
  Solvation  Ediel_sol  =         0.00000000
  ---------------------------------------------------
  free energy    TOTEN  =      -352.55602082 eV

  energy without entropy =     -352.55602082  energy(sigma->0) =     -352.55602082


--------------------------------------------------------------------------------------------------------




--------------------------------------- Iteration      2(   4)  ---------------------------------------


    POTLOK:  cpu time    0.4062: real time    0.4091
    SETDIJ:  cpu time    0.8598: real time    0.8648
     EDDAV:  cpu time   46.1395: real time   46.5075
       DOS:  cpu time    0.0111: real time    0.0112
    CHARGE:  cpu time    2.5821: real time    2.5978
    MIXING:  cpu time    0.0085: real time    0.0086
    --------------------------------------------
      LOOP:  cpu time   50.0073: real time   50.3990

 eigenvalue-minimisations  :  9464
 total energy-change (2. order) : 0.1055638E-03  (-0.4839437E-05)
 number of electron     486.9999959 magnetization      53.0000767
 augmentation part       -4.7707378 magnetization      36.5196111

 DIPCOR: dipole corrections for dipol
 direction  3 min pos     1,
 dipolmoment           0.000000      0.000000     -0.042027 electrons x Angstroem
 Tr[quadrupol]    -26935.268724

 energy correction for charged system         0.000000 eV
 dipol+quadrupol energy correction           -0.000029 eV
 added-field ion interaction          0.002231 eV  (added to PSCEN)


 Broyden mixing:
  rms(total) = 0.56064E-02    rms(broyden)= 0.56064E-02
  rms(prec ) = 0.57503E-02
  weight for this iteration     100.00

 eigenvalues of (default mixing * dielectric matrix)
  average eigenvalue GAMMA=   0.7112
  0.7646  0.7646  0.6043

 Free energy of the ion-electron system (eV)
  ---------------------------------------------------
  alpha Z        PSCENC =       245.40174114
  Ewald energy   TEWEN  =     54869.78344017
  -Hartree energ DENC   =    -79040.85128744
  -exchange      EXHF   =         0.00000000
  -V(xc)+E(xc)   XCENC  =       777.66111571
  PAW double counting   =     33322.34054542   -32987.39918746
  entropy T*S    EENTRO =        -0.00000000
  eigenvalues    EBANDS =     -4660.60146472
  atomic energy  EATOM  =     27121.10918193
  Solvation  Ediel_sol  =         0.00000000
  ---------------------------------------------------
  free energy    TOTEN  =      -352.55591526 eV

  energy without entropy =     -352.55591526  energy(sigma->0) =     -352.55591526


--------------------------------------------------------------------------------------------------------




--------------------------------------- Iteration      2(   5)  ---------------------------------------


    POTLOK:  cpu time    0.5056: real time    0.5090
    SETDIJ:  cpu time    0.8724: real time    0.8772
     EDDAV:  cpu time   46.1476: real time   46.5103
       DOS:  cpu time    0.0027: real time    0.0027
    CHARGE:  cpu time    2.4294: real time    2.4444
    MIXING:  cpu time    0.0101: real time    0.0101
    --------------------------------------------
      LOOP:  cpu time   49.9679: real time   50.3538

 eigenvalue-minimisations  :  9016
 total energy-change (2. order) : 0.1327455E-03  (-0.3981227E-05)
 number of electron     486.9999959 magnetization      53.0000539
 augmentation part       -4.7695805 magnetization      36.5198119

 DIPCOR: dipole corrections for dipol
 direction  3 min pos     1,
 dipolmoment           0.000000      0.000000     -0.041237 electrons x Angstroem
 Tr[quadrupol]    -26935.268955

 energy correction for charged system         0.000000 eV
 dipol+quadrupol energy correction           -0.000028 eV
 added-field ion interaction          0.002189 eV  (added to PSCEN)


 Broyden mixing:
  rms(total) = 0.37510E-02    rms(broyden)= 0.37509E-02
  rms(prec ) = 0.38274E-02
  weight for this iteration     100.00

 eigenvalues of (default mixing * dielectric matrix)
  average eigenvalue GAMMA=   1.0469
  2.0279  0.9780  0.6750  0.5069

 Free energy of the ion-electron system (eV)
  ---------------------------------------------------
  alpha Z        PSCENC =       245.40170031
  Ewald energy   TEWEN  =     54869.78344017
  -Hartree energ DENC   =    -79040.85865983
  -exchange      EXHF   =         0.00000000
  -V(xc)+E(xc)   XCENC  =       777.66091191
  PAW double counting   =     33322.35131586   -32987.40713766
  entropy T*S    EENTRO =        -0.00000000
  eigenvalues    EBANDS =     -4660.59653520
  atomic energy  EATOM  =     27121.10918193
  Solvation  Ediel_sol  =         0.00000000
  ---------------------------------------------------
  free energy    TOTEN  =      -352.55578251 eV

  energy without entropy =     -352.55578251  energy(sigma->0) =     -352.55578251


--------------------------------------------------------------------------------------------------------




--------------------------------------- Iteration      2(   6)  ---------------------------------------


    POTLOK:  cpu time    0.4241: real time    0.4271
    SETDIJ:  cpu time    0.8747: real time    0.8795
     EDDAV:  cpu time   44.6813: real time   45.0398
       DOS:  cpu time    0.0080: real time    0.0080
    CHARGE:  cpu time    2.4238: real time    2.4386
    MIXING:  cpu time    0.0096: real time    0.0097
    --------------------------------------------
      LOOP:  cpu time   48.4215: real time   48.8027

 eigenvalue-minimisations  :  9056
 total energy-change (2. order) : 0.1137571E-03  (-0.3469806E-05)
 number of electron     486.9999959 magnetization      53.0000487
 augmentation part       -4.7701164 magnetization      36.5197808

 DIPCOR: dipole corrections for dipol
 direction  3 min pos     1,
 dipolmoment           0.000000      0.000000     -0.040099 electrons x Angstroem
 Tr[quadrupol]    -26935.269712

 energy correction for charged system         0.000000 eV
 dipol+quadrupol energy correction           -0.000026 eV
 added-field ion interaction          0.002129 eV  (added to PSCEN)


 Broyden mixing:
  rms(total) = 0.15831E-02    rms(broyden)= 0.15831E-02
  rms(prec ) = 0.16195E-02
  weight for this iteration     100.00

 eigenvalues of (default mixing * dielectric matrix)
  average eigenvalue GAMMA=   0.9819
  2.3009  0.9090  0.6560  0.5296  0.5141

 Free energy of the ion-electron system (eV)
  ---------------------------------------------------
  alpha Z        PSCENC =       245.40164139
  Ewald energy   TEWEN  =     54869.78344017
  -Hartree energ DENC   =    -79040.88585054
  -exchange      EXHF   =         0.00000000
  -V(xc)+E(xc)   XCENC  =       777.66121073
  PAW double counting   =     33322.19931964   -32987.25709246
  entropy T*S    EENTRO =        -0.00000000
  eigenvalues    EBANDS =     -4660.56751961
  atomic energy  EATOM  =     27121.10918193
  Solvation  Ediel_sol  =         0.00000000
  ---------------------------------------------------
  free energy    TOTEN  =      -352.55566875 eV

  energy without entropy =     -352.55566875  energy(sigma->0) =     -352.55566875


--------------------------------------------------------------------------------------------------------




--------------------------------------- Iteration      2(   7)  ---------------------------------------


    POTLOK:  cpu time    0.4200: real time    0.4230
    SETDIJ:  cpu time    0.8728: real time    0.8777
     EDDAV:  cpu time   40.4398: real time   40.7580
       DOS:  cpu time    0.0056: real time    0.0056
    CHARGE:  cpu time    2.4758: real time    2.4911
    MIXING:  cpu time    0.0091: real time    0.0091
    --------------------------------------------
      LOOP:  cpu time   44.2230: real time   44.5645

 eigenvalue-minimisations  :  7800
 total energy-change (2. order) :-0.3218166E-04  (-0.8913068E-06)
 number of electron     486.9999959 magnetization      53.0000428
 augmentation part       -4.7702566 magnetization      36.5197121

 DIPCOR: dipole corrections for dipol
 direction  3 min pos     1,
 dipolmoment           0.000000      0.000000     -0.039974 electrons x Angstroem
 Tr[quadrupol]    -26935.269833

 energy correction for charged system         0.000000 eV
 dipol+quadrupol energy correction           -0.000026 eV
 added-field ion interaction          0.002122 eV  (added to PSCEN)


 Broyden mixing:
  rms(total) = 0.12253E-02    rms(broyden)= 0.12253E-02
  rms(prec ) = 0.12551E-02
  weight for this iteration     100.00

 eigenvalues of (default mixing * dielectric matrix)
  average eigenvalue GAMMA=   0.9309
  2.3090  0.7657  0.7657  0.7105  0.5708  0.4635

 Free energy of the ion-electron system (eV)
  ---------------------------------------------------
  alpha Z        PSCENC =       245.40163491
  Ewald energy   TEWEN  =     54869.78344017
  -Hartree energ DENC   =    -79040.88969060
  -exchange      EXHF   =         0.00000000
  -V(xc)+E(xc)   XCENC  =       777.66126972
  PAW double counting   =     33322.16715018   -32987.22526785
  entropy T*S    EENTRO =        -0.00000000
  eigenvalues    EBANDS =     -4660.56341939
  atomic energy  EATOM  =     27121.10918193
  Solvation  Ediel_sol  =         0.00000000
  ---------------------------------------------------
  free energy    TOTEN  =      -352.55570093 eV

  energy without entropy =     -352.55570093  energy(sigma->0) =     -352.55570093


--------------------------------------------------------------------------------------------------------




--------------------------------------- Iteration      2(   8)  ---------------------------------------


    POTLOK:  cpu time    0.4283: real time    0.4312
    SETDIJ:  cpu time    0.8800: real time    0.8848
     EDDAV:  cpu time   25.1322: real time   25.3307
       DOS:  cpu time    0.0055: real time    0.0056
    CHARGE:  cpu time    2.3708: real time    2.3861
    MIXING:  cpu time    0.0086: real time    0.0087
    --------------------------------------------
      LOOP:  cpu time   28.8255: real time   29.0471

 eigenvalue-minimisations  :  3944
 total energy-change (2. order) :-0.7224802E-04  (-0.9752834E-07)
 number of electron     486.9999959 magnetization      53.0000356
 augmentation part       -4.7702084 magnetization      36.5196966

 DIPCOR: dipole corrections for dipol
 direction  3 min pos     1,
 dipolmoment           0.000000      0.000000     -0.040024 electrons x Angstroem
 Tr[quadrupol]    -26935.269946

 energy correction for charged system         0.000000 eV
 dipol+quadrupol energy correction           -0.000026 eV
 added-field ion interaction          0.002125 eV  (added to PSCEN)


 Broyden mixing:
  rms(total) = 0.81528E-03    rms(broyden)= 0.81527E-03
  rms(prec ) = 0.83716E-03
  weight for this iteration     100.00

 eigenvalues of (default mixing * dielectric matrix)
  average eigenvalue GAMMA=   0.9864
  2.3081  1.1680  1.1680  0.6599  0.6599  0.5380  0.4029

 Free energy of the ion-electron system (eV)
  ---------------------------------------------------
  alpha Z        PSCENC =       245.40163749
  Ewald energy   TEWEN  =     54869.78344017
  -Hartree energ DENC   =    -79040.89358229
  -exchange      EXHF   =         0.00000000
  -V(xc)+E(xc)   XCENC  =       777.66124061
  PAW double counting   =     33322.17158160   -32987.22976192
  entropy T*S    EENTRO =        -0.00000000
  eigenvalues    EBANDS =     -4660.55951077
  atomic energy  EATOM  =     27121.10918193
  Solvation  Ediel_sol  =         0.00000000
  ---------------------------------------------------
  free energy    TOTEN  =      -352.55577318 eV

  energy without entropy =     -352.55577318  energy(sigma->0) =     -352.55577318


--------------------------------------------------------------------------------------------------------




--------------------------------------- Iteration      2(   9)  ---------------------------------------


    POTLOK:  cpu time    0.4223: real time    0.4252
    SETDIJ:  cpu time    0.8712: real time    0.8771
     EDDAV:  cpu time   31.3978: real time   31.6465
       DOS:  cpu time    0.0044: real time    0.0044
    CHARGE:  cpu time    2.4865: real time    2.5019
    MIXING:  cpu time    0.0102: real time    0.0103
    --------------------------------------------
      LOOP:  cpu time   35.1924: real time   35.4654

 eigenvalue-minimisations  :  5464
 total energy-change (2. order) :-0.9086670E-04  (-0.2624630E-06)
 number of electron     486.9999959 magnetization      53.0000274
 augmentation part       -4.7703020 magnetization      36.5196317

 DIPCOR: dipole corrections for dipol
 direction  3 min pos     1,
 dipolmoment           0.000000      0.000000     -0.040161 electrons x Angstroem
 Tr[quadrupol]    -26935.270088

 energy correction for charged system         0.000000 eV
 dipol+quadrupol energy correction           -0.000026 eV
 added-field ion interaction          0.002132 eV  (added to PSCEN)


 Broyden mixing:
  rms(total) = 0.44330E-03    rms(broyden)= 0.44330E-03
  rms(prec ) = 0.45769E-03
  weight for this iteration     100.00

 eigenvalues of (default mixing * dielectric matrix)
  average eigenvalue GAMMA=   1.0362
  2.4645  1.4208  1.4208  0.7948  0.6885  0.6191  0.4817  0.3997

 Free energy of the ion-electron system (eV)
  ---------------------------------------------------
  alpha Z        PSCENC =       245.40164459
  Ewald energy   TEWEN  =     54869.78344017
  -Hartree energ DENC   =    -79040.89768851
  -exchange      EXHF   =         0.00000000
  -V(xc)+E(xc)   XCENC  =       777.66129275
  PAW double counting   =     33322.17580398   -32987.23438639
  entropy T*S    EENTRO =        -0.00000000
  eigenvalues    EBANDS =     -4660.55515258
  atomic energy  EATOM  =     27121.10918193
  Solvation  Ediel_sol  =         0.00000000
  ---------------------------------------------------
  free energy    TOTEN  =      -352.55586405 eV

  energy without entropy =     -352.55586405  energy(sigma->0) =     -352.55586405


--------------------------------------------------------------------------------------------------------




--------------------------------------- Iteration      2(  10)  ---------------------------------------


    POTLOK:  cpu time    0.4207: real time    0.4236
    SETDIJ:  cpu time    0.8773: real time    0.8820
     EDDAV:  cpu time   28.8406: real time   29.0635
       DOS:  cpu time    0.0030: real time    0.0030
    CHARGE:  cpu time    2.4382: real time    2.4539
    MIXING:  cpu time    0.0104: real time    0.0105
    --------------------------------------------
      LOOP:  cpu time   32.5901: real time   32.8363

 eigenvalue-minimisations  :  4920
 total energy-change (2. order) :-0.9298030E-04  (-0.2083584E-06)
 number of electron     486.9999959 magnetization      53.0000242
 augmentation part       -4.7703221 magnetization      36.5196175

 DIPCOR: dipole corrections for dipol
 direction  3 min pos     1,
 dipolmoment           0.000000      0.000000     -0.040296 electrons x Angstroem
 Tr[quadrupol]    -26935.270241

 energy correction for charged system         0.000000 eV
 dipol+quadrupol energy correction           -0.000027 eV
 added-field ion interaction          0.002139 eV  (added to PSCEN)


 Broyden mixing:
  rms(total) = 0.18597E-03    rms(broyden)= 0.18596E-03
  rms(prec ) = 0.20179E-03
  weight for this iteration     100.00

 eigenvalues of (default mixing * dielectric matrix)
  average eigenvalue GAMMA=   0.9950
  2.5035  1.3831  1.3831  0.8010  0.8010  0.6913  0.5537  0.4509  0.3877

 Free energy of the ion-electron system (eV)
  ---------------------------------------------------
  alpha Z        PSCENC =       245.40165161
  Ewald energy   TEWEN  =     54869.78344017
  -Hartree energ DENC   =    -79040.90101297
  -exchange      EXHF   =         0.00000000
  -V(xc)+E(xc)   XCENC  =       777.66123908
  PAW double counting   =     33322.18395537   -32987.24260771
  entropy T*S    EENTRO =        -0.00000000
  eigenvalues    EBANDS =     -4660.55180452
  atomic energy  EATOM  =     27121.10918193
  Solvation  Ediel_sol  =         0.00000000
  ---------------------------------------------------
  free energy    TOTEN  =      -352.55595703 eV

  energy without entropy =     -352.55595703  energy(sigma->0) =     -352.55595703


--------------------------------------------------------------------------------------------------------




--------------------------------------- Iteration      2(  11)  ---------------------------------------


    POTLOK:  cpu time    0.4195: real time    0.4225
    SETDIJ:  cpu time    0.8660: real time    0.8712
     EDDAV:  cpu time   24.0341: real time   24.2255
       DOS:  cpu time    0.0025: real time    0.0025
    CHARGE:  cpu time    1.9577: real time    1.9718
    MIXING:  cpu time    0.0096: real time    0.0097
    --------------------------------------------
      LOOP:  cpu time   27.2894: real time   27.5031

 eigenvalue-minimisations  :  3816
 total energy-change (2. order) :-0.3628034E-04  (-0.6740570E-07)
 number of electron     486.9999959 magnetization      53.0000204
 augmentation part       -4.7702438 magnetization      36.5196400

 DIPCOR: dipole corrections for dipol
 direction  3 min pos     1,
 dipolmoment           0.000000      0.000000     -0.040320 electrons x Angstroem
 Tr[quadrupol]    -26935.270279

 energy correction for charged system         0.000000 eV
 dipol+quadrupol energy correction           -0.000027 eV
 added-field ion interaction          0.002141 eV  (added to PSCEN)


 Broyden mixing:
  rms(total) = 0.16903E-03    rms(broyden)= 0.16903E-03
  rms(prec ) = 0.18283E-03
  weight for this iteration     100.00

 eigenvalues of (default mixing * dielectric matrix)
  average eigenvalue GAMMA=   0.9753
  2.5075  1.3216  1.3216  1.1328  0.8485  0.6878  0.6300  0.5118  0.3955  0.3955

 Free energy of the ion-electron system (eV)
  ---------------------------------------------------
  alpha Z        PSCENC =       245.40165285
  Ewald energy   TEWEN  =     54869.78344017
  -Hartree energ DENC   =    -79040.90114865
  -exchange      EXHF   =         0.00000000
  -V(xc)+E(xc)   XCENC  =       777.66119499
  PAW double counting   =     33322.18748783   -32987.24592459
  entropy T*S    EENTRO =        -0.00000000
  eigenvalues    EBANDS =     -4660.55187785
  atomic energy  EATOM  =     27121.10918193
  Solvation  Ediel_sol  =         0.00000000
  ---------------------------------------------------
  free energy    TOTEN  =      -352.55599331 eV

  energy without entropy =     -352.55599331  energy(sigma->0) =     -352.55599331


--------------------------------------------------------------------------------------------------------




--------------------------------------- Iteration      2(  12)  ---------------------------------------


    POTLOK:  cpu time    0.4011: real time    0.4043
    SETDIJ:  cpu time    0.8625: real time    0.8682
     EDDAV:  cpu time   24.1214: real time   24.3186
       DOS:  cpu time    0.0029: real time    0.0029
    CHARGE:  cpu time    2.2235: real time    2.2390
    MIXING:  cpu time    0.0101: real time    0.0101
    --------------------------------------------
      LOOP:  cpu time   27.6215: real time   27.8432

 eigenvalue-minimisations  :  3936
 total energy-change (2. order) :-0.4284026E-04  (-0.4200538E-07)
 number of electron     486.9999959 magnetization      53.0000149
 augmentation part       -4.7703009 magnetization      36.5196218

 DIPCOR: dipole corrections for dipol
 direction  3 min pos     1,
 dipolmoment           0.000000      0.000000     -0.040334 electrons x Angstroem
 Tr[quadrupol]    -26935.270336

 energy correction for charged system         0.000000 eV
 dipol+quadrupol energy correction           -0.000027 eV
 added-field ion interaction          0.002141 eV  (added to PSCEN)


 Broyden mixing:
  rms(total) = 0.11141E-03    rms(broyden)= 0.11141E-03
  rms(prec ) = 0.12529E-03
  weight for this iteration     100.00

 eigenvalues of (default mixing * dielectric matrix)
  average eigenvalue GAMMA=   1.0415
  2.6176  1.6050  1.6050  1.5603  0.7791  0.7791  0.6843  0.5902  0.4889  0.4029
  0.3441

 Free energy of the ion-electron system (eV)
  ---------------------------------------------------
  alpha Z        PSCENC =       245.40165357
  Ewald energy   TEWEN  =     54869.78344017
  -Hartree energ DENC   =    -79040.90207508
  -exchange      EXHF   =         0.00000000
  -V(xc)+E(xc)   XCENC  =       777.66118656
  PAW double counting   =     33322.18578734   -32987.24429504
  entropy T*S    EENTRO =        -0.00000000
  eigenvalues    EBANDS =     -4660.55091559
  atomic energy  EATOM  =     27121.10918193
  Solvation  Ediel_sol  =         0.00000000
  ---------------------------------------------------
  free energy    TOTEN  =      -352.55603615 eV

  energy without entropy =     -352.55603615  energy(sigma->0) =     -352.55603615


--------------------------------------------------------------------------------------------------------




--------------------------------------- Iteration      2(  13)  ---------------------------------------


    POTLOK:  cpu time    0.4152: real time    0.4182
    SETDIJ:  cpu time    0.8764: real time    0.8820
     EDDAV:  cpu time   25.2089: real time   25.4161
       DOS:  cpu time    0.0036: real time    0.0036
    CHARGE:  cpu time    2.1539: real time    2.1692
    MIXING:  cpu time    0.0110: real time    0.0110
    --------------------------------------------
      LOOP:  cpu time   28.6690: real time   28.9002

 eigenvalue-minimisations  :  4328
 total energy-change (2. order) :-0.5663990E-04  (-0.7035988E-07)
 number of electron     486.9999959 magnetization      53.0000118
 augmentation part       -4.7702520 magnetization      36.5196364

 DIPCOR: dipole corrections for dipol
 direction  3 min pos     1,
 dipolmoment           0.000000      0.000000     -0.040350 electrons x Angstroem
 Tr[quadrupol]    -26935.270417

 energy correction for charged system         0.000000 eV
 dipol+quadrupol energy correction           -0.000027 eV
 added-field ion interaction          0.002142 eV  (added to PSCEN)


 Broyden mixing:
  rms(total) = 0.13498E-03    rms(broyden)= 0.13498E-03
  rms(prec ) = 0.14104E-03
  weight for this iteration     100.00

 eigenvalues of (default mixing * dielectric matrix)
  average eigenvalue GAMMA=   1.0117
  2.7089  1.8249  1.5568  1.5568  0.7943  0.7943  0.6671  0.5199  0.5199  0.4970
  0.4132  0.2868

 Free energy of the ion-electron system (eV)
  ---------------------------------------------------
  alpha Z        PSCENC =       245.40165441
  Ewald energy   TEWEN  =     54869.78344017
  -Hartree energ DENC   =    -79040.90328954
  -exchange      EXHF   =         0.00000000
  -V(xc)+E(xc)   XCENC  =       777.66113535
  PAW double counting   =     33322.18101523   -32987.23942770
  entropy T*S    EENTRO =        -0.00000000
  eigenvalues    EBANDS =     -4660.54980264
  atomic energy  EATOM  =     27121.10918193
  Solvation  Ediel_sol  =         0.00000000
  ---------------------------------------------------
  free energy    TOTEN  =      -352.55609279 eV

  energy without entropy =     -352.55609279  energy(sigma->0) =     -352.55609279


--------------------------------------------------------------------------------------------------------




--------------------------------------- Iteration      2(  14)  ---------------------------------------


    POTLOK:  cpu time    6.0411: real time    6.2321
    SETDIJ:  cpu time    1.0289: real time    1.0347
     EDDAV:  cpu time   32.4887: real time   32.7080
       DOS:  cpu time    0.0040: real time    0.0040
    CHARGE:  cpu time    2.8598: real time    2.8787
    MIXING:  cpu time    0.0121: real time    0.0122
    --------------------------------------------
      LOOP:  cpu time   42.4345: real time   42.8696

 eigenvalue-minimisations  :  3752
 total energy-change (2. order) :-0.2928362E-04  (-0.3798423E-07)
 number of electron     486.9999959 magnetization      53.0000076
 augmentation part       -4.7703021 magnetization      36.5196128

 DIPCOR: dipole corrections for dipol
 direction  3 min pos     1,
 dipolmoment           0.000000      0.000000     -0.040373 electrons x Angstroem
 Tr[quadrupol]    -26935.270457

 energy correction for charged system         0.000000 eV
 dipol+quadrupol energy correction           -0.000027 eV
 added-field ion interaction          0.002144 eV  (added to PSCEN)


 Broyden mixing:
  rms(total) = 0.69632E-04    rms(broyden)= 0.69631E-04
  rms(prec ) = 0.76895E-04
  weight for this iteration     100.00

 eigenvalues of (default mixing * dielectric matrix)
  average eigenvalue GAMMA=   1.0493
  3.0872  2.1380  1.5034  1.5034  0.9161  0.9161  0.6462  0.6462  0.5973  0.5473
  0.4510  0.4051  0.2830

 Free energy of the ion-electron system (eV)
  ---------------------------------------------------
  alpha Z        PSCENC =       245.40165555
  Ewald energy   TEWEN  =     54869.78344017
  -Hartree energ DENC   =    -79040.90416979
  -exchange      EXHF   =         0.00000000
  -V(xc)+E(xc)   XCENC  =       777.66111923
  PAW double counting   =     33322.17631546   -32987.23476828
  entropy T*S    EENTRO =        -0.00000000
  eigenvalues    EBANDS =     -4660.54889635
  atomic energy  EATOM  =     27121.10918193
  Solvation  Ediel_sol  =         0.00000000
  ---------------------------------------------------
  free energy    TOTEN  =      -352.55612207 eV

  energy without entropy =     -352.55612207  energy(sigma->0) =     -352.55612207


--------------------------------------------------------------------------------------------------------




--------------------------------------- Iteration      2(  15)  ---------------------------------------


    POTLOK:  cpu time    0.4264: real time    0.4295
    SETDIJ:  cpu time    0.8757: real time    0.8810
     EDDAV:  cpu time   27.0188: real time   27.2143
       DOS:  cpu time    0.0036: real time    0.0036
    CHARGE:  cpu time    2.6680: real time    2.6849
    MIXING:  cpu time    0.0109: real time    0.0110
    --------------------------------------------
      LOOP:  cpu time   31.0034: real time   31.2242

 eigenvalue-minimisations  :  4184
 total energy-change (2. order) :-0.3510843E-04  (-0.6444017E-07)
 number of electron     486.9999959 magnetization      53.0000052
 augmentation part       -4.7702544 magnetization      36.5196255

 DIPCOR: dipole corrections for dipol
 direction  3 min pos     1,
 dipolmoment           0.000000      0.000000     -0.040406 electrons x Angstroem
 Tr[quadrupol]    -26935.270509

 energy correction for charged system         0.000000 eV
 dipol+quadrupol energy correction           -0.000027 eV
 added-field ion interaction          0.002145 eV  (added to PSCEN)


 Broyden mixing:
  rms(total) = 0.68805E-04    rms(broyden)= 0.68804E-04
  rms(prec ) = 0.72199E-04
  weight for this iteration     100.00

 eigenvalues of (default mixing * dielectric matrix)
  average eigenvalue GAMMA=   1.0650
  3.1744  2.3173  1.5179  1.5179  1.0647  1.0647  0.6962  0.6962  0.6386  0.5591
  0.5591  0.4459  0.3885  0.2689

 Free energy of the ion-electron system (eV)
  ---------------------------------------------------
  alpha Z        PSCENC =       245.40165728
  Ewald energy   TEWEN  =     54869.78344017
  -Hartree energ DENC   =    -79040.90522228
  -exchange      EXHF   =         0.00000000
  -V(xc)+E(xc)   XCENC  =       777.66107201
  PAW double counting   =     33322.16975440   -32987.22815206
  entropy T*S    EENTRO =        -0.00000000
  eigenvalues    EBANDS =     -4660.54788863
  atomic energy  EATOM  =     27121.10918193
  Solvation  Ediel_sol  =         0.00000000
  ---------------------------------------------------
  free energy    TOTEN  =      -352.55615718 eV

  energy without entropy =     -352.55615718  energy(sigma->0) =     -352.55615718


--------------------------------------------------------------------------------------------------------




--------------------------------------- Iteration      2(  16)  ---------------------------------------


    POTLOK:  cpu time    0.4179: real time    0.4210
    SETDIJ:  cpu time    0.8536: real time    0.8589
     EDDAV:  cpu time   24.8534: real time   25.0320
       DOS:  cpu time    0.0067: real time    0.0067
    CHARGE:  cpu time    2.9383: real time    2.9549
    MIXING:  cpu time    0.0109: real time    0.0110
    --------------------------------------------
      LOOP:  cpu time   29.0807: real time   29.2845

 eigenvalue-minimisations  :  3776
 total energy-change (2. order) :-0.1860448E-04  (-0.2714952E-07)
 number of electron     486.9999959 magnetization      53.0000015
 augmentation part       -4.7703047 magnetization      36.5196001

 DIPCOR: dipole corrections for dipol
 direction  3 min pos     1,
 dipolmoment           0.000000      0.000000     -0.040436 electrons x Angstroem
 Tr[quadrupol]    -26935.270526

 energy correction for charged system         0.000000 eV
 dipol+quadrupol energy correction           -0.000027 eV
 added-field ion interaction          0.002147 eV  (added to PSCEN)


 Broyden mixing:
  rms(total) = 0.68651E-04    rms(broyden)= 0.68650E-04
  rms(prec ) = 0.70686E-04
  weight for this iteration     100.00

 eigenvalues of (default mixing * dielectric matrix)
  average eigenvalue GAMMA=   1.1328
  3.9192  2.4888  1.6632  1.6632  1.2315  1.2315  0.7665  0.7665  0.6590  0.5802
  0.4969  0.4473  0.4473  0.3650  0.2656

 Free energy of the ion-electron system (eV)
  ---------------------------------------------------
  alpha Z        PSCENC =       245.40165881
  Ewald energy   TEWEN  =     54869.78344017
  -Hartree energ DENC   =    -79040.90567804
  -exchange      EXHF   =         0.00000000
  -V(xc)+E(xc)   XCENC  =       777.66106904
  PAW double counting   =     33322.16565737   -32987.22411544
  entropy T*S    EENTRO =        -0.00000000
  eigenvalues    EBANDS =     -4660.54738963
  atomic energy  EATOM  =     27121.10918193
  Solvation  Ediel_sol  =         0.00000000
  ---------------------------------------------------
  free energy    TOTEN  =      -352.55617579 eV

  energy without entropy =     -352.55617579  energy(sigma->0) =     -352.55617579


--------------------------------------------------------------------------------------------------------




--------------------------------------- Iteration      2(  17)  ---------------------------------------


    POTLOK:  cpu time    0.7838: real time    0.7885
    SETDIJ:  cpu time    0.8656: real time    0.8704
     EDDAV:  cpu time   26.8344: real time   27.0265
       DOS:  cpu time    0.0025: real time    0.0025
    CHARGE:  cpu time    2.2116: real time    2.2255
    MIXING:  cpu time    0.0138: real time    0.0139
    --------------------------------------------
      LOOP:  cpu time   30.7117: real time   30.9273

 eigenvalue-minimisations  :  4272
 total energy-change (2. order) :-0.2188321E-04  (-0.5238515E-07)
 number of electron     486.9999959 magnetization      53.0000000
 augmentation part       -4.7702530 magnetization      36.5196215

 DIPCOR: dipole corrections for dipol
 direction  3 min pos     1,
 dipolmoment           0.000000      0.000000     -0.040474 electrons x Angstroem
 Tr[quadrupol]    -26935.270553

 energy correction for charged system         0.000000 eV
 dipol+quadrupol energy correction           -0.000027 eV
 added-field ion interaction          0.002149 eV  (added to PSCEN)


 Broyden mixing:
  rms(total) = 0.39375E-04    rms(broyden)= 0.39374E-04
  rms(prec ) = 0.40752E-04
  weight for this iteration     100.00

 eigenvalues of (default mixing * dielectric matrix)
  average eigenvalue GAMMA=   1.1769
  4.8344  2.6148  1.5452  1.5452  1.4505  1.3502  0.7928  0.7928  0.6915  0.6062
  0.6062  0.4772  0.4490  0.4490  0.3612  0.2644

 Free energy of the ion-electron system (eV)
  ---------------------------------------------------
  alpha Z        PSCENC =       245.40166082
  Ewald energy   TEWEN  =     54869.78344017
  -Hartree energ DENC   =    -79040.90610345
  -exchange      EXHF   =         0.00000000
  -V(xc)+E(xc)   XCENC  =       777.66105135
  PAW double counting   =     33322.16019722   -32987.21864084
  entropy T*S    EENTRO =        -0.00000000
  eigenvalues    EBANDS =     -4660.54698487
  atomic energy  EATOM  =     27121.10918193
  Solvation  Ediel_sol  =         0.00000000
  ---------------------------------------------------
  free energy    TOTEN  =      -352.55619767 eV

  energy without entropy =     -352.55619767  energy(sigma->0) =     -352.55619767


--------------------------------------------------------------------------------------------------------




--------------------------------------- Iteration      2(  18)  ---------------------------------------


    POTLOK:  cpu time    0.4107: real time    0.4135
    SETDIJ:  cpu time    0.8766: real time    0.8826
     EDDAV:  cpu time   22.9654: real time   23.1347
       DOS:  cpu time    0.0033: real time    0.0033
    CHARGE:  cpu time    2.2271: real time    2.2403
    MIXING:  cpu time    0.0110: real time    0.0111
    --------------------------------------------
      LOOP:  cpu time   26.4940: real time   26.6854

 eigenvalue-minimisations  :  3712
 total energy-change (2. order) :-0.6595561E-05  (-0.2221956E-07)
 number of electron     486.9999959 magnetization      52.9999996
 augmentation part       -4.7703130 magnetization      36.5195947

 DIPCOR: dipole corrections for dipol
 direction  3 min pos     1,
 dipolmoment           0.000000      0.000000     -0.040485 electrons x Angstroem
 Tr[quadrupol]    -26935.270558

 energy correction for charged system         0.000000 eV
 dipol+quadrupol energy correction           -0.000027 eV
 added-field ion interaction          0.002149 eV  (added to PSCEN)


 Broyden mixing:
  rms(total) = 0.54837E-04    rms(broyden)= 0.54836E-04
  rms(prec ) = 0.55493E-04
  weight for this iteration     100.00

 eigenvalues of (default mixing * dielectric matrix)
  average eigenvalue GAMMA=   1.1593
  5.1825  2.6188  1.5000  1.5000  1.5745  1.2344  0.8575  0.8575  0.7063  0.6076
  0.6076  0.5049  0.5049  0.4824  0.3986  0.3122  0.2585

 Free energy of the ion-electron system (eV)
  ---------------------------------------------------
  alpha Z        PSCENC =       245.40166136
  Ewald energy   TEWEN  =     54869.78344017
  -Hartree energ DENC   =    -79040.90614836
  -exchange      EXHF   =         0.00000000
  -V(xc)+E(xc)   XCENC  =       777.66105178
  PAW double counting   =     33322.15873664   -32987.21723904
  entropy T*S    EENTRO =        -0.00000000
  eigenvalues    EBANDS =     -4660.54688874
  atomic energy  EATOM  =     27121.10918193
  Solvation  Ediel_sol  =         0.00000000
  ---------------------------------------------------
  free energy    TOTEN  =      -352.55620427 eV

  energy without entropy =     -352.55620427  energy(sigma->0) =     -352.55620427


--------------------------------------------------------------------------------------------------------




--------------------------------------- Iteration      2(  19)  ---------------------------------------


    POTLOK:  cpu time    0.4137: real time    0.4163
    SETDIJ:  cpu time    0.8753: real time    0.8799
     EDDAV:  cpu time   22.6145: real time   22.7808
       DOS:  cpu time    0.0015: real time    0.0015
    CHARGE:  cpu time    2.2037: real time    2.2173
    MIXING:  cpu time    0.0138: real time    0.0139
    --------------------------------------------
      LOOP:  cpu time   26.1225: real time   26.3098

 eigenvalue-minimisations  :  3648
 total energy-change (2. order) :-0.1497829E-05  (-0.1210167E-07)
 number of electron     486.9999959 magnetization      52.9999990
 augmentation part       -4.7702702 magnetization      36.5196147

 DIPCOR: dipole corrections for dipol
 direction  3 min pos     1,
 dipolmoment           0.000000      0.000000     -0.040486 electrons x Angstroem
 Tr[quadrupol]    -26935.270555

 energy correction for charged system         0.000000 eV
 dipol+quadrupol energy correction           -0.000027 eV
 added-field ion interaction          0.002150 eV  (added to PSCEN)


 Broyden mixing:
  rms(total) = 0.14199E-04    rms(broyden)= 0.14198E-04
  rms(prec ) = 0.15788E-04
  weight for this iteration     100.00

 eigenvalues of (default mixing * dielectric matrix)
  average eigenvalue GAMMA=   1.1594
  5.4598  2.5867  1.6237  1.4587  1.4587  1.1851  1.1851  0.8426  0.8426  0.6630
  0.6043  0.6043  0.5059  0.4542  0.4542  0.3869  0.2974  0.2559

 Free energy of the ion-electron system (eV)
  ---------------------------------------------------
  alpha Z        PSCENC =       245.40166143
  Ewald energy   TEWEN  =     54869.78344017
  -Hartree energ DENC   =    -79040.90597479
  -exchange      EXHF   =         0.00000000
  -V(xc)+E(xc)   XCENC  =       777.66103916
  PAW double counting   =     33322.15831638   -32987.21678481
  entropy T*S    EENTRO =        -0.00000000
  eigenvalues    EBANDS =     -4660.54708523
  atomic energy  EATOM  =     27121.10918193
  Solvation  Ediel_sol  =         0.00000000
  ---------------------------------------------------
  free energy    TOTEN  =      -352.55620576 eV

  energy without entropy =     -352.55620576  energy(sigma->0) =     -352.55620576


--------------------------------------------------------------------------------------------------------




--------------------------------------- Iteration      2(  20)  ---------------------------------------


    POTLOK:  cpu time    2.6003: real time    2.6143
    SETDIJ:  cpu time    0.8639: real time    0.8687
     EDDAV:  cpu time   22.5573: real time   22.7205
       DOS:  cpu time    0.0025: real time    0.0026
    CHARGE:  cpu time    2.3476: real time    2.3611
    MIXING:  cpu time    0.0136: real time    0.0137
    --------------------------------------------
      LOOP:  cpu time   28.3852: real time   28.5808

 eigenvalue-minimisations  :  3552
 total energy-change (2. order) :-0.1881250E-05  (-0.8367572E-08)
 number of electron     486.9999959 magnetization      52.9999983
 augmentation part       -4.7702984 magnetization      36.5195987

 DIPCOR: dipole corrections for dipol
 direction  3 min pos     1,
 dipolmoment           0.000000      0.000000     -0.040488 electrons x Angstroem
 Tr[quadrupol]    -26935.270548

 energy correction for charged system         0.000000 eV
 dipol+quadrupol energy correction           -0.000027 eV
 added-field ion interaction          0.002150 eV  (added to PSCEN)


 Broyden mixing:
  rms(total) = 0.36668E-04    rms(broyden)= 0.36668E-04
  rms(prec ) = 0.37147E-04
  weight for this iteration     100.00

 eigenvalues of (default mixing * dielectric matrix)
  average eigenvalue GAMMA=   1.2155
  5.8700  2.5345  1.7835  1.7835  1.4905  1.4905  1.4685  0.9238  0.9238  0.6801
  0.6358  0.6358  0.5729  0.4732  0.4591  0.4591  0.3786  0.2819  0.2498

 Free energy of the ion-electron system (eV)
  ---------------------------------------------------
  alpha Z        PSCENC =       245.40166153
  Ewald energy   TEWEN  =     54869.78344017
  -Hartree energ DENC   =    -79040.90572806
  -exchange      EXHF   =         0.00000000
  -V(xc)+E(xc)   XCENC  =       777.66103576
  PAW double counting   =     33322.15929730   -32987.21776959
  entropy T*S    EENTRO =        -0.00000000
  eigenvalues    EBANDS =     -4660.54732669
  atomic energy  EATOM  =     27121.10918193
  Solvation  Ediel_sol  =         0.00000000
  ---------------------------------------------------
  free energy    TOTEN  =      -352.55620764 eV

  energy without entropy =     -352.55620764  energy(sigma->0) =     -352.55620764


--------------------------------------------------------------------------------------------------------




--------------------------------------- Iteration      2(  21)  ---------------------------------------


    POTLOK:  cpu time    0.4200: real time    0.4227
    SETDIJ:  cpu time    0.8583: real time    0.8630
     EDDAV:  cpu time   24.2519: real time   24.4214
       DOS:  cpu time    0.0041: real time    0.0042
    CHARGE:  cpu time    2.3788: real time    2.3928
    MIXING:  cpu time    0.0113: real time    0.0114
    --------------------------------------------
      LOOP:  cpu time   27.9245: real time   28.1155

 eigenvalue-minimisations  :  3664
 total energy-change (2. order) :-0.1776520E-05  (-0.7794675E-08)
 number of electron     486.9999959 magnetization      52.9999981
 augmentation part       -4.7702714 magnetization      36.5196129

 DIPCOR: dipole corrections for dipol
 direction  3 min pos     1,
 dipolmoment           0.000000      0.000000     -0.040493 electrons x Angstroem
 Tr[quadrupol]    -26935.270536

 energy correction for charged system         0.000000 eV
 dipol+quadrupol energy correction           -0.000027 eV
 added-field ion interaction          0.002150 eV  (added to PSCEN)


 Broyden mixing:
  rms(total) = 0.19902E-04    rms(broyden)= 0.19902E-04
  rms(prec ) = 0.20240E-04
  weight for this iteration     100.00

 eigenvalues of (default mixing * dielectric matrix)
  average eigenvalue GAMMA=   1.2126
  6.1497  2.5870  1.9820  1.9820  1.5045  1.5045  1.3923  0.8536  0.8536  0.7335
  0.7335  0.6183  0.5530  0.5530  0.4609  0.4609  0.4368  0.3681  0.2769  0.2468

 Free energy of the ion-electron system (eV)
  ---------------------------------------------------
  alpha Z        PSCENC =       245.40166180
  Ewald energy   TEWEN  =     54869.78344017
  -Hartree energ DENC   =    -79040.90535247
  -exchange      EXHF   =         0.00000000
  -V(xc)+E(xc)   XCENC  =       777.66101963
  PAW double counting   =     33322.16060387   -32987.21904704
  entropy T*S    EENTRO =        -0.00000000
  eigenvalues    EBANDS =     -4660.54771731
  atomic energy  EATOM  =     27121.10918193
  Solvation  Ediel_sol  =         0.00000000
  ---------------------------------------------------
  free energy    TOTEN  =      -352.55620942 eV

  energy without entropy =     -352.55620942  energy(sigma->0) =     -352.55620942


--------------------------------------------------------------------------------------------------------




--------------------------------------- Iteration      2(  22)  ---------------------------------------


    POTLOK:  cpu time    0.7291: real time    0.7336
    SETDIJ:  cpu time    0.8761: real time    0.8808
     EDDAV:  cpu time   23.0419: real time   23.2033
       DOS:  cpu time    0.0025: real time    0.0025
    --------------------------------------------
      LOOP:  cpu time   24.6498: real time   24.8202

 eigenvalue-minimisations  :  3608
 total energy-change (2. order) :-0.4767862E-06  (-0.4402188E-08)
 number of electron     486.9999959 magnetization      52.9999981
 augmentation part       -4.7702714 magnetization      36.5196129

 DIPCOR: dipole corrections for dipol
 direction  3 min pos     1,
 dipolmoment           0.000000      0.000000     -0.040495 electrons x Angstroem
 Tr[quadrupol]    -26935.270531

 energy correction for charged system         0.000000 eV
 dipol+quadrupol energy correction           -0.000027 eV
 added-field ion interaction          0.002150 eV  (added to PSCEN)


 Free energy of the ion-electron system (eV)
  ---------------------------------------------------
  alpha Z        PSCENC =       245.40166187
  Ewald energy   TEWEN  =     54869.78344017
  -Hartree energ DENC   =    -79040.90522224
  -exchange      EXHF   =         0.00000000
  -V(xc)+E(xc)   XCENC  =       777.66101559
  PAW double counting   =     33322.16095471   -32987.21938742
  entropy T*S    EENTRO =        -0.00000000
  eigenvalues    EBANDS =     -4660.54785451
  atomic energy  EATOM  =     27121.10918193
  Solvation  Ediel_sol  =         0.00000000
  ---------------------------------------------------
  free energy    TOTEN  =      -352.55620990 eV

  energy without entropy =     -352.55620990  energy(sigma->0) =     -352.55620990


--------------------------------------------------------------------------------------------------------




 average (electrostatic) potential at core
  the test charge radii are     1.1394  0.9406  0.5201
  (the norm of the test charge is              1.0000)
       1 -52.8328       2 -52.8328       3 -52.8601       4 -52.8328       5 -52.8601
       6 -52.8620       7 -52.8328       8 -52.8601       9 -52.8328      10 -52.8328
      11 -52.8620      12 -52.8601      13 -52.8620      14 -52.8601      15 -52.8601
      16 -52.8620      17 -52.8620      18 -52.8620      19 -99.2811      20 -99.2811
      21 -99.2926      22 -99.6151      23 -99.2914      24 -99.2889      25 -99.2909
      26 -99.2926      27 -99.3042      28 -99.2900      29 -99.2901      30 -99.2914
      31 -99.3042      32 -99.2911      33 -99.2901      34 -99.2914      35 -99.2900
      36 -99.2901      37 -99.2926      38 -99.2909      39 -99.3042      40 -99.2889
      41 -99.6151      42 -99.2914      43 -99.3042      44 -99.3042      45 -99.2811
      46 -99.2914      47 -99.2889      48 -99.6151      49 -99.2901      50 -99.2901
      51 -99.2909      52 -99.2901      53 -99.2902      54 -99.2900      55 -99.2911
      56 -99.3042      57 -99.2901      58 -99.2902      59 -99.2900      60 -99.2901
      61 -99.2901      62 -99.2901      63 -99.2909      64 -99.2901      65 -99.2914
      66 -99.2900      67 -99.2909      68 -99.2909      69 -99.2911      70 -99.2900
      71 -99.2901      72 -99.2902      73 -39.1679



 E-fermi :  -2.8519     XC(G=0):  -2.9551     alpha+bet : -2.3869

 Fermi energy:        -2.8519034057

 spin component 1

 k-point     1 :       0.0000    0.0000    0.0000
  band No.  band energies     occupation 
      1     -19.6458      1.00000
      2     -19.4665      1.00000
      3     -19.4461      1.00000
      4     -19.4461      1.00000
      5     -19.4094      1.00000
      6     -19.4094      1.00000
      7     -19.4094      1.00000
      8     -19.1716      1.00000
      9     -19.1716      1.00000
     10     -19.1292      1.00000
     11     -19.1292      1.00000
     12     -18.9517      1.00000
     13     -18.9333      1.00000
     14     -18.9333      1.00000
     15     -18.8791      1.00000
     16     -18.8736      1.00000
     17     -18.8736      1.00000
     18     -18.8435      1.00000
     19     -18.7811      1.00000
     20     -18.7619      1.00000
     21     -18.7619      1.00000
     22     -18.7566      1.00000
     23     -18.7422      1.00000
     24     -18.7147      1.00000
     25     -18.7147      1.00000
     26     -18.7144      1.00000
     27     -18.7088      1.00000
     28     -18.7088      1.00000
     29     -18.6781      1.00000
     30     -18.6781      1.00000
     31     -18.6772      1.00000
     32     -18.6761      1.00000
     33     -18.6530      1.00000
     34     -18.6530      1.00000
     35     -18.6272      1.00000
     36     -18.6272      1.00000
     37     -18.6178      1.00000
     38     -18.6178      1.00000
     39     -18.6153      1.00000
     40     -18.5893      1.00000
     41     -18.5893      1.00000
     42     -18.5873      1.00000
     43     -18.5726      1.00000
     44     -18.5725      1.00000
     45     -18.5670      1.00000
     46     -18.5670      1.00000
     47     -18.5628      1.00000
     48     -18.5614      1.00000
     49     -18.5614      1.00000
     50     -18.5577      1.00000
     51     -18.5577      1.00000
     52     -18.5557      1.00000
     53     -18.5296      1.00000
     54     -18.5296      1.00000
     55      -9.3600      1.00000
     56      -9.3443      1.00000
     57      -9.3326      1.00000
     58      -9.3326      1.00000
     59      -9.3099      1.00000
     60      -9.3054      1.00000
     61      -9.3054      1.00000
     62      -8.9797      1.00000
     63      -8.9331      1.00000
     64      -8.9331      1.00000
     65      -8.9264      1.00000
     66      -8.9264      1.00000
     67      -8.8869      1.00000
     68      -8.8326      1.00000
     69      -8.8326      1.00000
     70      -8.8111      1.00000
     71      -8.8107      1.00000
     72      -8.8107      1.00000
     73      -8.7078      1.00000
     74      -8.6225      1.00000
     75      -8.5458      1.00000
     76      -8.5393      1.00000
     77      -8.5393      1.00000
     78      -8.5003      1.00000
     79      -8.5002      1.00000
     80      -8.5002      1.00000
     81      -8.4712      1.00000
     82      -8.4688      1.00000
     83      -8.4688      1.00000
     84      -8.4480      1.00000
     85      -8.4480      1.00000
     86      -8.4398      1.00000
     87      -8.4314      1.00000
     88      -8.4314      1.00000
     89      -8.4240      1.00000
     90      -8.4240      1.00000
     91      -8.4203      1.00000
     92      -8.4203      1.00000
     93      -8.4094      1.00000
     94      -8.3952      1.00000
     95      -8.3952      1.00000
     96      -8.3797      1.00000
     97      -8.3797      1.00000
     98      -8.3731      1.00000
     99      -8.3731      1.00000
    100      -8.3702      1.00000
    101      -8.1866      1.00000
    102      -8.1770      1.00000
    103      -8.1754      1.00000
    104      -8.1754      1.00000
    105      -8.1692      1.00000
    106      -8.1692      1.00000
    107      -8.1496      1.00000
    108      -8.1496      1.00000
    109      -8.1233      1.00000
    110      -8.1225      1.00000
    111      -8.1225      1.00000
    112      -8.1178      1.00000
    113      -8.1178      1.00000
    114      -8.1178      1.00000
    115      -8.1153      1.00000
    116      -8.1153      1.00000
    117      -8.0066      1.00000
    118      -7.9816      1.00000
    119      -7.9762      1.00000
    120      -7.9390      1.00000
    121      -7.9390      1.00000
    122      -7.9383      1.00000
    123      -7.8589      1.00000
    124      -7.8483      1.00000
    125      -7.8382      1.00000
    126      -7.8382      1.00000
    127      -7.8368      1.00000
    128      -7.8362      1.00000
    129      -7.8362      1.00000
    130      -7.7401      1.00000
    131      -7.7401      1.00000
    132      -7.7357      1.00000
    133      -7.7286      1.00000
    134      -7.7248      1.00000
    135      -7.7248      1.00000
    136      -7.3471      1.00000
    137      -7.3182      1.00000
    138      -7.2986      1.00000
    139      -7.2986      1.00000
    140      -7.2912      1.00000
    141      -7.2876      1.00000
    142      -7.2876      1.00000
    143      -7.1992      1.00000
    144      -7.1992      1.00000
    145      -7.1797      1.00000
    146      -7.1483      1.00000
    147      -6.9514      1.00000
    148      -6.9514      1.00000
    149      -6.9264      1.00000
    150      -6.8973      1.00000
    151      -6.8973      1.00000
    152      -6.8927      1.00000
    153      -6.8544      1.00000
    154      -6.7996      1.00000
    155      -6.7996      1.00000
    156      -6.7718      1.00000
    157      -6.7718      1.00000
    158      -6.7685      1.00000
    159      -6.7569      1.00000
    160      -6.7454      1.00000
    161      -6.7310      1.00000
    162      -6.7269      1.00000
    163      -6.7269      1.00000
    164      -6.7042      1.00000
    165      -6.7006      1.00000
    166      -6.7006      1.00000
    167      -6.6365      1.00000
    168      -6.6365      1.00000
    169      -6.6252      1.00000
    170      -6.6252      1.00000
    171      -6.6210      1.00000
    172      -6.5504      1.00000
    173      -6.5504      1.00000
    174      -6.5129      1.00000
    175      -6.5129      1.00000
    176      -6.5069      1.00000
    177      -6.5068      1.00000
    178      -6.5068      1.00000
    179      -6.5028      1.00000
    180      -6.5028      1.00000
    181      -6.4404      1.00000
    182      -6.3088      1.00000
    183      -6.3005      1.00000
    184      -6.3005      1.00000
    185      -6.2755      1.00000
    186      -6.2735      1.00000
    187      -6.2735      1.00000
    188      -6.2299      1.00000
    189      -6.2299      1.00000
    190      -6.1944      1.00000
    191      -6.1902      1.00000
    192      -6.1902      1.00000
    193      -6.1888      1.00000
    194      -6.1451      1.00000
    195      -6.1016      1.00000
    196      -6.0778      1.00000
    197      -6.0265      1.00000
    198      -6.0265      1.00000
    199      -5.9974      1.00000
    200      -5.9974      1.00000
    201      -5.9908      1.00000
    202      -5.9908      1.00000
    203      -5.8550      1.00000
    204      -5.8135      1.00000
    205      -5.8135      1.00000
    206      -5.7953      1.00000
    207      -5.7953      1.00000
    208      -5.7913      1.00000
    209      -5.7659      1.00000
    210      -5.7626      1.00000
    211      -5.7626      1.00000
    212      -5.7521      1.00000
    213      -5.7519      1.00000
    214      -5.7519      1.00000
    215      -5.6814      1.00000
    216      -5.6814      1.00000
    217      -5.1699      1.00000
    218      -5.1312      1.00000
    219      -5.1251      1.00000
    220      -5.1251      1.00000
    221      -5.1218      1.00000
    222      -5.1218      1.00000
    223      -5.1176      1.00000
    224      -5.0856      1.00000
    225      -5.0579      1.00000
    226      -4.8732      1.00000
    227      -4.8724      1.00000
    228      -4.8724      1.00000
    229      -4.8681      1.00000
    230      -4.8681      1.00000
    231      -4.8564      1.00000
    232      -4.8473      1.00000
    233      -4.8448      1.00000
    234      -4.8448      1.00000
    235      -4.8405      1.00000
    236      -4.8405      1.00000
    237      -4.8334      1.00000
    238      -4.8254      1.00000
    239      -4.8254      1.00000
    240      -4.7511      1.00000
    241      -4.7511      1.00000
    242      -4.7424      1.00000
    243      -4.7414      1.00000
    244      -4.7414      1.00000
    245      -4.6649      1.00000
    246      -4.6154      1.00000
    247      -4.6103      1.00000
    248      -4.6103      1.00000
    249      -4.6048      1.00000
    250      -4.6048      1.00000
    251      -4.5787      1.00000
    252      -4.5681      1.00000
    253      -4.5681      1.00000
    254      -4.5570      1.00000
    255      -4.5547      1.00000
    256      -4.5547      1.00000
    257      -4.5484      1.00000
    258      -4.5447      1.00000
    259      -4.5447      1.00000
    260      -4.5374      1.00000
    261      -4.5349      1.00000
    262      -4.5349      1.00000
    263      -4.5185      1.00000
    264      -4.5185      1.00000
    265      -4.4030      1.00000
    266      -4.4030      1.00000
    267      -4.4009      1.00000
    268      -4.3966      1.00000
    269      -4.3966      1.00000
    270      -4.3911      1.00000
    271      -2.6244      0.00000
    272      -2.5927      0.00000
    273      -2.5806      0.00000
    274      -2.5626      0.00000
    275      -2.5626      0.00000
    276      -2.5599      0.00000
    277      -2.5591      0.00000
    278      -2.5591      0.00000
    279      -2.5536      0.00000
    280      -2.5536      0.00000
    281      -2.5504      0.00000
    282      -2.5504      0.00000
    283      -2.5488      0.00000
    284      -2.5449      0.00000
    285      -2.5449      0.00000
    286      -2.5318      0.00000
    287      -2.5241      0.00000
    288      -2.5241      0.00000
    289      -2.5190      0.00000
    290      -2.5190      0.00000
    291      -2.4998      0.00000
    292      -2.4916      0.00000
    293      -2.4916      0.00000
    294      -2.4860      0.00000
    295      -2.4754      0.00000
    296      -2.4754      0.00000
    297      -2.4065      0.00000
    298      -2.4065      0.00000
    299      -2.4033      0.00000
    300      -2.3961      0.00000
    301      -2.3961      0.00000
    302      -2.3908      0.00000
    303      -2.3133      0.00000
    304      -2.3133      0.00000
    305      -2.3061      0.00000
    306      -2.2904      0.00000
    307      -0.4542      0.00000
    308       1.4039      0.00000
    309       1.9741      0.00000
    310       2.2011      0.00000
    311       2.2011      0.00000
    312       2.2112      0.00000
    313       2.2112      0.00000
    314       2.2133      0.00000
    315       2.2432      0.00000
    316       2.4990      0.00000
    317       2.5102      0.00000
    318       2.5102      0.00000
    319       2.5168      0.00000
    320       2.5170      0.00000

 k-point     2 :       0.2000    0.0000    0.0000
  band No.  band energies     occupation 
      1     -19.6376      1.00000
      2     -19.5092      1.00000
      3     -19.4623      1.00000
      4     -19.4548      1.00000
      5     -19.4017      1.00000
      6     -19.3821      1.00000
      7     -19.3490      1.00000
      8     -19.2163      1.00000
      9     -19.2131      1.00000
     10     -19.0939      1.00000
     11     -19.0880      1.00000
     12     -18.9843      1.00000
     13     -18.9572      1.00000
     14     -18.9459      1.00000
     15     -18.8898      1.00000
     16     -18.8705      1.00000
     17     -18.8382      1.00000
     18     -18.8238      1.00000
     19     -18.7784      1.00000
     20     -18.7635      1.00000
     21     -18.7575      1.00000
     22     -18.7490      1.00000
     23     -18.7349      1.00000
     24     -18.7320      1.00000
     25     -18.7199      1.00000
     26     -18.7121      1.00000
     27     -18.7032      1.00000
     28     -18.6983      1.00000
     29     -18.6811      1.00000
     30     -18.6796      1.00000
     31     -18.6754      1.00000
     32     -18.6726      1.00000
     33     -18.6594      1.00000
     34     -18.6557      1.00000
     35     -18.6387      1.00000
     36     -18.6364      1.00000
     37     -18.6209      1.00000
     38     -18.6138      1.00000
     39     -18.6078      1.00000
     40     -18.5962      1.00000
     41     -18.5918      1.00000
     42     -18.5830      1.00000
     43     -18.5793      1.00000
     44     -18.5764      1.00000
     45     -18.5689      1.00000
     46     -18.5665      1.00000
     47     -18.5611      1.00000
     48     -18.5599      1.00000
     49     -18.5588      1.00000
     50     -18.5551      1.00000
     51     -18.5516      1.00000
     52     -18.5509      1.00000
     53     -18.5310      1.00000
     54     -18.5305      1.00000
     55      -9.3518      1.00000
     56      -9.3442      1.00000
     57      -9.3277      1.00000
     58      -9.3199      1.00000
     59      -9.3089      1.00000
     60      -9.2959      1.00000
     61      -9.2901      1.00000
     62      -9.0493      1.00000
     63      -9.0368      1.00000
     64      -8.9780      1.00000
     65      -8.8919      1.00000
     66      -8.8668      1.00000
     67      -8.8541      1.00000
     68      -8.8445      1.00000
     69      -8.8408      1.00000
     70      -8.8227      1.00000
     71      -8.8049      1.00000
     72      -8.7787      1.00000
     73      -8.6907      1.00000
     74      -8.6007      1.00000
     75      -8.5486      1.00000
     76      -8.5424      1.00000
     77      -8.5371      1.00000
     78      -8.5097      1.00000
     79      -8.5074      1.00000
     80      -8.4964      1.00000
     81      -8.4820      1.00000
     82      -8.4714      1.00000
     83      -8.4702      1.00000
     84      -8.4514      1.00000
     85      -8.4481      1.00000
     86      -8.4472      1.00000
     87      -8.4433      1.00000
     88      -8.4406      1.00000
     89      -8.4350      1.00000
     90      -8.4292      1.00000
     91      -8.4201      1.00000
     92      -8.4105      1.00000
     93      -8.4082      1.00000
     94      -8.4009      1.00000
     95      -8.3943      1.00000
     96      -8.3860      1.00000
     97      -8.3856      1.00000
     98      -8.3507      1.00000
     99      -8.3436      1.00000
    100      -8.2998      1.00000
    101      -8.2225      1.00000
    102      -8.1999      1.00000
    103      -8.1923      1.00000
    104      -8.1775      1.00000
    105      -8.1628      1.00000
    106      -8.1475      1.00000
    107      -8.1444      1.00000
    108      -8.1392      1.00000
    109      -8.1329      1.00000
    110      -8.1279      1.00000
    111      -8.1234      1.00000
    112      -8.1162      1.00000
    113      -8.1147      1.00000
    114      -8.1110      1.00000
    115      -8.1103      1.00000
    116      -8.1081      1.00000
    117      -8.0036      1.00000
    118      -7.9794      1.00000
    119      -7.9745      1.00000
    120      -7.9481      1.00000
    121      -7.9402      1.00000
    122      -7.9360      1.00000
    123      -7.9239      1.00000
    124      -7.9084      1.00000
    125      -7.8785      1.00000
    126      -7.8669      1.00000
    127      -7.8436      1.00000
    128      -7.8407      1.00000
    129      -7.7990      1.00000
    130      -7.7720      1.00000
    131      -7.7223      1.00000
    132      -7.7104      1.00000
    133      -7.6067      1.00000
    134      -7.5995      1.00000
    135      -7.5918      1.00000
    136      -7.3830      1.00000
    137      -7.3448      1.00000
    138      -7.3422      1.00000
    139      -7.3164      1.00000
    140      -7.2793      1.00000
    141      -7.2729      1.00000
    142      -7.2547      1.00000
    143      -7.2072      1.00000
    144      -7.1739      1.00000
    145      -7.1655      1.00000
    146      -7.1525      1.00000
    147      -7.0861      1.00000
    148      -7.0464      1.00000
    149      -7.0327      1.00000
    150      -6.9446      1.00000
    151      -6.9261      1.00000
    152      -6.8969      1.00000
    153      -6.8937      1.00000
    154      -6.8800      1.00000
    155      -6.8703      1.00000
    156      -6.8410      1.00000
    157      -6.8081      1.00000
    158      -6.7980      1.00000
    159      -6.7833      1.00000
    160      -6.7632      1.00000
    161      -6.7489      1.00000
    162      -6.6996      1.00000
    163      -6.6943      1.00000
    164      -6.6854      1.00000
    165      -6.6776      1.00000
    166      -6.6614      1.00000
    167      -6.6575      1.00000
    168      -6.6139      1.00000
    169      -6.6096      1.00000
    170      -6.5907      1.00000
    171      -6.5721      1.00000
    172      -6.5554      1.00000
    173      -6.5506      1.00000
    174      -6.4953      1.00000
    175      -6.4745      1.00000
    176      -6.4653      1.00000
    177      -6.4509      1.00000
    178      -6.4351      1.00000
    179      -6.4239      1.00000
    180      -6.3643      1.00000
    181      -6.3566      1.00000
    182      -6.3213      1.00000
    183      -6.3108      1.00000
    184      -6.2987      1.00000
    185      -6.2750      1.00000
    186      -6.2602      1.00000
    187      -6.2312      1.00000
    188      -6.2149      1.00000
    189      -6.2114      1.00000
    190      -6.1787      1.00000
    191      -6.1763      1.00000
    192      -6.1759      1.00000
    193      -6.1698      1.00000
    194      -6.1682      1.00000
    195      -6.1295      1.00000
    196      -6.1074      1.00000
    197      -6.0482      1.00000
    198      -6.0123      1.00000
    199      -6.0021      1.00000
    200      -5.9936      1.00000
    201      -5.9628      1.00000
    202      -5.9596      1.00000
    203      -5.8649      1.00000
    204      -5.8487      1.00000
    205      -5.8384      1.00000
    206      -5.8284      1.00000
    207      -5.8176      1.00000
    208      -5.8039      1.00000
    209      -5.7934      1.00000
    210      -5.7868      1.00000
    211      -5.7804      1.00000
    212      -5.7766      1.00000
    213      -5.7763      1.00000
    214      -5.7454      1.00000
    215      -5.7387      1.00000
    216      -5.6984      1.00000
    217      -5.1626      1.00000
    218      -5.1563      1.00000
    219      -5.1261      1.00000
    220      -5.1222      1.00000
    221      -5.0963      1.00000
    222      -5.0943      1.00000
    223      -5.0874      1.00000
    224      -5.0858      1.00000
    225      -5.0546      1.00000
    226      -4.8792      1.00000
    227      -4.8776      1.00000
    228      -4.8767      1.00000
    229      -4.8693      1.00000
    230      -4.8663      1.00000
    231      -4.8545      1.00000
    232      -4.8534      1.00000
    233      -4.8380      1.00000
    234      -4.8365      1.00000
    235      -4.8347      1.00000
    236      -4.8309      1.00000
    237      -4.8263      1.00000
    238      -4.8214      1.00000
    239      -4.8185      1.00000
    240      -4.7725      1.00000
    241      -4.7697      1.00000
    242      -4.7557      1.00000
    243      -4.7504      1.00000
    244      -4.7289      1.00000
    245      -4.6636      1.00000
    246      -4.6264      1.00000
    247      -4.6153      1.00000
    248      -4.6105      1.00000
    249      -4.6023      1.00000
    250      -4.5990      1.00000
    251      -4.5864      1.00000
    252      -4.5703      1.00000
    253      -4.5648      1.00000
    254      -4.5586      1.00000
    255      -4.5544      1.00000
    256      -4.5511      1.00000
    257      -4.5509      1.00000
    258      -4.5444      1.00000
    259      -4.5425      1.00000
    260      -4.5379      1.00000
    261      -4.5358      1.00000
    262      -4.5336      1.00000
    263      -4.4860      1.00000
    264      -4.4814      1.00000
    265      -4.4360      1.00000
    266      -4.4242      1.00000
    267      -4.4201      1.00000
    268      -4.3948      1.00000
    269      -4.3900      1.00000
    270      -4.3734      1.00000
    271      -2.6265      0.00000
    272      -2.5934      0.00000
    273      -2.5863      0.00000
    274      -2.5799      0.00000
    275      -2.5715      0.00000
    276      -2.5610      0.00000
    277      -2.5594      0.00000
    278      -2.5573      0.00000
    279      -2.5550      0.00000
    280      -2.5516      0.00000
    281      -2.5506      0.00000
    282      -2.5448      0.00000
    283      -2.5427      0.00000
    284      -2.5399      0.00000
    285      -2.5328      0.00000
    286      -2.5287      0.00000
    287      -2.5274      0.00000
    288      -2.5237      0.00000
    289      -2.5179      0.00000
    290      -2.5131      0.00000
    291      -2.5054      0.00000
    292      -2.5004      0.00000
    293      -2.4969      0.00000
    294      -2.4830      0.00000
    295      -2.4781      0.00000
    296      -2.4593      0.00000
    297      -2.4325      0.00000
    298      -2.4052      0.00000
    299      -2.3955      0.00000
    300      -2.3787      0.00000
    301      -2.3740      0.00000
    302      -2.3683      0.00000
    303      -2.3331      0.00000
    304      -2.3170      0.00000
    305      -2.3160      0.00000
    306      -2.3007      0.00000
    307      -0.4535      0.00000
    308       1.4420      0.00000
    309       1.9500      0.00000
    310       1.9987      0.00000
    311       2.0874      0.00000
    312       2.1074      0.00000
    313       2.3307      0.00000
    314       2.3675      0.00000
    315       2.3781      0.00000
    316       2.4329      0.00000
    317       2.4332      0.00000
    318       2.5085      0.00000
    319       2.5388      0.00000
    320       2.6276      0.00000

 k-point     3 :       0.4000    0.0000    0.0000
  band No.  band energies     occupation 
      1     -19.6163      1.00000
      2     -19.5567      1.00000
      3     -19.4772      1.00000
      4     -19.4711      1.00000
      5     -19.3530      1.00000
      6     -19.3353      1.00000
      7     -19.2998      1.00000
      8     -19.2706      1.00000
      9     -19.2695      1.00000
     10     -19.0591      1.00000
     11     -19.0459      1.00000
     12     -19.0249      1.00000
     13     -18.9829      1.00000
     14     -18.9799      1.00000
     15     -18.8824      1.00000
     16     -18.8722      1.00000
     17     -18.8178      1.00000
     18     -18.8036      1.00000
     19     -18.7744      1.00000
     20     -18.7595      1.00000
     21     -18.7490      1.00000
     22     -18.7329      1.00000
     23     -18.7316      1.00000
     24     -18.7289      1.00000
     25     -18.7200      1.00000
     26     -18.7167      1.00000
     27     -18.7024      1.00000
     28     -18.6972      1.00000
     29     -18.6862      1.00000
     30     -18.6818      1.00000
     31     -18.6748      1.00000
     32     -18.6690      1.00000
     33     -18.6610      1.00000
     34     -18.6583      1.00000
     35     -18.6552      1.00000
     36     -18.6498      1.00000
     37     -18.6234      1.00000
     38     -18.6187      1.00000
     39     -18.6056      1.00000
     40     -18.5997      1.00000
     41     -18.5930      1.00000
     42     -18.5853      1.00000
     43     -18.5834      1.00000
     44     -18.5736      1.00000
     45     -18.5718      1.00000
     46     -18.5674      1.00000
     47     -18.5600      1.00000
     48     -18.5585      1.00000
     49     -18.5551      1.00000
     50     -18.5533      1.00000
     51     -18.5434      1.00000
     52     -18.5420      1.00000
     53     -18.5350      1.00000
     54     -18.5335      1.00000
     55      -9.3498      1.00000
     56      -9.3412      1.00000
     57      -9.3245      1.00000
     58      -9.2982      1.00000
     59      -9.2871      1.00000
     60      -9.2626      1.00000
     61      -9.2396      1.00000
     62      -9.1617      1.00000
     63      -9.1494      1.00000
     64      -8.9902      1.00000
     65      -8.8865      1.00000
     66      -8.8721      1.00000
     67      -8.8665      1.00000
     68      -8.8316      1.00000
     69      -8.8239      1.00000
     70      -8.8170      1.00000
     71      -8.8027      1.00000
     72      -8.7500      1.00000
     73      -8.6705      1.00000
     74      -8.5622      1.00000
     75      -8.5507      1.00000
     76      -8.5471      1.00000
     77      -8.5333      1.00000
     78      -8.5246      1.00000
     79      -8.5225      1.00000
     80      -8.5128      1.00000
     81      -8.4855      1.00000
     82      -8.4725      1.00000
     83      -8.4707      1.00000
     84      -8.4634      1.00000
     85      -8.4615      1.00000
     86      -8.4585      1.00000
     87      -8.4497      1.00000
     88      -8.4442      1.00000
     89      -8.4370      1.00000
     90      -8.4359      1.00000
     91      -8.4280      1.00000
     92      -8.4193      1.00000
     93      -8.4115      1.00000
     94      -8.3995      1.00000
     95      -8.3542      1.00000
     96      -8.3525      1.00000
     97      -8.3370      1.00000
     98      -8.3344      1.00000
     99      -8.3303      1.00000
    100      -8.2528      1.00000
    101      -8.2487      1.00000
    102      -8.2288      1.00000
    103      -8.2005      1.00000
    104      -8.1941      1.00000
    105      -8.1776      1.00000
    106      -8.1686      1.00000
    107      -8.1535      1.00000
    108      -8.1465      1.00000
    109      -8.1343      1.00000
    110      -8.1201      1.00000
    111      -8.1137      1.00000
    112      -8.1081      1.00000
    113      -8.1043      1.00000
    114      -8.1025      1.00000
    115      -8.0986      1.00000
    116      -8.0586      1.00000
    117      -8.0199      1.00000
    118      -8.0044      1.00000
    119      -8.0015      1.00000
    120      -7.9651      1.00000
    121      -7.9531      1.00000
    122      -7.9498      1.00000
    123      -7.9327      1.00000
    124      -7.9267      1.00000
    125      -7.9155      1.00000
    126      -7.9127      1.00000
    127      -7.9095      1.00000
    128      -7.7469      1.00000
    129      -7.6886      1.00000
    130      -7.6784      1.00000
    131      -7.6735      1.00000
    132      -7.6717      1.00000
    133      -7.5421      1.00000
    134      -7.5242      1.00000
    135      -7.5010      1.00000
    136      -7.4960      1.00000
    137      -7.3333      1.00000
    138      -7.3262      1.00000
    139      -7.2851      1.00000
    140      -7.2684      1.00000
    141      -7.2595      1.00000
    142      -7.2410      1.00000
    143      -7.2253      1.00000
    144      -7.1626      1.00000
    145      -7.1617      1.00000
    146      -7.1349      1.00000
    147      -7.1294      1.00000
    148      -7.1134      1.00000
    149      -7.1080      1.00000
    150      -7.0949      1.00000
    151      -7.0757      1.00000
    152      -7.0483      1.00000
    153      -7.0031      1.00000
    154      -6.9577      1.00000
    155      -6.9489      1.00000
    156      -6.9130      1.00000
    157      -6.8371      1.00000
    158      -6.8200      1.00000
    159      -6.7668      1.00000
    160      -6.7397      1.00000
    161      -6.7294      1.00000
    162      -6.7108      1.00000
    163      -6.7042      1.00000
    164      -6.6889      1.00000
    165      -6.6678      1.00000
    166      -6.6535      1.00000
    167      -6.6501      1.00000
    168      -6.6357      1.00000
    169      -6.6236      1.00000
    170      -6.5523      1.00000
    171      -6.5247      1.00000
    172      -6.5082      1.00000
    173      -6.4874      1.00000
    174      -6.4857      1.00000
    175      -6.4537      1.00000
    176      -6.4340      1.00000
    177      -6.3413      1.00000
    178      -6.3272      1.00000
    179      -6.3007      1.00000
    180      -6.2923      1.00000
    181      -6.2737      1.00000
    182      -6.2480      1.00000
    183      -6.2443      1.00000
    184      -6.2389      1.00000
    185      -6.2264      1.00000
    186      -6.2161      1.00000
    187      -6.2107      1.00000
    188      -6.1904      1.00000
    189      -6.1837      1.00000
    190      -6.1792      1.00000
    191      -6.1670      1.00000
    192      -6.1633      1.00000
    193      -6.1568      1.00000
    194      -6.1492      1.00000
    195      -6.1426      1.00000
    196      -6.1128      1.00000
    197      -6.0925      1.00000
    198      -6.0065      1.00000
    199      -5.9909      1.00000
    200      -5.9782      1.00000
    201      -5.9415      1.00000
    202      -5.9326      1.00000
    203      -5.9290      1.00000
    204      -5.9120      1.00000
    205      -5.9077      1.00000
    206      -5.9025      1.00000
    207      -5.8975      1.00000
    208      -5.8677      1.00000
    209      -5.8390      1.00000
    210      -5.8333      1.00000
    211      -5.8271      1.00000
    212      -5.8038      1.00000
    213      -5.8000      1.00000
    214      -5.7752      1.00000
    215      -5.7427      1.00000
    216      -5.7238      1.00000
    217      -5.1871      1.00000
    218      -5.1246      1.00000
    219      -5.1066      1.00000
    220      -5.1034      1.00000
    221      -5.0928      1.00000
    222      -5.0905      1.00000
    223      -5.0776      1.00000
    224      -5.0515      1.00000
    225      -5.0427      1.00000
    226      -4.8811      1.00000
    227      -4.8772      1.00000
    228      -4.8698      1.00000
    229      -4.8618      1.00000
    230      -4.8609      1.00000
    231      -4.8573      1.00000
    232      -4.8513      1.00000
    233      -4.8436      1.00000
    234      -4.8293      1.00000
    235      -4.8223      1.00000
    236      -4.8205      1.00000
    237      -4.8189      1.00000
    238      -4.8159      1.00000
    239      -4.8128      1.00000
    240      -4.8090      1.00000
    241      -4.8019      1.00000
    242      -4.7799      1.00000
    243      -4.7733      1.00000
    244      -4.6987      1.00000
    245      -4.6669      1.00000
    246      -4.6437      1.00000
    247      -4.6210      1.00000
    248      -4.6139      1.00000
    249      -4.5992      1.00000
    250      -4.5921      1.00000
    251      -4.5911      1.00000
    252      -4.5812      1.00000
    253      -4.5604      1.00000
    254      -4.5553      1.00000
    255      -4.5499      1.00000
    256      -4.5477      1.00000
    257      -4.5452      1.00000
    258      -4.5413      1.00000
    259      -4.5396      1.00000
    260      -4.5257      1.00000
    261      -4.5162      1.00000
    262      -4.5147      1.00000
    263      -4.4812      1.00000
    264      -4.4556      1.00000
    265      -4.4514      1.00000
    266      -4.4414      1.00000
    267      -4.4356      1.00000
    268      -4.4089      1.00000
    269      -4.4035      1.00000
    270      -4.3619      1.00000
    271      -2.6299      0.00000
    272      -2.5970      0.00000
    273      -2.5914      0.00000
    274      -2.5868      0.00000
    275      -2.5813      0.00000
    276      -2.5636      0.00000
    277      -2.5614      0.00000
    278      -2.5581      0.00000
    279      -2.5562      0.00000
    280      -2.5512      0.00000
    281      -2.5465      0.00000
    282      -2.5421      0.00000
    283      -2.5391      0.00000
    284      -2.5375      0.00000
    285      -2.5358      0.00000
    286      -2.5320      0.00000
    287      -2.5258      0.00000
    288      -2.5192      0.00000
    289      -2.5131      0.00000
    290      -2.5109      0.00000
    291      -2.5069      0.00000
    292      -2.5038      0.00000
    293      -2.4947      0.00000
    294      -2.4884      0.00000
    295      -2.4574      0.00000
    296      -2.4513      0.00000
    297      -2.4414      0.00000
    298      -2.3868      0.00000
    299      -2.3792      0.00000
    300      -2.3691      0.00000
    301      -2.3582      0.00000
    302      -2.3529      0.00000
    303      -2.3459      0.00000
    304      -2.3433      0.00000
    305      -2.3256      0.00000
    306      -2.3242      0.00000
    307      -0.4524      0.00000
    308       1.5516      0.00000
    309       1.7292      0.00000
    310       2.0242      0.00000
    311       2.0463      0.00000
    312       2.0703      0.00000
    313       2.1816      0.00000
    314       2.3913      0.00000
    315       2.3919      0.00000
    316       2.5557      0.00000
    317       2.5606      0.00000
    318       2.6243      0.00000
    319       2.7369      0.00000
    320       2.7386      0.00000

 k-point     4 :       0.2000    0.2000    0.0000
  band No.  band energies     occupation 
      1     -19.6224      1.00000
      2     -19.5373      1.00000
      3     -19.5104      1.00000
      4     -19.4110      1.00000
      5     -19.4084      1.00000
      6     -19.3376      1.00000
      7     -19.3068      1.00000
      8     -19.2713      1.00000
      9     -19.2385      1.00000
     10     -19.0774      1.00000
     11     -19.0469      1.00000
     12     -19.0180      1.00000
     13     -18.9968      1.00000
     14     -18.9356      1.00000
     15     -18.9016      1.00000
     16     -18.8760      1.00000
     17     -18.8122      1.00000
     18     -18.8109      1.00000
     19     -18.7730      1.00000
     20     -18.7541      1.00000
     21     -18.7501      1.00000
     22     -18.7400      1.00000
     23     -18.7394      1.00000
     24     -18.7281      1.00000
     25     -18.7228      1.00000
     26     -18.7125      1.00000
     27     -18.7005      1.00000
     28     -18.6996      1.00000
     29     -18.6856      1.00000
     30     -18.6822      1.00000
     31     -18.6708      1.00000
     32     -18.6673      1.00000
     33     -18.6639      1.00000
     34     -18.6619      1.00000
     35     -18.6505      1.00000
     36     -18.6437      1.00000
     37     -18.6252      1.00000
     38     -18.6141      1.00000
     39     -18.6102      1.00000
     40     -18.5971      1.00000
     41     -18.5962      1.00000
     42     -18.5834      1.00000
     43     -18.5794      1.00000
     44     -18.5746      1.00000
     45     -18.5687      1.00000
     46     -18.5682      1.00000
     47     -18.5652      1.00000
     48     -18.5610      1.00000
     49     -18.5520      1.00000
     50     -18.5520      1.00000
     51     -18.5456      1.00000
     52     -18.5449      1.00000
     53     -18.5338      1.00000
     54     -18.5326      1.00000
     55      -9.3432      1.00000
     56      -9.3378      1.00000
     57      -9.3286      1.00000
     58      -9.3109      1.00000
     59      -9.2957      1.00000
     60      -9.2753      1.00000
     61      -9.2517      1.00000
     62      -9.1495      1.00000
     63      -9.0984      1.00000
     64      -8.9940      1.00000
     65      -8.8910      1.00000
     66      -8.8683      1.00000
     67      -8.8589      1.00000
     68      -8.8516      1.00000
     69      -8.8484      1.00000
     70      -8.8001      1.00000
     71      -8.7805      1.00000
     72      -8.7606      1.00000
     73      -8.6751      1.00000
     74      -8.5720      1.00000
     75      -8.5499      1.00000
     76      -8.5472      1.00000
     77      -8.5343      1.00000
     78      -8.5222      1.00000
     79      -8.5163      1.00000
     80      -8.5000      1.00000
     81      -8.4940      1.00000
     82      -8.4772      1.00000
     83      -8.4731      1.00000
     84      -8.4625      1.00000
     85      -8.4562      1.00000
     86      -8.4559      1.00000
     87      -8.4519      1.00000
     88      -8.4427      1.00000
     89      -8.4356      1.00000
     90      -8.4292      1.00000
     91      -8.4259      1.00000
     92      -8.4188      1.00000
     93      -8.4028      1.00000
     94      -8.3843      1.00000
     95      -8.3834      1.00000
     96      -8.3689      1.00000
     97      -8.3579      1.00000
     98      -8.3502      1.00000
     99      -8.2907      1.00000
    100      -8.2838      1.00000
    101      -8.2195      1.00000
    102      -8.2143      1.00000
    103      -8.2001      1.00000
    104      -8.1989      1.00000
    105      -8.1745      1.00000
    106      -8.1645      1.00000
    107      -8.1634      1.00000
    108      -8.1416      1.00000
    109      -8.1408      1.00000
    110      -8.1298      1.00000
    111      -8.1234      1.00000
    112      -8.1073      1.00000
    113      -8.1067      1.00000
    114      -8.1008      1.00000
    115      -8.0800      1.00000
    116      -8.0778      1.00000
    117      -8.0096      1.00000
    118      -7.9881      1.00000
    119      -7.9761      1.00000
    120      -7.9718      1.00000
    121      -7.9662      1.00000
    122      -7.9631      1.00000
    123      -7.9608      1.00000
    124      -7.9280      1.00000
    125      -7.9183      1.00000
    126      -7.8357      1.00000
    127      -7.8217      1.00000
    128      -7.8153      1.00000
    129      -7.7869      1.00000
    130      -7.7704      1.00000
    131      -7.6918      1.00000
    132      -7.5693      1.00000
    133      -7.5512      1.00000
    134      -7.5381      1.00000
    135      -7.5312      1.00000
    136      -7.3806      1.00000
    137      -7.3797      1.00000
    138      -7.3457      1.00000
    139      -7.3270      1.00000
    140      -7.2844      1.00000
    141      -7.2495      1.00000
    142      -7.2436      1.00000
    143      -7.2237      1.00000
    144      -7.1628      1.00000
    145      -7.1500      1.00000
    146      -7.1357      1.00000
    147      -7.1330      1.00000
    148      -7.1044      1.00000
    149      -7.0875      1.00000
    150      -7.0683      1.00000
    151      -7.0609      1.00000
    152      -6.9791      1.00000
    153      -6.9462      1.00000
    154      -6.9272      1.00000
    155      -6.9143      1.00000
    156      -6.9026      1.00000
    157      -6.8896      1.00000
    158      -6.8894      1.00000
    159      -6.7750      1.00000
    160      -6.7599      1.00000
    161      -6.7552      1.00000
    162      -6.7181      1.00000
    163      -6.7146      1.00000
    164      -6.6839      1.00000
    165      -6.6779      1.00000
    166      -6.6461      1.00000
    167      -6.6281      1.00000
    168      -6.5958      1.00000
    169      -6.5722      1.00000
    170      -6.5650      1.00000
    171      -6.5252      1.00000
    172      -6.5141      1.00000
    173      -6.4540      1.00000
    174      -6.4527      1.00000
    175      -6.4260      1.00000
    176      -6.4240      1.00000
    177      -6.4111      1.00000
    178      -6.3609      1.00000
    179      -6.3402      1.00000
    180      -6.3238      1.00000
    181      -6.3006      1.00000
    182      -6.2893      1.00000
    183      -6.2841      1.00000
    184      -6.2717      1.00000
    185      -6.2242      1.00000
    186      -6.2216      1.00000
    187      -6.2095      1.00000
    188      -6.1929      1.00000
    189      -6.1923      1.00000
    190      -6.1750      1.00000
    191      -6.1746      1.00000
    192      -6.1669      1.00000
    193      -6.1552      1.00000
    194      -6.1439      1.00000
    195      -6.1433      1.00000
    196      -6.1235      1.00000
    197      -6.0855      1.00000
    198      -6.0106      1.00000
    199      -5.9948      1.00000
    200      -5.9839      1.00000
    201      -5.9411      1.00000
    202      -5.9339      1.00000
    203      -5.9245      1.00000
    204      -5.9174      1.00000
    205      -5.8722      1.00000
    206      -5.8500      1.00000
    207      -5.8359      1.00000
    208      -5.8348      1.00000
    209      -5.8286      1.00000
    210      -5.8234      1.00000
    211      -5.8083      1.00000
    212      -5.8040      1.00000
    213      -5.8011      1.00000
    214      -5.7806      1.00000
    215      -5.7770      1.00000
    216      -5.7364      1.00000
    217      -5.1603      1.00000
    218      -5.1508      1.00000
    219      -5.1321      1.00000
    220      -5.0969      1.00000
    221      -5.0828      1.00000
    222      -5.0815      1.00000
    223      -5.0720      1.00000
    224      -5.0719      1.00000
    225      -5.0472      1.00000
    226      -4.8797      1.00000
    227      -4.8749      1.00000
    228      -4.8744      1.00000
    229      -4.8686      1.00000
    230      -4.8634      1.00000
    231      -4.8560      1.00000
    232      -4.8397      1.00000
    233      -4.8364      1.00000
    234      -4.8323      1.00000
    235      -4.8319      1.00000
    236      -4.8260      1.00000
    237      -4.8224      1.00000
    238      -4.8131      1.00000
    239      -4.8100      1.00000
    240      -4.8095      1.00000
    241      -4.7925      1.00000
    242      -4.7823      1.00000
    243      -4.7628      1.00000
    244      -4.7068      1.00000
    245      -4.6640      1.00000
    246      -4.6386      1.00000
    247      -4.6256      1.00000
    248      -4.6052      1.00000
    249      -4.6030      1.00000
    250      -4.5944      1.00000
    251      -4.5920      1.00000
    252      -4.5783      1.00000
    253      -4.5605      1.00000
    254      -4.5603      1.00000
    255      -4.5525      1.00000
    256      -4.5509      1.00000
    257      -4.5408      1.00000
    258      -4.5389      1.00000
    259      -4.5344      1.00000
    260      -4.5261      1.00000
    261      -4.5250      1.00000
    262      -4.5201      1.00000
    263      -4.4717      1.00000
    264      -4.4626      1.00000
    265      -4.4611      1.00000
    266      -4.4359      1.00000
    267      -4.4269      1.00000
    268      -4.4242      1.00000
    269      -4.3766      1.00000
    270      -4.3733      1.00000
    271      -2.6292      0.00000
    272      -2.5955      0.00000
    273      -2.5926      0.00000
    274      -2.5863      0.00000
    275      -2.5714      0.00000
    276      -2.5661      0.00000
    277      -2.5618      0.00000
    278      -2.5596      0.00000
    279      -2.5577      0.00000
    280      -2.5553      0.00000
    281      -2.5497      0.00000
    282      -2.5488      0.00000
    283      -2.5399      0.00000
    284      -2.5320      0.00000
    285      -2.5312      0.00000
    286      -2.5305      0.00000
    287      -2.5248      0.00000
    288      -2.5183      0.00000
    289      -2.5181      0.00000
    290      -2.5085      0.00000
    291      -2.4996      0.00000
    292      -2.4948      0.00000
    293      -2.4917      0.00000
    294      -2.4842      0.00000
    295      -2.4765      0.00000
    296      -2.4740      0.00000
    297      -2.4136      0.00000
    298      -2.4097      0.00000
    299      -2.3739      0.00000
    300      -2.3694      0.00000
    301      -2.3658      0.00000
    302      -2.3528      0.00000
    303      -2.3500      0.00000
    304      -2.3363      0.00000
    305      -2.3214      0.00000
    306      -2.3172      0.00000
    307      -0.4526      0.00000
    308       1.5161      0.00000
    309       1.8450      0.00000
    310       1.8693      0.00000
    311       2.0462      0.00000
    312       2.2654      0.00000
    313       2.2685      0.00000
    314       2.2771      0.00000
    315       2.2913      0.00000
    316       2.5687      0.00000
    317       2.5688      0.00000
    318       2.5962      0.00000
    319       2.6719      0.00000
    320       2.6781      0.00000

 k-point     5 :       0.4000    0.2000    0.0000
  band No.  band energies     occupation 
      1     -19.6055      1.00000
      2     -19.5606      1.00000
      3     -19.5268      1.00000
      4     -19.4156      1.00000
      5     -19.3558      1.00000
      6     -19.3467      1.00000
      7     -19.2882      1.00000
      8     -19.2827      1.00000
      9     -19.2617      1.00000
     10     -19.0636      1.00000
     11     -19.0502      1.00000
     12     -19.0418      1.00000
     13     -18.9729      1.00000
     14     -18.9603      1.00000
     15     -18.9028      1.00000
     16     -18.8787      1.00000
     17     -18.8084      1.00000
     18     -18.8028      1.00000
     19     -18.7657      1.00000
     20     -18.7563      1.00000
     21     -18.7412      1.00000
     22     -18.7407      1.00000
     23     -18.7221      1.00000
     24     -18.7219      1.00000
     25     -18.7176      1.00000
     26     -18.7147      1.00000
     27     -18.7085      1.00000
     28     -18.6979      1.00000
     29     -18.6977      1.00000
     30     -18.6845      1.00000
     31     -18.6771      1.00000
     32     -18.6703      1.00000
     33     -18.6606      1.00000
     34     -18.6551      1.00000
     35     -18.6525      1.00000
     36     -18.6491      1.00000
     37     -18.6284      1.00000
     38     -18.6220      1.00000
     39     -18.6143      1.00000
     40     -18.5965      1.00000
     41     -18.5943      1.00000
     42     -18.5852      1.00000
     43     -18.5778      1.00000
     44     -18.5725      1.00000
     45     -18.5691      1.00000
     46     -18.5685      1.00000
     47     -18.5658      1.00000
     48     -18.5631      1.00000
     49     -18.5502      1.00000
     50     -18.5495      1.00000
     51     -18.5402      1.00000
     52     -18.5402      1.00000
     53     -18.5370      1.00000
     54     -18.5359      1.00000
     55      -9.3389      1.00000
     56      -9.3382      1.00000
     57      -9.3190      1.00000
     58      -9.3156      1.00000
     59      -9.2613      1.00000
     60      -9.2473      1.00000
     61      -9.2286      1.00000
     62      -9.1885      1.00000
     63      -9.1803      1.00000
     64      -9.0032      1.00000
     65      -8.8828      1.00000
     66      -8.8792      1.00000
     67      -8.8694      1.00000
     68      -8.8591      1.00000
     69      -8.8538      1.00000
     70      -8.7808      1.00000
     71      -8.7711      1.00000
     72      -8.7476      1.00000
     73      -8.6694      1.00000
     74      -8.5537      1.00000
     75      -8.5524      1.00000
     76      -8.5410      1.00000
     77      -8.5376      1.00000
     78      -8.5308      1.00000
     79      -8.5150      1.00000
     80      -8.5134      1.00000
     81      -8.4945      1.00000
     82      -8.4832      1.00000
     83      -8.4806      1.00000
     84      -8.4711      1.00000
     85      -8.4617      1.00000
     86      -8.4609      1.00000
     87      -8.4514      1.00000
     88      -8.4389      1.00000
     89      -8.4388      1.00000
     90      -8.4333      1.00000
     91      -8.4207      1.00000
     92      -8.4146      1.00000
     93      -8.4049      1.00000
     94      -8.3957      1.00000
     95      -8.3666      1.00000
     96      -8.3645      1.00000
     97      -8.3170      1.00000
     98      -8.3145      1.00000
     99      -8.2833      1.00000
    100      -8.2795      1.00000
    101      -8.2744      1.00000
    102      -8.2079      1.00000
    103      -8.1934      1.00000
    104      -8.1891      1.00000
    105      -8.1793      1.00000
    106      -8.1725      1.00000
    107      -8.1685      1.00000
    108      -8.1541      1.00000
    109      -8.1439      1.00000
    110      -8.1346      1.00000
    111      -8.1316      1.00000
    112      -8.1047      1.00000
    113      -8.1020      1.00000
    114      -8.0959      1.00000
    115      -8.0459      1.00000
    116      -8.0416      1.00000
    117      -8.0208      1.00000
    118      -8.0149      1.00000
    119      -8.0100      1.00000
    120      -7.9918      1.00000
    121      -7.9907      1.00000
    122      -7.9780      1.00000
    123      -7.9777      1.00000
    124      -7.8866      1.00000
    125      -7.8864      1.00000
    126      -7.8544      1.00000
    127      -7.8466      1.00000
    128      -7.8024      1.00000
    129      -7.7453      1.00000
    130      -7.6789      1.00000
    131      -7.6689      1.00000
    132      -7.6681      1.00000
    133      -7.5235      1.00000
    134      -7.5049      1.00000
    135      -7.4916      1.00000
    136      -7.3420      1.00000
    137      -7.3305      1.00000
    138      -7.3042      1.00000
    139      -7.3026      1.00000
    140      -7.2769      1.00000
    141      -7.2433      1.00000
    142      -7.2393      1.00000
    143      -7.2319      1.00000
    144      -7.1961      1.00000
    145      -7.1802      1.00000
    146      -7.1620      1.00000
    147      -7.1595      1.00000
    148      -7.1418      1.00000
    149      -7.1358      1.00000
    150      -7.0858      1.00000
    151      -7.0561      1.00000
    152      -7.0306      1.00000
    153      -7.0101      1.00000
    154      -6.9976      1.00000
    155      -6.9936      1.00000
    156      -6.9427      1.00000
    157      -6.9136      1.00000
    158      -6.8562      1.00000
    159      -6.8530      1.00000
    160      -6.7800      1.00000
    161      -6.7475      1.00000
    162      -6.7357      1.00000
    163      -6.7080      1.00000
    164      -6.6829      1.00000
    165      -6.6756      1.00000
    166      -6.6370      1.00000
    167      -6.6029      1.00000
    168      -6.5806      1.00000
    169      -6.5663      1.00000
    170      -6.5213      1.00000
    171      -6.4925      1.00000
    172      -6.4808      1.00000
    173      -6.4661      1.00000
    174      -6.4444      1.00000
    175      -6.4094      1.00000
    176      -6.4033      1.00000
    177      -6.3324      1.00000
    178      -6.3114      1.00000
    179      -6.2952      1.00000
    180      -6.2833      1.00000
    181      -6.2684      1.00000
    182      -6.2680      1.00000
    183      -6.2462      1.00000
    184      -6.2422      1.00000
    185      -6.2264      1.00000
    186      -6.2192      1.00000
    187      -6.2017      1.00000
    188      -6.1906      1.00000
    189      -6.1741      1.00000
    190      -6.1669      1.00000
    191      -6.1591      1.00000
    192      -6.1510      1.00000
    193      -6.1500      1.00000
    194      -6.1395      1.00000
    195      -6.1333      1.00000
    196      -6.1194      1.00000
    197      -6.0411      1.00000
    198      -6.0272      1.00000
    199      -6.0086      1.00000
    200      -6.0071      1.00000
    201      -5.9996      1.00000
    202      -5.9614      1.00000
    203      -5.9080      1.00000
    204      -5.9025      1.00000
    205      -5.8837      1.00000
    206      -5.8663      1.00000
    207      -5.8632      1.00000
    208      -5.8606      1.00000
    209      -5.8564      1.00000
    210      -5.8513      1.00000
    211      -5.8434      1.00000
    212      -5.8235      1.00000
    213      -5.8161      1.00000
    214      -5.7933      1.00000
    215      -5.7930      1.00000
    216      -5.7736      1.00000
    217      -5.1687      1.00000
    218      -5.1299      1.00000
    219      -5.1145      1.00000
    220      -5.0999      1.00000
    221      -5.0945      1.00000
    222      -5.0711      1.00000
    223      -5.0690      1.00000
    224      -5.0563      1.00000
    225      -5.0372      1.00000
    226      -4.8788      1.00000
    227      -4.8644      1.00000
    228      -4.8580      1.00000
    229      -4.8576      1.00000
    230      -4.8542      1.00000
    231      -4.8532      1.00000
    232      -4.8480      1.00000
    233      -4.8427      1.00000
    234      -4.8342      1.00000
    235      -4.8333      1.00000
    236      -4.8306      1.00000
    237      -4.8275      1.00000
    238      -4.8213      1.00000
    239      -4.8159      1.00000
    240      -4.8088      1.00000
    241      -4.8026      1.00000
    242      -4.7893      1.00000
    243      -4.7825      1.00000
    244      -4.6872      1.00000
    245      -4.6661      1.00000
    246      -4.6508      1.00000
    247      -4.6300      1.00000
    248      -4.6062      1.00000
    249      -4.5993      1.00000
    250      -4.5966      1.00000
    251      -4.5901      1.00000
    252      -4.5852      1.00000
    253      -4.5587      1.00000
    254      -4.5571      1.00000
    255      -4.5529      1.00000
    256      -4.5475      1.00000
    257      -4.5399      1.00000
    258      -4.5275      1.00000
    259      -4.5187      1.00000
    260      -4.5152      1.00000
    261      -4.5072      1.00000
    262      -4.5070      1.00000
    263      -4.5006      1.00000
    264      -4.4818      1.00000
    265      -4.4517      1.00000
    266      -4.4458      1.00000
    267      -4.4444      1.00000
    268      -4.3978      1.00000
    269      -4.3955      1.00000
    270      -4.3693      1.00000
    271      -2.6309      0.00000
    272      -2.5981      0.00000
    273      -2.5962      0.00000
    274      -2.5814      0.00000
    275      -2.5807      0.00000
    276      -2.5678      0.00000
    277      -2.5622      0.00000
    278      -2.5602      0.00000
    279      -2.5598      0.00000
    280      -2.5540      0.00000
    281      -2.5480      0.00000
    282      -2.5467      0.00000
    283      -2.5443      0.00000
    284      -2.5405      0.00000
    285      -2.5323      0.00000
    286      -2.5263      0.00000
    287      -2.5209      0.00000
    288      -2.5178      0.00000
    289      -2.5076      0.00000
    290      -2.5030      0.00000
    291      -2.5020      0.00000
    292      -2.5002      0.00000
    293      -2.4937      0.00000
    294      -2.4830      0.00000
    295      -2.4829      0.00000
    296      -2.4358      0.00000
    297      -2.4243      0.00000
    298      -2.4100      0.00000
    299      -2.3738      0.00000
    300      -2.3718      0.00000
    301      -2.3567      0.00000
    302      -2.3514      0.00000
    303      -2.3475      0.00000
    304      -2.3374      0.00000
    305      -2.3305      0.00000
    306      -2.3288      0.00000
    307      -0.4521      0.00000
    308       1.6403      0.00000
    309       1.6757      0.00000
    310       1.8270      0.00000
    311       2.1366      0.00000
    312       2.1379      0.00000
    313       2.2448      0.00000
    314       2.2536      0.00000
    315       2.4903      0.00000
    316       2.4996      0.00000
    317       2.5491      0.00000
    318       2.7029      0.00000
    319       2.7156      0.00000
    320       2.7372      0.00000
 Fermi energy:        -2.8519034057

 spin component 2

 k-point     1 :       0.0000    0.0000    0.0000
  band No.  band energies     occupation 
      1     -19.6314      1.00000
      2     -19.4598      1.00000
      3     -19.4362      1.00000
      4     -19.4362      1.00000
      5     -19.3915      1.00000
      6     -19.3915      1.00000
      7     -19.3915      1.00000
      8     -19.1721      1.00000
      9     -19.1721      1.00000
     10     -19.1210      1.00000
     11     -19.1210      1.00000
     12     -18.9787      1.00000
     13     -18.9456      1.00000
     14     -18.9456      1.00000
     15     -18.8825      1.00000
     16     -18.8768      1.00000
     17     -18.8768      1.00000
     18     -18.8530      1.00000
     19     -18.7942      1.00000
     20     -18.7774      1.00000
     21     -18.7774      1.00000
     22     -18.7690      1.00000
     23     -18.7547      1.00000
     24     -18.7266      1.00000
     25     -18.7266      1.00000
     26     -18.7264      1.00000
     27     -18.7203      1.00000
     28     -18.7203      1.00000
     29     -18.6916      1.00000
     30     -18.6916      1.00000
     31     -18.6903      1.00000
     32     -18.6897      1.00000
     33     -18.6664      1.00000
     34     -18.6664      1.00000
     35     -18.6390      1.00000
     36     -18.6390      1.00000
     37     -18.6298      1.00000
     38     -18.6298      1.00000
     39     -18.6255      1.00000
     40     -18.6002      1.00000
     41     -18.6002      1.00000
     42     -18.5944      1.00000
     43     -18.5829      1.00000
     44     -18.5820      1.00000
     45     -18.5772      1.00000
     46     -18.5772      1.00000
     47     -18.5713      1.00000
     48     -18.5705      1.00000
     49     -18.5705      1.00000
     50     -18.5659      1.00000
     51     -18.5659      1.00000
     52     -18.5641      1.00000
     53     -18.5393      1.00000
     54     -18.5393      1.00000
     55      -9.2774      1.00000
     56      -9.1003      1.00000
     57      -9.0917      1.00000
     58      -9.0917      1.00000
     59      -9.0614      1.00000
     60      -9.0566      1.00000
     61      -9.0566      1.00000
     62      -8.9061      1.00000
     63      -8.6990      1.00000
     64      -8.6990      1.00000
     65      -8.6895      1.00000
     66      -8.6895      1.00000
     67      -8.6104      1.00000
     68      -8.5707      1.00000
     69      -8.5707      1.00000
     70      -8.5434      1.00000
     71      -8.5423      1.00000
     72      -8.5423      1.00000
     73      -8.4738      1.00000
     74      -8.3741      1.00000
     75      -8.3741      1.00000
     76      -8.3330      1.00000
     77      -8.3318      1.00000
     78      -8.3318      1.00000
     79      -8.3140      1.00000
     80      -8.2770      1.00000
     81      -8.2619      1.00000
     82      -8.2619      1.00000
     83      -8.2417      1.00000
     84      -8.2345      1.00000
     85      -8.2345      1.00000
     86      -8.2240      1.00000
     87      -8.2240      1.00000
     88      -8.2197      1.00000
     89      -8.2155      1.00000
     90      -8.2155      1.00000
     91      -8.2105      1.00000
     92      -8.2105      1.00000
     93      -8.1244      1.00000
     94      -8.0980      1.00000
     95      -8.0980      1.00000
     96      -8.0580      1.00000
     97      -8.0580      1.00000
     98      -8.0521      1.00000
     99      -8.0521      1.00000
    100      -8.0444      1.00000
    101      -7.9374      1.00000
    102      -7.8845      1.00000
    103      -7.8642      1.00000
    104      -7.8642      1.00000
    105      -7.8541      1.00000
    106      -7.8541      1.00000
    107      -7.8540      1.00000
    108      -7.8364      1.00000
    109      -7.8364      1.00000
    110      -7.8267      1.00000
    111      -7.8227      1.00000
    112      -7.8147      1.00000
    113      -7.8147      1.00000
    114      -7.8089      1.00000
    115      -7.8089      1.00000
    116      -7.8080      1.00000
    117      -7.8080      1.00000
    118      -7.7087      1.00000
    119      -7.5906      1.00000
    120      -7.5901      1.00000
    121      -7.5483      1.00000
    122      -7.5267      1.00000
    123      -7.5267      1.00000
    124      -7.5260      1.00000
    125      -7.5172      1.00000
    126      -7.5090      1.00000
    127      -7.5090      1.00000
    128      -7.5058      1.00000
    129      -7.5058      1.00000
    130      -7.4192      1.00000
    131      -7.4190      1.00000
    132      -7.4190      1.00000
    133      -7.4034      1.00000
    134      -7.4034      1.00000
    135      -7.4022      1.00000
    136      -7.2174      1.00000
    137      -7.0389      1.00000
    138      -7.0060      1.00000
    139      -7.0060      1.00000
    140      -6.9939      1.00000
    141      -6.9939      1.00000
    142      -6.9904      1.00000
    143      -6.9855      1.00000
    144      -6.9633      1.00000
    145      -6.8640      1.00000
    146      -6.8640      1.00000
    147      -6.8129      1.00000
    148      -6.6841      1.00000
    149      -6.6566      1.00000
    150      -6.6527      1.00000
    151      -6.6527      1.00000
    152      -6.6470      1.00000
    153      -6.6470      1.00000
    154      -6.6152      1.00000
    155      -6.6104      1.00000
    156      -6.6104      1.00000
    157      -6.6055      1.00000
    158      -6.5814      1.00000
    159      -6.5814      1.00000
    160      -6.5732      1.00000
    161      -6.5102      1.00000
    162      -6.4908      1.00000
    163      -6.4908      1.00000
    164      -6.4530      1.00000
    165      -6.4530      1.00000
    166      -6.4291      1.00000
    167      -6.4291      1.00000
    168      -6.3948      1.00000
    169      -6.3939      1.00000
    170      -6.3939      1.00000
    171      -6.3847      1.00000
    172      -6.3810      1.00000
    173      -6.3810      1.00000
    174      -6.3672      1.00000
    175      -6.3624      1.00000
    176      -6.3624      1.00000
    177      -6.3590      1.00000
    178      -6.2344      1.00000
    179      -6.2344      1.00000
    180      -6.2207      1.00000
    181      -6.2160      1.00000
    182      -6.2160      1.00000
    183      -6.2141      1.00000
    184      -6.1527      1.00000
    185      -6.1527      1.00000
    186      -6.1220      1.00000
    187      -6.1220      1.00000
    188      -6.1210      1.00000
    189      -6.0167      1.00000
    190      -5.9700      1.00000
    191      -5.9700      1.00000
    192      -5.9642      1.00000
    193      -5.9112      1.00000
    194      -5.9108      1.00000
    195      -5.9091      1.00000
    196      -5.9091      1.00000
    197      -5.8211      1.00000
    198      -5.8211      1.00000
    199      -5.8131      1.00000
    200      -5.7923      1.00000
    201      -5.7923      1.00000
    202      -5.7776      1.00000
    203      -5.7776      1.00000
    204      -5.7313      1.00000
    205      -5.7313      1.00000
    206      -5.7256      1.00000
    207      -5.7256      1.00000
    208      -5.7231      1.00000
    209      -5.6703      1.00000
    210      -5.6703      1.00000
    211      -5.6494      1.00000
    212      -5.6494      1.00000
    213      -5.6456      1.00000
    214      -5.6444      1.00000
    215      -5.5917      1.00000
    216      -5.5917      1.00000
    217      -3.0744      1.00000
    218      -2.2101      0.00000
    219      -2.2101      0.00000
    220      -2.2091      0.00000
    221      -2.2051      0.00000
    222      -2.2051      0.00000
    223      -2.1923      0.00000
    224      -2.1923      0.00000
    225      -2.1886      0.00000
    226      -2.1886      0.00000
    227      -2.1801      0.00000
    228      -2.1433      0.00000
    229      -2.1433      0.00000
    230      -2.1422      0.00000
    231      -2.1422      0.00000
    232      -2.1390      0.00000
    233      -2.0908      0.00000
    234      -2.0513      0.00000
    235      -2.0513      0.00000
    236      -2.0030      0.00000
    237      -1.9566      0.00000
    238      -1.9566      0.00000
    239      -1.9545      0.00000
    240      -1.9474      0.00000
    241      -1.9414      0.00000
    242      -1.9403      0.00000
    243      -1.9403      0.00000
    244      -1.9396      0.00000
    245      -1.9371      0.00000
    246      -1.9275      0.00000
    247      -1.8472      0.00000
    248      -1.8472      0.00000
    249      -1.8390      0.00000
    250      -1.8181      0.00000
    251      -1.8178      0.00000
    252      -1.8178      0.00000
    253      -1.8165      0.00000
    254      -1.7509      0.00000
    255      -1.7509      0.00000
    256      -1.7025      0.00000
    257      -1.7025      0.00000
    258      -1.6965      0.00000
    259      -1.6965      0.00000
    260      -1.6964      0.00000
    261      -1.6939      0.00000
    262      -1.6939      0.00000
    263      -1.6938      0.00000
    264      -1.6930      0.00000
    265      -1.6884      0.00000
    266      -1.6884      0.00000
    267      -1.6729      0.00000
    268      -1.6729      0.00000
    269      -1.6671      0.00000
    270      -1.6671      0.00000
    271      -1.5487      0.00000
    272      -1.2526      0.00000
    273      -1.2526      0.00000
    274      -1.2476      0.00000
    275      -1.2440      0.00000
    276      -1.2440      0.00000
    277      -1.2173      0.00000
    278      -1.2173      0.00000
    279      -1.2163      0.00000
    280      -1.2081      0.00000
    281      -1.1980      0.00000
    282      -1.1959      0.00000
    283      -1.1946      0.00000
    284      -1.1946      0.00000
    285      -1.1942      0.00000
    286      -1.1942      0.00000
    287      -1.1643      0.00000
    288      -1.1643      0.00000
    289      -1.1630      0.00000
    290      -1.1579      0.00000
    291      -1.1541      0.00000
    292      -1.1541      0.00000
    293      -1.1518      0.00000
    294      -1.1518      0.00000
    295      -1.1495      0.00000
    296      -1.1495      0.00000
    297      -1.1204      0.00000
    298      -1.1006      0.00000
    299      -1.1006      0.00000
    300      -1.0946      0.00000
    301      -1.0931      0.00000
    302      -1.0931      0.00000
    303      -1.0777      0.00000
    304      -1.0657      0.00000
    305      -1.0553      0.00000
    306      -1.0512      0.00000
    307      -1.0512      0.00000
    308       1.5125      0.00000
    309       1.9974      0.00000
    310       2.2772      0.00000
    311       2.2772      0.00000
    312       2.2850      0.00000
    313       2.2904      0.00000
    314       2.2904      0.00000
    315       2.2936      0.00000
    316       2.5227      0.00000
    317       2.5525      0.00000
    318       2.5608      0.00000
    319       2.5619      0.00000
    320       2.5622      0.00000

 k-point     2 :       0.2000    0.0000    0.0000
  band No.  band energies     occupation 
      1     -19.6241      1.00000
      2     -19.4971      1.00000
      3     -19.4495      1.00000
      4     -19.4387      1.00000
      5     -19.3930      1.00000
      6     -19.3677      1.00000
      7     -19.3341      1.00000
      8     -19.2110      1.00000
      9     -19.2072      1.00000
     10     -19.0933      1.00000
     11     -19.0863      1.00000
     12     -18.9974      1.00000
     13     -18.9664      1.00000
     14     -18.9569      1.00000
     15     -18.8987      1.00000
     16     -18.8831      1.00000
     17     -18.8446      1.00000
     18     -18.8340      1.00000
     19     -18.7916      1.00000
     20     -18.7773      1.00000
     21     -18.7704      1.00000
     22     -18.7613      1.00000
     23     -18.7476      1.00000
     24     -18.7446      1.00000
     25     -18.7319      1.00000
     26     -18.7238      1.00000
     27     -18.7147      1.00000
     28     -18.7099      1.00000
     29     -18.6946      1.00000
     30     -18.6929      1.00000
     31     -18.6889      1.00000
     32     -18.6855      1.00000
     33     -18.6724      1.00000
     34     -18.6691      1.00000
     35     -18.6506      1.00000
     36     -18.6482      1.00000
     37     -18.6320      1.00000
     38     -18.6256      1.00000
     39     -18.6190      1.00000
     40     -18.6066      1.00000
     41     -18.6026      1.00000
     42     -18.5911      1.00000
     43     -18.5893      1.00000
     44     -18.5861      1.00000
     45     -18.5781      1.00000
     46     -18.5751      1.00000
     47     -18.5703      1.00000
     48     -18.5692      1.00000
     49     -18.5676      1.00000
     50     -18.5637      1.00000
     51     -18.5611      1.00000
     52     -18.5597      1.00000
     53     -18.5407      1.00000
     54     -18.5402      1.00000
     55      -9.2705      1.00000
     56      -9.1012      1.00000
     57      -9.0907      1.00000
     58      -9.0808      1.00000
     59      -9.0594      1.00000
     60      -9.0499      1.00000
     61      -9.0416      1.00000
     62      -8.9160      1.00000
     63      -8.7981      1.00000
     64      -8.7894      1.00000
     65      -8.6235      1.00000
     66      -8.6214      1.00000
     67      -8.6027      1.00000
     68      -8.5758      1.00000
     69      -8.5736      1.00000
     70      -8.5593      1.00000
     71      -8.5409      1.00000
     72      -8.5191      1.00000
     73      -8.4729      1.00000
     74      -8.3800      1.00000
     75      -8.3734      1.00000
     76      -8.3338      1.00000
     77      -8.3283      1.00000
     78      -8.3168      1.00000
     79      -8.3064      1.00000
     80      -8.2933      1.00000
     81      -8.2736      1.00000
     82      -8.2646      1.00000
     83      -8.2569      1.00000
     84      -8.2470      1.00000
     85      -8.2439      1.00000
     86      -8.2311      1.00000
     87      -8.2208      1.00000
     88      -8.2170      1.00000
     89      -8.2042      1.00000
     90      -8.1889      1.00000
     91      -8.1625      1.00000
     92      -8.1592      1.00000
     93      -8.1436      1.00000
     94      -8.1305      1.00000
     95      -8.1121      1.00000
     96      -8.0952      1.00000
     97      -8.0896      1.00000
     98      -8.0333      1.00000
     99      -8.0193      1.00000
    100      -7.9786      1.00000
    101      -7.9403      1.00000
    102      -7.9146      1.00000
    103      -7.9093      1.00000
    104      -7.8985      1.00000
    105      -7.8873      1.00000
    106      -7.8792      1.00000
    107      -7.8495      1.00000
    108      -7.8490      1.00000
    109      -7.8468      1.00000
    110      -7.8246      1.00000
    111      -7.8156      1.00000
    112      -7.8149      1.00000
    113      -7.8001      1.00000
    114      -7.7986      1.00000
    115      -7.7951      1.00000
    116      -7.7922      1.00000
    117      -7.7662      1.00000
    118      -7.6573      1.00000
    119      -7.6018      1.00000
    120      -7.5706      1.00000
    121      -7.5605      1.00000
    122      -7.5500      1.00000
    123      -7.5435      1.00000
    124      -7.5335      1.00000
    125      -7.5302      1.00000
    126      -7.5281      1.00000
    127      -7.5230      1.00000
    128      -7.5213      1.00000
    129      -7.5176      1.00000
    130      -7.4613      1.00000
    131      -7.4147      1.00000
    132      -7.4015      1.00000
    133      -7.2976      1.00000
    134      -7.2918      1.00000
    135      -7.2811      1.00000
    136      -7.2063      1.00000
    137      -7.0854      1.00000
    138      -7.0554      1.00000
    139      -7.0433      1.00000
    140      -6.9968      1.00000
    141      -6.9870      1.00000
    142      -6.9712      1.00000
    143      -6.9574      1.00000
    144      -6.9553      1.00000
    145      -6.8818      1.00000
    146      -6.8507      1.00000
    147      -6.8466      1.00000
    148      -6.7798      1.00000
    149      -6.7464      1.00000
    150      -6.7436      1.00000
    151      -6.7245      1.00000
    152      -6.6826      1.00000
    153      -6.6663      1.00000
    154      -6.6523      1.00000
    155      -6.6312      1.00000
    156      -6.6111      1.00000
    157      -6.6099      1.00000
    158      -6.5972      1.00000
    159      -6.5860      1.00000
    160      -6.5610      1.00000
    161      -6.5176      1.00000
    162      -6.5086      1.00000
    163      -6.4991      1.00000
    164      -6.4823      1.00000
    165      -6.4680      1.00000
    166      -6.4478      1.00000
    167      -6.4126      1.00000
    168      -6.4050      1.00000
    169      -6.3809      1.00000
    170      -6.3643      1.00000
    171      -6.3597      1.00000
    172      -6.3443      1.00000
    173      -6.3312      1.00000
    174      -6.3127      1.00000
    175      -6.3033      1.00000
    176      -6.2989      1.00000
    177      -6.2895      1.00000
    178      -6.2239      1.00000
    179      -6.2137      1.00000
    180      -6.2028      1.00000
    181      -6.1929      1.00000
    182      -6.1884      1.00000
    183      -6.1788      1.00000
    184      -6.1781      1.00000
    185      -6.1671      1.00000
    186      -6.1206      1.00000
    187      -6.0929      1.00000
    188      -6.0842      1.00000
    189      -6.0155      1.00000
    190      -5.9716      1.00000
    191      -5.9688      1.00000
    192      -5.9631      1.00000
    193      -5.9225      1.00000
    194      -5.9084      1.00000
    195      -5.9011      1.00000
    196      -5.8877      1.00000
    197      -5.8376      1.00000
    198      -5.8261      1.00000
    199      -5.8032      1.00000
    200      -5.7865      1.00000
    201      -5.7829      1.00000
    202      -5.7701      1.00000
    203      -5.7671      1.00000
    204      -5.7412      1.00000
    205      -5.7389      1.00000
    206      -5.7359      1.00000
    207      -5.7328      1.00000
    208      -5.7310      1.00000
    209      -5.6960      1.00000
    210      -5.6899      1.00000
    211      -5.6753      1.00000
    212      -5.6620      1.00000
    213      -5.6486      1.00000
    214      -5.6413      1.00000
    215      -5.6171      1.00000
    216      -5.6012      1.00000
    217      -3.0748      1.00000
    218      -2.2179      0.00000
    219      -2.2164      0.00000
    220      -2.2147      0.00000
    221      -2.2030      0.00000
    222      -2.1993      0.00000
    223      -2.1985      0.00000
    224      -2.1925      0.00000
    225      -2.1886      0.00000
    226      -2.1767      0.00000
    227      -2.1761      0.00000
    228      -2.1732      0.00000
    229      -2.1697      0.00000
    230      -2.1463      0.00000
    231      -2.1188      0.00000
    232      -2.1032      0.00000
    233      -2.0803      0.00000
    234      -2.0701      0.00000
    235      -2.0434      0.00000
    236      -1.9669      0.00000
    237      -1.9618      0.00000
    238      -1.9533      0.00000
    239      -1.9513      0.00000
    240      -1.9470      0.00000
    241      -1.9415      0.00000
    242      -1.9391      0.00000
    243      -1.9377      0.00000
    244      -1.9373      0.00000
    245      -1.9344      0.00000
    246      -1.9319      0.00000
    247      -1.8775      0.00000
    248      -1.8491      0.00000
    249      -1.8323      0.00000
    250      -1.8299      0.00000
    251      -1.8235      0.00000
    252      -1.8122      0.00000
    253      -1.8070      0.00000
    254      -1.7563      0.00000
    255      -1.7518      0.00000
    256      -1.7419      0.00000
    257      -1.7139      0.00000
    258      -1.7089      0.00000
    259      -1.7084      0.00000
    260      -1.7019      0.00000
    261      -1.6949      0.00000
    262      -1.6852      0.00000
    263      -1.6816      0.00000
    264      -1.6805      0.00000
    265      -1.6783      0.00000
    266      -1.6759      0.00000
    267      -1.6743      0.00000
    268      -1.6678      0.00000
    269      -1.6606      0.00000
    270      -1.6595      0.00000
    271      -1.5466      0.00000
    272      -1.2646      0.00000
    273      -1.2593      0.00000
    274      -1.2542      0.00000
    275      -1.2400      0.00000
    276      -1.2324      0.00000
    277      -1.2190      0.00000
    278      -1.2173      0.00000
    279      -1.2148      0.00000
    280      -1.2071      0.00000
    281      -1.1977      0.00000
    282      -1.1943      0.00000
    283      -1.1929      0.00000
    284      -1.1914      0.00000
    285      -1.1875      0.00000
    286      -1.1854      0.00000
    287      -1.1679      0.00000
    288      -1.1667      0.00000
    289      -1.1630      0.00000
    290      -1.1594      0.00000
    291      -1.1584      0.00000
    292      -1.1508      0.00000
    293      -1.1442      0.00000
    294      -1.1421      0.00000
    295      -1.1401      0.00000
    296      -1.1389      0.00000
    297      -1.1205      0.00000
    298      -1.1044      0.00000
    299      -1.1026      0.00000
    300      -1.0973      0.00000
    301      -1.0939      0.00000
    302      -1.0888      0.00000
    303      -1.0840      0.00000
    304      -1.0743      0.00000
    305      -1.0642      0.00000
    306      -1.0583      0.00000
    307      -1.0542      0.00000
    308       1.5490      0.00000
    309       2.0220      0.00000
    310       2.0338      0.00000
    311       2.1702      0.00000
    312       2.1777      0.00000
    313       2.3635      0.00000
    314       2.4370      0.00000
    315       2.4398      0.00000
    316       2.4685      0.00000
    317       2.4753      0.00000
    318       2.5699      0.00000
    319       2.5909      0.00000
    320       2.6678      0.00000

 k-point     3 :       0.4000    0.0000    0.0000
  band No.  band energies     occupation 
      1     -19.6063      1.00000
      2     -19.5384      1.00000
      3     -19.4629      1.00000
      4     -19.4552      1.00000
      5     -19.3481      1.00000
      6     -19.3251      1.00000
      7     -19.2884      1.00000
      8     -19.2594      1.00000
      9     -19.2581      1.00000
     10     -19.0661      1.00000
     11     -19.0540      1.00000
     12     -19.0275      1.00000
     13     -18.9841      1.00000
     14     -18.9824      1.00000
     15     -18.9011      1.00000
     16     -18.8878      1.00000
     17     -18.8234      1.00000
     18     -18.8211      1.00000
     19     -18.7869      1.00000
     20     -18.7722      1.00000
     21     -18.7617      1.00000
     22     -18.7449      1.00000
     23     -18.7429      1.00000
     24     -18.7410      1.00000
     25     -18.7311      1.00000
     26     -18.7285      1.00000
     27     -18.7146      1.00000
     28     -18.7094      1.00000
     29     -18.6994      1.00000
     30     -18.6935      1.00000
     31     -18.6872      1.00000
     32     -18.6819      1.00000
     33     -18.6737      1.00000
     34     -18.6705      1.00000
     35     -18.6679      1.00000
     36     -18.6620      1.00000
     37     -18.6345      1.00000
     38     -18.6303      1.00000
     39     -18.6168      1.00000
     40     -18.6103      1.00000
     41     -18.6037      1.00000
     42     -18.5951      1.00000
     43     -18.5930      1.00000
     44     -18.5825      1.00000
     45     -18.5803      1.00000
     46     -18.5756      1.00000
     47     -18.5695      1.00000
     48     -18.5671      1.00000
     49     -18.5646      1.00000
     50     -18.5625      1.00000
     51     -18.5527      1.00000
     52     -18.5516      1.00000
     53     -18.5444      1.00000
     54     -18.5432      1.00000
     55      -9.2585      1.00000
     56      -9.1013      1.00000
     57      -9.0944      1.00000
     58      -9.0629      1.00000
     59      -9.0488      1.00000
     60      -9.0354      1.00000
     61      -8.9923      1.00000
     62      -8.9395      1.00000
     63      -8.9055      1.00000
     64      -8.8563      1.00000
     65      -8.6063      1.00000
     66      -8.6052      1.00000
     67      -8.5878      1.00000
     68      -8.5706      1.00000
     69      -8.5674      1.00000
     70      -8.5616      1.00000
     71      -8.5430      1.00000
     72      -8.4979      1.00000
     73      -8.4747      1.00000
     74      -8.3862      1.00000
     75      -8.3703      1.00000
     76      -8.3315      1.00000
     77      -8.3283      1.00000
     78      -8.3141      1.00000
     79      -8.3060      1.00000
     80      -8.2925      1.00000
     81      -8.2840      1.00000
     82      -8.2656      1.00000
     83      -8.2585      1.00000
     84      -8.2463      1.00000
     85      -8.2395      1.00000
     86      -8.2318      1.00000
     87      -8.2265      1.00000
     88      -8.2251      1.00000
     89      -8.1963      1.00000
     90      -8.1730      1.00000
     91      -8.1620      1.00000
     92      -8.1395      1.00000
     93      -8.1290      1.00000
     94      -8.1164      1.00000
     95      -8.1059      1.00000
     96      -8.0762      1.00000
     97      -8.0732      1.00000
     98      -8.0183      1.00000
     99      -8.0125      1.00000
    100      -8.0079      1.00000
    101      -7.9945      1.00000
    102      -7.9478      1.00000
    103      -7.9402      1.00000
    104      -7.9166      1.00000
    105      -7.9047      1.00000
    106      -7.8997      1.00000
    107      -7.8816      1.00000
    108      -7.8641      1.00000
    109      -7.8185      1.00000
    110      -7.8076      1.00000
    111      -7.8033      1.00000
    112      -7.8013      1.00000
    113      -7.7919      1.00000
    114      -7.7865      1.00000
    115      -7.7801      1.00000
    116      -7.7743      1.00000
    117      -7.7316      1.00000
    118      -7.6348      1.00000
    119      -7.6195      1.00000
    120      -7.6104      1.00000
    121      -7.5950      1.00000
    122      -7.5788      1.00000
    123      -7.5724      1.00000
    124      -7.5522      1.00000
    125      -7.5456      1.00000
    126      -7.5342      1.00000
    127      -7.5208      1.00000
    128      -7.5036      1.00000
    129      -7.3910      1.00000
    130      -7.3737      1.00000
    131      -7.3713      1.00000
    132      -7.3587      1.00000
    133      -7.2737      1.00000
    134      -7.2156      1.00000
    135      -7.2083      1.00000
    136      -7.2009      1.00000
    137      -7.1298      1.00000
    138      -7.0729      1.00000
    139      -7.0539      1.00000
    140      -6.9880      1.00000
    141      -6.9859      1.00000
    142      -6.9445      1.00000
    143      -6.9376      1.00000
    144      -6.9289      1.00000
    145      -6.9120      1.00000
    146      -6.8964      1.00000
    147      -6.8845      1.00000
    148      -6.8742      1.00000
    149      -6.8698      1.00000
    150      -6.8442      1.00000
    151      -6.7988      1.00000
    152      -6.7578      1.00000
    153      -6.7304      1.00000
    154      -6.6530      1.00000
    155      -6.6476      1.00000
    156      -6.6391      1.00000
    157      -6.6261      1.00000
    158      -6.6009      1.00000
    159      -6.5777      1.00000
    160      -6.5647      1.00000
    161      -6.5455      1.00000
    162      -6.5436      1.00000
    163      -6.5367      1.00000
    164      -6.5291      1.00000
    165      -6.5058      1.00000
    166      -6.4306      1.00000
    167      -6.4022      1.00000
    168      -6.3783      1.00000
    169      -6.3539      1.00000
    170      -6.3495      1.00000
    171      -6.3419      1.00000
    172      -6.3281      1.00000
    173      -6.2998      1.00000
    174      -6.2934      1.00000
    175      -6.2824      1.00000
    176      -6.2589      1.00000
    177      -6.2423      1.00000
    178      -6.2176      1.00000
    179      -6.1853      1.00000
    180      -6.1575      1.00000
    181      -6.1545      1.00000
    182      -6.1357      1.00000
    183      -6.1291      1.00000
    184      -6.1039      1.00000
    185      -6.0934      1.00000
    186      -6.0628      1.00000
    187      -6.0422      1.00000
    188      -6.0207      1.00000
    189      -5.9996      1.00000
    190      -5.9731      1.00000
    191      -5.9631      1.00000
    192      -5.9504      1.00000
    193      -5.9282      1.00000
    194      -5.9213      1.00000
    195      -5.9117      1.00000
    196      -5.8713      1.00000
    197      -5.8578      1.00000
    198      -5.8456      1.00000
    199      -5.7965      1.00000
    200      -5.7862      1.00000
    201      -5.7753      1.00000
    202      -5.7720      1.00000
    203      -5.7591      1.00000
    204      -5.7558      1.00000
    205      -5.7542      1.00000
    206      -5.7474      1.00000
    207      -5.7451      1.00000
    208      -5.7407      1.00000
    209      -5.7389      1.00000
    210      -5.7324      1.00000
    211      -5.7266      1.00000
    212      -5.6871      1.00000
    213      -5.6829      1.00000
    214      -5.6633      1.00000
    215      -5.6347      1.00000
    216      -5.5869      1.00000
    217      -3.0754      1.00000
    218      -2.2264      0.00000
    219      -2.2199      0.00000
    220      -2.2182      0.00000
    221      -2.2129      0.00000
    222      -2.2047      0.00000
    223      -2.2039      0.00000
    224      -2.1982      0.00000
    225      -2.1947      0.00000
    226      -2.1915      0.00000
    227      -2.1624      0.00000
    228      -2.1536      0.00000
    229      -2.1526      0.00000
    230      -2.1379      0.00000
    231      -2.1180      0.00000
    232      -2.1143      0.00000
    233      -2.1109      0.00000
    234      -2.0220      0.00000
    235      -2.0166      0.00000
    236      -1.9864      0.00000
    237      -1.9697      0.00000
    238      -1.9587      0.00000
    239      -1.9501      0.00000
    240      -1.9482      0.00000
    241      -1.9400      0.00000
    242      -1.9362      0.00000
    243      -1.9281      0.00000
    244      -1.9172      0.00000
    245      -1.9031      0.00000
    246      -1.8981      0.00000
    247      -1.8832      0.00000
    248      -1.8686      0.00000
    249      -1.8631      0.00000
    250      -1.8612      0.00000
    251      -1.8207      0.00000
    252      -1.8134      0.00000
    253      -1.7957      0.00000
    254      -1.7888      0.00000
    255      -1.7711      0.00000
    256      -1.7421      0.00000
    257      -1.7243      0.00000
    258      -1.7167      0.00000
    259      -1.7127      0.00000
    260      -1.7077      0.00000
    261      -1.6978      0.00000
    262      -1.6839      0.00000
    263      -1.6810      0.00000
    264      -1.6791      0.00000
    265      -1.6747      0.00000
    266      -1.6657      0.00000
    267      -1.6607      0.00000
    268      -1.6569      0.00000
    269      -1.6542      0.00000
    270      -1.6525      0.00000
    271      -1.5435      0.00000
    272      -1.2725      0.00000
    273      -1.2557      0.00000
    274      -1.2547      0.00000
    275      -1.2443      0.00000
    276      -1.2388      0.00000
    277      -1.2373      0.00000
    278      -1.2149      0.00000
    279      -1.2123      0.00000
    280      -1.1997      0.00000
    281      -1.1938      0.00000
    282      -1.1925      0.00000
    283      -1.1852      0.00000
    284      -1.1827      0.00000
    285      -1.1787      0.00000
    286      -1.1742      0.00000
    287      -1.1728      0.00000
    288      -1.1646      0.00000
    289      -1.1602      0.00000
    290      -1.1598      0.00000
    291      -1.1567      0.00000
    292      -1.1369      0.00000
    293      -1.1332      0.00000
    294      -1.1282      0.00000
    295      -1.1237      0.00000
    296      -1.1205      0.00000
    297      -1.1190      0.00000
    298      -1.1137      0.00000
    299      -1.1089      0.00000
    300      -1.1030      0.00000
    301      -1.1021      0.00000
    302      -1.0978      0.00000
    303      -1.0951      0.00000
    304      -1.0873      0.00000
    305      -1.0759      0.00000
    306      -1.0677      0.00000
    307      -1.0623      0.00000
    308       1.6544      0.00000
    309       1.8205      0.00000
    310       2.0938      0.00000
    311       2.1100      0.00000
    312       2.1202      0.00000
    313       2.2112      0.00000
    314       2.4238      0.00000
    315       2.4326      0.00000
    316       2.6198      0.00000
    317       2.6250      0.00000
    318       2.6747      0.00000
    319       2.8056      0.00000
    320       2.8139      0.00000

 k-point     4 :       0.2000    0.2000    0.0000
  band No.  band energies     occupation 
      1     -19.6111      1.00000
      2     -19.5224      1.00000
      3     -19.4921      1.00000
      4     -19.3994      1.00000
      5     -19.3971      1.00000
      6     -19.3301      1.00000
      7     -19.2935      1.00000
      8     -19.2611      1.00000
      9     -19.2301      1.00000
     10     -19.0808      1.00000
     11     -19.0526      1.00000
     12     -19.0258      1.00000
     13     -18.9954      1.00000
     14     -18.9485      1.00000
     15     -18.9062      1.00000
     16     -18.8948      1.00000
     17     -18.8254      1.00000
     18     -18.8249      1.00000
     19     -18.7857      1.00000
     20     -18.7651      1.00000
     21     -18.7612      1.00000
     22     -18.7523      1.00000
     23     -18.7515      1.00000
     24     -18.7406      1.00000
     25     -18.7350      1.00000
     26     -18.7239      1.00000
     27     -18.7125      1.00000
     28     -18.7118      1.00000
     29     -18.6988      1.00000
     30     -18.6952      1.00000
     31     -18.6830      1.00000
     32     -18.6799      1.00000
     33     -18.6766      1.00000
     34     -18.6749      1.00000
     35     -18.6628      1.00000
     36     -18.6559      1.00000
     37     -18.6363      1.00000
     38     -18.6255      1.00000
     39     -18.6214      1.00000
     40     -18.6074      1.00000
     41     -18.6070      1.00000
     42     -18.5928      1.00000
     43     -18.5896      1.00000
     44     -18.5831      1.00000
     45     -18.5778      1.00000
     46     -18.5775      1.00000
     47     -18.5734      1.00000
     48     -18.5696      1.00000
     49     -18.5614      1.00000
     50     -18.5613      1.00000
     51     -18.5549      1.00000
     52     -18.5544      1.00000
     53     -18.5432      1.00000
     54     -18.5423      1.00000
     55      -9.2606      1.00000
     56      -9.1015      1.00000
     57      -9.0903      1.00000
     58      -9.0783      1.00000
     59      -9.0441      1.00000
     60      -9.0358      1.00000
     61      -9.0079      1.00000
     62      -8.9407      1.00000
     63      -8.8618      1.00000
     64      -8.8566      1.00000
     65      -8.6135      1.00000
     66      -8.6013      1.00000
     67      -8.5923      1.00000
     68      -8.5806      1.00000
     69      -8.5754      1.00000
     70      -8.5541      1.00000
     71      -8.5301      1.00000
     72      -8.5054      1.00000
     73      -8.4747      1.00000
     74      -8.3835      1.00000
     75      -8.3741      1.00000
     76      -8.3303      1.00000
     77      -8.3228      1.00000
     78      -8.3196      1.00000
     79      -8.3059      1.00000
     80      -8.2893      1.00000
     81      -8.2800      1.00000
     82      -8.2694      1.00000
     83      -8.2627      1.00000
     84      -8.2533      1.00000
     85      -8.2479      1.00000
     86      -8.2346      1.00000
     87      -8.2229      1.00000
     88      -8.1976      1.00000
     89      -8.1965      1.00000
     90      -8.1722      1.00000
     91      -8.1642      1.00000
     92      -8.1431      1.00000
     93      -8.1307      1.00000
     94      -8.1271      1.00000
     95      -8.1157      1.00000
     96      -8.0837      1.00000
     97      -8.0717      1.00000
     98      -8.0584      1.00000
     99      -7.9955      1.00000
    100      -7.9847      1.00000
    101      -7.9514      1.00000
    102      -7.9508      1.00000
    103      -7.9414      1.00000
    104      -7.9226      1.00000
    105      -7.9130      1.00000
    106      -7.8784      1.00000
    107      -7.8739      1.00000
    108      -7.8618      1.00000
    109      -7.8336      1.00000
    110      -7.8164      1.00000
    111      -7.8164      1.00000
    112      -7.8077      1.00000
    113      -7.7980      1.00000
    114      -7.7969      1.00000
    115      -7.7899      1.00000
    116      -7.7312      1.00000
    117      -7.7291      1.00000
    118      -7.6313      1.00000
    119      -7.6258      1.00000
    120      -7.6016      1.00000
    121      -7.5998      1.00000
    122      -7.5787      1.00000
    123      -7.5695      1.00000
    124      -7.5614      1.00000
    125      -7.5378      1.00000
    126      -7.5216      1.00000
    127      -7.4941      1.00000
    128      -7.4935      1.00000
    129      -7.4637      1.00000
    130      -7.4573      1.00000
    131      -7.4108      1.00000
    132      -7.2802      1.00000
    133      -7.2491      1.00000
    134      -7.2373      1.00000
    135      -7.2230      1.00000
    136      -7.1551      1.00000
    137      -7.1187      1.00000
    138      -7.1070      1.00000
    139      -7.0530      1.00000
    140      -7.0450      1.00000
    141      -6.9609      1.00000
    142      -6.9480      1.00000
    143      -6.9470      1.00000
    144      -6.9378      1.00000
    145      -6.9117      1.00000
    146      -6.8752      1.00000
    147      -6.8608      1.00000
    148      -6.8539      1.00000
    149      -6.8160      1.00000
    150      -6.8107      1.00000
    151      -6.7956      1.00000
    152      -6.7588      1.00000
    153      -6.6942      1.00000
    154      -6.6918      1.00000
    155      -6.6784      1.00000
    156      -6.6375      1.00000
    157      -6.6196      1.00000
    158      -6.6051      1.00000
    159      -6.6033      1.00000
    160      -6.5866      1.00000
    161      -6.5449      1.00000
    162      -6.5362      1.00000
    163      -6.5165      1.00000
    164      -6.4946      1.00000
    165      -6.4600      1.00000
    166      -6.4245      1.00000
    167      -6.4114      1.00000
    168      -6.3844      1.00000
    169      -6.3636      1.00000
    170      -6.3634      1.00000
    171      -6.3467      1.00000
    172      -6.3377      1.00000
    173      -6.2924      1.00000
    174      -6.2743      1.00000
    175      -6.2582      1.00000
    176      -6.2530      1.00000
    177      -6.2502      1.00000
    178      -6.2502      1.00000
    179      -6.1808      1.00000
    180      -6.1640      1.00000
    181      -6.1499      1.00000
    182      -6.1411      1.00000
    183      -6.1278      1.00000
    184      -6.1239      1.00000
    185      -6.1147      1.00000
    186      -6.0801      1.00000
    187      -6.0770      1.00000
    188      -6.0562      1.00000
    189      -6.0131      1.00000
    190      -5.9719      1.00000
    191      -5.9717      1.00000
    192      -5.9628      1.00000
    193      -5.9263      1.00000
    194      -5.9145      1.00000
    195      -5.8914      1.00000
    196      -5.8771      1.00000
    197      -5.8517      1.00000
    198      -5.8393      1.00000
    199      -5.7998      1.00000
    200      -5.7825      1.00000
    201      -5.7770      1.00000
    202      -5.7641      1.00000
    203      -5.7551      1.00000
    204      -5.7531      1.00000
    205      -5.7513      1.00000
    206      -5.7451      1.00000
    207      -5.7424      1.00000
    208      -5.7365      1.00000
    209      -5.7323      1.00000
    210      -5.7169      1.00000
    211      -5.7166      1.00000
    212      -5.6966      1.00000
    213      -5.6878      1.00000
    214      -5.6310      1.00000
    215      -5.6215      1.00000
    216      -5.6109      1.00000
    217      -3.0753      1.00000
    218      -2.2251      0.00000
    219      -2.2200      0.00000
    220      -2.2176      0.00000
    221      -2.2101      0.00000
    222      -2.2084      0.00000
    223      -2.2076      0.00000
    224      -2.1885      0.00000
    225      -2.1863      0.00000
    226      -2.1808      0.00000
    227      -2.1757      0.00000
    228      -2.1620      0.00000
    229      -2.1537      0.00000
    230      -2.1515      0.00000
    231      -2.1274      0.00000
    232      -2.1042      0.00000
    233      -2.0669      0.00000
    234      -2.0633      0.00000
    235      -2.0357      0.00000
    236      -1.9609      0.00000
    237      -1.9579      0.00000
    238      -1.9526      0.00000
    239      -1.9488      0.00000
    240      -1.9466      0.00000
    241      -1.9445      0.00000
    242      -1.9357      0.00000
    243      -1.9312      0.00000
    244      -1.9265      0.00000
    245      -1.9141      0.00000
    246      -1.9126      0.00000
    247      -1.8944      0.00000
    248      -1.8676      0.00000
    249      -1.8447      0.00000
    250      -1.8423      0.00000
    251      -1.8265      0.00000
    252      -1.8249      0.00000
    253      -1.7903      0.00000
    254      -1.7661      0.00000
    255      -1.7619      0.00000
    256      -1.7555      0.00000
    257      -1.7415      0.00000
    258      -1.7204      0.00000
    259      -1.7087      0.00000
    260      -1.6973      0.00000
    261      -1.6910      0.00000
    262      -1.6853      0.00000
    263      -1.6804      0.00000
    264      -1.6772      0.00000
    265      -1.6723      0.00000
    266      -1.6689      0.00000
    267      -1.6630      0.00000
    268      -1.6625      0.00000
    269      -1.6566      0.00000
    270      -1.6533      0.00000
    271      -1.5441      0.00000
    272      -1.2669      0.00000
    273      -1.2636      0.00000
    274      -1.2562      0.00000
    275      -1.2435      0.00000
    276      -1.2323      0.00000
    277      -1.2256      0.00000
    278      -1.2241      0.00000
    279      -1.2129      0.00000
    280      -1.2004      0.00000
    281      -1.1956      0.00000
    282      -1.1956      0.00000
    283      -1.1874      0.00000
    284      -1.1810      0.00000
    285      -1.1782      0.00000
    286      -1.1763      0.00000
    287      -1.1749      0.00000
    288      -1.1668      0.00000
    289      -1.1622      0.00000
    290      -1.1605      0.00000
    291      -1.1474      0.00000
    292      -1.1418      0.00000
    293      -1.1363      0.00000
    294      -1.1318      0.00000
    295      -1.1302      0.00000
    296      -1.1282      0.00000
    297      -1.1191      0.00000
    298      -1.1096      0.00000
    299      -1.1093      0.00000
    300      -1.1038      0.00000
    301      -1.1004      0.00000
    302      -1.0904      0.00000
    303      -1.0854      0.00000
    304      -1.0840      0.00000
    305      -1.0797      0.00000
    306      -1.0661      0.00000
    307      -1.0602      0.00000
    308       1.6199      0.00000
    309       1.9408      0.00000
    310       1.9460      0.00000
    311       2.0709      0.00000
    312       2.2909      0.00000
    313       2.3077      0.00000
    314       2.3524      0.00000
    315       2.3575      0.00000
    316       2.6072      0.00000
    317       2.6164      0.00000
    318       2.6459      0.00000
    319       2.7282      0.00000
    320       2.7430      0.00000

 k-point     5 :       0.4000    0.2000    0.0000
  band No.  band energies     occupation 
      1     -19.5985      1.00000
      2     -19.5401      1.00000
      3     -19.5085      1.00000
      4     -19.4037      1.00000
      5     -19.3498      1.00000
      6     -19.3368      1.00000
      7     -19.2766      1.00000
      8     -19.2733      1.00000
      9     -19.2482      1.00000
     10     -19.0725      1.00000
     11     -19.0557      1.00000
     12     -19.0442      1.00000
     13     -18.9758      1.00000
     14     -18.9634      1.00000
     15     -18.9090      1.00000
     16     -18.9011      1.00000
     17     -18.8218      1.00000
     18     -18.8208      1.00000
     19     -18.7779      1.00000
     20     -18.7691      1.00000
     21     -18.7528      1.00000
     22     -18.7517      1.00000
     23     -18.7342      1.00000
     24     -18.7340      1.00000
     25     -18.7292      1.00000
     26     -18.7253      1.00000
     27     -18.7200      1.00000
     28     -18.7100      1.00000
     29     -18.7095      1.00000
     30     -18.6969      1.00000
     31     -18.6899      1.00000
     32     -18.6829      1.00000
     33     -18.6734      1.00000
     34     -18.6676      1.00000
     35     -18.6648      1.00000
     36     -18.6619      1.00000
     37     -18.6398      1.00000
     38     -18.6330      1.00000
     39     -18.6251      1.00000
     40     -18.6073      1.00000
     41     -18.6048      1.00000
     42     -18.5948      1.00000
     43     -18.5881      1.00000
     44     -18.5817      1.00000
     45     -18.5774      1.00000
     46     -18.5766      1.00000
     47     -18.5755      1.00000
     48     -18.5715      1.00000
     49     -18.5594      1.00000
     50     -18.5592      1.00000
     51     -18.5498      1.00000
     52     -18.5496      1.00000
     53     -18.5464      1.00000
     54     -18.5456      1.00000
     55      -9.2537      1.00000
     56      -9.0988      1.00000
     57      -9.0949      1.00000
     58      -9.0810      1.00000
     59      -9.0276      1.00000
     60      -9.0083      1.00000
     61      -8.9799      1.00000
     62      -8.9495      1.00000
     63      -8.9392      1.00000
     64      -8.8804      1.00000
     65      -8.6082      1.00000
     66      -8.6052      1.00000
     67      -8.5901      1.00000
     68      -8.5834      1.00000
     69      -8.5834      1.00000
     70      -8.5336      1.00000
     71      -8.5230      1.00000
     72      -8.4966      1.00000
     73      -8.4798      1.00000
     74      -8.3842      1.00000
     75      -8.3748      1.00000
     76      -8.3323      1.00000
     77      -8.3243      1.00000
     78      -8.3193      1.00000
     79      -8.3048      1.00000
     80      -8.2867      1.00000
     81      -8.2853      1.00000
     82      -8.2657      1.00000
     83      -8.2612      1.00000
     84      -8.2523      1.00000
     85      -8.2473      1.00000
     86      -8.2322      1.00000
     87      -8.2218      1.00000
     88      -8.2140      1.00000
     89      -8.1939      1.00000
     90      -8.1761      1.00000
     91      -8.1667      1.00000
     92      -8.1451      1.00000
     93      -8.1400      1.00000
     94      -8.0861      1.00000
     95      -8.0573      1.00000
     96      -8.0571      1.00000
     97      -8.0524      1.00000
     98      -8.0437      1.00000
     99      -8.0346      1.00000
    100      -8.0317      1.00000
    101      -8.0187      1.00000
    102      -7.9618      1.00000
    103      -7.9476      1.00000
    104      -7.9318      1.00000
    105      -7.8919      1.00000
    106      -7.8909      1.00000
    107      -7.8892      1.00000
    108      -7.8632      1.00000
    109      -7.8251      1.00000
    110      -7.8098      1.00000
    111      -7.8083      1.00000
    112      -7.8015      1.00000
    113      -7.7962      1.00000
    114      -7.7896      1.00000
    115      -7.7479      1.00000
    116      -7.7374      1.00000
    117      -7.6956      1.00000
    118      -7.6697      1.00000
    119      -7.6255      1.00000
    120      -7.6247      1.00000
    121      -7.6123      1.00000
    122      -7.5900      1.00000
    123      -7.5839      1.00000
    124      -7.5582      1.00000
    125      -7.5215      1.00000
    126      -7.5161      1.00000
    127      -7.5045      1.00000
    128      -7.4769      1.00000
    129      -7.4761      1.00000
    130      -7.3852      1.00000
    131      -7.3491      1.00000
    132      -7.3252      1.00000
    133      -7.2373      1.00000
    134      -7.2227      1.00000
    135      -7.1981      1.00000
    136      -7.1248      1.00000
    137      -7.0898      1.00000
    138      -7.0579      1.00000
    139      -7.0456      1.00000
    140      -7.0389      1.00000
    141      -6.9632      1.00000
    142      -6.9580      1.00000
    143      -6.9496      1.00000
    144      -6.9427      1.00000
    145      -6.9307      1.00000
    146      -6.9168      1.00000
    147      -6.9081      1.00000
    148      -6.8921      1.00000
    149      -6.8839      1.00000
    150      -6.8235      1.00000
    151      -6.7768      1.00000
    152      -6.7659      1.00000
    153      -6.7637      1.00000
    154      -6.7448      1.00000
    155      -6.6962      1.00000
    156      -6.6760      1.00000
    157      -6.6116      1.00000
    158      -6.6024      1.00000
    159      -6.5901      1.00000
    160      -6.5804      1.00000
    161      -6.5686      1.00000
    162      -6.5549      1.00000
    163      -6.5345      1.00000
    164      -6.4890      1.00000
    165      -6.4536      1.00000
    166      -6.4438      1.00000
    167      -6.4010      1.00000
    168      -6.3871      1.00000
    169      -6.3794      1.00000
    170      -6.3643      1.00000
    171      -6.3534      1.00000
    172      -6.3138      1.00000
    173      -6.3033      1.00000
    174      -6.2635      1.00000
    175      -6.2523      1.00000
    176      -6.2521      1.00000
    177      -6.2047      1.00000
    178      -6.1987      1.00000
    179      -6.1552      1.00000
    180      -6.1519      1.00000
    181      -6.1285      1.00000
    182      -6.1267      1.00000
    183      -6.1031      1.00000
    184      -6.0990      1.00000
    185      -6.0878      1.00000
    186      -6.0234      1.00000
    187      -6.0212      1.00000
    188      -5.9994      1.00000
    189      -5.9802      1.00000
    190      -5.9588      1.00000
    191      -5.9516      1.00000
    192      -5.9477      1.00000
    193      -5.9441      1.00000
    194      -5.9300      1.00000
    195      -5.9251      1.00000
    196      -5.9015      1.00000
    197      -5.8739      1.00000
    198      -5.8475      1.00000
    199      -5.8452      1.00000
    200      -5.7902      1.00000
    201      -5.7842      1.00000
    202      -5.7677      1.00000
    203      -5.7611      1.00000
    204      -5.7608      1.00000
    205      -5.7583      1.00000
    206      -5.7562      1.00000
    207      -5.7525      1.00000
    208      -5.7470      1.00000
    209      -5.7459      1.00000
    210      -5.7436      1.00000
    211      -5.7145      1.00000
    212      -5.6776      1.00000
    213      -5.6619      1.00000
    214      -5.6601      1.00000
    215      -5.6534      1.00000
    216      -5.6024      1.00000
    217      -3.0757      1.00000
    218      -2.2298      0.00000
    219      -2.2237      0.00000
    220      -2.2224      0.00000
    221      -2.2147      0.00000
    222      -2.2116      0.00000
    223      -2.2013      0.00000
    224      -2.1998      0.00000
    225      -2.1866      0.00000
    226      -2.1755      0.00000
    227      -2.1680      0.00000
    228      -2.1636      0.00000
    229      -2.1400      0.00000
    230      -2.1393      0.00000
    231      -2.1296      0.00000
    232      -2.1270      0.00000
    233      -2.0766      0.00000
    234      -2.0408      0.00000
    235      -2.0320      0.00000
    236      -1.9661      0.00000
    237      -1.9562      0.00000
    238      -1.9553      0.00000
    239      -1.9522      0.00000
    240      -1.9520      0.00000
    241      -1.9332      0.00000
    242      -1.9272      0.00000
    243      -1.9268      0.00000
    244      -1.9113      0.00000
    245      -1.9069      0.00000
    246      -1.8960      0.00000
    247      -1.8809      0.00000
    248      -1.8691      0.00000
    249      -1.8586      0.00000
    250      -1.8531      0.00000
    251      -1.8508      0.00000
    252      -1.8362      0.00000
    253      -1.7861      0.00000
    254      -1.7807      0.00000
    255      -1.7737      0.00000
    256      -1.7547      0.00000
    257      -1.7361      0.00000
    258      -1.7304      0.00000
    259      -1.7132      0.00000
    260      -1.6991      0.00000
    261      -1.6935      0.00000
    262      -1.6818      0.00000
    263      -1.6810      0.00000
    264      -1.6687      0.00000
    265      -1.6680      0.00000
    266      -1.6647      0.00000
    267      -1.6612      0.00000
    268      -1.6568      0.00000
    269      -1.6544      0.00000
    270      -1.6538      0.00000
    271      -1.5426      0.00000
    272      -1.2679      0.00000
    273      -1.2553      0.00000
    274      -1.2544      0.00000
    275      -1.2511      0.00000
    276      -1.2488      0.00000
    277      -1.2288      0.00000
    278      -1.2153      0.00000
    279      -1.2151      0.00000
    280      -1.1991      0.00000
    281      -1.1946      0.00000
    282      -1.1918      0.00000
    283      -1.1865      0.00000
    284      -1.1839      0.00000
    285      -1.1791      0.00000
    286      -1.1767      0.00000
    287      -1.1659      0.00000
    288      -1.1647      0.00000
    289      -1.1574      0.00000
    290      -1.1480      0.00000
    291      -1.1426      0.00000
    292      -1.1376      0.00000
    293      -1.1290      0.00000
    294      -1.1281      0.00000
    295      -1.1241      0.00000
    296      -1.1175      0.00000
    297      -1.1146      0.00000
    298      -1.1135      0.00000
    299      -1.1106      0.00000
    300      -1.1094      0.00000
    301      -1.1075      0.00000
    302      -1.1042      0.00000
    303      -1.1033      0.00000
    304      -1.0851      0.00000
    305      -1.0741      0.00000
    306      -1.0700      0.00000
    307      -1.0699      0.00000
    308       1.7479      0.00000
    309       1.7621      0.00000
    310       1.9123      0.00000
    311       2.1565      0.00000
    312       2.1728      0.00000
    313       2.2784      0.00000
    314       2.3250      0.00000
    315       2.5622      0.00000
    316       2.5628      0.00000
    317       2.5924      0.00000
    318       2.7549      0.00000
    319       2.7607      0.00000
    320       2.7868      0.00000


--------------------------------------------------------------------------------------------------------


 soft charge-density along one line, spin component           1
         0         1         2         3         4         5         6         7         8         9
 total charge-density along one line

 soft charge-density along one line, spin component           2
         0         1         2         3         4         5         6         7         8         9
 total charge-density along one line

 pseudopotential strength for first ion, spin component:           1
 -9.693   0.191   0.005   0.006   0.005 -10.019   0.185   0.005
  0.191  -9.543   0.001  -0.009  -0.011   0.185  -9.874   0.001
  0.005   0.001  -9.847  -0.002   0.002   0.005   0.001 -10.168
  0.006  -0.009  -0.002  -9.557  -0.198   0.006  -0.009  -0.002
  0.005  -0.011   0.002  -0.198  -9.689   0.005  -0.011   0.002
-10.019   0.185   0.005   0.006   0.005 -10.307   0.178   0.005
  0.185  -9.874   0.001  -0.009  -0.011   0.178 -10.168   0.001
  0.005   0.001 -10.168  -0.002   0.002   0.005   0.001 -10.451
  0.006  -0.009  -0.002  -9.888  -0.191   0.006  -0.009  -0.002
  0.005  -0.011   0.002  -0.191 -10.015   0.005  -0.010   0.002
  0.003  -0.003   0.001   0.001   0.002   0.003  -0.003   0.001
  0.005  -0.007   0.002   0.002   0.003   0.005  -0.007   0.002
 -0.000   0.001  -0.001   0.000  -0.003  -0.000   0.001  -0.001
  0.000   0.002   0.001  -0.000  -0.000   0.000   0.002   0.001
 -0.001   0.000   0.000   0.001  -0.000  -0.001   0.000   0.000
 -0.000   0.001  -0.001   0.000  -0.004  -0.000   0.001  -0.001
  0.000   0.002   0.001  -0.000  -0.000   0.000   0.002   0.001
 -0.001   0.000   0.000   0.001  -0.001  -0.001   0.000   0.000
 pseudopotential strength for first ion, spin component:           2
 -8.042  -0.259   0.006   0.000  -0.005  -8.422  -0.250   0.006
 -0.259  -8.242   0.002  -0.000   0.004  -0.250  -8.616   0.002
  0.006   0.002  -7.859  -0.001   0.003   0.006   0.002  -8.246
  0.000  -0.000  -0.001  -8.238   0.255   0.000  -0.001  -0.001
 -0.005   0.004   0.003   0.255  -8.045  -0.005   0.004   0.003
 -8.422  -0.250   0.006   0.000  -0.005  -8.765  -0.242   0.006
 -0.250  -8.616   0.002  -0.001   0.004  -0.242  -8.951   0.002
  0.006   0.002  -8.246  -0.001   0.003   0.006   0.002  -8.595
  0.000  -0.001  -0.001  -8.612   0.246   0.000  -0.001  -0.001
 -0.005   0.004   0.003   0.246  -8.426  -0.004   0.004   0.003
 -0.000   0.003  -0.000   0.000  -0.001  -0.001   0.003  -0.001
 -0.001   0.006  -0.001  -0.000  -0.002  -0.001   0.007  -0.001
 -0.001   0.000  -0.001  -0.000  -0.001  -0.001   0.000  -0.001
 -0.000   0.001   0.001  -0.001   0.000  -0.000   0.001   0.001
  0.001  -0.000   0.000   0.000  -0.000   0.000  -0.000   0.000
 -0.001  -0.000  -0.001  -0.000  -0.000  -0.001  -0.000  -0.001
 -0.000   0.001   0.000  -0.001   0.000  -0.000   0.001   0.000
  0.001  -0.000   0.000   0.000  -0.001   0.001  -0.000   0.000
 total augmentation occupancy for first ion, spin component:           1
  3.790  -1.249   0.007  -0.044  -0.041  -2.822   0.060  -0.008   0.028   0.038  -0.022   0.004  -0.005  -0.005   0.096  -0.000
 -1.249   2.823  -0.020   0.038  -0.001   0.059  -2.658   0.014  -0.040  -0.012   0.000  -0.001   0.003   0.002  -0.037  -0.000
  0.007  -0.020   4.581   0.014  -0.003  -0.007   0.016  -2.754  -0.011   0.001   0.063  -0.009   0.001  -0.002   0.000  -0.000
 -0.044   0.038   0.014   2.789   1.266   0.026  -0.040  -0.009  -2.647  -0.078  -0.013   0.001   0.031  -0.004  -0.004  -0.001
 -0.041  -0.001  -0.003   1.266   3.807   0.038  -0.014   0.000  -0.081  -2.821  -0.008   0.001   0.097  -0.007  -0.001  -0.005
 -2.822   0.059  -0.007   0.026   0.038   2.804   0.857   0.007  -0.012  -0.027   0.013  -0.002  -0.001   0.000  -0.108   0.000
  0.060  -2.658   0.016  -0.040  -0.014   0.857   3.274  -0.012   0.033   0.013  -0.001  -0.001  -0.007  -0.003   0.028   0.000
 -0.008   0.014  -2.754  -0.009   0.000   0.007  -0.012   2.053   0.007   0.001  -0.071   0.012  -0.001   0.002  -0.000   0.000
  0.028  -0.040  -0.011  -2.647  -0.081  -0.012   0.033   0.007   3.271  -0.840   0.007  -0.001  -0.029  -0.000   0.003   0.001
  0.038  -0.012   0.001  -0.078  -2.821  -0.027   0.013   0.001  -0.840   2.798   0.006  -0.000  -0.107   0.006   0.003   0.005
 -0.022   0.000   0.063  -0.013  -0.008   0.013  -0.001  -0.071   0.007   0.006   1.839  -0.222  -0.003  -0.003  -0.003   0.000
  0.004  -0.001  -0.009   0.001   0.001  -0.002  -0.001   0.012  -0.001  -0.000  -0.222   0.035  -0.000  -0.000  -0.000  -0.000
 -0.005   0.003   0.001   0.031   0.097  -0.001  -0.007  -0.001  -0.029  -0.107  -0.003  -0.000   0.282  -0.001  -0.001  -0.008
 -0.005   0.002  -0.002  -0.004  -0.007   0.000  -0.003   0.002  -0.000   0.006  -0.003  -0.000  -0.001   0.275  -0.001  -0.000
  0.096  -0.037   0.000  -0.004  -0.001  -0.108   0.028  -0.000   0.003   0.003  -0.003  -0.000  -0.001  -0.001   0.283  -0.000
 -0.000  -0.000  -0.000  -0.001  -0.005   0.000   0.000   0.000   0.001   0.005   0.000  -0.000  -0.008  -0.000  -0.000   0.000
 -0.001   0.000   0.001  -0.000   0.000   0.000   0.000  -0.000   0.000  -0.000   0.000  -0.000  -0.000  -0.008  -0.000   0.000
 -0.003  -0.000  -0.000   0.000   0.001   0.004   0.000   0.000  -0.000  -0.000   0.000  -0.000  -0.000  -0.000  -0.008   0.000
 total augmentation occupancy for first ion, spin component:           2
  2.541  -2.109   0.008  -0.052  -0.034  -1.119   1.222  -0.008   0.036   0.028  -0.014   0.003  -0.006  -0.004   0.013   0.000
 -2.109   1.016  -0.023   0.033   0.030   1.236  -0.253   0.014  -0.016  -0.005   0.003  -0.002  -0.005  -0.005  -0.028   0.000
  0.008  -0.023   4.020   0.015  -0.004  -0.005   0.017  -1.974  -0.011   0.003  -0.008   0.004   0.001  -0.001   0.000  -0.000
 -0.052   0.033   0.015   1.037   2.118   0.031  -0.024  -0.009  -0.251  -1.232  -0.007   0.001   0.024  -0.004  -0.003  -0.000
 -0.034   0.030  -0.004   2.118   2.550   0.020  -0.015   0.001  -1.239  -1.131  -0.004   0.001   0.016   0.001  -0.000  -0.000
 -1.119   1.236  -0.005   0.031   0.020   0.426  -0.756   0.005  -0.023  -0.022   0.011  -0.002   0.005   0.004  -0.004  -0.000
  1.222  -0.253   0.017  -0.024  -0.015  -0.756  -0.095  -0.009   0.016   0.005  -0.002   0.001   0.003   0.002   0.014  -0.000
 -0.008   0.014  -1.974  -0.009   0.001   0.005  -0.009   0.964   0.006  -0.001   0.012  -0.003  -0.000   0.001  -0.000   0.000
  0.036  -0.016  -0.011  -0.251  -1.239  -0.023   0.016   0.006  -0.104   0.763   0.006  -0.000  -0.010   0.004   0.002   0.000
  0.028  -0.005   0.003  -1.232  -1.131  -0.022   0.005  -0.001   0.763   0.435   0.003  -0.000  -0.005   0.001  -0.000  -0.000
 -0.014   0.003  -0.008  -0.007  -0.004   0.011  -0.002   0.012   0.006   0.003  -0.041   0.048  -0.000  -0.000   0.000  -0.000
  0.003  -0.002   0.004   0.001   0.001  -0.002   0.001  -0.003  -0.000  -0.000   0.048  -0.009  -0.000  -0.000  -0.000   0.000
 -0.006  -0.005   0.001   0.024   0.016   0.005   0.003  -0.000  -0.010  -0.005  -0.000  -0.000   0.016  -0.001   0.000   0.001
 -0.004  -0.005  -0.001  -0.004   0.001   0.004   0.002   0.001   0.004   0.001  -0.000  -0.000  -0.001   0.013   0.000  -0.000
  0.013  -0.028   0.000  -0.003  -0.000  -0.004   0.014  -0.000   0.002  -0.000   0.000  -0.000   0.000   0.000   0.016  -0.000
  0.000   0.000  -0.000  -0.000  -0.000  -0.000  -0.000   0.000   0.000  -0.000  -0.000   0.000   0.001  -0.000  -0.000  -0.000
 -0.000   0.000   0.001   0.000   0.000   0.000  -0.000  -0.001  -0.000  -0.000  -0.000   0.000  -0.000   0.001  -0.000  -0.000
  0.001  -0.000  -0.000   0.001   0.001  -0.001   0.000   0.000  -0.000  -0.000  -0.000   0.000  -0.000  -0.000   0.002  -0.000


------------------------ aborting loop because EDIFF is reached ----------------------------------------


    CHARGE:  cpu time    2.3380: real time    3.3400
    FORLOC:  cpu time    0.0366: real time    0.0368
    FORNL :  cpu time    7.3814: real time    7.4282
    STRESS:  cpu time   24.1491: real time   24.2905
    FORCOR:  cpu time    0.5014: real time    0.5040
    FORHAR:  cpu time    0.1246: real time    0.1252
    MIXING:  cpu time    0.0138: real time    0.0139
    OFIELD:  cpu time    0.0000: real time    0.0000

  FORCE on cell =-STRESS in cart. coord.  units (eV):
  Direction    XX          YY          ZZ          XY          YZ          ZX
  --------------------------------------------------------------------------------------
  Alpha Z   245.39954   245.39954   245.39954
  Ewald   70045.24355 70045.24355-85220.81260    -0.00000     0.00000     0.00000
  Hartree 75590.82971 75590.82971-72140.75536    -0.00000     0.00000     0.00000
  E(xc)   -1886.52647 -1886.52650 -1889.47769    -0.00002    -0.00000    -0.00000
  Local  ************************148081.68189     0.00078     0.00002     0.00001
  n-local  4293.66386  4293.67396  4287.18607    -0.01495    -0.00024     0.00028
  augment  -529.67243  -529.67318  -532.14499    -0.00065     0.00001     0.00000
  Kinetic  7122.16214  7122.16479  7168.01073    -0.00482     0.01286    -0.00395
  Fock        0.00000     0.00000     0.00000     0.00000     0.00000     0.00000
  -------------------------------------------------------------------------------------
  Total      -0.03726    -0.03726    -0.91241     0.00000     0.00000     0.00000
  in kB      -0.01048    -0.01048    -0.25652     0.00000     0.00000     0.00000
  external pressure =       -0.09 kB  Pullay stress =        0.00 kB


 VOLUME and BASIS-vectors are now :
 -----------------------------------------------------------------------------
  energy-cutoff  :      400.00
  volume of cell :     5698.74
      direct lattice vectors                 reciprocal lattice vectors
    18.138823496  0.000000000  0.000000000     0.055130367  0.031829532 -0.000000000
    -9.069411748 15.708681942  0.000000000     0.000000000  0.063659065  0.000000000
     0.000000000  0.000000000 20.000000000     0.000000000 -0.000000000  0.050000000

  length of vectors
    18.138823496 18.138823496 20.000000000     0.063659065  0.063659065  0.050000000


 FORCES acting on ions
    electron-ion (+dipol)            ewald-force                    non-local-force                 convergence-correction
 -----------------------------------------------------------------------------------------------
   0.375E+01 0.206E+01 0.248E+01   -.390E+01 -.223E+01 -.265E+01   0.142E+00 0.167E+00 0.168E+00   0.226E-04 0.148E-04 0.266E-05
   -.903E-01 0.428E+01 0.248E+01   0.160E-01 -.449E+01 -.265E+01   0.737E-01 0.207E+00 0.168E+00   0.156E-05 0.270E-04 0.266E-05
   0.100E+01 -.597E+00 0.436E+00   -.101E+01 0.599E+00 -.429E+00   0.993E-02 -.540E-02 -.236E-02   0.990E-05 -.485E-05 0.477E-05
   0.375E+01 -.206E+01 0.248E+01   -.390E+01 0.223E+01 -.265E+01   0.142E+00 -.167E+00 0.168E+00   0.226E-04 -.148E-04 0.266E-05
   0.159E-01 0.117E+01 0.436E+00   -.125E-01 -.118E+01 -.429E+00   -.291E-03 0.113E-01 -.236E-02   -.749E-06 0.110E-04 0.477E-05
   0.108E+00 0.788E-01 0.283E+00   -.110E+00 -.792E-01 -.282E+00   0.166E-02 -.658E-04 0.105E-02   -.253E-05 -.119E-05 0.643E-05
   -.366E+01 0.222E+01 0.248E+01   0.388E+01 -.226E+01 -.265E+01   -.216E+00 0.396E-01 0.168E+00   -.242E-04 0.121E-04 0.266E-05
   -.102E+01 0.570E+00 0.436E+00   0.103E+01 -.578E+00 -.429E+00   -.964E-02 0.590E-02 -.236E-02   -.916E-05 0.615E-05 0.477E-05
   -.903E-01 -.428E+01 0.248E+01   0.160E-01 0.449E+01 -.265E+01   0.737E-01 -.207E+00 0.168E+00   0.156E-05 -.270E-04 0.266E-05
   -.366E+01 -.222E+01 0.248E+01   0.388E+01 0.226E+01 -.265E+01   -.216E+00 -.396E-01 0.168E+00   -.242E-04 -.121E-04 0.266E-05
   -.122E+00 -.544E-01 0.283E+00   0.124E+00 0.560E-01 -.282E+00   -.775E-03 -.147E-02 0.105E-02   0.230E-05 0.160E-05 0.643E-05
   0.159E-01 -.117E+01 0.436E+00   -.125E-01 0.118E+01 -.429E+00   -.291E-03 -.113E-01 -.236E-02   -.748E-06 -.110E-04 0.477E-05
   0.141E-01 0.133E+00 0.283E+00   -.134E-01 -.135E+00 -.282E+00   -.889E-03 0.141E-02 0.105E-02   0.235E-06 -.279E-05 0.643E-05
   0.100E+01 0.597E+00 0.436E+00   -.101E+01 -.599E+00 -.429E+00   0.993E-02 0.540E-02 -.236E-02   0.990E-05 0.485E-05 0.477E-05
   -.102E+01 -.570E+00 0.436E+00   0.103E+01 0.578E+00 -.429E+00   -.964E-02 -.590E-02 -.236E-02   -.916E-05 -.615E-05 0.477E-05
   0.141E-01 -.133E+00 0.283E+00   -.134E-01 0.135E+00 -.282E+00   -.889E-03 -.141E-02 0.105E-02   0.235E-06 0.279E-05 0.643E-05
   0.108E+00 -.788E-01 0.283E+00   -.110E+00 0.792E-01 -.282E+00   0.166E-02 0.658E-04 0.105E-02   -.254E-05 0.119E-05 0.643E-05
   -.122E+00 0.544E-01 0.283E+00   0.124E+00 -.560E-01 -.282E+00   -.775E-03 0.147E-02 0.105E-02   0.230E-05 -.160E-05 0.643E-05
   0.746E+02 0.880E-06 0.483E+03   -.765E+02 -.312E-10 -.486E+03   0.199E+01 0.301E-23 0.302E+01   0.246E-04 -.277E-09 0.504E-05
   -.373E+02 0.646E+02 0.483E+03   0.383E+02 -.663E+02 -.486E+03   -.993E+00 0.172E+01 0.302E+01   -.123E-04 0.213E-04 0.504E-05
   -.337E+02 -.583E+02 0.486E+03   0.347E+02 0.601E+02 -.489E+03   -.996E+00 -.173E+01 0.301E+01   0.131E-04 0.226E-04 0.474E-05
   -.518E+02 -.720E-06 -.479E+03   0.527E+02 -.197E-10 0.481E+03   -.864E+00 0.364E-19 -.281E+01   0.974E-05 -.126E-09 -.176E-04
   0.386E+02 -.610E+02 -.481E+03   -.396E+02 0.627E+02 0.484E+03   0.103E+01 -.171E+01 -.298E+01   0.178E-04 0.969E-05 0.545E-05
   0.388E+02 0.671E+02 -.481E+03   -.398E+02 -.689E+02 0.484E+03   0.990E+00 0.171E+01 -.296E+01   0.112E-04 0.193E-04 -.254E-05
   0.719E+02 -.125E+00 0.481E+03   -.739E+02 0.127E+00 -.484E+03   0.199E+01 -.156E-02 0.297E+01   -.457E-06 0.666E-06 0.590E-05
   -.337E+02 0.583E+02 0.486E+03   0.347E+02 -.601E+02 -.489E+03   -.996E+00 0.173E+01 0.301E+01   0.131E-04 -.226E-04 0.474E-05
   -.342E+02 -.636E+02 0.482E+03   0.352E+02 0.653E+02 -.485E+03   -.976E+00 -.175E+01 0.298E+01   0.176E-04 -.918E-05 0.142E-05
   -.708E+02 -.725E+00 -.481E+03   0.727E+02 0.726E+00 0.484E+03   -.199E+01 -.957E-03 -.297E+01   0.565E-05 -.243E-05 0.114E-04
   0.362E+02 -.623E+02 -.481E+03   -.372E+02 0.640E+02 0.484E+03   0.996E+00 -.172E+01 -.297E+01   -.226E-05 0.653E-06 0.142E-04
   0.386E+02 0.610E+02 -.481E+03   -.396E+02 -.627E+02 0.484E+03   0.103E+01 0.171E+01 -.298E+01   0.178E-04 -.969E-05 0.545E-05
   0.721E+02 0.218E+01 0.482E+03   -.741E+02 -.220E+01 -.485E+03   0.200E+01 0.287E-01 0.298E+01   -.844E-06 0.198E-04 0.142E-05
   -.356E+02 0.617E+02 0.482E+03   0.366E+02 -.634E+02 -.485E+03   -.994E+00 0.172E+01 0.297E+01   0.150E-05 -.259E-05 0.860E-05
   -.360E+02 -.612E+02 0.482E+03   0.370E+02 0.629E+02 -.485E+03   -.996E+00 -.172E+01 0.297E+01   0.163E-05 0.828E-05 0.551E-05
   -.721E+02 0.295E+01 -.481E+03   0.741E+02 -.299E+01 0.484E+03   -.200E+01 0.387E-01 -.298E+01   -.505E-06 0.203E-04 0.545E-05
   0.360E+02 -.609E+02 -.481E+03   -.370E+02 0.626E+02 0.484E+03   0.995E+00 -.172E+01 -.297E+01   -.717E-06 0.611E-05 0.114E-04
   0.359E+02 0.625E+02 -.481E+03   -.368E+02 -.642E+02 0.484E+03   0.995E+00 0.172E+01 -.297E+01   0.564E-06 -.228E-05 0.142E-04
   0.673E+02 0.914E-06 0.486E+03   -.694E+02 -.135E-10 -.489E+03   0.199E+01 -.129E-20 0.301E+01   -.261E-04 0.322E-09 0.474E-05
   -.361E+02 0.622E+02 0.481E+03   0.371E+02 -.639E+02 -.484E+03   -.998E+00 0.173E+01 0.297E+01   0.805E-06 -.629E-07 0.590E-05
   -.379E+02 -.614E+02 0.482E+03   0.390E+02 0.631E+02 -.485E+03   -.103E+01 -.172E+01 0.298E+01   -.167E-04 0.106E-04 0.142E-05
   -.775E+02 -.951E-06 -.481E+03   0.795E+02 -.147E-10 0.484E+03   -.198E+01 0.131E-20 -.296E+01   -.223E-04 0.285E-09 -.254E-05
   0.259E+02 -.449E+02 -.479E+03   -.263E+02 0.456E+02 0.481E+03   0.432E+00 -.748E+00 -.281E+01   -.487E-05 0.844E-05 -.176E-04
   0.335E+02 0.639E+02 -.481E+03   -.345E+02 -.657E+02 0.484E+03   0.966E+00 0.175E+01 -.298E+01   -.173E-04 0.106E-04 0.545E-05
   0.721E+02 -.218E+01 0.482E+03   -.741E+02 0.220E+01 -.485E+03   0.200E+01 -.287E-01 0.298E+01   -.844E-06 -.198E-04 0.142E-05
   -.379E+02 0.614E+02 0.482E+03   0.390E+02 -.631E+02 -.485E+03   -.103E+01 0.172E+01 0.298E+01   -.167E-04 -.106E-04 0.142E-05
   -.373E+02 -.646E+02 0.483E+03   0.383E+02 0.663E+02 -.486E+03   -.993E+00 -.172E+01 0.302E+01   -.123E-04 -.213E-04 0.504E-05
   -.721E+02 -.295E+01 -.481E+03   0.741E+02 0.299E+01 0.484E+03   -.200E+01 -.387E-01 -.298E+01   -.505E-06 -.203E-04 0.545E-05
   0.388E+02 -.671E+02 -.481E+03   -.398E+02 0.689E+02 0.484E+03   0.990E+00 -.171E+01 -.296E+01   0.112E-04 -.193E-04 -.254E-05
   0.259E+02 0.449E+02 -.479E+03   -.263E+02 -.456E+02 0.481E+03   0.432E+00 0.748E+00 -.281E+01   -.487E-05 -.844E-05 -.176E-04
   0.710E+02 0.550E+00 0.482E+03   -.730E+02 -.552E+00 -.485E+03   0.199E+01 0.143E-02 0.297E+01   -.798E-05 0.273E-05 0.551E-05
   -.360E+02 0.612E+02 0.482E+03   0.370E+02 -.629E+02 -.485E+03   -.996E+00 0.172E+01 0.297E+01   0.163E-05 -.828E-05 0.551E-05
   -.359E+02 -.623E+02 0.481E+03   0.368E+02 0.641E+02 -.484E+03   -.995E+00 -.173E+01 0.297E+01   -.348E-06 0.729E-06 0.590E-05
   -.720E+02 0.187E+00 -.481E+03   0.740E+02 -.187E+00 0.484E+03   -.199E+01 0.624E-03 -.297E+01   0.170E-05 -.163E-05 0.142E-04
   0.355E+02 -.616E+02 -.481E+03   -.365E+02 0.633E+02 0.484E+03   0.995E+00 -.172E+01 -.297E+01   -.171E-05 0.296E-05 0.889E-05
   0.360E+02 0.609E+02 -.481E+03   -.370E+02 -.626E+02 0.484E+03   0.995E+00 0.172E+01 -.297E+01   -.717E-06 -.611E-05 0.114E-04
   0.713E+02 0.906E-06 0.482E+03   -.733E+02 -.199E-10 -.485E+03   0.199E+01 -.401E-20 0.297E+01   -.299E-05 -.566E-10 0.860E-05
   -.342E+02 0.636E+02 0.482E+03   0.352E+02 -.653E+02 -.485E+03   -.976E+00 0.175E+01 0.298E+01   0.176E-04 0.918E-05 0.142E-05
   -.350E+02 -.617E+02 0.482E+03   0.360E+02 0.635E+02 -.485E+03   -.994E+00 -.172E+01 0.297E+01   0.635E-05 0.555E-05 0.551E-05
   -.711E+02 -.984E-06 -.481E+03   0.731E+02 -.270E-11 0.484E+03   -.199E+01 0.524E-20 -.297E+01   0.341E-05 0.956E-10 0.889E-05
   0.348E+02 -.616E+02 -.481E+03   -.357E+02 0.634E+02 0.484E+03   0.994E+00 -.172E+01 -.297E+01   -.493E-05 0.367E-05 0.114E-04
   0.362E+02 0.623E+02 -.481E+03   -.372E+02 -.640E+02 0.484E+03   0.996E+00 0.172E+01 -.297E+01   -.226E-05 -.653E-06 0.142E-04
   0.710E+02 -.550E+00 0.482E+03   -.730E+02 0.552E+00 -.485E+03   0.199E+01 -.143E-02 0.297E+01   -.798E-05 -.273E-05 0.551E-05
   -.350E+02 0.617E+02 0.482E+03   0.360E+02 -.635E+02 -.485E+03   -.994E+00 0.172E+01 0.297E+01   0.635E-05 -.555E-05 0.551E-05
   -.361E+02 -.622E+02 0.481E+03   0.371E+02 0.639E+02 -.484E+03   -.998E+00 -.173E+01 0.297E+01   0.805E-06 0.629E-07 0.590E-05
   -.720E+02 -.187E+00 -.481E+03   0.740E+02 0.187E+00 0.484E+03   -.199E+01 -.624E-03 -.297E+01   0.170E-05 0.163E-05 0.142E-04
   0.335E+02 -.639E+02 -.481E+03   -.345E+02 0.657E+02 0.484E+03   0.966E+00 -.175E+01 -.298E+01   -.173E-04 -.106E-04 0.545E-05
   0.348E+02 0.616E+02 -.481E+03   -.357E+02 -.634E+02 0.484E+03   0.994E+00 0.172E+01 -.297E+01   -.493E-05 -.367E-05 0.114E-04
   0.719E+02 0.125E+00 0.481E+03   -.739E+02 -.127E+00 -.484E+03   0.199E+01 0.156E-02 0.297E+01   -.457E-06 -.666E-06 0.590E-05
   -.359E+02 0.623E+02 0.481E+03   0.368E+02 -.641E+02 -.484E+03   -.995E+00 0.173E+01 0.297E+01   -.348E-06 -.729E-06 0.590E-05
   -.356E+02 -.617E+02 0.482E+03   0.366E+02 0.634E+02 -.485E+03   -.994E+00 -.172E+01 0.297E+01   0.150E-05 0.259E-05 0.860E-05
   -.708E+02 0.725E+00 -.481E+03   0.727E+02 -.726E+00 0.484E+03   -.199E+01 0.957E-03 -.297E+01   0.565E-05 0.243E-05 0.114E-04
   0.359E+02 -.625E+02 -.481E+03   -.368E+02 0.642E+02 0.484E+03   0.995E+00 -.172E+01 -.297E+01   0.564E-06 0.228E-05 0.142E-04
   0.355E+02 0.616E+02 -.481E+03   -.365E+02 -.633E+02 0.484E+03   0.995E+00 0.172E+01 -.297E+01   -.171E-05 -.296E-05 0.889E-05
   0.401E-07 0.694E-07 -.703E+02   -.812E-12 -.146E-11 0.703E+02   0.251E-21 0.160E-21 -.907E-02   -.113E-10 -.195E-10 -.473E-05
 -----------------------------------------------------------------------------------------------
   -.700E-06 -.121E-05 -.182E+01   0.340E-12 0.162E-12 0.156E-12   0.444E-15 0.666E-15 0.182E+01   0.165E-09 0.285E-09 0.363E-03


 POSITION                                       TOTAL-FORCE (eV/Angst)
 -----------------------------------------------------------------------------------
     -0.00222      3.48954      9.99787        -0.002614     -0.002186     -0.002493
      3.02314      1.74284      9.99787        -0.000586     -0.003357     -0.002493
     -3.02283      8.72688      9.99976        -0.000468     -0.003284      0.005146
     -0.00222      6.98292      9.99787        -0.002614      0.002186     -0.002493
     -6.04628     13.96362      9.99976         0.003078      0.001237      0.005146
     -3.02321     12.21782      9.99990        -0.000431     -0.000485      0.001811
      6.04849      3.48953      9.99787         0.003201     -0.001171     -0.002493
      9.06911      1.74559      9.99976        -0.002610     -0.002048      0.005146
      3.02314      8.72961      9.99787        -0.000586      0.003357     -0.002493
      6.04849      6.98292      9.99787         0.003201      0.001171     -0.002493
      0.00007     13.96331      9.99990         0.000635      0.000131      0.001811
      3.02313     12.21751      9.99976         0.003078     -0.001237      0.005146
     12.09255      3.49073      9.99990        -0.000204     -0.000616      0.001811
     15.11599      1.74558      9.99976        -0.000468      0.003284      0.005146
      9.06911      8.72687      9.99976        -0.002610      0.002048      0.005146
     12.09255      6.98172      9.99990        -0.000204      0.000616      0.001811
      6.04620     13.96332      9.99990        -0.000431      0.000485      0.001811
      9.06949     12.21782      9.99990         0.000635     -0.000131      0.001811
     -0.84968      5.23623      8.66429         0.009454     -0.000000     -0.012182
      4.95954      1.88227      8.66429        -0.004727      0.008187     -0.012182
      1.93741      3.35570      8.66442         0.005846      0.010125      0.003552
      0.85110      5.23623     11.33739        -0.004886     -0.000000      0.008437
     -1.93667      3.35487     11.33598        -0.000847     -0.001316      0.003644
      1.08626      1.88146     11.33630         0.001360      0.002356     -0.002499
     -3.87350     10.47257      8.66447         0.005724      0.000307      0.000444
      1.93741      7.11676      8.66442         0.005846     -0.010125      0.003552
     -1.08597      8.58987      8.66525        -0.000728     -0.007875      0.000530
     -2.17273     10.47247     11.33567        -0.004864     -0.000463     -0.000988
     -4.95990      8.59077     11.33558         0.003870     -0.004622     -0.002539
     -1.93667      7.11759     11.33598        -0.000847      0.001316      0.003644
      2.17335      0.00082      8.66525         0.007184      0.003308      0.000530
     -1.08639     12.35414      8.66441        -0.002378      0.004119     -0.000344
     -4.10951     13.82699      8.66444        -0.002469     -0.003589     -0.000390
      3.87374      0.00022     11.33598        -0.000716     -0.001391      0.003644
     -7.98306     13.82703     11.33567         0.002833     -0.003981     -0.000988
     -4.95987     12.35412     11.33558         0.002068      0.005663     -0.002539
      5.19458      5.23623      8.66442        -0.011692     -0.000000      0.003552
     11.00626      1.88173      8.66447        -0.002596      0.005110      0.000444
      7.98203      3.35445      8.66525        -0.006456     -0.004568      0.000530
      6.89689      5.23623     11.33630        -0.002720     -0.000000     -0.002499
      4.10916      3.35519     11.33739         0.002443     -0.004232      0.008437
      7.13235      1.88158     11.33598         0.001563     -0.000075      0.003644
      2.17335     10.47164      8.66525         0.007184     -0.003308      0.000530
      7.98203      7.11800      8.66525        -0.006456      0.004568      0.000530
      4.95954      8.59018      8.66429        -0.004727     -0.008187     -0.012182
      3.87374     10.47223     11.33598        -0.000716      0.001391      0.003644
      1.08626      8.59099     11.33630         0.001360     -0.002356     -0.002499
      4.10916      7.11727     11.33739         0.002443      0.004232      0.008437
      8.21906     -0.00002      8.66444         0.004343      0.000344     -0.000390
      4.95990     12.35415      8.66444        -0.002469      0.003589     -0.000390
      1.93665     13.82706      8.66447        -0.003128     -0.004803      0.000444
      9.91977     -0.00002     11.33558        -0.005938      0.001041     -0.002539
     -1.93676     13.82702     11.33564         0.002766     -0.004791     -0.000925
      1.08635     12.35410     11.33567         0.002833      0.003981     -0.000988
     11.24219      5.23623      8.66441         0.004756     -0.000000     -0.000344
     -1.08597      1.88259      8.66525        -0.000728      0.007875      0.000530
     14.02928      3.35455      8.66444        -0.001874     -0.003933     -0.000390
     12.94292      5.23623     11.33564        -0.005532     -0.000000     -0.000925
     10.15579      3.35459     11.33567         0.002031     -0.004444     -0.000988
     13.17892      1.88169     11.33558         0.003870      0.004622     -0.002539
      8.21906     10.47247      8.66444         0.004343     -0.000344     -0.000390
     -4.10954      7.11790      8.66444        -0.001874      0.003933     -0.000390
     11.00626      8.59072      8.66447        -0.002596     -0.005110      0.000444
      9.91977     10.47247     11.33558        -0.005938     -0.001041     -0.002539
      7.13235      8.59087     11.33598         0.001563      0.000075      0.003644
     10.15579      7.11786     11.33567         0.002031      0.004444     -0.000988
     14.26532     -0.00011      8.66447         0.005724     -0.000307      0.000444
     -7.13276     12.35407      8.66447        -0.003128      0.004803      0.000444
      7.98302     13.82700      8.66441        -0.002378     -0.004119     -0.000344
     15.96609     -0.00001     11.33567        -0.004864      0.000463     -0.000988
      4.10954     13.82701     11.33558         0.002068     -0.005663     -0.002539
      7.13266     12.35412     11.33564         0.002766      0.004791     -0.000925
      3.02314      5.23623     11.59920        -0.000000     -0.000000     -0.019107
 -----------------------------------------------------------------------------------
    total drift:                               -0.000001     -0.000001     -0.001136


--------------------------------------------------------------------------------------------------------



  FREE ENERGIE OF THE ION-ELECTRON SYSTEM (eV)
  ---------------------------------------------------
  free  energy   TOTEN  =      -352.55620990 eV

  energy  without entropy=     -352.55620990  energy(sigma->0) =     -352.55620990

 d Force = 0.1235269E-02[ 0.310E-03, 0.216E-02]  d Energy = 0.1242266E-02-0.700E-05
 d Force =-0.2142505E+01[-0.215E+01,-0.214E+01]  d Ewald  =-0.2142501E+01-0.365E-05


--------------------------------------------------------------------------------------------------------


    POTLOK:  cpu time    1.3403: real time    1.3471


--------------------------------------------------------------------------------------------------------


 Steepest descent step on ions:
 trial-energy change:   -0.001242  1 .order   -0.001235   -0.002161   -0.000310
  (g-gl).g = 0.216E-02      g.g   = 0.216E-02  gl.gl    = 0.000E+00
 g(Force)  = 0.216E-02   g(Stress)= 0.000E+00 ortho     = 0.000E+00
 gamma     =   0.00000
 trial     =   1.00000
 opt step  =   1.16322  (harmonic =   1.16752) maximal distance =0.00298271
 next E    =  -352.556235   (d E  =  -0.00127)


--------------------------------------------------------------------------------------------------------


  
 reached required accuracy - stopping structural energy minimisation
     LOOP+:  cpu time  809.6554: real time  816.9395
    4ORBIT:  cpu time    0.0000: real time    0.0000

 total amount of memory used by VASP MPI-rank0   185571. kBytes
=======================================================================

   base      :      30000. kBytes
   nonlr-proj:      11221. kBytes
   fftplans  :      16369. kBytes
   grid      :      44010. kBytes
   one-center:        311. kBytes
   wavefun   :      83660. kBytes

  
  
 General timing and accounting informations for this job:
 ========================================================
  
                  Total CPU time used (sec):     2579.863
                            User time (sec):     2422.584
                          System time (sec):      157.279
                         Elapsed time (sec):     2604.570
  
                   Maximum memory used (kb):      258924.
                   Average memory used (kb):          N/A
  
                          Minor page faults:       598098
                          Major page faults:          155
                 Voluntary context switches:         4105
