 running on   64 total cores
 distrk:  each k-point on   64 cores,    1 groups
 distr:  one band on    8 cores,    8 groups
 vasp.6.2.0 18Jan21 (build Jul 28 2023 11:58:00) complex                         
 POSCAR found type information on POSCAR CrClH 
 POSCAR found :  3 types and      73 ions
 -----------------------------------------------------------------------------
|                                                                             |
|           W    W    AA    RRRRR   N    N  II  N    N   GGGG   !!!           |
|           W    W   A  A   R    R  NN   N  II  NN   N  G    G  !!!           |
|           W    W  A    A  R    R  N N  N  II  N N  N  G       !!!           |
|           W WW W  AAAAAA  RRRRR   N  N N  II  N  N N  G  GGG   !            |
|           WW  WW  A    A  R   R   N   NN  II  N   NN  G    G                |
|           W    W  A    A  R    R  N    N  II  N    N   GGGG   !!!           |
|                                                                             |
|     Found issues when parsing the INCAR file                                |
|     In line 35: Tagname CELL VECTORS AND VACUUM THICKNESS (C contains       |
|     invalid characters.                                                     |
|     Please check if the interpretation in the OUTCAR file is correct.       |
|                                                                             |
 -----------------------------------------------------------------------------

 scaLAPACK will be used
 LDA part: xc-table for Pade appr. of Perdew
 POSCAR, INCAR and KPOINTS ok, starting setup
 FFT: planning ...
 WAVECAR not read
 entering main loop
       N       E                     dE             d eps       ncg     rms          rms(c)
DAV:   1     0.465489304499E+04    0.46549E+04   -0.13884E+05  6608   0.929E+02
DAV:   2     0.938758017509E+03   -0.37161E+04   -0.34460E+04  7656   0.251E+02
DAV:   3    -0.280805439390E+03   -0.12196E+04   -0.11791E+04  9424   0.142E+02
DAV:   4    -0.387863751047E+03   -0.10706E+03   -0.10534E+03  9936   0.580E+01
DAV:   5    -0.390132122848E+03   -0.22684E+01   -0.22044E+01 10032   0.117E+01    0.619E+01
DAV:   6    -0.371048107870E+03    0.19084E+02   -0.36429E+02  9432   0.650E+01    0.657E+01
DAV:   7    -0.351647081238E+03    0.19401E+02   -0.64570E+01  9200   0.633E+01    0.309E+01
DAV:   8    -0.353012109957E+03   -0.13650E+01   -0.16471E+01  9432   0.117E+01    0.160E+01
DAV:   9    -0.352345047469E+03    0.66706E+00   -0.49858E+00  9272   0.108E+01    0.857E+00
DAV:  10    -0.352153037612E+03    0.19201E+00   -0.12990E+00  9312   0.459E+00    0.384E+00
DAV:  11    -0.352260962788E+03   -0.10793E+00   -0.38156E-01  9072   0.205E+00    0.183E+00
DAV:  12    -0.352367336564E+03   -0.10637E+00   -0.13219E-01  9392   0.140E+00    0.932E-01
DAV:  13    -0.352418605801E+03   -0.51269E-01   -0.39183E-02  9248   0.598E-01    0.623E-01
DAV:  14    -0.352469487831E+03   -0.50882E-01   -0.13125E-02  9296   0.472E-01    0.357E-01
DAV:  15    -0.352502792277E+03   -0.33304E-01   -0.32472E-03  8920   0.180E-01    0.197E-01
DAV:  16    -0.352516897721E+03   -0.14105E-01   -0.86826E-04  9296   0.118E-01    0.137E-01
DAV:  17    -0.352528030097E+03   -0.11132E-01   -0.39202E-04  9256   0.566E-02    0.825E-02
DAV:  18    -0.352543600998E+03   -0.15571E-01   -0.81473E-04  7944   0.772E-02    0.731E-02
DAV:  19    -0.352545704156E+03   -0.21032E-02   -0.11353E-04  9136   0.308E-02    0.485E-02
DAV:  20    -0.352550351431E+03   -0.46473E-02   -0.22403E-04  8400   0.303E-02    0.252E-02
DAV:  21    -0.352553291258E+03   -0.29398E-02   -0.24375E-04  7736   0.215E-02    0.288E-02
DAV:  22    -0.352554003406E+03   -0.71215E-03   -0.72395E-05  8144   0.129E-02    0.203E-02
DAV:  23    -0.352554206743E+03   -0.20334E-03   -0.31839E-05  8976   0.115E-02    0.759E-03
DAV:  24    -0.352554380486E+03   -0.17374E-03   -0.44526E-06  6376   0.452E-03    0.649E-03
DAV:  25    -0.352554667641E+03   -0.28715E-03   -0.64256E-06  6784   0.582E-03    0.388E-03
DAV:  26    -0.352554761652E+03   -0.94011E-04   -0.34583E-06  6080   0.327E-03    0.248E-03
DAV:  27    -0.352554811536E+03   -0.49884E-04   -0.63855E-07  4064   0.226E-03    0.204E-03
DAV:  28    -0.352554863044E+03   -0.51508E-04   -0.80020E-07  4328   0.154E-03    0.160E-03
DAV:  29    -0.352554908934E+03   -0.45890E-04   -0.13570E-06  4936   0.163E-03    0.135E-03
DAV:  30    -0.352554921097E+03   -0.12163E-04   -0.36987E-07  4056   0.114E-03    0.998E-04
DAV:  31    -0.352554931297E+03   -0.10200E-04   -0.32386E-07  3920   0.954E-04    0.984E-04
DAV:  32    -0.352554942225E+03   -0.10928E-04   -0.49152E-07  4352   0.104E-03    0.114E-03
DAV:  33    -0.352554947815E+03   -0.55903E-05   -0.17459E-07  3608   0.100E-03    0.704E-04
DAV:  34    -0.352554954096E+03   -0.62808E-05   -0.15803E-07  3568   0.574E-04    0.549E-04
DAV:  35    -0.352554960236E+03   -0.61399E-05   -0.83186E-08  3576   0.587E-04    0.400E-04
DAV:  36    -0.352554964629E+03   -0.43930E-05   -0.71899E-08  3584   0.441E-04    0.608E-04
DAV:  37    -0.352554966727E+03   -0.20977E-05   -0.38032E-08  3576   0.397E-04    0.299E-04
DAV:  38    -0.352554967632E+03   -0.90515E-06   -0.21701E-08  3616   0.271E-04
   1 F= -.35255497E+03 E0= -.35255497E+03  d E =-.352555E+03  mag=    53.0001
 curvature:   0.00 expect dE= 0.000E+00 dE for cont linesearch  0.000E+00
 trial: gam= 0.00000 g(F)=  0.216E-02 g(S)=  0.000E+00 ort = 0.000E+00 (trialstep = 0.100E+01)
 search vector abs. value=  0.216E-02
 bond charge predicted
       N       E                     dE             d eps       ncg     rms          rms(c)
DAV:   1    -0.352554318632E+03    0.64809E-03   -0.20465E-01  6672   0.628E-01    0.359E-01
DAV:   2    -0.352555402329E+03   -0.10837E-02   -0.84361E-03  8456   0.191E-01    0.159E-01
DAV:   3    -0.352556020820E+03   -0.61849E-03   -0.61367E-04  8856   0.626E-02    0.810E-02
DAV:   4    -0.352555915256E+03    0.10556E-03   -0.48394E-05  9464   0.219E-02    0.561E-02
DAV:   5    -0.352555782510E+03    0.13275E-03   -0.39812E-05  9016   0.162E-02    0.375E-02
DAV:   6    -0.352555668753E+03    0.11376E-03   -0.34698E-05  9056   0.162E-02    0.158E-02
DAV:   7    -0.352555700935E+03   -0.32182E-04   -0.89131E-06  7800   0.691E-03    0.123E-02
DAV:   8    -0.352555773183E+03   -0.72248E-04   -0.97528E-07  3944   0.420E-03    0.815E-03
DAV:   9    -0.352555864050E+03   -0.90867E-04   -0.26246E-06  5464   0.414E-03    0.443E-03
DAV:  10    -0.352555957030E+03   -0.92980E-04   -0.20836E-06  4920   0.335E-03    0.186E-03
DAV:  11    -0.352555993310E+03   -0.36280E-04   -0.67406E-07  3816   0.201E-03    0.169E-03
DAV:  12    -0.352556036150E+03   -0.42840E-04   -0.42005E-07  3936   0.168E-03    0.111E-03
DAV:  13    -0.352556092790E+03   -0.56640E-04   -0.70360E-07  4328   0.135E-03    0.135E-03
DAV:  14    -0.352556122074E+03   -0.29284E-04   -0.37984E-07  3752   0.140E-03    0.696E-04
DAV:  15    -0.352556157182E+03   -0.35108E-04   -0.64440E-07  4184   0.992E-04    0.688E-04
DAV:  16    -0.352556175787E+03   -0.18604E-04   -0.27150E-07  3776   0.104E-03    0.687E-04
DAV:  17    -0.352556197670E+03   -0.21883E-04   -0.52385E-07  4272   0.838E-04    0.394E-04
DAV:  18    -0.352556204266E+03   -0.65956E-05   -0.22220E-07  3712   0.998E-04    0.548E-04
DAV:  19    -0.352556205763E+03   -0.14978E-05   -0.12102E-07  3648   0.588E-04    0.142E-04
DAV:  20    -0.352556207645E+03   -0.18812E-05   -0.83676E-08  3552   0.531E-04    0.367E-04
DAV:  21    -0.352556209421E+03   -0.17765E-05   -0.77947E-08  3664   0.431E-04    0.199E-04
DAV:  22    -0.352556209898E+03   -0.47679E-06   -0.44022E-08  3608   0.417E-04
   2 F= -.35255621E+03 E0= -.35255621E+03  d E =-.124227E-02  mag=    53.0000
 trial-energy change:   -0.001242  1 .order   -0.001235   -0.002161   -0.000310
 step:   1.1632(harm=  1.1675)  dis= 0.00298  next Energy=  -352.556235 (dE=-0.127E-02)
 reached required accuracy - stopping structural energy minimisation
Note: The following floating-point exceptions are signalling: IEEE_OVERFLOW_FLAG IEEE_UNDERFLOW_FLAG IEEE_DENORMAL
Note: The following floating-point exceptions are signalling: IEEE_OVERFLOW_FLAG IEEE_UNDERFLOW_FLAG IEEE_DENORMAL
Note: The following floating-point exceptions are signalling: IEEE_OVERFLOW_FLAG IEEE_UNDERFLOW_FLAG IEEE_DENORMAL
Note: The following floating-point exceptions are signalling: IEEE_OVERFLOW_FLAG IEEE_UNDERFLOW_FLAG IEEE_DENORMAL
Note: The following floating-point exceptions are signalling: IEEE_OVERFLOW_FLAG IEEE_UNDERFLOW_FLAG IEEE_DENORMAL
Note: The following floating-point exceptions are signalling: IEEE_OVERFLOW_FLAG IEEE_UNDERFLOW_FLAG IEEE_DENORMAL
Note: The following floating-point exceptions are signalling: IEEE_OVERFLOW_FLAG IEEE_UNDERFLOW_FLAG IEEE_DENORMAL
Note: The following floating-point exceptions are signalling: IEEE_OVERFLOW_FLAG IEEE_UNDERFLOW_FLAG IEEE_DENORMAL
Note: The following floating-point exceptions are signalling: IEEE_OVERFLOW_FLAG IEEE_UNDERFLOW_FLAG IEEE_DENORMAL
Note: The following floating-point exceptions are signalling: IEEE_OVERFLOW_FLAG IEEE_UNDERFLOW_FLAG IEEE_DENORMAL
Note: The following floating-point exceptions are signalling: IEEE_OVERFLOW_FLAG IEEE_UNDERFLOW_FLAG IEEE_DENORMAL
Note: The following floating-point exceptions are signalling: IEEE_OVERFLOW_FLAG IEEE_UNDERFLOW_FLAG IEEE_DENORMAL
Note: The following floating-point exceptions are signalling: IEEE_OVERFLOW_FLAG IEEE_UNDERFLOW_FLAG IEEE_DENORMAL
Note: The following floating-point exceptions are signalling: IEEE_OVERFLOW_FLAG IEEE_UNDERFLOW_FLAG IEEE_DENORMAL
Note: The following floating-point exceptions are signalling: IEEE_OVERFLOW_FLAG IEEE_UNDERFLOW_FLAG IEEE_DENORMAL
Note: The following floating-point exceptions are signalling: IEEE_OVERFLOW_FLAG IEEE_UNDERFLOW_FLAG IEEE_DENORMAL
Note: The following floating-point exceptions are signalling: IEEE_OVERFLOW_FLAG IEEE_UNDERFLOW_FLAG IEEE_DENORMAL
Note: The following floating-point exceptions are signalling: IEEE_OVERFLOW_FLAG IEEE_UNDERFLOW_FLAG IEEE_DENORMAL
Note: The following floating-point exceptions are signalling: IEEE_OVERFLOW_FLAG IEEE_UNDERFLOW_FLAG IEEE_DENORMAL
Note: The following floating-point exceptions are signalling: IEEE_OVERFLOW_FLAG IEEE_UNDERFLOW_FLAG IEEE_DENORMAL
Note: The following floating-point exceptions are signalling: IEEE_OVERFLOW_FLAG IEEE_UNDERFLOW_FLAG IEEE_DENORMAL
Note: The following floating-point exceptions are signalling: IEEE_OVERFLOW_FLAG IEEE_UNDERFLOW_FLAG IEEE_DENORMAL
Note: The following floating-point exceptions are signalling: IEEE_OVERFLOW_FLAG IEEE_UNDERFLOW_FLAG IEEE_DENORMAL
Note: The following floating-point exceptions are signalling: IEEE_OVERFLOW_FLAG IEEE_UNDERFLOW_FLAG IEEE_DENORMAL
Note: The following floating-point exceptions are signalling: IEEE_OVERFLOW_FLAG IEEE_UNDERFLOW_FLAG IEEE_DENORMAL
Note: The following floating-point exceptions are signalling: IEEE_OVERFLOW_FLAG IEEE_UNDERFLOW_FLAG IEEE_DENORMAL
Note: The following floating-point exceptions are signalling: IEEE_OVERFLOW_FLAG IEEE_UNDERFLOW_FLAG IEEE_DENORMAL
Note: The following floating-point exceptions are signalling: IEEE_OVERFLOW_FLAG IEEE_UNDERFLOW_FLAG IEEE_DENORMAL
Note: The following floating-point exceptions are signalling: IEEE_OVERFLOW_FLAG IEEE_UNDERFLOW_FLAG IEEE_DENORMAL
Note: The following floating-point exceptions are signalling: IEEE_OVERFLOW_FLAG IEEE_UNDERFLOW_FLAG IEEE_DENORMAL
Note: The following floating-point exceptions are signalling: IEEE_OVERFLOW_FLAG IEEE_UNDERFLOW_FLAG IEEE_DENORMAL
Note: The following floating-point exceptions are signalling: IEEE_OVERFLOW_FLAG IEEE_UNDERFLOW_FLAG IEEE_DENORMAL
Note: The following floating-point exceptions are signalling: IEEE_OVERFLOW_FLAG IEEE_UNDERFLOW_FLAG IEEE_DENORMAL
Note: The following floating-point exceptions are signalling: IEEE_OVERFLOW_FLAG IEEE_UNDERFLOW_FLAG IEEE_DENORMAL
Note: The following floating-point exceptions are signalling: IEEE_OVERFLOW_FLAG IEEE_UNDERFLOW_FLAG IEEE_DENORMAL
Note: The following floating-point exceptions are signalling: IEEE_OVERFLOW_FLAG IEEE_UNDERFLOW_FLAG IEEE_DENORMAL
Note: The following floating-point exceptions are signalling: IEEE_OVERFLOW_FLAG IEEE_UNDERFLOW_FLAG IEEE_DENORMAL
Note: The following floating-point exceptions are signalling: IEEE_OVERFLOW_FLAG IEEE_UNDERFLOW_FLAG IEEE_DENORMAL
Note: The following floating-point exceptions are signalling: IEEE_OVERFLOW_FLAG IEEE_UNDERFLOW_FLAG IEEE_DENORMAL
Note: The following floating-point exceptions are signalling: IEEE_OVERFLOW_FLAG IEEE_UNDERFLOW_FLAG IEEE_DENORMAL
Note: The following floating-point exceptions are signalling: IEEE_OVERFLOW_FLAG IEEE_UNDERFLOW_FLAG IEEE_DENORMAL
Note: The following floating-point exceptions are signalling: IEEE_OVERFLOW_FLAG IEEE_UNDERFLOW_FLAG IEEE_DENORMAL
Note: The following floating-point exceptions are signalling: IEEE_OVERFLOW_FLAG IEEE_UNDERFLOW_FLAG IEEE_DENORMAL
Note: The following floating-point exceptions are signalling: IEEE_OVERFLOW_FLAG IEEE_UNDERFLOW_FLAG IEEE_DENORMAL
Note: The following floating-point exceptions are signalling: IEEE_OVERFLOW_FLAG IEEE_UNDERFLOW_FLAG IEEE_DENORMAL
Note: The following floating-point exceptions are signalling: IEEE_OVERFLOW_FLAG IEEE_UNDERFLOW_FLAG IEEE_DENORMAL
Note: The following floating-point exceptions are signalling: IEEE_OVERFLOW_FLAG IEEE_UNDERFLOW_FLAG IEEE_DENORMAL
Note: The following floating-point exceptions are signalling: IEEE_OVERFLOW_FLAG IEEE_UNDERFLOW_FLAG IEEE_DENORMAL
Note: The following floating-point exceptions are signalling: IEEE_OVERFLOW_FLAG IEEE_UNDERFLOW_FLAG IEEE_DENORMAL
Note: The following floating-point exceptions are signalling: IEEE_OVERFLOW_FLAG IEEE_UNDERFLOW_FLAG IEEE_DENORMAL
Note: The following floating-point exceptions are signalling: IEEE_OVERFLOW_FLAG IEEE_UNDERFLOW_FLAG IEEE_DENORMAL
Note: The following floating-point exceptions are signalling: IEEE_OVERFLOW_FLAG IEEE_UNDERFLOW_FLAG IEEE_DENORMAL
Note: The following floating-point exceptions are signalling: IEEE_OVERFLOW_FLAG IEEE_UNDERFLOW_FLAG IEEE_DENORMAL
Note: The following floating-point exceptions are signalling: IEEE_OVERFLOW_FLAG IEEE_UNDERFLOW_FLAG IEEE_DENORMAL
Note: The following floating-point exceptions are signalling: IEEE_OVERFLOW_FLAG IEEE_UNDERFLOW_FLAG IEEE_DENORMAL
Note: The following floating-point exceptions are signalling: IEEE_OVERFLOW_FLAG IEEE_UNDERFLOW_FLAG IEEE_DENORMAL
Note: The following floating-point exceptions are signalling: IEEE_OVERFLOW_FLAG IEEE_UNDERFLOW_FLAG IEEE_DENORMAL
Note: The following floating-point exceptions are signalling: IEEE_OVERFLOW_FLAG IEEE_UNDERFLOW_FLAG IEEE_DENORMAL
Note: The following floating-point exceptions are signalling: IEEE_OVERFLOW_FLAG IEEE_UNDERFLOW_FLAG IEEE_DENORMAL
Note: The following floating-point exceptions are signalling: IEEE_OVERFLOW_FLAG IEEE_UNDERFLOW_FLAG IEEE_DENORMAL
Note: The following floating-point exceptions are signalling: IEEE_OVERFLOW_FLAG IEEE_UNDERFLOW_FLAG IEEE_DENORMAL
Note: The following floating-point exceptions are signalling: IEEE_OVERFLOW_FLAG IEEE_UNDERFLOW_FLAG IEEE_DENORMAL
Note: The following floating-point exceptions are signalling: IEEE_OVERFLOW_FLAG IEEE_UNDERFLOW_FLAG IEEE_DENORMAL
Note: The following floating-point exceptions are signalling: IEEE_OVERFLOW_FLAG IEEE_UNDERFLOW_FLAG IEEE_DENORMAL
