       N       E                     dE             d eps       ncg     rms          rms(c)
DAV:   1    -0.147270394145E+03   -0.14727E+03   -0.35222E+00 12016   0.102E+01    0.641E+00
RMM:   2    -0.147685974025E+03   -0.41558E+00   -0.30257E+00  8364   0.593E+00    0.225E+01
RMM:   3    -0.147586447667E+03    0.99526E-01   -0.19382E+00  8262   0.474E+00    0.102E+01
RMM:   4    -0.147292414922E+03    0.29403E+00   -0.81217E-01  8445   0.243E+00    0.431E+00
RMM:   5    -0.147313804585E+03   -0.21390E-01   -0.11284E-01  9173   0.914E-01    0.278E+00
RMM:   6    -0.147303546786E+03    0.10258E-01   -0.38001E-02  9062   0.695E-01    0.270E+00
RMM:   7    -0.147307291091E+03   -0.37443E-02   -0.21749E-02  9495   0.455E-01    0.108E+00
RMM:   8    -0.147313378541E+03   -0.60874E-02   -0.10993E-02 10184   0.262E-01    0.756E-01
RMM:   9    -0.147318129643E+03   -0.47511E-02   -0.32383E-03  9178   0.192E-01    0.466E-01
RMM:  10    -0.147321275520E+03   -0.31459E-02   -0.30169E-03  9354   0.146E-01    0.295E-01
RMM:  11    -0.147324561058E+03   -0.32855E-02   -0.93060E-04  9724   0.740E-02    0.359E-01
RMM:  12    -0.147327111135E+03   -0.25501E-02   -0.27261E-04  9013   0.513E-02    0.121E-01
RMM:  13    -0.147329677656E+03   -0.25665E-02   -0.16081E-04  9351   0.302E-02    0.902E-02
RMM:  14    -0.147332564145E+03   -0.28865E-02   -0.89113E-05  9047   0.229E-02    0.584E-02
RMM:  15    -0.147333975759E+03   -0.14116E-02   -0.28210E-05  8115   0.154E-02    0.287E-02
RMM:  16    -0.147334954638E+03   -0.97888E-03   -0.15266E-05  7519   0.996E-03    0.361E-02
RMM:  17    -0.147335467629E+03   -0.51299E-03   -0.10014E-05  7025   0.682E-03    0.157E-02
RMM:  18    -0.147336039916E+03   -0.57229E-03   -0.98627E-06  7277   0.673E-03    0.139E-02
RMM:  19    -0.147336307187E+03   -0.26727E-03   -0.55855E-06  6571   0.513E-03    0.106E-02
RMM:  20    -0.147336494689E+03   -0.18750E-03   -0.43733E-06  6221   0.441E-03    0.123E-02
RMM:  21    -0.147336603620E+03   -0.10893E-03   -0.67904E-06  6632   0.492E-03    0.545E-03
RMM:  22    -0.147336603383E+03    0.23632E-06   -0.12639E-06  5096   0.373E-03
   1 F= -.15357399E+03 E0= -.15356495E+03  d E =-.153574E+03  mag=    24.9999
       N       E                     dE             d eps       ncg     rms          rms(c)
DAV:   1    -0.147387952923E+03   -0.51349E-01   -0.36271E+00  8192   0.381E+00    0.142E+00
RMM:   2    -0.147403306316E+03   -0.15353E-01   -0.18866E-01  7958   0.198E+00    0.124E+00
RMM:   3    -0.147415595842E+03   -0.12290E-01   -0.11859E-01 10275   0.924E-01    0.995E-01
RMM:   4    -0.147416784705E+03   -0.11889E-02   -0.16009E-02  8492   0.391E-01    0.963E-01
RMM:   5    -0.147414268199E+03    0.25165E-02   -0.53866E-03  9051   0.238E-01    0.497E-01
RMM:   6    -0.147413854611E+03    0.41359E-03   -0.12375E-03  8651   0.997E-02    0.437E-01
RMM:   7    -0.147413620388E+03    0.23422E-03   -0.28723E-03  9944   0.121E-01    0.645E-01
RMM:   8    -0.147413512357E+03    0.10803E-03   -0.25033E-03 10120   0.115E-01    0.261E-01
RMM:   9    -0.147413544051E+03   -0.31694E-04   -0.32985E-04  9671   0.572E-02    0.119E-01
RMM:  10    -0.147413558529E+03   -0.14478E-04   -0.49747E-05  8881   0.214E-02    0.112E-01
RMM:  11    -0.147413507021E+03    0.51509E-04   -0.33925E-04 10099   0.369E-02    0.104E-01
RMM:  12    -0.147413544712E+03   -0.37691E-04   -0.20798E-04 10197   0.306E-02    0.752E-02
RMM:  13    -0.147413562646E+03   -0.17934E-04   -0.10715E-05  7988   0.114E-02    0.496E-02
RMM:  14    -0.147413583415E+03   -0.20769E-04   -0.32469E-06  5724   0.669E-03    0.281E-02
RMM:  15    -0.147413637093E+03   -0.53678E-04   -0.17100E-05  8830   0.862E-03    0.156E-02
RMM:  16    -0.147413646565E+03   -0.94716E-05   -0.31736E-06  5906   0.807E-03    0.147E-02
RMM:  17    -0.147413656559E+03   -0.99938E-05   -0.30721E-06  5867   0.448E-03    0.999E-03
RMM:  18    -0.147413660259E+03   -0.37001E-05   -0.59043E-07  4940   0.421E-03    0.831E-03
RMM:  19    -0.147413665233E+03   -0.49744E-05   -0.93941E-07  4941   0.233E-03    0.422E-03
RMM:  20    -0.147413669080E+03   -0.38475E-05   -0.67031E-07  4856   0.228E-03    0.299E-03
RMM:  21    -0.147413669702E+03   -0.62154E-06   -0.31230E-07  4688   0.243E-03
   2 F= -.15364274E+03 E0= -.15363398E+03  d E =-.687448E-01  mag=    25.0000
       N       E                     dE             d eps       ncg     rms          rms(c)
DAV:   1    -0.147306724452E+03    0.10694E+00   -0.32586E+01  7904   0.114E+01    0.399E+00
RMM:   2    -0.147449240272E+03   -0.14252E+00   -0.17274E+00  7952   0.600E+00    0.380E+00
RMM:   3    -0.147562586663E+03   -0.11335E+00   -0.10796E+00 10192   0.279E+00    0.299E+00
RMM:   4    -0.147582549165E+03   -0.19963E-01   -0.19691E-01  8605   0.133E+00    0.346E+00
RMM:   5    -0.147545829247E+03    0.36720E-01   -0.62981E-02  8809   0.809E-01    0.136E+00
RMM:   6    -0.147543725537E+03    0.21037E-02   -0.11101E-02  8859   0.280E-01    0.126E+00
RMM:   7    -0.147541328716E+03    0.23968E-02   -0.15328E-02  9531   0.303E-01    0.184E+00
RMM:   8    -0.147541117933E+03    0.21078E-03   -0.36366E-02 10213   0.394E-01    0.861E-01
RMM:   9    -0.147540836291E+03    0.28164E-03   -0.33509E-03 10039   0.190E-01    0.352E-01
RMM:  10    -0.147540758015E+03    0.78277E-04   -0.37675E-04  9080   0.591E-02    0.293E-01
RMM:  11    -0.147540085239E+03    0.67278E-03   -0.20999E-03  9836   0.929E-02    0.289E-01
RMM:  12    -0.147540143163E+03   -0.57924E-04   -0.34045E-03 10213   0.105E-01    0.173E-01
RMM:  13    -0.147540232563E+03   -0.89401E-04   -0.13675E-04  8467   0.399E-02    0.117E-01
RMM:  14    -0.147540325802E+03   -0.93239E-04   -0.37448E-05  8390   0.202E-02    0.821E-02
RMM:  15    -0.147540528644E+03   -0.20284E-03   -0.43255E-05  9756   0.160E-02    0.374E-02
RMM:  16    -0.147540644838E+03   -0.11619E-03   -0.38711E-05 10152   0.144E-02    0.224E-02
RMM:  17    -0.147540681172E+03   -0.36334E-04   -0.31949E-06  5464   0.677E-03    0.196E-02
RMM:  18    -0.147540706820E+03   -0.25648E-04   -0.10187E-06  4991   0.431E-03    0.160E-02
RMM:  19    -0.147540745655E+03   -0.38835E-04   -0.25427E-06  5430   0.397E-03    0.845E-03
RMM:  20    -0.147540772744E+03   -0.27089E-04   -0.40293E-06  6490   0.477E-03    0.454E-03
RMM:  21    -0.147540778234E+03   -0.54895E-05   -0.11530E-06  4986   0.395E-03    0.185E-03
RMM:  22    -0.147540781631E+03   -0.33973E-05   -0.39241E-07  4886   0.241E-03    0.266E-03
RMM:  23    -0.147540784804E+03   -0.31729E-05   -0.26717E-07  4731   0.152E-03    0.138E-03
RMM:  24    -0.147540786657E+03   -0.18528E-05   -0.13229E-07  4427   0.115E-03    0.149E-03
RMM:  25    -0.147540787611E+03   -0.95422E-06   -0.74201E-08  3676   0.859E-04
   3 F= -.15374454E+03 E0= -.15373622E+03  d E =-.170550E+00  mag=    25.0000
       N       E                     dE             d eps       ncg     rms          rms(c)
DAV:   1    -0.147541007422E+03   -0.22077E-03   -0.92711E-01  8328   0.192E+00    0.721E-01
RMM:   2    -0.147544900180E+03   -0.38928E-02   -0.47494E-02  7973   0.987E-01    0.661E-01
RMM:   3    -0.147548073130E+03   -0.31730E-02   -0.29894E-02 10350   0.473E-01    0.603E-01
RMM:   4    -0.147548464207E+03   -0.39108E-03   -0.54260E-03  8391   0.222E-01    0.648E-01
RMM:   5    -0.147547337487E+03    0.11267E-02   -0.17807E-03  8850   0.138E-01    0.247E-01
RMM:   6    -0.147547384614E+03   -0.47127E-04   -0.31095E-04  8833   0.476E-02    0.230E-01
RMM:   7    -0.147547318579E+03    0.66035E-04   -0.47703E-04  9445   0.530E-02    0.339E-01
RMM:   8    -0.147547247700E+03    0.70879E-04   -0.78417E-04 10165   0.600E-02    0.137E-01
RMM:   9    -0.147547241914E+03    0.57867E-05   -0.10781E-04  9554   0.329E-02    0.716E-02
RMM:  10    -0.147547259129E+03   -0.17216E-04   -0.15959E-05  8134   0.123E-02    0.489E-02
RMM:  11    -0.147547263824E+03   -0.46953E-05   -0.40871E-05  9498   0.139E-02    0.587E-02
RMM:  12    -0.147547286375E+03   -0.22551E-04   -0.10478E-04 10299   0.192E-02    0.287E-02
RMM:  13    -0.147547294470E+03   -0.80943E-05   -0.46345E-06  7216   0.760E-03    0.233E-02
RMM:  14    -0.147547300260E+03   -0.57900E-05   -0.94310E-07  4953   0.384E-03    0.174E-02
RMM:  15    -0.147547316606E+03   -0.16347E-04   -0.58665E-07  4940   0.302E-03    0.680E-03
RMM:  16    -0.147547330064E+03   -0.13458E-04   -0.19714E-06  5001   0.319E-03    0.477E-03
RMM:  17    -0.147547334657E+03   -0.45922E-05   -0.61685E-07  4906   0.358E-03    0.389E-03
RMM:  18    -0.147547335821E+03   -0.11645E-05   -0.34125E-07  4645   0.188E-03    0.350E-03
RMM:  19    -0.147547338649E+03   -0.28274E-05   -0.14390E-07  4467   0.192E-03    0.191E-03
RMM:  20    -0.147547341954E+03   -0.33059E-05   -0.20151E-07  4496   0.110E-03    0.137E-03
RMM:  21    -0.147547343125E+03   -0.11708E-05   -0.10636E-07  4332   0.103E-03    0.102E-03
RMM:  22    -0.147547343249E+03   -0.12382E-06   -0.35921E-08  3970   0.819E-04
   4 F= -.15374678E+03 E0= -.15373846E+03  d E =-.172791E+00  mag=    25.0000
       N       E                     dE             d eps       ncg     rms          rms(c)
DAV:   1    -0.147548372755E+03   -0.10296E-02   -0.10371E+00  8208   0.210E+00    0.814E-01
RMM:   2    -0.147554459070E+03   -0.60863E-02   -0.45044E-02  8368   0.853E-01    0.989E-01
RMM:   3    -0.147557945985E+03   -0.34869E-02   -0.22410E-02 10165   0.430E-01    0.335E-01
RMM:   4    -0.147558588575E+03   -0.64259E-03   -0.34221E-03  9009   0.155E-01    0.585E-01
RMM:   5    -0.147558063523E+03    0.52505E-03   -0.10579E-03  8817   0.107E-01    0.222E-01
RMM:   6    -0.147558051192E+03    0.12331E-04   -0.23983E-04  8917   0.482E-02    0.201E-01
RMM:   7    -0.147557998767E+03    0.52425E-04   -0.99077E-05  8786   0.325E-02    0.151E-01
RMM:   8    -0.147557995715E+03    0.30524E-05   -0.96196E-04 10879   0.639E-02    0.878E-02
RMM:   9    -0.147558079689E+03   -0.83975E-04   -0.14282E-04 10269   0.303E-02    0.386E-02
RMM:  10    -0.147558103787E+03   -0.24097E-04   -0.82082E-06  7816   0.120E-02    0.283E-02
RMM:  11    -0.147558154470E+03   -0.50684E-04   -0.71503E-05  9743   0.170E-02    0.112E-02
RMM:  12    -0.147558194654E+03   -0.40184E-04   -0.30380E-05  9678   0.135E-02    0.881E-03
RMM:  13    -0.147558196738E+03   -0.20834E-05   -0.29234E-06  5867   0.521E-03    0.445E-03
RMM:  14    -0.147558202534E+03   -0.57967E-05   -0.18805E-06  5279   0.356E-03    0.384E-03
RMM:  15    -0.147558213928E+03   -0.11393E-04   -0.12403E-06  4970   0.353E-03    0.349E-03
RMM:  16    -0.147558218839E+03   -0.49115E-05   -0.47907E-07  4939   0.290E-03    0.154E-03
RMM:  17    -0.147558221228E+03   -0.23884E-05   -0.31212E-07  4795   0.154E-03    0.155E-03
RMM:  18    -0.147558223713E+03   -0.24856E-05   -0.20993E-07  4674   0.145E-03    0.914E-04
RMM:  19    -0.147558226049E+03   -0.23361E-05   -0.14798E-07  4363   0.118E-03    0.994E-04
RMM:  20    -0.147558227768E+03   -0.17185E-05   -0.11036E-07  3827   0.102E-03    0.985E-04
RMM:  21    -0.147558228891E+03   -0.11226E-05   -0.83583E-08  3642   0.866E-04    0.428E-04
RMM:  22    -0.147558229765E+03   -0.87494E-06   -0.64727E-08  3565   0.795E-04
   5 F= -.15375685E+03 E0= -.15374854E+03  d E =-.100653E-01  mag=    25.0000
       N       E                     dE             d eps       ncg     rms          rms(c)
DAV:   1    -0.147546943151E+03    0.11286E-01   -0.18135E+00  8104   0.278E+00    0.106E+00
RMM:   2    -0.147557708453E+03   -0.10765E-01   -0.78426E-02  8369   0.112E+00    0.120E+00
RMM:   3    -0.147563867609E+03   -0.61592E-02   -0.39204E-02 10182   0.563E-01    0.466E-01
RMM:   4    -0.147565166877E+03   -0.12993E-02   -0.66598E-03  8935   0.218E-01    0.842E-01
RMM:   5    -0.147563881689E+03    0.12852E-02   -0.22841E-03  8807   0.154E-01    0.295E-01
RMM:   6    -0.147563948500E+03   -0.66811E-04   -0.45325E-04  9119   0.657E-02    0.270E-01
RMM:   7    -0.147563851628E+03    0.96872E-04   -0.16920E-04  8756   0.425E-02    0.192E-01
RMM:   8    -0.147563829698E+03    0.21930E-04   -0.16707E-03 10829   0.832E-02    0.119E-01
RMM:   9    -0.147563976223E+03   -0.14653E-03   -0.27808E-04 10434   0.410E-02    0.527E-02
RMM:  10    -0.147564008447E+03   -0.32223E-04   -0.14936E-05  7975   0.156E-02    0.377E-02
RMM:  11    -0.147564084613E+03   -0.76166E-04   -0.14377E-04  9959   0.237E-02    0.165E-02
RMM:  12    -0.147564143709E+03   -0.59096E-04   -0.49189E-05 10104   0.164E-02    0.953E-03
RMM:  13    -0.147564147054E+03   -0.33441E-05   -0.51717E-06  7074   0.607E-03    0.608E-03
RMM:  14    -0.147564158817E+03   -0.11763E-04   -0.42890E-06  6582   0.502E-03    0.577E-03
RMM:  15    -0.147564176355E+03   -0.17538E-04   -0.12359E-06  4993   0.405E-03    0.251E-03
RMM:  16    -0.147564182808E+03   -0.64533E-05   -0.56408E-07  4945   0.239E-03    0.242E-03
RMM:  17    -0.147564186152E+03   -0.33434E-05   -0.29137E-07  4840   0.166E-03    0.138E-03
RMM:  18    -0.147564190851E+03   -0.46993E-05   -0.28661E-07  4748   0.142E-03    0.175E-03
RMM:  19    -0.147564195328E+03   -0.44771E-05   -0.27540E-07  4621   0.154E-03    0.966E-04
RMM:  20    -0.147564197516E+03   -0.21880E-05   -0.17326E-07  4136   0.130E-03    0.815E-04
RMM:  21    -0.147564199184E+03   -0.16684E-05   -0.12376E-07  3751   0.101E-03    0.122E-03
RMM:  22    -0.147564200277E+03   -0.10929E-05   -0.92317E-08  3965   0.956E-04    0.236E-04
RMM:  23    -0.147564201334E+03   -0.10563E-05   -0.70702E-08  3568   0.795E-04    0.221E-04
RMM:  24    -0.147564202447E+03   -0.11138E-05   -0.61727E-08  3523   0.784E-04    0.482E-04
RMM:  25    -0.147564202794E+03   -0.34652E-06   -0.25032E-08  2949   0.689E-04
   6 F= -.15376173E+03 E0= -.15375333E+03  d E =-.149439E-01  mag=    25.0000
       N       E                     dE             d eps       ncg     rms          rms(c)
DAV:   1    -0.147562341483E+03    0.18610E-02   -0.15388E+00  8160   0.241E+00    0.940E-01
RMM:   2    -0.147568277651E+03   -0.59362E-02   -0.66027E-02  7992   0.111E+00    0.207E+00
RMM:   3    -0.147570652060E+03   -0.23744E-02   -0.38338E-02  9986   0.602E-01    0.892E-01
RMM:   4    -0.147572087017E+03   -0.14350E-02   -0.11895E-02  9062   0.310E-01    0.903E-01
RMM:   5    -0.147570108946E+03    0.19781E-02   -0.34595E-03  8782   0.170E-01    0.431E-01
RMM:   6    -0.147570390484E+03   -0.28154E-03   -0.54164E-04  9284   0.715E-02    0.197E-01
RMM:   7    -0.147570330419E+03    0.60065E-04   -0.23268E-04  8945   0.392E-02    0.172E-01
RMM:   8    -0.147570330317E+03    0.10145E-06   -0.77500E-04 10232   0.570E-02    0.833E-02
RMM:   9    -0.147570403749E+03   -0.73431E-04   -0.17022E-04 10080   0.339E-02    0.347E-02
RMM:  10    -0.147570412422E+03   -0.86729E-05   -0.12576E-05  7745   0.127E-02    0.401E-02
RMM:  11    -0.147570425461E+03   -0.13039E-04   -0.68674E-05  9506   0.175E-02    0.333E-02
RMM:  12    -0.147570444546E+03   -0.19086E-04   -0.34429E-05  9470   0.146E-02    0.104E-02
RMM:  13    -0.147570446360E+03   -0.18140E-05   -0.31554E-06  5977   0.646E-03    0.505E-03
RMM:  14    -0.147570448993E+03   -0.26327E-05   -0.17044E-06  5149   0.358E-03    0.565E-03
RMM:  15    -0.147570454638E+03   -0.56450E-05   -0.80728E-07  4937   0.324E-03    0.524E-03
RMM:  16    -0.147570458659E+03   -0.40210E-05   -0.30588E-07  4933   0.228E-03    0.587E-03
RMM:  17    -0.147570459757E+03   -0.10983E-05   -0.18647E-07  4744   0.155E-03    0.312E-03
RMM:  18    -0.147570460859E+03   -0.11022E-05   -0.13805E-07  4711   0.115E-03    0.211E-03
RMM:  19    -0.147570462095E+03   -0.12353E-05   -0.96938E-08  4408   0.110E-03    0.223E-03
RMM:  20    -0.147570463281E+03   -0.11858E-05   -0.75926E-08  3993   0.876E-04    0.117E-03
RMM:  21    -0.147570463656E+03   -0.37551E-06   -0.34343E-08  3261   0.743E-04
   7 F= -.15376892E+03 E0= -.15376049E+03  d E =-.719263E-02  mag=    25.0000
       N       E                     dE             d eps       ncg     rms          rms(c)
DAV:   1    -0.147547926229E+03    0.22537E-01   -0.48996E+00  7968   0.430E+00    0.159E+00
RMM:   2    -0.147570980036E+03   -0.23054E-01   -0.21598E-01  7971   0.198E+00    0.331E+00
RMM:   3    -0.147577991630E+03   -0.70116E-02   -0.13403E-01 10148   0.107E+00    0.212E+00
RMM:   4    -0.147575184583E+03    0.28070E-02   -0.33552E-02  8977   0.555E-01    0.118E+00
RMM:   5    -0.147573826574E+03    0.13580E-02   -0.71267E-03  8995   0.252E-01    0.709E-01
RMM:   6    -0.147573871928E+03   -0.45354E-04   -0.16651E-03  9298   0.124E-01    0.397E-01
RMM:   7    -0.147573612884E+03    0.25904E-03   -0.67097E-04  9011   0.698E-02    0.264E-01
RMM:   8    -0.147573628173E+03   -0.15289E-04   -0.19581E-03 10125   0.833E-02    0.285E-01
RMM:   9    -0.147573729598E+03   -0.10142E-03   -0.76281E-04  9603   0.761E-02    0.867E-02
RMM:  10    -0.147573788569E+03   -0.58971E-04   -0.11451E-04  8995   0.316E-02    0.568E-02
RMM:  11    -0.147573815108E+03   -0.26539E-04   -0.10609E-04  8852   0.240E-02    0.399E-02
RMM:  12    -0.147573863309E+03   -0.48201E-04   -0.13544E-04  9137   0.233E-02    0.243E-02
RMM:  13    -0.147573868698E+03   -0.53883E-05   -0.12141E-05  7412   0.134E-02    0.868E-03
RMM:  14    -0.147573875707E+03   -0.70092E-05   -0.50268E-06  7002   0.602E-03    0.126E-02
RMM:  15    -0.147573886251E+03   -0.10545E-04   -0.12405E-06  4982   0.498E-03    0.698E-03
RMM:  16    -0.147573895548E+03   -0.92962E-05   -0.77381E-07  4947   0.276E-03    0.670E-03
RMM:  17    -0.147573901123E+03   -0.55749E-05   -0.49255E-07  4923   0.264E-03    0.536E-03
RMM:  18    -0.147573905088E+03   -0.39657E-05   -0.50170E-07  4896   0.223E-03    0.490E-03
RMM:  19    -0.147573907498E+03   -0.24094E-05   -0.29052E-07  4718   0.188E-03    0.382E-03
RMM:  20    -0.147573910068E+03   -0.25706E-05   -0.22304E-07  4403   0.154E-03    0.234E-03
RMM:  21    -0.147573911709E+03   -0.16407E-05   -0.15052E-07  4410   0.125E-03    0.162E-03
RMM:  22    -0.147573912303E+03   -0.59416E-06   -0.81729E-08  3640   0.878E-04
   8 F= -.15377400E+03 E0= -.15376524E+03  d E =-.122764E-01  mag=    25.0000
       N       E                     dE             d eps       ncg     rms          rms(c)
DAV:   1    -0.147571771618E+03    0.21401E-02   -0.10316E+00  8240   0.205E+00    0.916E-01
RMM:   2    -0.147574754835E+03   -0.29832E-02   -0.56863E-02  7988   0.103E+00    0.166E+00
RMM:   3    -0.147579659359E+03   -0.49045E-02   -0.33790E-02 10027   0.554E-01    0.120E+00
RMM:   4    -0.147578227375E+03    0.14320E-02   -0.91547E-03  9150   0.281E-01    0.634E-01
RMM:   5    -0.147578177847E+03    0.49528E-04   -0.19589E-03  8764   0.138E-01    0.529E-01
RMM:   6    -0.147578091372E+03    0.86475E-04   -0.56560E-04  9236   0.813E-02    0.198E-01
RMM:   7    -0.147578043373E+03    0.47999E-04   -0.34950E-04  8935   0.481E-02    0.220E-01
RMM:   8    -0.147578054100E+03   -0.10727E-04   -0.46011E-04 10007   0.490E-02    0.196E-01
RMM:   9    -0.147578030933E+03    0.23167E-04   -0.23376E-04  9846   0.393E-02    0.731E-02
RMM:  10    -0.147578083864E+03   -0.52931E-04   -0.30595E-05  8011   0.194E-02    0.225E-02
RMM:  11    -0.147578127735E+03   -0.43871E-04   -0.50209E-05  8328   0.157E-02    0.170E-02
RMM:  12    -0.147578160254E+03   -0.32519E-04   -0.28636E-05  8469   0.152E-02    0.154E-02
RMM:  13    -0.147578166537E+03   -0.62829E-05   -0.40326E-06  6215   0.763E-03    0.855E-03
RMM:  14    -0.147578172535E+03   -0.59975E-05   -0.18562E-06  5111   0.450E-03    0.481E-03
RMM:  15    -0.147578181710E+03   -0.91751E-05   -0.11371E-06  4942   0.334E-03    0.709E-03
RMM:  16    -0.147578191747E+03   -0.10037E-04   -0.59460E-07  4940   0.283E-03    0.247E-03
RMM:  17    -0.147578195570E+03   -0.38225E-05   -0.35546E-07  4828   0.179E-03    0.222E-03
RMM:  18    -0.147578197938E+03   -0.23684E-05   -0.25565E-07  4685   0.157E-03    0.300E-03
RMM:  19    -0.147578199737E+03   -0.17993E-05   -0.17219E-07  4485   0.130E-03    0.103E-03
RMM:  20    -0.147578201423E+03   -0.16856E-05   -0.13155E-07  4127   0.108E-03    0.141E-03
RMM:  21    -0.147578202168E+03   -0.74501E-06   -0.70832E-08  3516   0.905E-04
   9 F= -.15377923E+03 E0= -.15377001E+03  d E =-.523226E-02  mag=    25.0000
       N       E                     dE             d eps       ncg     rms          rms(c)
DAV:   1    -0.147566842090E+03    0.11359E-01   -0.20067E+00  8016   0.286E+00    0.119E+00
RMM:   2    -0.147573644451E+03   -0.68024E-02   -0.10755E-01  7979   0.141E+00    0.189E+00
RMM:   3    -0.147586879899E+03   -0.13235E-01   -0.74941E-02 10363   0.757E-01    0.243E+00
RMM:   4    -0.147576625825E+03    0.10254E-01   -0.14609E-02  8829   0.400E-01    0.519E-01
RMM:   5    -0.147579625052E+03   -0.29992E-02   -0.28667E-03  9120   0.162E-01    0.763E-01
RMM:   6    -0.147579227421E+03    0.39763E-03   -0.10189E-03  9083   0.115E-01    0.271E-01
RMM:   7    -0.147579054067E+03    0.17335E-03   -0.64655E-04  8904   0.655E-02    0.241E-01
RMM:   8    -0.147579214293E+03   -0.16023E-03   -0.15402E-03 10208   0.827E-02    0.292E-01
RMM:   9    -0.147579011393E+03    0.20290E-03   -0.33396E-04  9657   0.561E-02    0.173E-01
RMM:  10    -0.147579130857E+03   -0.11946E-03   -0.59733E-05  8236   0.294E-02    0.361E-02
RMM:  11    -0.147579203427E+03   -0.72570E-04   -0.85179E-05  8403   0.214E-02    0.231E-02
RMM:  12    -0.147579258004E+03   -0.54578E-04   -0.60183E-05  9589   0.204E-02    0.146E-02
RMM:  13    -0.147579276138E+03   -0.18134E-04   -0.76390E-06  6283   0.787E-03    0.143E-02
RMM:  14    -0.147579285431E+03   -0.92923E-05   -0.41710E-06  6439   0.659E-03    0.953E-03
RMM:  15    -0.147579306043E+03   -0.20612E-04   -0.17146E-06  5076   0.454E-03    0.738E-03
RMM:  16    -0.147579320543E+03   -0.14501E-04   -0.11893E-06  4999   0.323E-03    0.437E-03
RMM:  17    -0.147579328181E+03   -0.76376E-05   -0.58455E-07  4938   0.272E-03    0.319E-03
RMM:  18    -0.147579331396E+03   -0.32152E-05   -0.39190E-07  4812   0.188E-03    0.265E-03
RMM:  19    -0.147579334244E+03   -0.28480E-05   -0.28083E-07  4801   0.174E-03    0.138E-03
RMM:  20    -0.147579337204E+03   -0.29596E-05   -0.23192E-07  4503   0.131E-03    0.116E-03
RMM:  21    -0.147579338744E+03   -0.15403E-05   -0.14657E-07  4206   0.125E-03    0.126E-03
RMM:  22    -0.147579339264E+03   -0.51997E-06   -0.87931E-08  3834   0.910E-04
  10 F= -.15378167E+03 E0= -.15377179E+03  d E =-.767118E-02  mag=    25.0000
       N       E                     dE             d eps       ncg     rms          rms(c)
DAV:   1    -0.147574948111E+03    0.43906E-02   -0.13784E+00  8168   0.237E+00    0.982E-01
RMM:   2    -0.147578354331E+03   -0.34062E-02   -0.65995E-02  7999   0.111E+00    0.153E+00
RMM:   3    -0.147587798169E+03   -0.94438E-02   -0.44319E-02 10348   0.596E-01    0.199E+00
RMM:   4    -0.147581698712E+03    0.60995E-02   -0.94315E-03  8755   0.314E-01    0.502E-01
RMM:   5    -0.147583652364E+03   -0.19537E-02   -0.19990E-03  9081   0.142E-01    0.649E-01
RMM:   6    -0.147583293366E+03    0.35900E-03   -0.71980E-04  9075   0.966E-02    0.201E-01
RMM:   7    -0.147583206830E+03    0.86536E-04   -0.24677E-04  8801   0.421E-02    0.162E-01
RMM:   8    -0.147583223703E+03   -0.16873E-04   -0.10060E-03 10207   0.672E-02    0.158E-01
RMM:   9    -0.147583241137E+03   -0.17433E-04   -0.18981E-04  9983   0.399E-02    0.108E-01
RMM:  10    -0.147583269663E+03   -0.28527E-04   -0.20174E-05  7963   0.175E-02    0.347E-02
RMM:  11    -0.147583313834E+03   -0.44171E-04   -0.53768E-05  8569   0.154E-02    0.303E-02
RMM:  12    -0.147583365948E+03   -0.52114E-04   -0.40961E-05  9668   0.165E-02    0.136E-02
RMM:  13    -0.147583376197E+03   -0.10249E-04   -0.31668E-06  5573   0.635E-03    0.160E-02
RMM:  14    -0.147583384979E+03   -0.87824E-05   -0.16831E-06  5048   0.407E-03    0.581E-03
RMM:  15    -0.147583408694E+03   -0.23715E-04   -0.12671E-06  5003   0.361E-03    0.488E-03
RMM:  16    -0.147583423006E+03   -0.14312E-04   -0.79975E-07  4960   0.292E-03    0.560E-03
RMM:  17    -0.147583428138E+03   -0.51318E-05   -0.48095E-07  4749   0.226E-03    0.213E-03
RMM:  18    -0.147583431574E+03   -0.34360E-05   -0.31362E-07  4868   0.176E-03    0.108E-03
RMM:  19    -0.147583434591E+03   -0.30166E-05   -0.26701E-07  4602   0.145E-03    0.222E-03
RMM:  20    -0.147583437006E+03   -0.24156E-05   -0.20803E-07  4358   0.141E-03    0.115E-03
RMM:  21    -0.147583437985E+03   -0.97892E-06   -0.12751E-07  3801   0.109E-03
  11 F= -.15378626E+03 E0= -.15377626E+03  d E =-.458841E-02  mag=    25.0000
       N       E                     dE             d eps       ncg     rms          rms(c)
DAV:   1    -0.147522769416E+03    0.60668E-01   -0.10204E+01  7904   0.644E+00    0.215E+00
RMM:   2    -0.147564629193E+03   -0.41860E-01   -0.45040E-01  8019   0.291E+00    0.300E+00
RMM:   3    -0.147634026767E+03   -0.69398E-01   -0.36139E-01 10569   0.150E+00    0.664E+00
RMM:   4    -0.147576283390E+03    0.57743E-01   -0.60538E-02  8830   0.876E-01    0.179E+00
RMM:   5    -0.147585002445E+03   -0.87191E-02   -0.19732E-02  9173   0.425E-01    0.109E+00
RMM:   6    -0.147587677746E+03   -0.26753E-02   -0.51268E-03  8866   0.247E-01    0.669E-01
RMM:   7    -0.147586532090E+03    0.11457E-02   -0.18387E-03  8846   0.113E-01    0.400E-01
RMM:   8    -0.147586737640E+03   -0.20555E-03   -0.81251E-03 10347   0.181E-01    0.860E-01
RMM:   9    -0.147586427372E+03    0.31027E-03   -0.15378E-03 10137   0.117E-01    0.300E-01
RMM:  10    -0.147586510444E+03   -0.83073E-04   -0.26277E-04  8844   0.480E-02    0.120E-01
RMM:  11    -0.147586776258E+03   -0.26581E-03   -0.14633E-04  8898   0.390E-02    0.822E-02
RMM:  12    -0.147586988048E+03   -0.21179E-03   -0.21379E-04  9455   0.344E-02    0.185E-01
RMM:  13    -0.147587031779E+03   -0.43732E-04   -0.70851E-05  9698   0.251E-02    0.805E-02
RMM:  14    -0.147587106840E+03   -0.75061E-04   -0.17303E-05  7825   0.112E-02    0.414E-02
RMM:  15    -0.147587171968E+03   -0.65127E-04   -0.44329E-06  5890   0.784E-03    0.119E-02
RMM:  16    -0.147587264428E+03   -0.92461E-04   -0.53383E-06  6823   0.625E-03    0.505E-03
RMM:  17    -0.147587313486E+03   -0.49058E-04   -0.29373E-06  5668   0.539E-03    0.608E-03
RMM:  18    -0.147587329846E+03   -0.16360E-04   -0.15925E-06  5169   0.316E-03    0.292E-03
RMM:  19    -0.147587341162E+03   -0.11316E-04   -0.75395E-07  4944   0.312E-03    0.236E-03
RMM:  20    -0.147587351746E+03   -0.10584E-04   -0.88144E-07  4874   0.214E-03    0.259E-03
RMM:  21    -0.147587357268E+03   -0.55222E-05   -0.50041E-07  4796   0.230E-03    0.205E-03
RMM:  22    -0.147587360483E+03   -0.32155E-05   -0.44666E-07  4735   0.170E-03    0.832E-04
RMM:  23    -0.147587361787E+03   -0.13033E-05   -0.18528E-07  4450   0.166E-03    0.975E-04
RMM:  24    -0.147587363422E+03   -0.16350E-05   -0.14631E-07  3845   0.945E-04    0.526E-04
RMM:  25    -0.147587364636E+03   -0.12143E-05   -0.66779E-08  3453   0.954E-04    0.414E-04
RMM:  26    -0.147587365669E+03   -0.10329E-05   -0.65273E-08  2998   0.678E-04    0.310E-04
RMM:  27    -0.147587366204E+03   -0.53562E-06   -0.32043E-08  2763   0.718E-04
  12 F= -.15379148E+03 E0= -.15378116E+03  d E =-.980560E-02  mag=    25.0000
       N       E                     dE             d eps       ncg     rms          rms(c)
DAV:   1    -0.147573257506E+03    0.14108E-01   -0.32496E+00  8168   0.361E+00    0.118E+00
RMM:   2    -0.147582377151E+03   -0.91196E-02   -0.12376E-01  8033   0.155E+00    0.794E-01
RMM:   3    -0.147598325667E+03   -0.15949E-01   -0.83255E-02 10618   0.714E-01    0.218E+00
RMM:   4    -0.147592164338E+03    0.61613E-02   -0.96657E-03  9189   0.314E-01    0.616E-01
RMM:   5    -0.147593761972E+03   -0.15976E-02   -0.32525E-03  8426   0.187E-01    0.572E-01
RMM:   6    -0.147593321212E+03    0.44076E-03   -0.14383E-03  8657   0.138E-01    0.321E-01
RMM:   7    -0.147593182208E+03    0.13900E-03   -0.35071E-04  8549   0.532E-02    0.252E-01
RMM:   8    -0.147593009077E+03    0.17313E-03   -0.26227E-03 10379   0.982E-02    0.153E-01
RMM:   9    -0.147593154859E+03   -0.14578E-03   -0.60122E-04 10376   0.602E-02    0.139E-01
RMM:  10    -0.147593143092E+03    0.11766E-04   -0.66697E-05  8783   0.305E-02    0.548E-02
RMM:  11    -0.147593136007E+03    0.70857E-05   -0.96381E-05  9023   0.202E-02    0.596E-02
RMM:  12    -0.147593159766E+03   -0.23759E-04   -0.14488E-04  9772   0.243E-02    0.286E-02
RMM:  13    -0.147593166916E+03   -0.71499E-05   -0.10912E-05  7404   0.114E-02    0.147E-02
RMM:  14    -0.147593174667E+03   -0.77507E-05   -0.47357E-06  6810   0.581E-03    0.133E-02
RMM:  15    -0.147593186065E+03   -0.11398E-04   -0.15337E-06  5138   0.495E-03    0.102E-02
RMM:  16    -0.147593191213E+03   -0.51481E-05   -0.15911E-06  4999   0.320E-03    0.495E-03
RMM:  17    -0.147593195300E+03   -0.40872E-05   -0.75129E-07  4940   0.309E-03    0.390E-03
RMM:  18    -0.147593197243E+03   -0.19433E-05   -0.41772E-07  4919   0.263E-03    0.211E-03
RMM:  19    -0.147593200772E+03   -0.35285E-05   -0.30962E-07  4658   0.180E-03    0.176E-03
RMM:  20    -0.147593203271E+03   -0.24989E-05   -0.16547E-07  4597   0.156E-03    0.785E-04
RMM:  21    -0.147593204871E+03   -0.16001E-05   -0.13933E-07  4144   0.101E-03    0.154E-03
RMM:  22    -0.147593206282E+03   -0.14107E-05   -0.12919E-07  4218   0.106E-03    0.507E-04
RMM:  23    -0.147593207527E+03   -0.12458E-05   -0.84393E-08  3947   0.941E-04    0.639E-04
RMM:  24    -0.147593208248E+03   -0.72090E-06   -0.52920E-08  3106   0.778E-04
  13 F= -.15379709E+03 E0= -.15378663E+03  d E =-.560700E-02  mag=    25.0000
       N       E                     dE             d eps       ncg     rms          rms(c)
DAV:   1    -0.147577881468E+03    0.15326E-01   -0.27797E+00  7952   0.334E+00    0.102E+00
RMM:   2    -0.147586564168E+03   -0.86827E-02   -0.10320E-01  8056   0.141E+00    0.544E-01
RMM:   3    -0.147599599165E+03   -0.13035E-01   -0.70061E-02 10553   0.641E-01    0.209E+00
RMM:   4    -0.147593858260E+03    0.57409E-02   -0.73802E-03  9324   0.275E-01    0.556E-01
RMM:   5    -0.147595253294E+03   -0.13950E-02   -0.20502E-03  8399   0.151E-01    0.474E-01
RMM:   6    -0.147595096587E+03    0.15671E-03   -0.11633E-03  8569   0.113E-01    0.324E-01
RMM:   7    -0.147595120288E+03   -0.23701E-04   -0.31335E-04  8490   0.555E-02    0.242E-01
RMM:   8    -0.147594918043E+03    0.20224E-03   -0.15203E-03 10325   0.770E-02    0.184E-01
RMM:   9    -0.147595052392E+03   -0.13435E-03   -0.96131E-04 10255   0.630E-02    0.101E-01
RMM:  10    -0.147595053424E+03   -0.10320E-05   -0.59509E-05  8929   0.294E-02    0.598E-02
RMM:  11    -0.147595035614E+03    0.17810E-04   -0.86840E-05  8552   0.193E-02    0.485E-02
RMM:  12    -0.147595059158E+03   -0.23544E-04   -0.13863E-04  9845   0.238E-02    0.160E-02
RMM:  13    -0.147595066638E+03   -0.74803E-05   -0.10817E-05  7418   0.113E-02    0.207E-02
RMM:  14    -0.147595073717E+03   -0.70789E-05   -0.65344E-06  7249   0.594E-03    0.185E-02
RMM:  15    -0.147595080143E+03   -0.64261E-05   -0.10717E-06  4949   0.501E-03    0.106E-02
RMM:  16    -0.147595086734E+03   -0.65911E-05   -0.26628E-06  5369   0.399E-03    0.246E-03
RMM:  17    -0.147595091051E+03   -0.43167E-05   -0.17741E-06  4996   0.397E-03    0.507E-03
RMM:  18    -0.147595092168E+03   -0.11170E-05   -0.56733E-07  4901   0.363E-03    0.286E-03
RMM:  19    -0.147595094389E+03   -0.22212E-05   -0.21910E-07  4391   0.161E-03    0.172E-03
RMM:  20    -0.147595096162E+03   -0.17724E-05   -0.11225E-07  4596   0.126E-03    0.714E-04
RMM:  21    -0.147595098012E+03   -0.18505E-05   -0.16727E-07  4467   0.945E-04    0.894E-04
RMM:  22    -0.147595099181E+03   -0.11685E-05   -0.68948E-08  4167   0.106E-03    0.583E-04
RMM:  23    -0.147595100100E+03   -0.91912E-06   -0.41548E-08  2788   0.611E-04
  14 F= -.15379874E+03 E0= -.15378816E+03  d E =-.725781E-02  mag=    25.0000
       N       E                     dE             d eps       ncg     rms          rms(c)
DAV:   1    -0.147574615498E+03    0.20484E-01   -0.45020E+00  7904   0.419E+00    0.111E+00
RMM:   2    -0.147587899858E+03   -0.13284E-01   -0.13657E-01  8212   0.160E+00    0.639E-01
RMM:   3    -0.147603516518E+03   -0.15617E-01   -0.90683E-02 10516   0.736E-01    0.160E+00
RMM:   4    -0.147601346150E+03    0.21704E-02   -0.16208E-02  8854   0.376E-01    0.151E+00
RMM:   5    -0.147599377148E+03    0.19690E-02   -0.27114E-03  9125   0.199E-01    0.501E-01
RMM:   6    -0.147599725210E+03   -0.34806E-03   -0.90178E-04  9057   0.873E-02    0.315E-01
RMM:   7    -0.147599781935E+03   -0.56726E-04   -0.56115E-04  9071   0.598E-02    0.250E-01
RMM:   8    -0.147599842838E+03   -0.60903E-04   -0.42804E-03 11114   0.116E-01    0.196E-01
RMM:   9    -0.147599979862E+03   -0.13702E-03   -0.30770E-04 10389   0.520E-02    0.124E-01
RMM:  10    -0.147600045428E+03   -0.65566E-04   -0.39357E-05  8573   0.240E-02    0.857E-02
RMM:  11    -0.147600181350E+03   -0.13592E-03   -0.28301E-04 10019   0.308E-02    0.336E-02
RMM:  12    -0.147600334590E+03   -0.15324E-03   -0.51881E-05  9921   0.213E-02    0.141E-02
RMM:  13    -0.147600394917E+03   -0.60326E-04   -0.48951E-06  5600   0.756E-03    0.129E-02
RMM:  14    -0.147600467424E+03   -0.72507E-04   -0.18890E-06  5083   0.424E-03    0.223E-02
RMM:  15    -0.147600550092E+03   -0.82668E-04   -0.15295E-06  5128   0.451E-03    0.702E-03
RMM:  16    -0.147600640965E+03   -0.90873E-04   -0.37691E-06  5966   0.366E-03    0.577E-03
RMM:  17    -0.147600679368E+03   -0.38403E-04   -0.13534E-06  5014   0.397E-03    0.509E-03
RMM:  18    -0.147600692802E+03   -0.13434E-04   -0.87001E-07  4953   0.285E-03    0.164E-03
RMM:  19    -0.147600712833E+03   -0.20031E-04   -0.71037E-07  4723   0.262E-03    0.159E-03
RMM:  20    -0.147600723877E+03   -0.11044E-04   -0.47535E-07  4483   0.219E-03    0.129E-03
RMM:  21    -0.147600736087E+03   -0.12210E-04   -0.55330E-07  4600   0.185E-03    0.785E-04
RMM:  22    -0.147600740787E+03   -0.46999E-05   -0.36754E-07  4465   0.179E-03    0.532E-04
RMM:  23    -0.147600743471E+03   -0.26846E-05   -0.30535E-07  4347   0.149E-03    0.338E-04
RMM:  24    -0.147600744528E+03   -0.10570E-05   -0.18184E-07  3828   0.135E-03    0.307E-04
RMM:  25    -0.147600745086E+03   -0.55758E-06   -0.13392E-07  3431   0.100E-03
  15 F= -.15380398E+03 E0= -.15379326E+03  d E =-.524289E-02  mag=    25.0000
       N       E                     dE             d eps       ncg     rms          rms(c)
DAV:   1    -0.147592713579E+03    0.80309E-02   -0.15741E+00  8200   0.247E+00    0.649E-01
RMM:   2    -0.147597247716E+03   -0.45341E-02   -0.47191E-02  8198   0.939E-01    0.455E-01
RMM:   3    -0.147604833529E+03   -0.75858E-02   -0.33915E-02 10515   0.465E-01    0.169E+00
RMM:   4    -0.147599851842E+03    0.49817E-02   -0.68044E-03  8582   0.267E-01    0.527E-01
RMM:   5    -0.147601622891E+03   -0.17710E-02   -0.11667E-03  9289   0.109E-01    0.263E-01
RMM:   6    -0.147601448259E+03    0.17463E-03   -0.21030E-04  8672   0.467E-02    0.186E-01
RMM:   7    -0.147601346323E+03    0.10194E-03   -0.34183E-04  9043   0.402E-02    0.131E-01
RMM:   8    -0.147601422572E+03   -0.76249E-04   -0.11825E-03 10334   0.629E-02    0.126E-01
RMM:   9    -0.147601464981E+03   -0.42409E-04   -0.85830E-05 10161   0.313E-02    0.404E-02
RMM:  10    -0.147601535299E+03   -0.70318E-04   -0.39219E-05  8710   0.176E-02    0.343E-02
RMM:  11    -0.147601615249E+03   -0.79950E-04   -0.72870E-05  9193   0.165E-02    0.167E-02
RMM:  12    -0.147601649797E+03   -0.34547E-04   -0.91150E-06  7515   0.948E-03    0.813E-03
RMM:  13    -0.147601671337E+03   -0.21540E-04   -0.12297E-06  5005   0.463E-03    0.582E-03
RMM:  14    -0.147601709441E+03   -0.38104E-04   -0.15189E-06  5009   0.297E-03    0.809E-03
RMM:  15    -0.147601742738E+03   -0.33296E-04   -0.58310E-07  4941   0.315E-03    0.346E-03
RMM:  16    -0.147601777400E+03   -0.34662E-04   -0.14457E-06  5077   0.223E-03    0.137E-03
RMM:  17    -0.147601792093E+03   -0.14693E-04   -0.45271E-07  4810   0.249E-03    0.196E-03
RMM:  18    -0.147601796976E+03   -0.48830E-05   -0.31160E-07  4526   0.163E-03    0.126E-03
RMM:  19    -0.147601806439E+03   -0.94629E-05   -0.28465E-07  4393   0.161E-03    0.909E-04
RMM:  20    -0.147601813441E+03   -0.70021E-05   -0.27028E-07  4280   0.141E-03    0.681E-04
RMM:  21    -0.147601816751E+03   -0.33101E-05   -0.17949E-07  3850   0.134E-03    0.410E-04
RMM:  22    -0.147601818851E+03   -0.20998E-05   -0.18410E-07  3972   0.106E-03    0.252E-04
RMM:  23    -0.147601819810E+03   -0.95872E-06   -0.11010E-07  3941   0.116E-03
  16 F= -.15380480E+03 E0= -.15379404E+03  d E =-.606149E-02  mag=    25.0000
       N       E                     dE             d eps       ncg     rms          rms(c)
DAV:   1    -0.147577353725E+03    0.24465E-01   -0.49789E+00  7928   0.442E+00    0.119E+00
RMM:   2    -0.147595734356E+03   -0.18381E-01   -0.14610E-01  8130   0.165E+00    0.158E+00
RMM:   3    -0.147619216354E+03   -0.23482E-01   -0.11433E-01 10513   0.877E-01    0.399E+00
RMM:   4    -0.147600037278E+03    0.19179E-01   -0.18893E-02  8711   0.494E-01    0.689E-01
RMM:   5    -0.147606138431E+03   -0.61012E-02   -0.49382E-03  9470   0.183E-01    0.426E-01
RMM:   6    -0.147607211247E+03   -0.10728E-02   -0.84874E-04  8531   0.982E-02    0.338E-01
RMM:   7    -0.147606902881E+03    0.30837E-03   -0.35911E-03 10127   0.120E-01    0.393E-01
RMM:   8    -0.147607048288E+03   -0.14541E-03   -0.13659E-03 10229   0.893E-02    0.212E-01
RMM:   9    -0.147607080429E+03   -0.32141E-04   -0.18334E-04  8494   0.444E-02    0.149E-01
RMM:  10    -0.147607144567E+03   -0.64138E-04   -0.85885E-05  8610   0.322E-02    0.648E-02
RMM:  11    -0.147607220692E+03   -0.76125E-04   -0.20293E-04  9524   0.282E-02    0.124E-01
RMM:  12    -0.147607221046E+03   -0.35432E-06   -0.67567E-05  9999   0.210E-02    0.364E-02
RMM:  13    -0.147607278643E+03   -0.57597E-04   -0.81623E-06  7003   0.103E-02    0.984E-03
RMM:  14    -0.147607332516E+03   -0.53873E-04   -0.28062E-06  5796   0.712E-03    0.202E-02
RMM:  15    -0.147607377825E+03   -0.45309E-04   -0.25238E-06  5434   0.528E-03    0.542E-03
RMM:  16    -0.147607407669E+03   -0.29844E-04   -0.15061E-06  5104   0.396E-03    0.134E-02
RMM:  17    -0.147607419048E+03   -0.11379E-04   -0.12474E-06  5004   0.348E-03    0.450E-03
RMM:  18    -0.147607423830E+03   -0.47816E-05   -0.81008E-07  4925   0.276E-03    0.359E-03
RMM:  19    -0.147607425632E+03   -0.18028E-05   -0.39789E-07  4778   0.245E-03    0.305E-03
RMM:  20    -0.147607427354E+03   -0.17211E-05   -0.28632E-07  4767   0.168E-03    0.177E-03
RMM:  21    -0.147607427868E+03   -0.51461E-06   -0.24999E-07  4695   0.141E-03
  17 F= -.15381047E+03 E0= -.15379962E+03  d E =-.567108E-02  mag=    25.0000
       N       E                     dE             d eps       ncg     rms          rms(c)
DAV:   1    -0.147596180486E+03    0.11247E-01   -0.20133E+00  8208   0.281E+00    0.755E-01
RMM:   2    -0.147603265378E+03   -0.70849E-02   -0.58623E-02  8145   0.105E+00    0.101E+00
RMM:   3    -0.147612781795E+03   -0.95164E-02   -0.45394E-02 10476   0.557E-01    0.253E+00
RMM:   4    -0.147604587069E+03    0.81947E-02   -0.79207E-03  8608   0.320E-01    0.324E-01
RMM:   5    -0.147607875900E+03   -0.32888E-02   -0.17220E-03  9466   0.111E-01    0.249E-01
RMM:   6    -0.147608159677E+03   -0.28378E-03   -0.30490E-04  8654   0.579E-02    0.220E-01
RMM:   7    -0.147608059843E+03    0.99834E-04   -0.18347E-03 10439   0.829E-02    0.190E-01
RMM:   8    -0.147608137750E+03   -0.77907E-04   -0.37450E-04 10133   0.520E-02    0.138E-01
RMM:   9    -0.147608138473E+03   -0.72348E-06   -0.59001E-05  8248   0.275E-02    0.708E-02
RMM:  10    -0.147608179955E+03   -0.41482E-04   -0.31070E-05  8631   0.183E-02    0.422E-02
RMM:  11    -0.147608213839E+03   -0.33884E-04   -0.12440E-04 10081   0.215E-02    0.606E-02
RMM:  12    -0.147608224436E+03   -0.10597E-04   -0.15949E-05  8457   0.129E-02    0.119E-02
RMM:  13    -0.147608248875E+03   -0.24438E-04   -0.23997E-06  5225   0.737E-03    0.714E-03
RMM:  14    -0.147608274930E+03   -0.26056E-04   -0.11256E-06  5002   0.379E-03    0.973E-03
RMM:  15    -0.147608298552E+03   -0.23622E-04   -0.94925E-07  4962   0.325E-03    0.365E-03
RMM:  16    -0.147608308537E+03   -0.99844E-05   -0.68887E-07  4952   0.252E-03    0.371E-03
RMM:  17    -0.147608312547E+03   -0.40101E-05   -0.38069E-07  4849   0.224E-03    0.523E-03
RMM:  18    -0.147608314813E+03   -0.22662E-05   -0.27615E-07  4458   0.164E-03    0.196E-03
RMM:  19    -0.147608316474E+03   -0.16605E-05   -0.18746E-07  4386   0.141E-03    0.122E-03
RMM:  20    -0.147608317186E+03   -0.71223E-06   -0.12901E-07  4262   0.113E-03
  18 F= -.15381137E+03 E0= -.15380047E+03  d E =-.657614E-02  mag=    25.0000
       N       E                     dE             d eps       ncg     rms          rms(c)
DAV:   1    -0.147587307925E+03    0.21009E-01   -0.51481E+00  7904   0.440E+00    0.129E+00
RMM:   2    -0.147607919494E+03   -0.20612E-01   -0.15424E-01  8092   0.170E+00    0.296E+00
RMM:   3    -0.147617931877E+03   -0.10012E-01   -0.11383E-01 10451   0.921E-01    0.342E+00
RMM:   4    -0.147607772634E+03    0.10159E-01   -0.17434E-02  8535   0.492E-01    0.613E-01
RMM:   5    -0.147613173858E+03   -0.54012E-02   -0.47438E-03  9438   0.207E-01    0.537E-01
RMM:   6    -0.147612963075E+03    0.21078E-03   -0.11265E-03  8414   0.101E-01    0.519E-01
RMM:   7    -0.147612777209E+03    0.18587E-03   -0.11923E-03  9031   0.833E-02    0.370E-01
RMM:   8    -0.147613108416E+03   -0.33121E-03   -0.29043E-03 10216   0.106E-01    0.326E-01
RMM:   9    -0.147613090140E+03    0.18276E-04   -0.19874E-04  8693   0.577E-02    0.142E-01
RMM:  10    -0.147613115291E+03   -0.25151E-04   -0.10616E-04  8764   0.263E-02    0.636E-02
RMM:  11    -0.147613211273E+03   -0.95982E-04   -0.20106E-04  9783   0.289E-02    0.969E-02
RMM:  12    -0.147613226007E+03   -0.14734E-04   -0.23981E-05  8629   0.192E-02    0.318E-02
RMM:  13    -0.147613242401E+03   -0.16394E-04   -0.40315E-06  5925   0.816E-03    0.188E-02
RMM:  14    -0.147613259420E+03   -0.17019E-04   -0.33864E-06  6060   0.597E-03    0.895E-03
RMM:  15    -0.147613272816E+03   -0.13396E-04   -0.49941E-06  6616   0.665E-03    0.236E-02
RMM:  16    -0.147613274638E+03   -0.18220E-05   -0.12459E-06  4994   0.479E-03    0.965E-03
RMM:  17    -0.147613276961E+03   -0.23228E-05   -0.92293E-07  4964   0.281E-03    0.405E-03
RMM:  18    -0.147613278905E+03   -0.19442E-05   -0.49680E-07  4927   0.229E-03    0.312E-03
RMM:  19    -0.147613280273E+03   -0.13685E-05   -0.23689E-07  4890   0.210E-03    0.203E-03
RMM:  20    -0.147613280927E+03   -0.65385E-06   -0.11283E-07  4487   0.137E-03
  19 F= -.15381654E+03 E0= -.15380516E+03  d E =-.516163E-02  mag=    25.0000
       N       E                     dE             d eps       ncg     rms          rms(c)
DAV:   1    -0.147589837446E+03    0.23443E-01   -0.49813E+00  7936   0.433E+00    0.128E+00
RMM:   2    -0.147611655279E+03   -0.21818E-01   -0.15138E-01  8084   0.168E+00    0.332E+00
RMM:   3    -0.147617020381E+03   -0.53651E-02   -0.11051E-01 10431   0.918E-01    0.331E+00
RMM:   4    -0.147609957727E+03    0.70627E-02   -0.16642E-02  8570   0.485E-01    0.595E-01
RMM:   5    -0.147614870420E+03   -0.49127E-02   -0.44201E-03  9430   0.203E-01    0.534E-01
RMM:   6    -0.147614652933E+03    0.21749E-03   -0.10689E-03  8408   0.985E-02    0.532E-01
RMM:   7    -0.147614452252E+03    0.20068E-03   -0.10845E-03  9009   0.821E-02    0.351E-01
RMM:   8    -0.147614821472E+03   -0.36922E-03   -0.28426E-03 10272   0.105E-01    0.347E-01
RMM:   9    -0.147614777224E+03    0.44248E-04   -0.19059E-04  8642   0.577E-02    0.147E-01
RMM:  10    -0.147614810299E+03   -0.33075E-04   -0.91039E-05  8728   0.251E-02    0.779E-02
RMM:  11    -0.147614906561E+03   -0.96262E-04   -0.20372E-04  9793   0.291E-02    0.940E-02
RMM:  12    -0.147614930941E+03   -0.24381E-04   -0.25182E-05  8760   0.196E-02    0.306E-02
RMM:  13    -0.147614945401E+03   -0.14460E-04   -0.36129E-06  5841   0.812E-03    0.161E-02
RMM:  14    -0.147614963043E+03   -0.17642E-04   -0.39190E-06  6381   0.596E-03    0.833E-03
RMM:  15    -0.147614975498E+03   -0.12456E-04   -0.39415E-06  6099   0.649E-03    0.279E-02
RMM:  16    -0.147614975914E+03   -0.41591E-06   -0.13262E-06  4996   0.478E-03
  20 F= -.15381837E+03 E0= -.15380665E+03  d E =-.699513E-02  mag=    25.0000
       N       E                     dE             d eps       ncg     rms          rms(c)
DAV:   1    -0.147599027015E+03    0.15948E-01   -0.38675E+00  8040   0.389E+00    0.164E+00
RMM:   2    -0.147646500544E+03   -0.47474E-01   -0.17875E-01  8072   0.174E+00    0.606E+00
RMM:   3    -0.147613430312E+03    0.33070E-01   -0.13616E-01  9766   0.111E+00    0.348E+00
RMM:   4    -0.147617796590E+03   -0.43663E-02   -0.28159E-02  8811   0.599E-01    0.182E+00
RMM:   5    -0.147619629317E+03   -0.18327E-02   -0.70769E-03  9295   0.298E-01    0.968E-01
RMM:   6    -0.147618736536E+03    0.89278E-03   -0.22116E-03  8324   0.142E-01    0.732E-01
RMM:   7    -0.147619670728E+03   -0.93419E-03   -0.64316E-04  8644   0.874E-02    0.639E-01
RMM:   8    -0.147619551614E+03    0.11911E-03   -0.20592E-03 10176   0.110E-01    0.667E-01
RMM:   9    -0.147619552749E+03   -0.11352E-05   -0.67418E-04  9594   0.869E-02    0.235E-01
RMM:  10    -0.147619840934E+03   -0.28819E-03   -0.10333E-04 10199   0.302E-02    0.127E-01
RMM:  11    -0.147620170922E+03   -0.32999E-03   -0.91701E-05  9109   0.252E-02    0.151E-01
RMM:  12    -0.147620354378E+03   -0.18346E-03   -0.59044E-05  9058   0.259E-02    0.242E-02
RMM:  13    -0.147620448491E+03   -0.94114E-04   -0.12634E-05  7937   0.110E-02    0.106E-02
RMM:  14    -0.147620516837E+03   -0.68346E-04   -0.25599E-06  5479   0.599E-03    0.921E-03
RMM:  15    -0.147620641749E+03   -0.12491E-03   -0.79945E-06  7146   0.675E-03    0.135E-02
RMM:  16    -0.147620699540E+03   -0.57790E-04   -0.36597E-06  6096   0.659E-03    0.128E-02
RMM:  17    -0.147620712112E+03   -0.12572E-04   -0.16704E-06  5257   0.291E-03    0.124E-02
RMM:  18    -0.147620715284E+03   -0.31722E-05   -0.54633E-07  4937   0.286E-03    0.262E-03
RMM:  19    -0.147620720509E+03   -0.52250E-05   -0.56957E-07  4940   0.192E-03    0.138E-03
RMM:  20    -0.147620724165E+03   -0.36553E-05   -0.27257E-07  4727   0.195E-03    0.295E-03
RMM:  21    -0.147620725146E+03   -0.98170E-06   -0.15791E-07  4412   0.123E-03
  21 F= -.15382379E+03 E0= -.15381172E+03  d E =-.541871E-02  mag=    25.0000
       N       E                     dE             d eps       ncg     rms          rms(c)
DAV:   1    -0.147435598477E+03    0.18513E+00   -0.33842E+01  7904   0.116E+01    0.484E+00
RMM:   2    -0.147850308716E+03   -0.41471E+00   -0.17831E+00  8006   0.553E+00    0.117E+01
RMM:   3    -0.147607455208E+03    0.24285E+00   -0.10861E+00 10050   0.311E+00    0.449E+00
RMM:   4    -0.147674568658E+03   -0.67113E-01   -0.19108E-01  8823   0.142E+00    0.670E+00
RMM:   5    -0.147603882412E+03    0.70686E-01   -0.46930E-02  9151   0.753E-01    0.153E+00
RMM:   6    -0.147620573274E+03   -0.16691E-01   -0.14533E-02  8822   0.312E-01    0.199E+00
RMM:   7    -0.147621998226E+03   -0.14250E-02   -0.36152E-03  8522   0.236E-01    0.121E+00
RMM:   8    -0.147620552925E+03    0.14453E-02   -0.14396E-02 10286   0.257E-01    0.499E-01
RMM:   9    -0.147623682148E+03   -0.31292E-02   -0.48362E-03 10213   0.182E-01    0.320E-01
RMM:  10    -0.147624229969E+03   -0.54782E-03   -0.42388E-04  9441   0.737E-02    0.255E-01
RMM:  11    -0.147625143933E+03   -0.91396E-03   -0.31268E-04  8890   0.458E-02    0.371E-01
RMM:  12    -0.147625941613E+03   -0.79768E-03   -0.53130E-04  9544   0.590E-02    0.577E-02
RMM:  13    -0.147626547576E+03   -0.60596E-03   -0.15298E-04 10101   0.357E-02    0.653E-02
RMM:  14    -0.147626786863E+03   -0.23929E-03   -0.21187E-05  7903   0.135E-02    0.469E-02
RMM:  15    -0.147627238350E+03   -0.45149E-03   -0.21276E-05  8578   0.127E-02    0.130E-02
RMM:  16    -0.147627665916E+03   -0.42757E-03   -0.26256E-05  8517   0.117E-02    0.406E-02
RMM:  17    -0.147627797235E+03   -0.13132E-03   -0.83464E-06  7209   0.882E-03    0.178E-02
RMM:  18    -0.147627853998E+03   -0.56763E-04   -0.55960E-06  6531   0.528E-03    0.123E-02
RMM:  19    -0.147627885337E+03   -0.31339E-04   -0.26574E-06  5660   0.526E-03    0.757E-03
RMM:  20    -0.147627898417E+03   -0.13079E-04   -0.11590E-06  5117   0.333E-03    0.174E-03
RMM:  21    -0.147627906721E+03   -0.83040E-05   -0.80080E-07  4948   0.235E-03    0.388E-03
RMM:  22    -0.147627909307E+03   -0.25861E-05   -0.35038E-07  4770   0.198E-03    0.221E-03
RMM:  23    -0.147627912500E+03   -0.31932E-05   -0.22200E-07  4438   0.136E-03    0.466E-04
RMM:  24    -0.147627915442E+03   -0.29420E-05   -0.17157E-07  4364   0.124E-03    0.865E-04
RMM:  25    -0.147627916968E+03   -0.15259E-05   -0.98823E-08  3837   0.103E-03    0.291E-04
RMM:  26    -0.147627918149E+03   -0.11811E-05   -0.70416E-08  3393   0.804E-04    0.341E-04
RMM:  27    -0.147627919313E+03   -0.11639E-05   -0.56454E-08  3203   0.763E-04    0.359E-04
RMM:  28    -0.147627920226E+03   -0.91332E-06   -0.55230E-08  3273   0.712E-04
  22 F= -.15382975E+03 E0= -.15381791E+03  d E =-.113771E-01  mag=    25.0000
       N       E                     dE             d eps       ncg     rms          rms(c)
DAV:   1    -0.147625412841E+03    0.25065E-02   -0.97724E-01  8280   0.194E+00    0.940E-01
RMM:   2    -0.147654390161E+03   -0.28977E-01   -0.59811E-02  8039   0.956E-01    0.602E+00
RMM:   3    -0.147612676786E+03    0.41713E-01   -0.45646E-02  9328   0.714E-01    0.198E+00
RMM:   4    -0.147630025117E+03   -0.17348E-01   -0.78841E-03  8673   0.346E-01    0.993E-01
RMM:   5    -0.147629826854E+03    0.19826E-03   -0.18643E-03  9469   0.149E-01    0.540E-01
RMM:   6    -0.147629818345E+03    0.85094E-05   -0.62064E-04  8702   0.663E-02    0.364E-01
RMM:   7    -0.147630267289E+03   -0.44894E-03   -0.18069E-04  8487   0.524E-02    0.300E-01
RMM:   8    -0.147630182555E+03    0.84734E-04   -0.49385E-04  9725   0.518E-02    0.148E-01
RMM:   9    -0.147630360038E+03   -0.17748E-03   -0.16492E-04  9729   0.399E-02    0.318E-02
RMM:  10    -0.147630382043E+03   -0.22005E-04   -0.13384E-05  8035   0.142E-02    0.496E-02
RMM:  11    -0.147630398874E+03   -0.16831E-04   -0.29294E-05  8369   0.127E-02    0.813E-02
RMM:  12    -0.147630404399E+03   -0.55256E-05   -0.13500E-05  7886   0.148E-02    0.675E-03
RMM:  13    -0.147630421185E+03   -0.16785E-04   -0.27945E-06  5771   0.568E-03    0.189E-02
RMM:  14    -0.147630424288E+03   -0.31033E-05   -0.68793E-07  4945   0.452E-03    0.714E-03
RMM:  15    -0.147630431002E+03   -0.67138E-05   -0.51314E-07  4933   0.218E-03    0.234E-03
RMM:  16    -0.147630437934E+03   -0.69321E-05   -0.46151E-07  4935   0.180E-03    0.993E-03
RMM:  17    -0.147630438528E+03   -0.59398E-06   -0.15961E-07  4712   0.181E-03
  23 F= -.15383194E+03 E0= -.15382035E+03  d E =-.219443E-02  mag=    25.0000
       N       E                     dE             d eps       ncg     rms          rms(c)
DAV:   1    -0.147590981564E+03    0.39456E-01   -0.87968E+00  7904   0.583E+00    0.267E+00
RMM:   2    -0.147797672037E+03   -0.20669E+00   -0.55764E-01  8006   0.296E+00    0.104E+01
RMM:   3    -0.147598953154E+03    0.19872E+00   -0.34303E-01  9619   0.184E+00    0.309E+00
RMM:   4    -0.147646669022E+03   -0.47716E-01   -0.55340E-02  9109   0.791E-01    0.433E+00
RMM:   5    -0.147626682247E+03    0.19987E-01   -0.13079E-02  9328   0.404E-01    0.179E+00
RMM:   6    -0.147631158883E+03   -0.44766E-02   -0.42988E-03  8467   0.174E-01    0.116E+00
RMM:   7    -0.147635831861E+03   -0.46730E-02   -0.16370E-03  8284   0.175E-01    0.794E-01
RMM:   8    -0.147635290979E+03    0.54088E-03   -0.39037E-03 10118   0.150E-01    0.670E-01
RMM:   9    -0.147636042977E+03   -0.75200E-03   -0.18279E-03  9833   0.122E-01    0.170E-01
RMM:  10    -0.147636282413E+03   -0.23944E-03   -0.14523E-04  9034   0.446E-02    0.194E-01
RMM:  11    -0.147636358095E+03   -0.75683E-04   -0.15557E-04  8908   0.314E-02    0.242E-01
RMM:  12    -0.147636440609E+03   -0.82514E-04   -0.18852E-04  9160   0.398E-02    0.418E-02
RMM:  13    -0.147636537750E+03   -0.97141E-04   -0.30375E-05  8721   0.185E-02    0.151E-02
RMM:  14    -0.147636555199E+03   -0.17449E-04   -0.38990E-06  5733   0.749E-03    0.348E-02
RMM:  15    -0.147636589225E+03   -0.34026E-04   -0.65492E-06  7167   0.675E-03    0.693E-03
RMM:  16    -0.147636625171E+03   -0.35946E-04   -0.24166E-06  5369   0.613E-03    0.158E-02
RMM:  17    -0.147636632973E+03   -0.78016E-05   -0.12310E-06  5067   0.346E-03    0.916E-03
RMM:  18    -0.147636636814E+03   -0.38412E-05   -0.55613E-07  4941   0.244E-03    0.190E-03
RMM:  19    -0.147636642433E+03   -0.56192E-05   -0.61638E-07  4940   0.235E-03    0.149E-03
RMM:  20    -0.147636647063E+03   -0.46295E-05   -0.35169E-07  4820   0.227E-03    0.339E-03
RMM:  21    -0.147636648387E+03   -0.13247E-05   -0.18993E-07  4453   0.132E-03    0.115E-03
RMM:  22    -0.147636649350E+03   -0.96291E-06   -0.99520E-08  4090   0.111E-03
  24 F= -.15383712E+03 E0= -.15382643E+03  d E =-.736932E-02  mag=    25.0000
       N       E                     dE             d eps       ncg     rms          rms(c)
DAV:   1    -0.147450661516E+03    0.18599E+00   -0.35289E+01  7904   0.117E+01    0.449E+00
RMM:   2    -0.147964603948E+03   -0.51394E+00   -0.19552E+00  7971   0.584E+00    0.130E+01
RMM:   3    -0.147579558418E+03    0.38505E+00   -0.10284E+00 10065   0.313E+00    0.294E+00
RMM:   4    -0.147658569984E+03   -0.79012E-01   -0.14048E-01  9261   0.116E+00    0.561E+00
RMM:   5    -0.147619893162E+03    0.38677E-01   -0.30555E-02  9323   0.546E-01    0.115E+00
RMM:   6    -0.147636607003E+03   -0.16714E-01   -0.67360E-03  8474   0.262E-01    0.185E+00
RMM:   7    -0.147634438527E+03    0.21685E-02   -0.43901E-03  8441   0.264E-01    0.634E-01
RMM:   8    -0.147638085190E+03   -0.36467E-02   -0.24764E-02 10672   0.298E-01    0.116E+00
RMM:   9    -0.147636671907E+03    0.14133E-02   -0.25391E-03 10502   0.159E-01    0.225E-01
RMM:  10    -0.147637683494E+03   -0.10116E-02   -0.29117E-04  8382   0.622E-02    0.117E-01
RMM:  11    -0.147638009649E+03   -0.32615E-03   -0.18114E-03 10108   0.827E-02    0.545E-02
RMM:  12    -0.147638209317E+03   -0.19967E-03   -0.22129E-04 10483   0.408E-02    0.541E-02
RMM:  13    -0.147638244463E+03   -0.35146E-04   -0.13335E-05  8047   0.113E-02    0.151E-02
RMM:  14    -0.147638333199E+03   -0.88737E-04   -0.23813E-05  9362   0.108E-02    0.147E-02
RMM:  15    -0.147638476705E+03   -0.14351E-03   -0.64504E-06  6956   0.779E-03    0.137E-02
RMM:  16    -0.147638509275E+03   -0.32570E-04   -0.40403E-06  6207   0.603E-03    0.151E-02
RMM:  17    -0.147638528072E+03   -0.18797E-04   -0.38194E-06  6179   0.462E-03    0.973E-03
RMM:  18    -0.147638547920E+03   -0.19848E-04   -0.10705E-06  4996   0.448E-03    0.247E-03
RMM:  19    -0.147638559587E+03   -0.11668E-04   -0.95437E-07  5008   0.235E-03    0.126E-03
RMM:  20    -0.147638564607E+03   -0.50192E-05   -0.41379E-07  4771   0.212E-03    0.159E-03
RMM:  21    -0.147638566818E+03   -0.22119E-05   -0.24981E-07  4529   0.152E-03    0.251E-03
RMM:  22    -0.147638570292E+03   -0.34740E-05   -0.25251E-07  4378   0.133E-03    0.990E-04
RMM:  23    -0.147638572128E+03   -0.18354E-05   -0.14238E-07  4204   0.127E-03    0.306E-04
RMM:  24    -0.147638573316E+03   -0.11886E-05   -0.10132E-07  3495   0.893E-04    0.905E-04
RMM:  25    -0.147638574345E+03   -0.10288E-05   -0.69091E-08  3465   0.881E-04    0.476E-04
RMM:  26    -0.147638575224E+03   -0.87918E-06   -0.63829E-08  3176   0.738E-04
  25 F= -.15383668E+03 E0= -.15382775E+03  d E =-.693643E-02  mag=    25.0000
       N       E                     dE             d eps       ncg     rms          rms(c)
DAV:   1    -0.147579155693E+03    0.59419E-01   -0.11342E+01  7904   0.664E+00    0.274E+00
RMM:   2    -0.147737327415E+03   -0.15817E+00   -0.55532E-01  8065   0.299E+00    0.803E+00
RMM:   3    -0.147623880017E+03    0.11345E+00   -0.41235E-01  9710   0.198E+00    0.358E+00
RMM:   4    -0.147662843609E+03   -0.38964E-01   -0.82549E-02  9323   0.915E-01    0.495E+00
RMM:   5    -0.147636222578E+03    0.26621E-01   -0.16285E-02  9261   0.477E-01    0.335E+00
RMM:   6    -0.147625829659E+03    0.10393E-01   -0.81659E-03  8923   0.227E-01    0.470E-01
RMM:   7    -0.147637768237E+03   -0.11939E-01   -0.24176E-03  8552   0.179E-01    0.664E-01
RMM:   8    -0.147638492966E+03   -0.72473E-03   -0.29779E-03  9083   0.157E-01    0.572E-01
RMM:   9    -0.147638661312E+03   -0.16835E-03   -0.29431E-03 10108   0.117E-01    0.199E-01
RMM:  10    -0.147639270673E+03   -0.60936E-03   -0.33654E-04  9063   0.699E-02    0.101E-01
RMM:  11    -0.147639348677E+03   -0.78004E-04   -0.16598E-04  8954   0.318E-02    0.290E-01
RMM:  12    -0.147639276946E+03    0.71731E-04   -0.18141E-04  9414   0.312E-02    0.862E-02
RMM:  13    -0.147639449850E+03   -0.17290E-03   -0.27816E-05  7932   0.235E-02    0.369E-02
RMM:  14    -0.147639469736E+03   -0.19886E-04   -0.76801E-06  7208   0.109E-02    0.294E-02
RMM:  15    -0.147639520523E+03   -0.50788E-04   -0.55828E-06  6636   0.767E-03    0.379E-02
RMM:  16    -0.147639548964E+03   -0.28440E-04   -0.20130E-06  5261   0.547E-03    0.305E-03
RMM:  17    -0.147639564768E+03   -0.15804E-04   -0.11274E-06  4999   0.336E-03    0.367E-03
RMM:  18    -0.147639571907E+03   -0.71391E-05   -0.59371E-07  4940   0.280E-03    0.432E-03
RMM:  19    -0.147639578359E+03   -0.64522E-05   -0.42803E-07  4881   0.212E-03    0.360E-03
RMM:  20    -0.147639581861E+03   -0.35016E-05   -0.30283E-07  4722   0.175E-03    0.609E-04
RMM:  21    -0.147639583462E+03   -0.16012E-05   -0.18583E-07  4459   0.136E-03    0.179E-03
RMM:  22    -0.147639584445E+03   -0.98259E-06   -0.11304E-07  4041   0.107E-03
  26 F= -.15383908E+03 E0= -.15382920E+03  d E =-.933203E-02  mag=    25.0000
       N       E                     dE             d eps       ncg     rms          rms(c)
DAV:   1    -0.147642887722E+03   -0.33043E-02   -0.76413E-01  8232   0.174E+00    0.949E-01
RMM:   2    -0.147683302821E+03   -0.40415E-01   -0.61790E-02  8032   0.908E-01    0.737E+00
RMM:   3    -0.147618330387E+03    0.64972E-01   -0.46971E-02  9090   0.758E-01    0.174E+00
RMM:   4    -0.147647084487E+03   -0.28754E-01   -0.70263E-03  8518   0.335E-01    0.729E-01
RMM:   5    -0.147646582943E+03    0.50154E-03   -0.15767E-03  9969   0.129E-01    0.398E-01
RMM:   6    -0.147646678463E+03   -0.95520E-04   -0.34267E-04  8832   0.482E-02    0.236E-01
RMM:   7    -0.147646918532E+03   -0.24007E-03   -0.13874E-04  8647   0.462E-02    0.103E-01
RMM:   8    -0.147646951708E+03   -0.33176E-04   -0.63821E-04 10185   0.487E-02    0.155E-01
RMM:   9    -0.147646945587E+03    0.61214E-05   -0.50542E-05  8236   0.298E-02    0.216E-02
RMM:  10    -0.147647011605E+03   -0.66018E-04   -0.14329E-05  8133   0.122E-02    0.644E-02
RMM:  11    -0.147647060364E+03   -0.48758E-04   -0.33722E-05  9367   0.129E-02    0.257E-02
RMM:  12    -0.147647090398E+03   -0.30034E-04   -0.62783E-06  6850   0.766E-03    0.539E-03
RMM:  13    -0.147647110272E+03   -0.19874E-04   -0.11072E-06  4946   0.541E-03    0.454E-03
RMM:  14    -0.147647134647E+03   -0.24375E-04   -0.10814E-06  4942   0.275E-03    0.111E-02
RMM:  15    -0.147647158563E+03   -0.23916E-04   -0.59050E-07  4890   0.233E-03    0.163E-03
RMM:  16    -0.147647173868E+03   -0.15305E-04   -0.55640E-07  4940   0.204E-03    0.234E-03
RMM:  17    -0.147647180291E+03   -0.64236E-05   -0.39486E-07  4658   0.203E-03    0.142E-03
RMM:  18    -0.147647184861E+03   -0.45698E-05   -0.34170E-07  4607   0.160E-03    0.105E-03
RMM:  19    -0.147647187963E+03   -0.31022E-05   -0.22269E-07  4181   0.153E-03    0.129E-03
RMM:  20    -0.147647189250E+03   -0.12863E-05   -0.18971E-07  4008   0.115E-03    0.523E-04
RMM:  21    -0.147647189664E+03   -0.41429E-06   -0.94042E-08  3613   0.110E-03
  27 F= -.15384636E+03 E0= -.15383688E+03  d E =-.728088E-02  mag=    25.0000
       N       E                     dE             d eps       ncg     rms          rms(c)
DAV:   1    -0.147622386376E+03    0.24803E-01   -0.68717E+00  8024   0.523E+00    0.253E+00
RMM:   2    -0.147840309679E+03   -0.21792E+00   -0.49196E-01  8008   0.271E+00    0.113E+01
RMM:   3    -0.147611748306E+03    0.22856E+00   -0.28771E-01  9384   0.177E+00    0.275E+00
RMM:   4    -0.147666314827E+03   -0.54567E-01   -0.43694E-02  9239   0.713E-01    0.317E+00
RMM:   5    -0.147654197423E+03    0.12117E-01   -0.87470E-03  9362   0.322E-01    0.938E-01
RMM:   6    -0.147659246132E+03   -0.50487E-02   -0.26728E-03  8592   0.143E-01    0.877E-01
RMM:   7    -0.147660217839E+03   -0.97171E-03   -0.10338E-03  8505   0.137E-01    0.301E-01
RMM:   8    -0.147660738479E+03   -0.52064E-03   -0.50057E-03 10392   0.137E-01    0.797E-01
RMM:   9    -0.147659988574E+03    0.74990E-03   -0.70166E-04  9375   0.992E-02    0.112E-01
RMM:  10    -0.147660722618E+03   -0.73404E-03   -0.93138E-05  8198   0.344E-02    0.131E-01
RMM:  11    -0.147661100583E+03   -0.37796E-03   -0.26070E-04  9100   0.374E-02    0.958E-02
RMM:  12    -0.147661292567E+03   -0.19198E-03   -0.81257E-05  9558   0.268E-02    0.683E-02
RMM:  13    -0.147661330989E+03   -0.38422E-04   -0.96927E-06  7527   0.131E-02    0.962E-03
RMM:  14    -0.147661429701E+03   -0.98712E-04   -0.65241E-06  7067   0.577E-03    0.176E-02
RMM:  15    -0.147661645718E+03   -0.21602E-03   -0.84487E-06  7423   0.794E-03    0.138E-02
RMM:  16    -0.147661679062E+03   -0.33343E-04   -0.23541E-06  5569   0.381E-03    0.125E-02
RMM:  17    -0.147661703070E+03   -0.24009E-04   -0.14181E-06  5039   0.385E-03    0.488E-03
RMM:  18    -0.147661730804E+03   -0.27733E-04   -0.14444E-06  5095   0.312E-03    0.536E-03
RMM:  19    -0.147661750943E+03   -0.20140E-04   -0.16092E-06  5250   0.327E-03    0.462E-03
RMM:  20    -0.147661753306E+03   -0.23628E-05   -0.59615E-07  4597   0.263E-03    0.763E-04
RMM:  21    -0.147661753995E+03   -0.68886E-06   -0.24433E-07  4488   0.163E-03
  28 F= -.15385991E+03 E0= -.15385157E+03  d E =-.208300E-01  mag=    25.0000
       N       E                     dE             d eps       ncg     rms          rms(c)
DAV:   1    -0.147486770761E+03    0.17498E+00   -0.27505E+01  7976   0.105E+01    0.402E+00
RMM:   2    -0.147899817879E+03   -0.41305E+00   -0.14646E+00  7988   0.500E+00    0.130E+01
RMM:   3    -0.147593984177E+03    0.30583E+00   -0.79470E-01 10038   0.278E+00    0.350E+00
RMM:   4    -0.147653093345E+03   -0.59109E-01   -0.10966E-01  8973   0.111E+00    0.256E+00
RMM:   5    -0.147646306215E+03    0.67871E-02   -0.22347E-02  9556   0.434E-01    0.854E-01
RMM:   6    -0.147648900893E+03   -0.25947E-02   -0.38271E-03  8896   0.227E-01    0.105E+00
RMM:   7    -0.147650795023E+03   -0.18941E-02   -0.98114E-03  9020   0.275E-01    0.287E+00
RMM:   8    -0.147641332599E+03    0.94624E-02   -0.19103E-02 10289   0.321E-01    0.703E-01
RMM:   9    -0.147646144590E+03   -0.48120E-02   -0.13758E-03  9069   0.144E-01    0.246E-01
RMM:  10    -0.147647940195E+03   -0.17956E-02   -0.57878E-04  8656   0.872E-02    0.225E-01
RMM:  11    -0.147649088565E+03   -0.11484E-02   -0.17218E-03 10088   0.853E-02    0.209E-01
RMM:  12    -0.147649288929E+03   -0.20036E-03   -0.13567E-04 10393   0.370E-02    0.562E-02
RMM:  13    -0.147649534186E+03   -0.24526E-03   -0.27870E-05  8033   0.160E-02    0.234E-02
RMM:  14    -0.147649945918E+03   -0.41173E-03   -0.53216E-05  8856   0.167E-02    0.288E-02
RMM:  15    -0.147650346233E+03   -0.40032E-03   -0.13792E-05  7630   0.108E-02    0.118E-02
RMM:  16    -0.147650522520E+03   -0.17629E-03   -0.11993E-05  7793   0.815E-03    0.666E-03
RMM:  17    -0.147650611379E+03   -0.88859E-04   -0.65692E-06  7070   0.603E-03    0.167E-02
RMM:  18    -0.147650697302E+03   -0.85923E-04   -0.55170E-06  6486   0.617E-03    0.455E-03
RMM:  19    -0.147650723020E+03   -0.25718E-04   -0.32935E-06  5929   0.398E-03    0.635E-03
RMM:  20    -0.147650727262E+03   -0.42424E-05   -0.98462E-07  4937   0.380E-03    0.120E-03
RMM:  21    -0.147650730073E+03   -0.28114E-05   -0.38655E-07  4613   0.177E-03    0.715E-04
RMM:  22    -0.147650734291E+03   -0.42180E-05   -0.46101E-07  4724   0.150E-03    0.146E-03
RMM:  23    -0.147650735526E+03   -0.12340E-05   -0.12620E-07  4397   0.151E-03    0.499E-04
RMM:  24    -0.147650737123E+03   -0.15972E-05   -0.87536E-08  3355   0.682E-04    0.240E-04
RMM:  25    -0.147650738735E+03   -0.16122E-05   -0.44400E-08  3353   0.802E-04    0.464E-04
RMM:  26    -0.147650740481E+03   -0.17466E-05   -0.76650E-08  3249   0.642E-04    0.323E-04
RMM:  27    -0.147650741076E+03   -0.59455E-06   -0.28080E-08  3037   0.711E-04
  29 F= -.15384668E+03 E0= -.15384027E+03  d E =-.760210E-02  mag=    25.0000
       N       E                     dE             d eps       ncg     rms          rms(c)
DAV:   1    -0.147574976516E+03    0.75764E-01   -0.15158E+01  8000   0.779E+00    0.371E+00
RMM:   2    -0.147831947980E+03   -0.25697E+00   -0.94035E-01  8088   0.363E+00    0.870E+00
RMM:   3    -0.147647416960E+03    0.18453E+00   -0.68408E-01  9294   0.257E+00    0.336E+00
RMM:   4    -0.147714553340E+03   -0.67136E-01   -0.14543E-01  9727   0.113E+00    0.502E+00
RMM:   5    -0.147677143134E+03    0.37410E-01   -0.23628E-02  9073   0.576E-01    0.402E+00
RMM:   6    -0.147647460991E+03    0.29682E-01   -0.18846E-02  9006   0.346E-01    0.122E+00
RMM:   7    -0.147658926611E+03   -0.11466E-01   -0.66063E-03  9441   0.197E-01    0.114E+00
RMM:   8    -0.147661851423E+03   -0.29248E-02   -0.17884E-03  8531   0.175E-01    0.565E-01
RMM:   9    -0.147661365183E+03    0.48624E-03   -0.49222E-03 10209   0.148E-01    0.335E-01
RMM:  10    -0.147662931760E+03   -0.15666E-02   -0.14121E-03 10044   0.110E-01    0.814E-01
RMM:  11    -0.147661920060E+03    0.10117E-02   -0.30174E-04  8225   0.744E-02    0.166E-01
RMM:  12    -0.147662890828E+03   -0.97077E-03   -0.14566E-04  8895   0.334E-02    0.608E-02
RMM:  13    -0.147663400419E+03   -0.50959E-03   -0.13292E-04  8643   0.308E-02    0.168E-02
RMM:  14    -0.147663556358E+03   -0.15594E-03   -0.24395E-05  8790   0.166E-02    0.143E-02
RMM:  15    -0.147663674852E+03   -0.11849E-03   -0.30080E-06  5566   0.645E-03    0.298E-02
RMM:  16    -0.147663922807E+03   -0.24795E-03   -0.88008E-06  7293   0.658E-03    0.201E-02
RMM:  17    -0.147664090118E+03   -0.16731E-03   -0.67000E-06  6969   0.662E-03    0.708E-03
RMM:  18    -0.147664125189E+03   -0.35070E-04   -0.22955E-06  5451   0.372E-03    0.319E-03
RMM:  19    -0.147664165561E+03   -0.40373E-04   -0.18278E-06  5210   0.384E-03    0.692E-03
RMM:  20    -0.147664190779E+03   -0.25218E-04   -0.16846E-06  5268   0.323E-03    0.124E-03
RMM:  21    -0.147664198007E+03   -0.72275E-05   -0.96765E-07  4850   0.298E-03    0.270E-03
RMM:  22    -0.147664199504E+03   -0.14970E-05   -0.46606E-07  4718   0.222E-03    0.346E-03
RMM:  23    -0.147664201223E+03   -0.17191E-05   -0.26178E-07  4357   0.152E-03    0.913E-04
RMM:  24    -0.147664203076E+03   -0.18533E-05   -0.16442E-07  4025   0.126E-03    0.930E-04
RMM:  25    -0.147664203952E+03   -0.87598E-06   -0.94303E-08  3528   0.100E-03
  30 F= -.15386181E+03 E0= -.15385401E+03  d E =-.227336E-01  mag=    25.0000
       N       E                     dE             d eps       ncg     rms          rms(c)
DAV:   1    -0.147661438433E+03    0.27646E-02   -0.25043E+00  8208   0.315E+00    0.165E+00
RMM:   2    -0.147787830996E+03   -0.12639E+00   -0.21920E-01  7969   0.179E+00    0.107E+01
RMM:   3    -0.147621526123E+03    0.16630E+00   -0.13809E-01  9235   0.127E+00    0.189E+00
RMM:   4    -0.147675769777E+03   -0.54244E-01   -0.19841E-02  8930   0.505E-01    0.135E+00
RMM:   5    -0.147673096214E+03    0.26736E-02   -0.41271E-03  9795   0.198E-01    0.341E-01
RMM:   6    -0.147674614037E+03   -0.15178E-02   -0.81565E-04  9010   0.822E-02    0.356E-01
RMM:   7    -0.147674619025E+03   -0.49878E-05   -0.40656E-04  8777   0.733E-02    0.234E-01
RMM:   8    -0.147674800279E+03   -0.18125E-03   -0.19263E-03 10339   0.807E-02    0.207E-01
RMM:   9    -0.147674750013E+03    0.50266E-04   -0.11128E-04  8521   0.386E-02    0.411E-02
RMM:  10    -0.147674908815E+03   -0.15880E-03   -0.62430E-05  8784   0.227E-02    0.157E-01
RMM:  11    -0.147675006504E+03   -0.97688E-04   -0.15626E-04 10070   0.271E-02    0.332E-02
RMM:  12    -0.147675083877E+03   -0.77373E-04   -0.11152E-05  7684   0.125E-02    0.134E-02
RMM:  13    -0.147675151434E+03   -0.67558E-04   -0.74544E-06  7333   0.814E-03    0.102E-02
RMM:  14    -0.147675254009E+03   -0.10257E-03   -0.50827E-06  6640   0.671E-03    0.139E-02
RMM:  15    -0.147675298778E+03   -0.44769E-04   -0.22706E-06  5448   0.484E-03    0.402E-03
RMM:  16    -0.147675317052E+03   -0.18274E-04   -0.22685E-06  5432   0.353E-03    0.600E-03
RMM:  17    -0.147675323098E+03   -0.60459E-05   -0.76049E-07  4950   0.340E-03    0.830E-03
RMM:  18    -0.147675326004E+03   -0.29057E-05   -0.48638E-07  4861   0.206E-03    0.456E-03
RMM:  19    -0.147675328462E+03   -0.24577E-05   -0.30233E-07  4700   0.174E-03    0.942E-04
RMM:  20    -0.147675329309E+03   -0.84791E-06   -0.19254E-07  4583   0.137E-03
  31 F= -.15387288E+03 E0= -.15386561E+03  d E =-.110673E-01  mag=    25.0000
       N       E                     dE             d eps       ncg     rms          rms(c)
DAV:   1    -0.147559368623E+03    0.11596E+00   -0.22529E+01  7904   0.949E+00    0.364E+00
RMM:   2    -0.147914391390E+03   -0.35502E+00   -0.13054E+00  8022   0.479E+00    0.132E+01
RMM:   3    -0.147629742881E+03    0.28465E+00   -0.70241E-01 10089   0.260E+00    0.298E+00
RMM:   4    -0.147691580476E+03   -0.61838E-01   -0.94501E-02  9107   0.102E+00    0.121E+00
RMM:   5    -0.147690553045E+03    0.10274E-02   -0.17345E-02  9935   0.374E-01    0.835E-01
RMM:   6    -0.147688025497E+03    0.25275E-02   -0.41018E-03  9012   0.208E-01    0.482E-01
RMM:   7    -0.147694618384E+03   -0.65929E-02   -0.17981E-02 10038   0.275E-01    0.303E+00
RMM:   8    -0.147680815607E+03    0.13803E-01   -0.49495E-03  8937   0.265E-01    0.393E-01
RMM:   9    -0.147688052487E+03   -0.72369E-02   -0.10882E-03  9280   0.111E-01    0.187E-01
RMM:  10    -0.147689392082E+03   -0.13396E-02   -0.29087E-04  8666   0.680E-02    0.383E-01
RMM:  11    -0.147690391968E+03   -0.99989E-03   -0.20916E-03 10518   0.842E-02    0.400E-01
RMM:  12    -0.147690257977E+03    0.13399E-03   -0.12012E-04  8770   0.382E-02    0.928E-02
RMM:  13    -0.147690755952E+03   -0.49797E-03   -0.73556E-05  8500   0.254E-02    0.215E-02
RMM:  14    -0.147691184056E+03   -0.42810E-03   -0.52695E-05  8879   0.219E-02    0.163E-02
RMM:  15    -0.147691606900E+03   -0.42284E-03   -0.22859E-05  8159   0.148E-02    0.159E-02
RMM:  16    -0.147691724397E+03   -0.11750E-03   -0.15119E-05  7613   0.912E-03    0.277E-02
RMM:  17    -0.147691767111E+03   -0.42713E-04   -0.66372E-06  7041   0.762E-03    0.124E-02
RMM:  18    -0.147691787201E+03   -0.20090E-04   -0.29551E-06  5767   0.533E-03    0.264E-03
RMM:  19    -0.147691793328E+03   -0.61268E-05   -0.13321E-06  5047   0.334E-03    0.203E-03
RMM:  20    -0.147691796173E+03   -0.28450E-05   -0.47592E-07  4936   0.241E-03    0.183E-03
RMM:  21    -0.147691798556E+03   -0.23829E-05   -0.32628E-07  4679   0.156E-03    0.109E-03
RMM:  22    -0.147691799566E+03   -0.10109E-05   -0.14049E-07  4593   0.138E-03    0.418E-04
RMM:  23    -0.147691800973E+03   -0.14065E-05   -0.81731E-08  3747   0.850E-04    0.461E-04
RMM:  24    -0.147691802004E+03   -0.10312E-05   -0.53372E-08  3563   0.794E-04    0.350E-04
RMM:  25    -0.147691802774E+03   -0.77005E-06   -0.33188E-08  2972   0.641E-04
  32 F= -.15388907E+03 E0= -.15388343E+03  d E =-.272541E-01  mag=    25.0000
       N       E                     dE             d eps       ncg     rms          rms(c)
DAV:   1    -0.147679243656E+03    0.12558E-01   -0.41138E+00  8272   0.410E+00    0.174E+00
RMM:   2    -0.147777715742E+03   -0.98472E-01   -0.25461E-01  8081   0.203E+00    0.107E+01
RMM:   3    -0.147647994302E+03    0.12972E+00   -0.15602E-01  9442   0.134E+00    0.188E+00
RMM:   4    -0.147704477059E+03   -0.56483E-01   -0.27803E-02  8841   0.589E-01    0.401E-01
RMM:   5    -0.147705026720E+03   -0.54966E-03   -0.60700E-03 10186   0.232E-01    0.522E-01
RMM:   6    -0.147704277580E+03    0.74914E-03   -0.79351E-04  8150   0.106E-01    0.306E-01
RMM:   7    -0.147704426335E+03   -0.14875E-03   -0.25610E-03  9299   0.100E-01    0.184E-01
RMM:   8    -0.147704581065E+03   -0.15473E-03   -0.72860E-04 10429   0.626E-02    0.863E-02
RMM:   9    -0.147704654293E+03   -0.73228E-04   -0.43142E-05  8123   0.248E-02    0.179E-01
RMM:  10    -0.147704713023E+03   -0.58730E-04   -0.64070E-04 10476   0.474E-02    0.442E-02
RMM:  11    -0.147704820735E+03   -0.10771E-03   -0.59851E-05 10295   0.245E-02    0.226E-02
RMM:  12    -0.147704835723E+03   -0.14988E-04   -0.12130E-05  7824   0.971E-03    0.149E-02
RMM:  13    -0.147704915331E+03   -0.79608E-04   -0.56196E-05  9921   0.165E-02    0.204E-02
RMM:  14    -0.147704953226E+03   -0.37896E-04   -0.55979E-06  7291   0.934E-03    0.105E-02
RMM:  15    -0.147704964381E+03   -0.11154E-04   -0.56190E-06  7129   0.519E-03    0.970E-03
RMM:  16    -0.147704972358E+03   -0.79768E-05   -0.13589E-06  5004   0.400E-03    0.410E-03
RMM:  17    -0.147704975488E+03   -0.31303E-05   -0.47549E-07  4871   0.241E-03    0.138E-03
RMM:  18    -0.147704976780E+03   -0.12918E-05   -0.20815E-07  4681   0.147E-03    0.702E-04
RMM:  19    -0.147704977878E+03   -0.10980E-05   -0.11544E-07  4528   0.117E-03    0.716E-04
RMM:  20    -0.147704978964E+03   -0.10863E-05   -0.94127E-08  4332   0.930E-04    0.417E-04
RMM:  21    -0.147704979810E+03   -0.84564E-06   -0.48491E-08  3601   0.821E-04
  33 F= -.15390343E+03 E0= -.15389851E+03  d E =-.143665E-01  mag=    25.0000
       N       E                     dE             d eps       ncg     rms          rms(c)
DAV:   1    -0.147585436794E+03    0.11954E+00   -0.19598E+01  7912   0.899E+00    0.299E+00
RMM:   2    -0.147705426067E+03   -0.11999E+00   -0.84898E-01  8169   0.390E+00    0.929E+00
RMM:   3    -0.147689489671E+03    0.15936E-01   -0.54471E-01 10266   0.213E+00    0.259E+00
RMM:   4    -0.147716344356E+03   -0.26855E-01   -0.70915E-02  8542   0.946E-01    0.123E+00
RMM:   5    -0.147717458552E+03   -0.11142E-02   -0.17560E-02  9868   0.407E-01    0.128E+00
RMM:   6    -0.147711782041E+03    0.56765E-02   -0.56758E-03  8354   0.232E-01    0.611E-01
RMM:   7    -0.147713123442E+03   -0.13414E-02   -0.17148E-02 10164   0.259E-01    0.708E-01
RMM:   8    -0.147713103341E+03    0.20102E-04   -0.20834E-03 10332   0.146E-01    0.282E-01
RMM:   9    -0.147713770421E+03   -0.66708E-03   -0.28861E-04  9218   0.587E-02    0.400E-01
RMM:  10    -0.147713777952E+03   -0.75311E-05   -0.44163E-04  9159   0.548E-02    0.959E-02
RMM:  11    -0.147714313383E+03   -0.53543E-03   -0.41400E-04  9299   0.437E-02    0.649E-02
RMM:  12    -0.147714436590E+03   -0.12321E-03   -0.51755E-05  8914   0.250E-02    0.221E-02
RMM:  13    -0.147714575766E+03   -0.13918E-03   -0.21001E-05  8215   0.132E-02    0.271E-02
RMM:  14    -0.147714768536E+03   -0.19277E-03   -0.33351E-05  9063   0.168E-02    0.116E-02
RMM:  15    -0.147714800542E+03   -0.32006E-04   -0.97768E-06  7519   0.850E-03    0.154E-02
RMM:  16    -0.147714817470E+03   -0.16928E-04   -0.10147E-05  7708   0.764E-03    0.178E-02
RMM:  17    -0.147714829542E+03   -0.12072E-04   -0.18567E-06  5220   0.531E-03    0.454E-03
RMM:  18    -0.147714836218E+03   -0.66758E-05   -0.14547E-06  5055   0.319E-03    0.175E-03
RMM:  19    -0.147714838657E+03   -0.24396E-05   -0.48149E-07  4919   0.278E-03    0.136E-03
RMM:  20    -0.147714840755E+03   -0.20979E-05   -0.32434E-07  4887   0.180E-03    0.159E-03
RMM:  21    -0.147714843924E+03   -0.31690E-05   -0.17762E-07  4666   0.162E-03    0.602E-04
RMM:  22    -0.147714845558E+03   -0.16333E-05   -0.10880E-07  4187   0.985E-04    0.716E-04
RMM:  23    -0.147714846629E+03   -0.10717E-05   -0.55752E-08  3663   0.851E-04    0.237E-04
RMM:  24    -0.147714848030E+03   -0.14007E-05   -0.63607E-08  3492   0.694E-04    0.368E-04
RMM:  25    -0.147714848918E+03   -0.88818E-06   -0.38966E-08  3283   0.711E-04
  34 F= -.15391581E+03 E0= -.15391278E+03  d E =-.267451E-01  mag=    25.0000
       N       E                     dE             d eps       ncg     rms          rms(c)
DAV:   1    -0.147701747480E+03    0.13101E-01   -0.36987E+00  8312   0.388E+00    0.127E+00
RMM:   2    -0.147718324573E+03   -0.16577E-01   -0.15860E-01  8103   0.172E+00    0.261E+00
RMM:   3    -0.147724307794E+03   -0.59832E-02   -0.10443E-01 10425   0.911E-01    0.113E+00
RMM:   4    -0.147724238704E+03    0.69090E-04   -0.14104E-02  8425   0.419E-01    0.360E-01
RMM:   5    -0.147724651617E+03   -0.41291E-03   -0.33338E-03 10195   0.157E-01    0.355E-01
RMM:   6    -0.147724071803E+03    0.57981E-03   -0.11127E-03  8588   0.101E-01    0.250E-01
RMM:   7    -0.147724281374E+03   -0.20957E-03   -0.33375E-03  9893   0.106E-01    0.314E-01
RMM:   8    -0.147724098128E+03    0.18325E-03   -0.41121E-04 10276   0.637E-02    0.123E-01
RMM:   9    -0.147724189491E+03   -0.91363E-04   -0.38848E-05  8433   0.215E-02    0.142E-01
RMM:  10    -0.147724192941E+03   -0.34501E-05   -0.29261E-04 10087   0.352E-02    0.556E-02
RMM:  11    -0.147724259130E+03   -0.66189E-04   -0.75398E-05 10060   0.220E-02    0.155E-02
RMM:  12    -0.147724277835E+03   -0.18705E-04   -0.68985E-06  7212   0.905E-03    0.116E-02
RMM:  13    -0.147724302209E+03   -0.24374E-04   -0.28337E-05  9208   0.118E-02    0.174E-02
RMM:  14    -0.147724310302E+03   -0.80936E-05   -0.34078E-06  5860   0.856E-03    0.867E-03
RMM:  15    -0.147724314338E+03   -0.40352E-05   -0.72904E-06  7214   0.556E-03    0.960E-03
RMM:  16    -0.147724317787E+03   -0.34491E-05   -0.13244E-06  4961   0.531E-03    0.764E-03
RMM:  17    -0.147724319879E+03   -0.20920E-05   -0.38128E-07  4889   0.216E-03    0.219E-03
RMM:  18    -0.147724321713E+03   -0.18338E-05   -0.28445E-07  4894   0.158E-03    0.763E-04
RMM:  19    -0.147724322509E+03   -0.79670E-06   -0.10658E-07  4769   0.129E-03
  35 F= -.15392665E+03 E0= -.15392455E+03  d E =-.108435E-01  mag=    25.0000
       N       E                     dE             d eps       ncg     rms          rms(c)
DAV:   1    -0.147517481395E+03    0.20684E+00   -0.33322E+01  7904   0.117E+01    0.343E+00
RMM:   2    -0.147639764753E+03   -0.12228E+00   -0.12811E+00  8232   0.487E+00    0.159E+00
RMM:   3    -0.147739378949E+03   -0.99614E-01   -0.76878E-01 10512   0.211E+00    0.153E+00
RMM:   4    -0.147738333490E+03    0.10455E-02   -0.55241E-02  9315   0.684E-01    0.106E+00
RMM:   5    -0.147735532979E+03    0.28005E-02   -0.90468E-03  9520   0.304E-01    0.890E-01
RMM:   6    -0.147730680322E+03    0.48527E-02   -0.12020E-02  9186   0.263E-01    0.574E-01
RMM:   7    -0.147733690771E+03   -0.30104E-02   -0.41774E-02 10403   0.380E-01    0.276E-01
RMM:   8    -0.147733268560E+03    0.42221E-03   -0.19570E-03  9415   0.157E-01    0.251E-01
RMM:   9    -0.147731860173E+03    0.14084E-02   -0.13541E-03  8493   0.937E-02    0.168E-01
RMM:  10    -0.147731759583E+03    0.10059E-03   -0.94678E-03 11090   0.160E-01    0.760E-02
RMM:  11    -0.147731629949E+03    0.12963E-03   -0.47901E-04  8211   0.620E-02    0.500E-02
RMM:  12    -0.147731668232E+03   -0.38283E-04   -0.21349E-04  9257   0.349E-02    0.382E-02
RMM:  13    -0.147731808269E+03   -0.14004E-03   -0.36803E-05  8919   0.216E-02    0.181E-02
RMM:  14    -0.147731867378E+03   -0.59110E-04   -0.21262E-05  8341   0.137E-02    0.219E-02
RMM:  15    -0.147731891727E+03   -0.24348E-04   -0.64658E-06  6338   0.787E-03    0.167E-02
RMM:  16    -0.147731908285E+03   -0.16558E-04   -0.33795E-06  5932   0.503E-03    0.840E-03
RMM:  17    -0.147731918543E+03   -0.10258E-04   -0.52470E-06  6666   0.577E-03    0.173E-03
RMM:  18    -0.147731923046E+03   -0.45033E-05   -0.14713E-06  5027   0.473E-03    0.135E-03
RMM:  19    -0.147731927661E+03   -0.46151E-05   -0.54115E-07  4945   0.291E-03    0.990E-04
RMM:  20    -0.147731931739E+03   -0.40779E-05   -0.32794E-07  4856   0.186E-03    0.537E-04
RMM:  21    -0.147731933331E+03   -0.15920E-05   -0.13298E-07  4538   0.131E-03    0.295E-04
RMM:  22    -0.147731934957E+03   -0.16265E-05   -0.90627E-08  3934   0.908E-04    0.373E-04
RMM:  23    -0.147731937363E+03   -0.24059E-05   -0.89016E-08  3723   0.872E-04    0.246E-04
RMM:  24    -0.147731938811E+03   -0.14473E-05   -0.75448E-08  3728   0.831E-04    0.185E-04
RMM:  25    -0.147731939298E+03   -0.48695E-06   -0.37424E-08  3284   0.743E-04
  36 F= -.15393824E+03 E0= -.15393817E+03  d E =-.224259E-01  mag=    25.0000
       N       E                     dE             d eps       ncg     rms          rms(c)
DAV:   1    -0.147724004098E+03    0.79347E-02   -0.14817E+00  8312   0.246E+00    0.707E-01
RMM:   2    -0.147729348157E+03   -0.53441E-02   -0.54860E-02  8200   0.101E+00    0.351E-01
RMM:   3    -0.147734362239E+03   -0.50141E-02   -0.36686E-02 10493   0.488E-01    0.478E-01
RMM:   4    -0.147733530305E+03    0.83193E-03   -0.46757E-03  8490   0.233E-01    0.244E-01
RMM:   5    -0.147733533113E+03   -0.28077E-05   -0.10563E-03  9730   0.884E-02    0.202E-01
RMM:   6    -0.147733278883E+03    0.25423E-03   -0.61232E-04  9325   0.578E-02    0.117E-01
RMM:   7    -0.147733408846E+03   -0.12996E-03   -0.15754E-03 10171   0.735E-02    0.539E-02
RMM:   8    -0.147733409353E+03   -0.50695E-06   -0.10166E-04  9932   0.335E-02    0.507E-02
RMM:   9    -0.147733351934E+03    0.57419E-04   -0.53632E-05  8626   0.163E-02    0.331E-02
RMM:  10    -0.147733357660E+03   -0.57256E-05   -0.32761E-04 10844   0.325E-02    0.148E-02
RMM:  11    -0.147733356465E+03    0.11949E-05   -0.20898E-05  7610   0.135E-02    0.926E-03
RMM:  12    -0.147733360948E+03   -0.44833E-05   -0.10650E-05  7517   0.739E-03    0.841E-03
RMM:  13    -0.147733370792E+03   -0.98441E-05   -0.17761E-06  5152   0.663E-03    0.468E-03
RMM:  14    -0.147733377103E+03   -0.63108E-05   -0.18804E-06  5043   0.350E-03    0.569E-03
RMM:  15    -0.147733379142E+03   -0.20388E-05   -0.43139E-07  4939   0.283E-03    0.461E-03
RMM:  16    -0.147733379768E+03   -0.62557E-06   -0.20767E-07  4768   0.144E-03
  37 F= -.15393886E+03 E0= -.15393861E+03  d E =-.230477E-01  mag=    25.0000
       N       E                     dE             d eps       ncg     rms          rms(c)
DAV:   1    -0.147732631473E+03    0.74767E-03   -0.92838E-01  8304   0.202E+00    0.653E-01
RMM:   2    -0.147736744942E+03   -0.41135E-02   -0.34105E-02  8153   0.789E-01    0.293E-01
RMM:   3    -0.147740498007E+03   -0.37531E-02   -0.20462E-02 10216   0.351E-01    0.239E-01
RMM:   4    -0.147740537052E+03   -0.39045E-04   -0.20941E-03  9186   0.130E-01    0.185E-01
RMM:   5    -0.147740461252E+03    0.75801E-04   -0.27728E-04  9286   0.584E-02    0.159E-01
RMM:   6    -0.147740298251E+03    0.16300E-03   -0.31443E-04  9071   0.450E-02    0.107E-01
RMM:   7    -0.147740338480E+03   -0.40229E-04   -0.12904E-03 10283   0.662E-02    0.496E-02
RMM:   8    -0.147740337834E+03    0.64564E-06   -0.65174E-05  9148   0.292E-02    0.437E-02
RMM:   9    -0.147740330570E+03    0.72644E-05   -0.40194E-05  8390   0.166E-02    0.304E-02
RMM:  10    -0.147740382050E+03   -0.51480E-04   -0.21248E-04 10191   0.255E-02    0.937E-03
RMM:  11    -0.147740389797E+03   -0.77470E-05   -0.10216E-05  7388   0.120E-02    0.768E-03
RMM:  12    -0.147740398526E+03   -0.87295E-05   -0.24785E-06  5238   0.546E-03    0.701E-03
RMM:  13    -0.147740425267E+03   -0.26740E-04   -0.13141E-06  4962   0.416E-03    0.444E-03
RMM:  14    -0.147740457818E+03   -0.32552E-04   -0.10381E-06  4972   0.313E-03    0.207E-03
RMM:  15    -0.147740470715E+03   -0.12897E-04   -0.73836E-07  4945   0.260E-03    0.242E-03
RMM:  16    -0.147740473612E+03   -0.28976E-05   -0.50933E-07  4926   0.234E-03    0.209E-03
RMM:  17    -0.147740478036E+03   -0.44237E-05   -0.36611E-07  4827   0.206E-03    0.155E-03
RMM:  18    -0.147740482758E+03   -0.47221E-05   -0.31830E-07  4471   0.161E-03    0.599E-04
RMM:  19    -0.147740483719E+03   -0.96052E-06   -0.19037E-07  4466   0.142E-03
  38 F= -.15394578E+03 E0= -.15394561E+03  d E =-.692451E-02  mag=    25.0000
       N       E                     dE             d eps       ncg     rms          rms(c)
DAV:   1    -0.147729314700E+03    0.11168E-01   -0.17574E+00  8208   0.277E+00    0.899E-01
RMM:   2    -0.147737321510E+03   -0.80068E-02   -0.64455E-02  8151   0.108E+00    0.404E-01
RMM:   3    -0.147744256459E+03   -0.69349E-02   -0.38652E-02 10230   0.482E-01    0.326E-01
RMM:   4    -0.147744317199E+03   -0.60739E-04   -0.37838E-03  9214   0.171E-01    0.250E-01
RMM:   5    -0.147744154061E+03    0.16314E-03   -0.44292E-04  9320   0.731E-02    0.214E-01
RMM:   6    -0.147743853707E+03    0.30035E-03   -0.87900E-04  9158   0.706E-02    0.134E-01
RMM:   7    -0.147743981178E+03   -0.12747E-03   -0.21748E-03 10228   0.912E-02    0.720E-02
RMM:   8    -0.147743962568E+03    0.18611E-04   -0.10349E-04  8739   0.386E-02    0.610E-02
RMM:   9    -0.147743933617E+03    0.28950E-04   -0.75888E-05  8654   0.222E-02    0.442E-02
RMM:  10    -0.147744006330E+03   -0.72712E-04   -0.38793E-04 10245   0.339E-02    0.134E-02
RMM:  11    -0.147744024732E+03   -0.18403E-04   -0.18571E-05  7910   0.152E-02    0.111E-02
RMM:  12    -0.147744042282E+03   -0.17550E-04   -0.38487E-06  6411   0.790E-03    0.975E-03
RMM:  13    -0.147744086081E+03   -0.43799E-04   -0.26763E-06  5682   0.461E-03    0.654E-03
RMM:  14    -0.147744132996E+03   -0.46914E-04   -0.14319E-06  5018   0.417E-03    0.295E-03
RMM:  15    -0.147744157061E+03   -0.24065E-04   -0.18571E-06  5109   0.337E-03    0.328E-03
RMM:  16    -0.147744165422E+03   -0.83614E-05   -0.90121E-07  4949   0.348E-03    0.307E-03
RMM:  17    -0.147744170613E+03   -0.51903E-05   -0.58705E-07  4948   0.265E-03    0.207E-03
RMM:  18    -0.147744177152E+03   -0.65398E-05   -0.39656E-07  4662   0.210E-03    0.100E-03
RMM:  19    -0.147744180173E+03   -0.30202E-05   -0.34055E-07  4773   0.163E-03    0.466E-04
RMM:  20    -0.147744181235E+03   -0.10629E-05   -0.18532E-07  4425   0.148E-03    0.285E-04
RMM:  21    -0.147744182360E+03   -0.11249E-05   -0.14626E-07  4004   0.105E-03    0.231E-04
RMM:  22    -0.147744183379E+03   -0.10187E-05   -0.98353E-08  3529   0.105E-03    0.260E-04
RMM:  23    -0.147744183596E+03   -0.21649E-06   -0.52354E-08  3181   0.781E-04
  39 F= -.15394922E+03 E0= -.15394912E+03  d E =-.103639E-01  mag=    25.0000
       N       E                     dE             d eps       ncg     rms          rms(c)
DAV:   1    -0.147740612100E+03    0.35713E-02   -0.14749E+00  8232   0.248E+00    0.714E-01
RMM:   2    -0.147745596910E+03   -0.49848E-02   -0.51882E-02  8058   0.996E-01    0.353E-01
RMM:   3    -0.147750741846E+03   -0.51449E-02   -0.34739E-02 10453   0.474E-01    0.386E-01
RMM:   4    -0.147750191046E+03    0.55080E-03   -0.39757E-03  8584   0.208E-01    0.241E-01
RMM:   5    -0.147750132899E+03    0.58148E-04   -0.96734E-04 10106   0.849E-02    0.197E-01
RMM:   6    -0.147749857122E+03    0.27578E-03   -0.47831E-04  9287   0.493E-02    0.125E-01
RMM:   7    -0.147750060409E+03   -0.20329E-03   -0.21449E-03 10265   0.812E-02    0.605E-02
RMM:   8    -0.147750082156E+03   -0.21747E-04   -0.11583E-04 10140   0.363E-02    0.597E-02
RMM:   9    -0.147750083092E+03   -0.93605E-06   -0.59525E-05  8843   0.179E-02    0.396E-02
RMM:  10    -0.147750234003E+03   -0.15091E-03   -0.39909E-04 10845   0.342E-02    0.103E-02
RMM:  11    -0.147750291004E+03   -0.57001E-04   -0.15836E-05  8194   0.140E-02    0.830E-03
RMM:  12    -0.147750338162E+03   -0.47158E-04   -0.27791E-06  5702   0.666E-03    0.605E-03
RMM:  13    -0.147750438068E+03   -0.99906E-04   -0.36715E-06  6100   0.431E-03    0.360E-03
RMM:  14    -0.147750509916E+03   -0.71848E-04   -0.15260E-06  5111   0.385E-03    0.214E-03
RMM:  15    -0.147750550536E+03   -0.40621E-04   -0.19153E-06  5262   0.317E-03    0.225E-03
RMM:  16    -0.147750568302E+03   -0.17765E-04   -0.83036E-07  4883   0.325E-03    0.198E-03
RMM:  17    -0.147750579812E+03   -0.11510E-04   -0.66500E-07  4596   0.219E-03    0.126E-03
RMM:  18    -0.147750590732E+03   -0.10920E-04   -0.61572E-07  4690   0.209E-03    0.399E-04
RMM:  19    -0.147750592787E+03   -0.20545E-05   -0.32669E-07  4509   0.190E-03    0.290E-04
RMM:  20    -0.147750593873E+03   -0.10863E-05   -0.22262E-07  4182   0.130E-03    0.199E-04
RMM:  21    -0.147750594463E+03   -0.58961E-06   -0.12074E-07  3776   0.122E-03
  40 F= -.15395484E+03 E0= -.15395477E+03  d E =-.561429E-02  mag=    25.0000
       N       E                     dE             d eps       ncg     rms          rms(c)
DAV:   1    -0.147722575658E+03    0.28018E-01   -0.49198E+00  7976   0.452E+00    0.131E+00
RMM:   2    -0.147740390826E+03   -0.17815E-01   -0.17468E-01  8052   0.183E+00    0.654E-01
RMM:   3    -0.147756846951E+03   -0.16456E-01   -0.11657E-01 10459   0.865E-01    0.693E-01
RMM:   4    -0.147755189538E+03    0.16574E-02   -0.13180E-02  8631   0.377E-01    0.438E-01
RMM:   5    -0.147755042163E+03    0.14738E-03   -0.31352E-03 10282   0.153E-01    0.360E-01
RMM:   6    -0.147754177664E+03    0.86450E-03   -0.15547E-03  9161   0.883E-02    0.228E-01
RMM:   7    -0.147754884746E+03   -0.70708E-03   -0.72535E-03 10295   0.149E-01    0.111E-01
RMM:   8    -0.147754906915E+03   -0.22169E-04   -0.36850E-04 10120   0.636E-02    0.109E-01
RMM:   9    -0.147754823296E+03    0.83619E-04   -0.20634E-04  9002   0.328E-02    0.719E-02
RMM:  10    -0.147755160747E+03   -0.33745E-03   -0.13550E-03 10887   0.618E-02    0.200E-02
RMM:  11    -0.147755281270E+03   -0.12052E-03   -0.49004E-05  9339   0.241E-02    0.153E-02
RMM:  12    -0.147755384805E+03   -0.10353E-03   -0.99485E-06  7315   0.960E-03    0.112E-02
RMM:  13    -0.147755626305E+03   -0.24150E-03   -0.84521E-06  7544   0.727E-03    0.543E-03
RMM:  14    -0.147755801320E+03   -0.17502E-03   -0.44654E-06  6350   0.520E-03    0.329E-03
RMM:  15    -0.147755910686E+03   -0.10937E-03   -0.41764E-06  6134   0.492E-03    0.355E-03
RMM:  16    -0.147755952920E+03   -0.42234E-04   -0.22661E-06  5503   0.391E-03    0.317E-03
RMM:  17    -0.147755979857E+03   -0.26936E-04   -0.11089E-06  5006   0.353E-03    0.162E-03
RMM:  18    -0.147756001422E+03   -0.21566E-04   -0.13094E-06  5086   0.242E-03    0.545E-04
RMM:  19    -0.147756005750E+03   -0.43278E-05   -0.45917E-07  4660   0.250E-03    0.401E-04
RMM:  20    -0.147756009112E+03   -0.33621E-05   -0.39026E-07  4440   0.148E-03    0.339E-04
RMM:  21    -0.147756010641E+03   -0.15283E-05   -0.18464E-07  4298   0.150E-03    0.276E-04
RMM:  22    -0.147756011498E+03   -0.85742E-06   -0.12715E-07  3591   0.957E-04
  41 F= -.15395877E+03 E0= -.15395873E+03  d E =-.954266E-02  mag=    25.0000
       N       E                     dE             d eps       ncg     rms          rms(c)
DAV:   1    -0.147746285475E+03    0.97252E-02   -0.21206E+00  8296   0.301E+00    0.907E-01
RMM:   2    -0.147754276735E+03   -0.79913E-02   -0.72399E-02  8138   0.117E+00    0.415E-01
RMM:   3    -0.147761864392E+03   -0.75877E-02   -0.46638E-02 10446   0.532E-01    0.396E-01
RMM:   4    -0.147761694472E+03    0.16992E-03   -0.42017E-03  8914   0.204E-01    0.278E-01
RMM:   5    -0.147761584715E+03    0.10976E-03   -0.93706E-04 10140   0.911E-02    0.239E-01
RMM:   6    -0.147761183476E+03    0.40124E-03   -0.73331E-04  9098   0.635E-02    0.151E-01
RMM:   7    -0.147761321555E+03   -0.13808E-03   -0.30829E-03 10232   0.985E-02    0.711E-02
RMM:   8    -0.147761309235E+03    0.12320E-04   -0.15715E-04  9702   0.429E-02    0.683E-02
RMM:   9    -0.147761252616E+03    0.56619E-04   -0.11920E-04  8916   0.244E-02    0.419E-02
RMM:  10    -0.147761341901E+03   -0.89285E-04   -0.52720E-04 10311   0.396E-02    0.134E-02
RMM:  11    -0.147761356633E+03   -0.14731E-04   -0.21838E-05  8031   0.171E-02    0.971E-03
RMM:  12    -0.147761376219E+03   -0.19586E-04   -0.63354E-06  7146   0.874E-03    0.689E-03
RMM:  13    -0.147761421306E+03   -0.45087E-04   -0.45037E-06  6780   0.559E-03    0.372E-03
RMM:  14    -0.147761468687E+03   -0.47382E-04   -0.15158E-06  5139   0.363E-03    0.225E-03
RMM:  15    -0.147761485295E+03   -0.16608E-04   -0.95794E-07  4962   0.311E-03    0.231E-03
RMM:  16    -0.147761492224E+03   -0.69295E-05   -0.56993E-07  4924   0.232E-03    0.191E-03
RMM:  17    -0.147761500168E+03   -0.79434E-05   -0.35442E-07  4560   0.196E-03    0.109E-03
RMM:  18    -0.147761505596E+03   -0.54280E-05   -0.42889E-07  4910   0.162E-03    0.442E-04
RMM:  19    -0.147761507826E+03   -0.22302E-05   -0.21551E-07  4487   0.164E-03    0.281E-04
RMM:  20    -0.147761509190E+03   -0.13642E-05   -0.17053E-07  3952   0.110E-03    0.248E-04
RMM:  21    -0.147761510116E+03   -0.92602E-06   -0.97980E-08  3445   0.108E-03
  42 F= -.15396288E+03 E0= -.15396286E+03  d E =-.411422E-02  mag=    25.0000
       N       E                     dE             d eps       ncg     rms          rms(c)
DAV:   1    -0.147759796650E+03    0.17125E-02   -0.37659E-01  8232   0.127E+00    0.382E-01
RMM:   2    -0.147761065524E+03   -0.12689E-02   -0.12823E-02  8175   0.490E-01    0.169E-01
RMM:   3    -0.147762508727E+03   -0.14432E-02   -0.80878E-03 10441   0.221E-01    0.163E-01
RMM:   4    -0.147762491674E+03    0.17053E-04   -0.70228E-04  8908   0.822E-02    0.115E-01
RMM:   5    -0.147762470594E+03    0.21079E-04   -0.14879E-04  9640   0.374E-02    0.100E-01
RMM:   6    -0.147762400123E+03    0.70471E-04   -0.14832E-04  9128   0.285E-02    0.610E-02
RMM:   7    -0.147762421297E+03   -0.21174E-04   -0.52617E-04 10167   0.412E-02    0.306E-02
RMM:   8    -0.147762420075E+03    0.12221E-05   -0.26918E-05  8888   0.192E-02    0.290E-02
RMM:   9    -0.147762417270E+03    0.28048E-05   -0.22571E-05  8185   0.113E-02    0.178E-02
RMM:  10    -0.147762445699E+03   -0.28430E-04   -0.10330E-04 10161   0.189E-02    0.596E-03
RMM:  11    -0.147762449195E+03   -0.34955E-05   -0.52316E-06  7122   0.929E-03    0.429E-03
RMM:  12    -0.147762453396E+03   -0.42009E-05   -0.10196E-06  4956   0.397E-03    0.334E-03
RMM:  13    -0.147762462943E+03   -0.95476E-05   -0.82283E-07  4941   0.281E-03    0.202E-03
RMM:  14    -0.147762476583E+03   -0.13640E-04   -0.49374E-07  4930   0.233E-03    0.107E-03
RMM:  15    -0.147762483547E+03   -0.69645E-05   -0.26851E-07  4619   0.172E-03    0.112E-03
RMM:  16    -0.147762485336E+03   -0.17881E-05   -0.17179E-07  4461   0.131E-03    0.929E-04
RMM:  17    -0.147762487047E+03   -0.17119E-05   -0.12033E-07  4232   0.107E-03    0.666E-04
RMM:  18    -0.147762488836E+03   -0.17888E-05   -0.83902E-08  3424   0.920E-04    0.340E-04
RMM:  19    -0.147762489817E+03   -0.98079E-06   -0.82060E-08  3588   0.852E-04
  43 F= -.15396327E+03 E0= -.15396325E+03  d E =-.450416E-02  mag=    25.0000
       N       E                     dE             d eps       ncg     rms          rms(c)
DAV:   1    -0.147753801696E+03    0.86871E-02   -0.17601E+00  7952   0.275E+00    0.809E-01
RMM:   2    -0.147760646725E+03   -0.68450E-02   -0.64599E-02  8117   0.113E+00    0.373E-01
RMM:   3    -0.147767084012E+03   -0.64373E-02   -0.42840E-02 10430   0.500E-01    0.355E-01
RMM:   4    -0.147766971626E+03    0.11239E-03   -0.32367E-03  9304   0.160E-01    0.253E-01
RMM:   5    -0.147766811132E+03    0.16049E-03   -0.37805E-04 10154   0.606E-02    0.217E-01
RMM:   6    -0.147766534093E+03    0.27704E-03   -0.14044E-03  9536   0.795E-02    0.111E-01
RMM:   7    -0.147766811911E+03   -0.27782E-03   -0.17703E-03 10068   0.866E-02    0.772E-02
RMM:   8    -0.147766816594E+03   -0.46829E-05   -0.12710E-04  8500   0.418E-02    0.679E-02
RMM:   9    -0.147766779407E+03    0.37186E-04   -0.37979E-05  8786   0.182E-02    0.565E-02
RMM:  10    -0.147766898562E+03   -0.11915E-03   -0.81972E-04 12972   0.477E-02    0.195E-02
RMM:  11    -0.147766928619E+03   -0.30057E-04   -0.15740E-05  8033   0.132E-02    0.131E-02
RMM:  12    -0.147766958335E+03   -0.29715E-04   -0.12469E-05  7964   0.844E-03    0.992E-03
RMM:  13    -0.147767033605E+03   -0.75270E-04   -0.40691E-06  6589   0.614E-03    0.622E-03
RMM:  14    -0.147767119907E+03   -0.86302E-04   -0.22143E-06  5454   0.474E-03    0.212E-03
RMM:  15    -0.147767166051E+03   -0.46144E-04   -0.18874E-06  5308   0.298E-03    0.304E-03
RMM:  16    -0.147767183199E+03   -0.17148E-04   -0.66631E-07  4953   0.266E-03    0.254E-03
RMM:  17    -0.147767193654E+03   -0.10455E-04   -0.54059E-07  4459   0.183E-03    0.120E-03
RMM:  18    -0.147767204463E+03   -0.10809E-04   -0.53815E-07  4663   0.193E-03    0.493E-04
RMM:  19    -0.147767207202E+03   -0.27398E-05   -0.29620E-07  4342   0.174E-03    0.314E-04
RMM:  20    -0.147767208574E+03   -0.13718E-05   -0.20859E-07  3821   0.125E-03    0.212E-04
RMM:  21    -0.147767208487E+03    0.86862E-07   -0.84550E-08  3528   0.111E-03
  44 F= -.15396707E+03 E0= -.15396706E+03  d E =-.380466E-02  mag=    25.0000
       N       E                     dE             d eps       ncg     rms          rms(c)
DAV:   1    -0.147747773451E+03    0.19435E-01   -0.29040E+00  7928   0.354E+00    0.104E+00
RMM:   2    -0.147759308899E+03   -0.11535E-01   -0.10661E-01  8103   0.145E+00    0.487E-01
RMM:   3    -0.147769812059E+03   -0.10503E-01   -0.70859E-02 10416   0.644E-01    0.457E-01
RMM:   4    -0.147769657513E+03    0.15455E-03   -0.54210E-03  9341   0.207E-01    0.325E-01
RMM:   5    -0.147769401903E+03    0.25561E-03   -0.63687E-04 10225   0.783E-02    0.279E-01
RMM:   6    -0.147768939463E+03    0.46244E-03   -0.21106E-03  9498   0.991E-02    0.149E-01
RMM:   7    -0.147769384903E+03   -0.44544E-03   -0.30827E-03 10109   0.113E-01    0.976E-02
RMM:   8    -0.147769396486E+03   -0.11583E-04   -0.21105E-04  8676   0.537E-02    0.862E-02
RMM:   9    -0.147769327078E+03    0.69407E-04   -0.62208E-05  8697   0.237E-02    0.712E-02
RMM:  10    -0.147769490753E+03   -0.16367E-03   -0.13331E-03 12970   0.604E-02    0.250E-02
RMM:  11    -0.147769528892E+03   -0.38138E-04   -0.27329E-05  8670   0.167E-02    0.166E-02
RMM:  12    -0.147769572929E+03   -0.44038E-04   -0.21250E-05  8406   0.101E-02    0.128E-02
RMM:  13    -0.147769674434E+03   -0.10150E-03   -0.72350E-06  7231   0.873E-03    0.820E-03
RMM:  14    -0.147769802743E+03   -0.12831E-03   -0.36755E-06  5994   0.577E-03    0.307E-03
RMM:  15    -0.147769869794E+03   -0.67052E-04   -0.31984E-06  5907   0.370E-03    0.459E-03
RMM:  16    -0.147769892096E+03   -0.22301E-04   -0.92614E-07  4995   0.333E-03    0.369E-03
RMM:  17    -0.147769913595E+03   -0.21499E-04   -0.10455E-06  5045   0.217E-03    0.113E-03
RMM:  18    -0.147769926131E+03   -0.12536E-04   -0.57969E-07  4606   0.212E-03    0.522E-04
RMM:  19    -0.147769930316E+03   -0.41851E-05   -0.35074E-07  4358   0.179E-03    0.419E-04
RMM:  20    -0.147769931667E+03   -0.13514E-05   -0.19069E-07  3946   0.132E-03    0.286E-04
RMM:  21    -0.147769933041E+03   -0.13741E-05   -0.15965E-07  3891   0.110E-03    0.230E-04
RMM:  22    -0.147769933255E+03   -0.21368E-06   -0.74752E-08  3567   0.100E-03
  45 F= -.15396860E+03 E0= -.15396859E+03  d E =-.532652E-02  mag=    25.0000
       N       E                     dE             d eps       ncg     rms          rms(c)
DAV:   1    -0.147754090933E+03    0.15842E-01   -0.26595E+00  8112   0.338E+00    0.949E-01
RMM:   2    -0.147763347400E+03   -0.92565E-02   -0.92736E-02  8270   0.131E+00    0.401E-01
RMM:   3    -0.147772569632E+03   -0.92222E-02   -0.57554E-02 10315   0.583E-01    0.415E-01
RMM:   4    -0.147772667095E+03   -0.97463E-04   -0.51025E-03  9260   0.211E-01    0.301E-01
RMM:   5    -0.147772548317E+03    0.11878E-03   -0.84205E-04 10153   0.905E-02    0.266E-01
RMM:   6    -0.147772170283E+03    0.37803E-03   -0.11269E-03  8987   0.736E-02    0.153E-01
RMM:   7    -0.147772656351E+03   -0.48607E-03   -0.38541E-03 10213   0.111E-01    0.879E-02
RMM:   8    -0.147772603658E+03    0.52693E-04   -0.17416E-04  9441   0.472E-02    0.844E-02
RMM:   9    -0.147772411157E+03    0.19250E-03   -0.21462E-04  8832   0.312E-02    0.503E-02
RMM:  10    -0.147772390341E+03    0.20816E-04   -0.75453E-04 10303   0.485E-02    0.179E-02
RMM:  11    -0.147772392165E+03   -0.18241E-05   -0.31258E-05  8015   0.204E-02    0.129E-02
RMM:  12    -0.147772395084E+03   -0.29189E-05   -0.87824E-06  7353   0.102E-02    0.930E-03
RMM:  13    -0.147772401029E+03   -0.59446E-05   -0.51229E-06  6869   0.649E-03    0.491E-03
RMM:  14    -0.147772407335E+03   -0.63058E-05   -0.10857E-06  4967   0.423E-03    0.400E-03
RMM:  15    -0.147772409636E+03   -0.23018E-05   -0.54987E-07  4966   0.255E-03    0.390E-03
RMM:  16    -0.147772410880E+03   -0.12441E-05   -0.36802E-07  4953   0.185E-03    0.321E-03
RMM:  17    -0.147772411974E+03   -0.10937E-05   -0.14676E-07  4841   0.158E-03    0.160E-03
RMM:  18    -0.147772412775E+03   -0.80054E-06   -0.24249E-07  4804   0.124E-03
  46 F= -.15397170E+03 E0= -.15397169E+03  d E =-.309923E-02  mag=    25.0000
       N       E                     dE             d eps       ncg     rms          rms(c)
DAV:   1    -0.147759635866E+03    0.12776E-01   -0.18851E+00  8008   0.284E+00    0.798E-01
RMM:   2    -0.147766076135E+03   -0.64403E-02   -0.65699E-02  8267   0.111E+00    0.335E-01
RMM:   3    -0.147772707220E+03   -0.66311E-02   -0.40770E-02 10314   0.490E-01    0.347E-01
RMM:   4    -0.147772788300E+03   -0.81079E-04   -0.35812E-03  9291   0.175E-01    0.253E-01
RMM:   5    -0.147772699821E+03    0.88479E-04   -0.55688E-04 10064   0.749E-02    0.224E-01
RMM:   6    -0.147772438340E+03    0.26148E-03   -0.82219E-04  9041   0.627E-02    0.128E-01
RMM:   7    -0.147772798362E+03   -0.36002E-03   -0.27240E-03 10226   0.936E-02    0.748E-02
RMM:   8    -0.147772758000E+03    0.40362E-04   -0.12131E-04  9320   0.398E-02    0.714E-02
RMM:   9    -0.147772624951E+03    0.13305E-03   -0.14420E-04  8750   0.261E-02    0.440E-02
RMM:  10    -0.147772608142E+03    0.16809E-04   -0.56826E-04 10393   0.422E-02    0.152E-02
RMM:  11    -0.147772610146E+03   -0.20038E-05   -0.22994E-05  7965   0.176E-02    0.113E-02
RMM:  12    -0.147772612523E+03   -0.23771E-05   -0.64197E-06  7183   0.891E-03    0.816E-03
RMM:  13    -0.147772616879E+03   -0.43560E-05   -0.32449E-06  5913   0.546E-03    0.432E-03
RMM:  14    -0.147772621939E+03   -0.50592E-05   -0.10524E-06  4975   0.380E-03    0.333E-03
RMM:  15    -0.147772623905E+03   -0.19668E-05   -0.40067E-07  4960   0.256E-03    0.352E-03
RMM:  16    -0.147772624993E+03   -0.10871E-05   -0.25794E-07  4921   0.155E-03    0.271E-03
RMM:  17    -0.147772625885E+03   -0.89255E-06   -0.13834E-07  4670   0.134E-03
  47 F= -.15397241E+03 E0= -.15397241E+03  d E =-.381108E-02  mag=    25.0000
       N       E                     dE             d eps       ncg     rms          rms(c)
DAV:   1    -0.147755966432E+03    0.16659E-01   -0.27813E+00  7920   0.343E+00    0.996E-01
RMM:   2    -0.147764873629E+03   -0.89072E-02   -0.10337E-01  8100   0.141E+00    0.434E-01
RMM:   3    -0.147774627779E+03   -0.97542E-02   -0.68752E-02 10467   0.636E-01    0.498E-01
RMM:   4    -0.147774474020E+03    0.15376E-03   -0.53576E-03  9126   0.226E-01    0.344E-01
RMM:   5    -0.147774285402E+03    0.18862E-03   -0.91204E-04  9888   0.965E-02    0.297E-01
RMM:   6    -0.147773867419E+03    0.41798E-03   -0.92661E-04  9073   0.703E-02    0.189E-01
RMM:   7    -0.147774347168E+03   -0.47975E-03   -0.47660E-03 10663   0.124E-01    0.933E-02
RMM:   8    -0.147774356362E+03   -0.91940E-05   -0.22273E-04 10041   0.505E-02    0.945E-02
RMM:   9    -0.147774194432E+03    0.16193E-03   -0.19722E-04  9076   0.298E-02    0.580E-02
RMM:  10    -0.147774285433E+03   -0.91001E-04   -0.81961E-04 10376   0.495E-02    0.195E-02
RMM:  11    -0.147774322565E+03   -0.37132E-04   -0.31691E-05  7935   0.203E-02    0.172E-02
RMM:  12    -0.147774362571E+03   -0.40006E-04   -0.12583E-05  7926   0.106E-02    0.148E-02
RMM:  13    -0.147774454051E+03   -0.91480E-04   -0.32975E-06  5840   0.589E-03    0.684E-03
RMM:  14    -0.147774555727E+03   -0.10168E-03   -0.39613E-06  6007   0.519E-03    0.641E-03
RMM:  15    -0.147774592027E+03   -0.36301E-04   -0.24664E-06  5488   0.419E-03    0.692E-03
RMM:  16    -0.147774604335E+03   -0.12308E-04   -0.90656E-07  4958   0.371E-03    0.468E-03
RMM:  17    -0.147774612998E+03   -0.86621E-05   -0.66405E-07  4933   0.218E-03    0.188E-03
RMM:  18    -0.147774619796E+03   -0.67989E-05   -0.61165E-07  4822   0.199E-03    0.597E-04
RMM:  19    -0.147774621121E+03   -0.13245E-05   -0.27225E-07  4645   0.192E-03    0.442E-04
RMM:  20    -0.147774621926E+03   -0.80512E-06   -0.21420E-07  4265   0.119E-03
  48 F= -.15397508E+03 E0= -.15397508E+03  d E =-.266988E-02  mag=    25.0000
       N       E                     dE             d eps       ncg     rms          rms(c)
DAV:   1    -0.147771682298E+03    0.29388E-02   -0.43334E-01  8240   0.135E+00    0.392E-01
RMM:   2    -0.147772864293E+03   -0.11820E-02   -0.16120E-02  8124   0.557E-01    0.169E-01
RMM:   3    -0.147774513893E+03   -0.16496E-02   -0.10631E-02 10462   0.249E-01    0.194E-01
RMM:   4    -0.147774492767E+03    0.21126E-04   -0.78673E-04  9122   0.859E-02    0.134E-01
RMM:   5    -0.147774459769E+03    0.32999E-04   -0.12439E-04  9426   0.367E-02    0.116E-01
RMM:   6    -0.147774400972E+03    0.58797E-04   -0.16616E-04  9256   0.300E-02    0.717E-02
RMM:   7    -0.147774487629E+03   -0.86657E-04   -0.71683E-04 10620   0.493E-02    0.382E-02
RMM:   8    -0.147774490839E+03   -0.32109E-05   -0.34334E-05  9484   0.208E-02    0.379E-02
RMM:   9    -0.147774473104E+03    0.17735E-04   -0.25259E-05  8079   0.117E-02    0.247E-02
RMM:  10    -0.147774503273E+03   -0.30169E-04   -0.16347E-04 11238   0.236E-02    0.803E-03
RMM:  11    -0.147774512640E+03   -0.93667E-05   -0.59581E-06  7349   0.902E-03    0.701E-03
RMM:  12    -0.147774520572E+03   -0.79318E-05   -0.24910E-06  5589   0.455E-03    0.640E-03
RMM:  13    -0.147774539935E+03   -0.19364E-04   -0.71759E-07  4957   0.361E-03    0.356E-03
RMM:  14    -0.147774570487E+03   -0.30552E-04   -0.89334E-07  4974   0.245E-03    0.293E-03
RMM:  15    -0.147774579229E+03   -0.87419E-05   -0.44472E-07  4912   0.196E-03    0.355E-03
RMM:  16    -0.147774582050E+03   -0.28213E-05   -0.24581E-07  4531   0.169E-03    0.221E-03
RMM:  17    -0.147774584611E+03   -0.25612E-05   -0.23945E-07  4372   0.129E-03    0.973E-04
RMM:  18    -0.147774586688E+03   -0.20768E-05   -0.17341E-07  4320   0.130E-03    0.422E-04
RMM:  19    -0.147774587344E+03   -0.65609E-06   -0.92219E-08  3568   0.101E-03
  49 F= -.15397530E+03 E0= -.15397530E+03  d E =-.289207E-02  mag=    25.0000
       N       E                     dE             d eps       ncg     rms          rms(c)
DAV:   1    -0.147765287012E+03    0.92997E-02   -0.18408E+00  8104   0.275E+00    0.745E-01
RMM:   2    -0.147770176267E+03   -0.48893E-02   -0.60811E-02  8213   0.106E+00    0.327E-01
RMM:   3    -0.147776700402E+03   -0.65241E-02   -0.38322E-02 10358   0.478E-01    0.352E-01
RMM:   4    -0.147776695651E+03    0.47515E-05   -0.33156E-03  9115   0.177E-01    0.249E-01
RMM:   5    -0.147776630254E+03    0.65396E-04   -0.69788E-04 10017   0.759E-02    0.218E-01
RMM:   6    -0.147776400236E+03    0.23002E-03   -0.64335E-04  9002   0.556E-02    0.131E-01
RMM:   7    -0.147776801240E+03   -0.40100E-03   -0.30568E-03 10563   0.965E-02    0.788E-02
RMM:   8    -0.147776761209E+03    0.40030E-04   -0.12477E-04  9605   0.392E-02    0.759E-02
RMM:   9    -0.147776611085E+03    0.15012E-03   -0.17209E-04  8780   0.266E-02    0.442E-02
RMM:  10    -0.147776594512E+03    0.16573E-04   -0.51368E-04 10282   0.408E-02    0.136E-02
RMM:  11    -0.147776601284E+03   -0.67717E-05   -0.22278E-05  8524   0.165E-02    0.110E-02
RMM:  12    -0.147776604193E+03   -0.29095E-05   -0.35887E-06  6200   0.747E-03    0.895E-03
RMM:  13    -0.147776609358E+03   -0.51649E-05   -0.16697E-06  5190   0.391E-03    0.589E-03
RMM:  14    -0.147776616646E+03   -0.72878E-05   -0.92645E-07  4968   0.319E-03    0.210E-03
RMM:  15    -0.147776621136E+03   -0.44900E-05   -0.35606E-07  4884   0.239E-03    0.204E-03
RMM:  16    -0.147776622856E+03   -0.17200E-05   -0.23430E-07  4931   0.143E-03    0.158E-03
RMM:  17    -0.147776624195E+03   -0.13384E-05   -0.27736E-07  4860   0.144E-03    0.114E-03
RMM:  18    -0.147776625600E+03   -0.14058E-05   -0.15970E-07  4666   0.158E-03    0.874E-04
RMM:  19    -0.147776626095E+03   -0.49436E-06   -0.65731E-08  4126   0.954E-04
  50 F= -.15397720E+03 E0= -.15397720E+03  d E =-.190511E-02  mag=    25.0000
       N       E                     dE             d eps       ncg     rms          rms(c)
DAV:   1    -0.147772842935E+03    0.37827E-02   -0.67863E-01  8264   0.167E+00    0.452E-01
RMM:   2    -0.147774431776E+03   -0.15888E-02   -0.22417E-02  8252   0.644E-01    0.194E-01
RMM:   3    -0.147776988702E+03   -0.25569E-02   -0.13877E-02 10361   0.286E-01    0.210E-01
RMM:   4    -0.147777003930E+03   -0.15228E-04   -0.11641E-03  9139   0.103E-01    0.149E-01
RMM:   5    -0.147776976986E+03    0.26945E-04   -0.22594E-04  9673   0.447E-02    0.132E-01
RMM:   6    -0.147776904029E+03    0.72957E-04   -0.26008E-04  9142   0.353E-02    0.766E-02
RMM:   7    -0.147777067962E+03   -0.16393E-03   -0.10787E-03 10490   0.578E-02    0.480E-02
RMM:   8    -0.147777052937E+03    0.15025E-04   -0.45772E-05  9457   0.241E-02    0.460E-02
RMM:   9    -0.147777000162E+03    0.52774E-04   -0.61372E-05  8361   0.163E-02    0.269E-02
RMM:  10    -0.147776997232E+03    0.29299E-05   -0.20090E-04 10453   0.272E-02    0.822E-03
RMM:  11    -0.147777000448E+03   -0.32163E-05   -0.80652E-06  7415   0.102E-02    0.679E-03
RMM:  12    -0.147777001796E+03   -0.13475E-05   -0.14958E-06  4986   0.531E-03    0.559E-03
RMM:  13    -0.147777003846E+03   -0.20499E-05   -0.78178E-07  4951   0.314E-03    0.394E-03
RMM:  14    -0.147777007363E+03   -0.35171E-05   -0.42418E-07  4918   0.220E-03    0.124E-03
RMM:  15    -0.147777009577E+03   -0.22141E-05   -0.16137E-07  4539   0.164E-03    0.128E-03
RMM:  16    -0.147777010349E+03   -0.77211E-06   -0.11045E-07  4458   0.104E-03
  51 F= -.15397750E+03 E0= -.15397750E+03  d E =-.219910E-02  mag=    25.0000
       N       E                     dE             d eps       ncg     rms          rms(c)
DAV:   1    -0.147768561999E+03    0.84476E-02   -0.13470E+00  7984   0.239E+00    0.662E-01
RMM:   2    -0.147772737977E+03   -0.41760E-02   -0.44344E-02  8185   0.910E-01    0.302E-01
RMM:   3    -0.147777954167E+03   -0.52162E-02   -0.28136E-02 10158   0.407E-01    0.272E-01
RMM:   4    -0.147778013880E+03   -0.59714E-04   -0.26678E-03  9263   0.142E-01    0.202E-01
RMM:   5    -0.147777936756E+03    0.77124E-04   -0.30371E-04 10117   0.553E-02    0.176E-01
RMM:   6    -0.147777798728E+03    0.13803E-03   -0.74590E-04  9249   0.613E-02    0.106E-01
RMM:   7    -0.147778028684E+03   -0.22996E-03   -0.16389E-03 10225   0.793E-02    0.636E-02
RMM:   8    -0.147778043393E+03   -0.14709E-04   -0.10122E-04  9671   0.346E-02    0.615E-02
RMM:   9    -0.147777989512E+03    0.53881E-04   -0.27236E-05  8012   0.153E-02    0.494E-02
RMM:  10    -0.147777988147E+03    0.13655E-05   -0.56348E-04 12666   0.386E-02    0.134E-02
RMM:  11    -0.147778001636E+03   -0.13489E-04   -0.11922E-05  7775   0.131E-02    0.834E-03
RMM:  12    -0.147778013474E+03   -0.11838E-04   -0.51428E-06  7044   0.607E-03    0.658E-03
RMM:  13    -0.147778029575E+03   -0.16101E-04   -0.25252E-06  5524   0.456E-03    0.468E-03
RMM:  14    -0.147778050623E+03   -0.21048E-04   -0.58363E-07  4953   0.358E-03    0.214E-03
RMM:  15    -0.147778070576E+03   -0.19953E-04   -0.68826E-07  4953   0.192E-03    0.111E-03
RMM:  16    -0.147778077354E+03   -0.67776E-05   -0.25939E-07  4857   0.184E-03    0.937E-04
RMM:  17    -0.147778082438E+03   -0.50841E-05   -0.23036E-07  4274   0.121E-03    0.639E-04
RMM:  18    -0.147778088146E+03   -0.57086E-05   -0.20894E-07  4108   0.133E-03    0.312E-04
RMM:  19    -0.147778091441E+03   -0.32944E-05   -0.22655E-07  4144   0.119E-03    0.245E-04
RMM:  20    -0.147778092185E+03   -0.74482E-06   -0.10833E-07  3736   0.121E-03
  52 F= -.15397851E+03 E0= -.15397851E+03  d E =-.101345E-02  mag=    25.0000
