 running on   32 total cores
 distrk:  each k-point on   32 cores,    1 groups
 distr:  one band on    4 cores,    8 groups
 vasp.6.2.0 18Jan21 (build Jul 28 2023 11:58:00) complex                         
 POSCAR found type information on POSCAR CrClNiH 
 POSCAR found :  4 types and      34 ions
 scaLAPACK will be used
 LDA part: xc-table for Pade appr. of Perdew
 POSCAR, INCAR and KPOINTS ok, starting setup
 FFT: planning ...
 WAVECAR not read
 WARNING: random wavefunctions but no delay for mixing, default for NELMDL
 entering main loop
       N       E                     dE             d eps       ncg     rms          rms(c)
DAV:   1     0.213336364374E+04    0.21334E+04   -0.66616E+04  8032   0.935E+02
DAV:   2     0.391394144502E+03   -0.17420E+04   -0.16229E+04  9296   0.249E+02
DAV:   3    -0.134771017519E+03   -0.52617E+03   -0.50946E+03 11432   0.140E+02
DAV:   4    -0.177547636820E+03   -0.42777E+02   -0.41939E+02 12048   0.557E+01
DAV:   5    -0.178355211797E+03   -0.80757E+00   -0.80114E+00 12072   0.944E+00    0.416E+01
DAV:   6    -0.177914459116E+03    0.44075E+00   -0.19282E+02 11592   0.633E+01    0.787E+01
DAV:   7    -0.171246573854E+03    0.66679E+01   -0.35678E+01 12320   0.630E+01    0.403E+01
DAV:   8    -0.163270344137E+03    0.79762E+01   -0.22862E+01 12768   0.340E+01    0.194E+01
DAV:   9    -0.163118052645E+03    0.15229E+00   -0.21467E+01 11872   0.437E+01    0.267E+01
DAV:  10    -0.162402916685E+03    0.71514E+00   -0.74867E+00 11744   0.159E+01    0.133E+01
DAV:  11    -0.161928032879E+03    0.47488E+00   -0.32923E+00 12024   0.997E+00    0.111E+01
DAV:  12    -0.161804660622E+03    0.12337E+00   -0.89602E-01 11968   0.743E+00    0.811E+00
DAV:  13    -0.161789074463E+03    0.15586E-01   -0.14538E+00 11632   0.529E+00    0.600E+00
DAV:  14    -0.161819391799E+03   -0.30317E-01   -0.60688E-01 11856   0.337E+00    0.683E+00
DAV:  15    -0.161799112069E+03    0.20280E-01   -0.38346E-01 11864   0.257E+00    0.285E+00
DAV:  16    -0.161842788640E+03   -0.43677E-01   -0.56330E-02 11776   0.117E+00    0.166E+00
DAV:  17    -0.161861539404E+03   -0.18751E-01   -0.33405E-02 11856   0.984E-01    0.140E+00
DAV:  18    -0.161864700314E+03   -0.31609E-02   -0.41019E-02 11952   0.902E-01    0.158E+00
DAV:  19    -0.161862996181E+03    0.17041E-02   -0.11595E-02 11408   0.644E-01    0.646E-01
DAV:  20    -0.161864420177E+03   -0.14240E-02   -0.55802E-03 11736   0.294E-01    0.634E-01
DAV:  21    -0.161865592457E+03   -0.11723E-02   -0.82162E-03 11624   0.262E-01    0.452E-01
DAV:  22    -0.161866288334E+03   -0.69588E-03   -0.12565E-03 11392   0.146E-01    0.165E-01
DAV:  23    -0.161866881482E+03   -0.59315E-03   -0.18624E-04 11672   0.803E-02    0.852E-02
DAV:  24    -0.161867476900E+03   -0.59542E-03   -0.31569E-04 11880   0.583E-02    0.137E-01
DAV:  25    -0.161867921202E+03   -0.44430E-03   -0.93280E-05 11704   0.459E-02    0.776E-02
DAV:  26    -0.161868386377E+03   -0.46517E-03   -0.81702E-05 11384   0.296E-02    0.180E-02
DAV:  27    -0.161868733657E+03   -0.34728E-03   -0.14874E-05 10856   0.134E-02    0.183E-02
DAV:  28    -0.161869033183E+03   -0.29953E-03   -0.15041E-05  9256   0.954E-03    0.297E-02
DAV:  29    -0.161869201936E+03   -0.16875E-03   -0.29932E-05 10584   0.137E-02    0.254E-02
DAV:  30    -0.161869278456E+03   -0.76520E-04   -0.82906E-06  8160   0.946E-03    0.769E-03
DAV:  31    -0.161869329184E+03   -0.50728E-04   -0.81629E-06  9056   0.639E-03    0.129E-02
DAV:  32    -0.161869355109E+03   -0.25925E-04   -0.13838E-06  5856   0.506E-03    0.772E-03
DAV:  33    -0.161869376634E+03   -0.21525E-04   -0.12648E-06  6240   0.339E-03    0.277E-03
DAV:  34    -0.161869394322E+03   -0.17687E-04   -0.65581E-07  5552   0.240E-03    0.199E-03
DAV:  35    -0.161869417801E+03   -0.23480E-04   -0.35284E-07  5064   0.219E-03    0.134E-03
DAV:  36    -0.161869449298E+03   -0.31497E-04   -0.67134E-07  5440   0.183E-03    0.196E-03
DAV:  37    -0.161869460638E+03   -0.11340E-04   -0.25554E-07  5072   0.169E-03    0.131E-03
DAV:  38    -0.161869473508E+03   -0.12871E-04   -0.39295E-07  5112   0.123E-03    0.114E-03
DAV:  39    -0.161869480272E+03   -0.67631E-05   -0.19991E-07  5032   0.121E-03    0.878E-04
DAV:  40    -0.161869484986E+03   -0.47141E-05   -0.17347E-07  4984   0.898E-04    0.109E-03
DAV:  41    -0.161869487450E+03   -0.24640E-05   -0.10124E-07  5008   0.991E-04    0.765E-04
DAV:  42    -0.161869488630E+03   -0.11800E-05   -0.72477E-08  4936   0.730E-04    0.332E-04
DAV:  43    -0.161869488864E+03   -0.23484E-06   -0.32116E-08  5056   0.581E-04
   1 F= -.16810250E+03 E0= -.16809003E+03  d E =-.168103E+03  mag=    25.0001
 curvature:   0.00 expect dE= 0.000E+00 dE for cont linesearch  0.000E+00
 trial: gam= 0.00000 g(F)=  0.120E-01 g(S)=  0.000E+00 ort = 0.000E+00 (trialstep = 0.100E+01)
 search vector abs. value=  0.120E-01
 bond charge predicted
       N       E                     dE             d eps       ncg     rms          rms(c)
DAV:   1    -0.161871164644E+03   -0.16760E-02   -0.12555E+00  8008   0.214E+00    0.517E-01
DAV:   2    -0.161877241987E+03   -0.60773E-02   -0.62236E-02 11088   0.891E-01    0.122E+00
DAV:   3    -0.161876899043E+03    0.34294E-03   -0.37590E-02 11512   0.817E-01    0.111E+00
DAV:   4    -0.161876256361E+03    0.64268E-03   -0.14988E-02 11320   0.444E-01    0.720E-01
DAV:   5    -0.161875719441E+03    0.53692E-03   -0.36500E-03 11512   0.254E-01    0.181E-01
DAV:   6    -0.161875840403E+03   -0.12096E-03   -0.27687E-04 11760   0.128E-01    0.186E-01
DAV:   7    -0.161875876412E+03   -0.36009E-04   -0.55450E-04 11600   0.106E-01    0.192E-01
DAV:   8    -0.161875868069E+03    0.83425E-05   -0.26795E-04 11936   0.104E-01    0.122E-01
DAV:   9    -0.161875917432E+03   -0.49363E-04   -0.10527E-04 12376   0.638E-02    0.527E-02
DAV:  10    -0.161875941444E+03   -0.24011E-04   -0.10489E-04 11552   0.713E-02    0.577E-02
DAV:  11    -0.161875933609E+03    0.78347E-05   -0.47198E-05  9456   0.510E-02    0.170E-02
DAV:  12    -0.161875943189E+03   -0.95805E-05   -0.48732E-06  6888   0.154E-02    0.120E-02
DAV:  13    -0.161875946454E+03   -0.32650E-05   -0.16530E-06  5656   0.968E-03    0.605E-03
DAV:  14    -0.161875948866E+03   -0.24114E-05   -0.14148E-06  4952   0.500E-03    0.354E-03
DAV:  15    -0.161875950437E+03   -0.15715E-05   -0.86151E-07  5000   0.420E-03    0.304E-03
DAV:  16    -0.161875951294E+03   -0.85697E-06   -0.42570E-07  5048   0.268E-03
   2 F= -.16810969E+03 E0= -.16809719E+03  d E =-.719185E-02  mag=    25.0000
 trial-energy change:   -0.007192  1 .order   -0.007242   -0.012010   -0.002475
 step:   1.2706(harm=  1.2596)  dis= 0.00951  next Energy=  -168.110026 (dE=-0.753E-02)
 bond charge predicted
       N       E                     dE             d eps       ncg     rms          rms(c)
DAV:   1    -0.161875760717E+03    0.18972E-03   -0.91912E-02  8064   0.577E-01    0.140E-01
DAV:   2    -0.161876190721E+03   -0.43000E-03   -0.45789E-03 11016   0.244E-01    0.337E-01
DAV:   3    -0.161876143656E+03    0.47065E-04   -0.28931E-03 11448   0.232E-01    0.306E-01
DAV:   4    -0.161876116244E+03    0.27412E-04   -0.11548E-03 11200   0.124E-01    0.205E-01
DAV:   5    -0.161876070931E+03    0.45313E-04   -0.31946E-04 10928   0.771E-02    0.507E-02
DAV:   6    -0.161876088166E+03   -0.17235E-04   -0.29128E-05 10744   0.387E-02    0.493E-02
DAV:   7    -0.161876093152E+03   -0.49862E-05   -0.37172E-05 10984   0.286E-02    0.454E-02
DAV:   8    -0.161876095935E+03   -0.27829E-05   -0.16567E-05  8464   0.281E-02    0.362E-02
DAV:   9    -0.161876102033E+03   -0.60983E-05   -0.11799E-05  9200   0.211E-02    0.157E-02
DAV:  10    -0.161876104957E+03   -0.29242E-05   -0.90240E-06  6720   0.227E-02    0.150E-02
DAV:  11    -0.161876105337E+03   -0.37968E-06   -0.29549E-06  5432   0.136E-02
   3 F= -.16811004E+03 E0= -.16809753E+03  d E =-.754410E-02  mag=    25.0000
 curvature:  -0.63 expect dE=-0.505E-02 dE for cont linesearch -0.627E-06
 trial: gam= 0.65993 g(F)=  0.803E-02 g(S)=  0.000E+00 ort = 0.109E-03 (trialstep = 0.944E+00)
 search vector abs. value=  0.134E-01
 bond charge predicted
       N       E                     dE             d eps       ncg     rms          rms(c)
DAV:   1    -0.161874743650E+03    0.13613E-02   -0.12060E+00  7920   0.219E+00    0.627E-01
DAV:   2    -0.161884708491E+03   -0.99648E-02   -0.93249E-02 11248   0.113E+00    0.180E+00
DAV:   3    -0.161882558344E+03    0.21501E-02   -0.65180E-02 11424   0.104E+00    0.984E-01
DAV:   4    -0.161882037809E+03    0.52053E-03   -0.52457E-03 11184   0.462E-01    0.532E-01
DAV:   5    -0.161881671435E+03    0.36637E-03   -0.16004E-03 11520   0.228E-01    0.297E-01
DAV:   6    -0.161881657895E+03    0.13540E-04   -0.66027E-04 11616   0.984E-02    0.230E-01
DAV:   7    -0.161881593274E+03    0.64621E-04   -0.50215E-04 11776   0.914E-02    0.137E-01
DAV:   8    -0.161881633222E+03   -0.39949E-04   -0.31584E-04 11832   0.887E-02    0.182E-01
DAV:   9    -0.161881600086E+03    0.33137E-04   -0.14184E-04 11784   0.792E-02    0.108E-01
DAV:  10    -0.161881612084E+03   -0.11999E-04   -0.54279E-05 11912   0.434E-02    0.538E-02
DAV:  11    -0.161881630054E+03   -0.17969E-04   -0.41430E-05 11672   0.435E-02    0.487E-02
DAV:  12    -0.161881625825E+03    0.42293E-05   -0.31262E-05  9472   0.408E-02    0.212E-02
DAV:  13    -0.161881632056E+03   -0.62315E-05   -0.55691E-06  6240   0.158E-02    0.629E-03
DAV:  14    -0.161881634887E+03   -0.28306E-05   -0.12043E-06  5016   0.576E-03    0.566E-03
DAV:  15    -0.161881636281E+03   -0.13941E-05   -0.77373E-07  5192   0.399E-03    0.478E-03
DAV:  16    -0.161881636964E+03   -0.68365E-06   -0.60748E-07  5032   0.310E-03
   4 F= -.16811666E+03 E0= -.16810402E+03  d E =-.661411E-02  mag=    25.0000
 trial-energy change:   -0.006614  1 .order   -0.006594   -0.007654   -0.005535
 step:   3.0330(harm=  3.4104)  dis= 0.02554  next Energy=  -168.122997 (dE=-0.130E-01)
 bond charge predicted
       N       E                     dE             d eps       ncg     rms          rms(c)
DAV:   1    -0.161852912580E+03    0.28724E-01   -0.59071E+00  7904   0.484E+00    0.141E+00
DAV:   2    -0.161900249255E+03   -0.47337E-01   -0.42361E-01 11304   0.251E+00    0.377E+00
DAV:   3    -0.161892787117E+03    0.74621E-02   -0.32628E-01 11536   0.233E+00    0.194E+00
DAV:   4    -0.161890797808E+03    0.19893E-02   -0.20150E-02 11560   0.114E+00    0.158E+00
DAV:   5    -0.161886941646E+03    0.38562E-02   -0.76271E-03 11664   0.638E-01    0.661E-01
DAV:   6    -0.161887090103E+03   -0.14846E-03   -0.53741E-03 12296   0.254E-01    0.744E-01
DAV:   7    -0.161886509428E+03    0.58067E-03   -0.44455E-03 11688   0.240E-01    0.327E-01
DAV:   8    -0.161886721111E+03   -0.21168E-03   -0.19032E-03 13312   0.237E-01    0.341E-01
DAV:   9    -0.161886569026E+03    0.15209E-03   -0.12512E-03 13344   0.240E-01    0.264E-01
DAV:  10    -0.161886587604E+03   -0.18578E-04   -0.31358E-04 11584   0.114E-01    0.186E-01
DAV:  11    -0.161886626702E+03   -0.39098E-04   -0.39004E-04 12888   0.136E-01    0.201E-01
DAV:  12    -0.161886608778E+03    0.17923E-04   -0.16425E-04 13264   0.935E-02    0.139E-01
DAV:  13    -0.161886615974E+03   -0.71957E-05   -0.85405E-05 12144   0.400E-02    0.560E-02
DAV:  14    -0.161886631136E+03   -0.15162E-04   -0.12249E-05 11432   0.168E-02    0.362E-02
DAV:  15    -0.161886638146E+03   -0.70099E-05   -0.60415E-06  6480   0.107E-02    0.150E-02
DAV:  16    -0.161886643625E+03   -0.54788E-05   -0.33519E-06  5648   0.752E-03    0.776E-03
DAV:  17    -0.161886646936E+03   -0.33114E-05   -0.16325E-06  5496   0.509E-03    0.599E-03
DAV:  18    -0.161886648427E+03   -0.14911E-05   -0.76893E-07  5072   0.341E-03    0.309E-03
DAV:  19    -0.161886650050E+03   -0.16228E-05   -0.41910E-07  4944   0.250E-03    0.177E-03
DAV:  20    -0.161886651217E+03   -0.11673E-05   -0.15987E-07  5040   0.184E-03    0.126E-03
DAV:  21    -0.161886651907E+03   -0.69012E-06   -0.82872E-08  5024   0.111E-03
   5 F= -.16812404E+03 E0= -.16811117E+03  d E =-.140002E-01  mag=    25.0000
 curvature:  -2.75 expect dE=-0.110E-01 dE for cont linesearch -0.276E-03
 ZBRENT: extrapolating
 opt :   3.5482  next Energy=  -168.124343 (dE=-0.143E-01)
 bond charge predicted
       N       E                     dE             d eps       ncg     rms          rms(c)
DAV:   1    -0.161884345251E+03    0.23060E-02   -0.35922E-01  7952   0.119E+00    0.356E-01
DAV:   2    -0.161887249699E+03   -0.29044E-02   -0.26672E-02 11224   0.636E-01    0.871E-01
DAV:   3    -0.161886788624E+03    0.46108E-03   -0.15690E-02 11392   0.615E-01    0.623E-01
DAV:   4    -0.161886687925E+03    0.10070E-03   -0.57415E-03 11296   0.305E-01    0.538E-01
DAV:   5    -0.161886331872E+03    0.35605E-03   -0.19530E-03 11248   0.176E-01    0.154E-01
DAV:   6    -0.161886372647E+03   -0.40775E-04   -0.10395E-04 11480   0.748E-02    0.113E-01
DAV:   7    -0.161886362406E+03    0.10241E-04   -0.14204E-04 11632   0.523E-02    0.728E-02
DAV:   8    -0.161886378153E+03   -0.15747E-04   -0.72356E-05 12944   0.580E-02    0.775E-02
DAV:   9    -0.161886368756E+03    0.93966E-05   -0.44967E-05 11560   0.475E-02    0.434E-02
DAV:  10    -0.161886379732E+03   -0.10976E-04   -0.21010E-05  8896   0.294E-02    0.326E-02
DAV:  11    -0.161886381956E+03   -0.22237E-05   -0.24689E-05 10536   0.345E-02    0.265E-02
DAV:  12    -0.161886382416E+03   -0.45999E-06   -0.67245E-06  6952   0.205E-02
   6 F= -.16812435E+03 E0= -.16811143E+03  d E =-.143102E-01  mag=    25.0000
 curvature:  -2.98 expect dE=-0.158E-01 dE for cont linesearch -0.647E-05
 trial: gam= 0.67141 g(F)=  0.531E-02 g(S)=  0.000E+00 ort = 0.171E-03 (trialstep = 0.146E+01)
 search vector abs. value=  0.116E-01
 bond charge predicted
       N       E                     dE             d eps       ncg     rms          rms(c)
DAV:   1    -0.161877419046E+03    0.89629E-02   -0.26249E+00  7904   0.323E+00    0.953E-01
DAV:   2    -0.161896378555E+03   -0.18960E-01   -0.17026E-01 11208   0.164E+00    0.202E+00
DAV:   3    -0.161896371047E+03    0.75084E-05   -0.12314E-01 11448   0.168E+00    0.212E+00
DAV:   4    -0.161895424407E+03    0.94664E-03   -0.68187E-02 11496   0.879E-01    0.195E+00
DAV:   5    -0.161891256040E+03    0.41684E-02   -0.19669E-02 11408   0.601E-01    0.397E-01
DAV:   6    -0.161891639882E+03   -0.38384E-03   -0.16750E-03 12248   0.263E-01    0.324E-01
DAV:   7    -0.161891564625E+03    0.75256E-04   -0.90147E-04 11992   0.152E-01    0.188E-01
DAV:   8    -0.161891692218E+03   -0.12759E-03   -0.62768E-04 13208   0.156E-01    0.255E-01
DAV:   9    -0.161891612356E+03    0.79862E-04   -0.41664E-04 12600   0.124E-01    0.115E-01
DAV:  10    -0.161891712259E+03   -0.99903E-04   -0.32834E-04 13280   0.115E-01    0.140E-01
DAV:  11    -0.161891687832E+03    0.24427E-04   -0.30002E-04 12104   0.117E-01    0.820E-02
DAV:  12    -0.161891705773E+03   -0.17941E-04   -0.48549E-05 13024   0.549E-02    0.423E-02
DAV:  13    -0.161891721679E+03   -0.15906E-04   -0.14046E-05 11128   0.190E-02    0.199E-02
DAV:  14    -0.161891732917E+03   -0.11238E-04   -0.47772E-06  7480   0.112E-02    0.136E-02
DAV:  15    -0.161891740293E+03   -0.73766E-05   -0.41314E-06  7776   0.874E-03    0.128E-02
DAV:  16    -0.161891744055E+03   -0.37616E-05   -0.85683E-07  5120   0.519E-03    0.486E-03
DAV:  17    -0.161891747392E+03   -0.33371E-05   -0.71488E-07  5408   0.301E-03    0.274E-03
DAV:  18    -0.161891749509E+03   -0.21169E-05   -0.33601E-07  5024   0.254E-03    0.194E-03
DAV:  19    -0.161891751094E+03   -0.15855E-05   -0.17821E-07  4976   0.165E-03    0.101E-03
DAV:  20    -0.161891752769E+03   -0.16743E-05   -0.11429E-07  5064   0.127E-03    0.864E-04
DAV:  21    -0.161891753801E+03   -0.10326E-05   -0.67536E-08  5008   0.107E-03    0.991E-04
DAV:  22    -0.161891755459E+03   -0.16573E-05   -0.68768E-08  4960   0.810E-04    0.824E-04
DAV:  23    -0.161891758043E+03   -0.25846E-05   -0.12211E-07  5232   0.939E-04    0.982E-04
DAV:  24    -0.161891759209E+03   -0.11656E-05   -0.81456E-08  4992   0.907E-04    0.535E-04
DAV:  25    -0.161891759968E+03   -0.75884E-06   -0.58438E-08  4984   0.620E-04
   7 F= -.16813020E+03 E0= -.16811721E+03  d E =-.584694E-02  mag=    25.0000
 trial-energy change:   -0.005847  1 .order   -0.005939   -0.007949   -0.003928
 step:   3.6287(harm=  2.8957)  dis= 0.02538  next Energy=  -168.132807 (dE=-0.845E-02)
 bond charge predicted
       N       E                     dE             d eps       ncg     rms          rms(c)
DAV:   1    -0.161861385269E+03    0.30374E-01   -0.57314E+00  7904   0.477E+00    0.148E+00
DAV:   2    -0.161907449993E+03   -0.46065E-01   -0.39139E-01 11224   0.263E+00    0.312E+00
DAV:   3    -0.161900932690E+03    0.65173E-02   -0.23532E-01 11368   0.269E+00    0.258E+00
DAV:   4    -0.161900632161E+03    0.30053E-03   -0.13278E-01 11632   0.123E+00    0.298E+00
DAV:   5    -0.161891558895E+03    0.90733E-02   -0.55393E-02 11328   0.862E-01    0.578E-01
DAV:   6    -0.161892675357E+03   -0.11165E-02   -0.42131E-03 12328   0.443E-01    0.521E-01
DAV:   7    -0.161892504464E+03    0.17089E-03   -0.19785E-03 12640   0.269E-01    0.364E-01
DAV:   8    -0.161892642503E+03   -0.13804E-03   -0.17102E-03 11928   0.214E-01    0.415E-01
DAV:   9    -0.161892496786E+03    0.14572E-03   -0.77479E-04 11896   0.167E-01    0.188E-01
DAV:  10    -0.161892603653E+03   -0.10687E-03   -0.40221E-04 12752   0.141E-01    0.168E-01
DAV:  11    -0.161892684858E+03   -0.81205E-04   -0.40007E-04 13168   0.128E-01    0.165E-01
DAV:  12    -0.161892666186E+03    0.18672E-04   -0.23337E-04 13040   0.116E-01    0.126E-01
DAV:  13    -0.161892678757E+03   -0.12571E-04   -0.73658E-05 12664   0.580E-02    0.760E-02
DAV:  14    -0.161892702586E+03   -0.23829E-04   -0.45244E-05 11544   0.246E-02    0.203E-02
DAV:  15    -0.161892721854E+03   -0.19268E-04   -0.64164E-06  8528   0.127E-02    0.185E-02
DAV:  16    -0.161892730237E+03   -0.83828E-05   -0.18275E-06  5672   0.874E-03    0.755E-03
DAV:  17    -0.161892738545E+03   -0.83085E-05   -0.22024E-06  5944   0.581E-03    0.449E-03
DAV:  18    -0.161892742975E+03   -0.44300E-05   -0.95584E-07  5112   0.428E-03    0.212E-03
DAV:  19    -0.161892746598E+03   -0.36230E-05   -0.48645E-07  5184   0.249E-03    0.226E-03
DAV:  20    -0.161892749138E+03   -0.25400E-05   -0.23228E-07  4992   0.223E-03    0.179E-03
DAV:  21    -0.161892751722E+03   -0.25841E-05   -0.17582E-07  5024   0.138E-03    0.160E-03
DAV:  22    -0.161892755183E+03   -0.34603E-05   -0.15537E-07  5192   0.147E-03    0.184E-03
DAV:  23    -0.161892758281E+03   -0.30983E-05   -0.18358E-07  5056   0.121E-03    0.112E-03
DAV:  24    -0.161892760488E+03   -0.22066E-05   -0.13674E-07  5056   0.116E-03    0.795E-04
DAV:  25    -0.161892761545E+03   -0.10572E-05   -0.83032E-08  5032   0.860E-04    0.542E-04
DAV:  26    -0.161892762532E+03   -0.98765E-06   -0.58579E-08  4984   0.648E-04
   8 F= -.16813187E+03 E0= -.16811886E+03  d E =-.752006E-02  mag=    25.0000
 curvature:  -2.28 expect dE=-0.108E-01 dE for cont linesearch -0.236E-03
 ZBRENT: interpolating
 opt :   3.0014  next Energy=  -168.132218 (dE=-0.786E-02)
 bond charge predicted
       N       E                     dE             d eps       ncg     rms          rms(c)
DAV:   1    -0.161890702377E+03    0.20592E-02   -0.48180E-01  7920   0.138E+00    0.424E-01
DAV:   2    -0.161894452561E+03   -0.37502E-02   -0.30613E-02 11320   0.728E-01    0.102E+00
DAV:   3    -0.161893810503E+03    0.64206E-03   -0.14852E-02 11448   0.764E-01    0.655E-01
DAV:   4    -0.161893384158E+03    0.42634E-03   -0.15609E-03 11504   0.293E-01    0.331E-01
DAV:   5    -0.161893265049E+03    0.11911E-03   -0.10911E-03 11592   0.143E-01    0.179E-01
DAV:   6    -0.161893280037E+03   -0.14988E-04   -0.27535E-04 11888   0.741E-02    0.136E-01
DAV:   7    -0.161893258041E+03    0.21995E-04   -0.14640E-04 11632   0.579E-02    0.776E-02
DAV:   8    -0.161893301964E+03   -0.43923E-04   -0.14992E-04 13360   0.785E-02    0.110E-01
DAV:   9    -0.161893274876E+03    0.27088E-04   -0.11514E-04 12608   0.701E-02    0.497E-02
DAV:  10    -0.161893294893E+03   -0.20017E-04   -0.33505E-05 10560   0.390E-02    0.447E-02
DAV:  11    -0.161893295514E+03   -0.62074E-06   -0.22974E-05  9688   0.366E-02    0.254E-02
DAV:  12    -0.161893300823E+03   -0.53088E-05   -0.45992E-06  7000   0.184E-02    0.108E-02
DAV:  13    -0.161893306131E+03   -0.53081E-05   -0.29774E-06  5728   0.951E-03    0.711E-03
DAV:  14    -0.161893308267E+03   -0.21359E-05   -0.11373E-06  5032   0.608E-03    0.427E-03
DAV:  15    -0.161893309503E+03   -0.12366E-05   -0.54462E-07  5056   0.330E-03    0.361E-03
DAV:  16    -0.161893310804E+03   -0.13007E-05   -0.25570E-07  4928   0.241E-03    0.224E-03
DAV:  17    -0.161893311319E+03   -0.51510E-06   -0.13587E-07  5088   0.167E-03
   9 F= -.16813223E+03 E0= -.16811921E+03  d E =-.787726E-02  mag=    25.0000
 curvature:  -3.32 expect dE=-0.102E-01 dE for cont linesearch -0.163E-07
 trial: gam= 0.59634 g(F)=  0.308E-02 g(S)=  0.000E+00 ort =-0.753E-05 (trialstep = 0.177E+01)
 search vector abs. value=  0.720E-02
 bond charge predicted
       N       E                     dE             d eps       ncg     rms          rms(c)
DAV:   1    -0.161884462207E+03    0.88486E-02   -0.22603E+00  7928   0.303E+00    0.908E-01
DAV:   2    -0.161905697638E+03   -0.21235E-01   -0.18305E-01 11208   0.168E+00    0.270E+00
DAV:   3    -0.161899744713E+03    0.59529E-02   -0.14902E-01 11376   0.164E+00    0.188E+00
DAV:   4    -0.161901818887E+03   -0.20742E-02   -0.59652E-02 11520   0.899E-01    0.213E+00
DAV:   5    -0.161896928890E+03    0.48900E-02   -0.21595E-02 11536   0.614E-01    0.393E-01
DAV:   6    -0.161897293922E+03   -0.36503E-03   -0.16506E-03 11944   0.267E-01    0.288E-01
DAV:   7    -0.161897271633E+03    0.22289E-04   -0.57613E-04 12112   0.119E-01    0.166E-01
DAV:   8    -0.161897387958E+03   -0.11633E-03   -0.50033E-04 13520   0.139E-01    0.232E-01
DAV:   9    -0.161897285894E+03    0.10206E-03   -0.51169E-04 13256   0.151E-01    0.114E-01
DAV:  10    -0.161897336271E+03   -0.50377E-04   -0.13520E-04 12088   0.801E-02    0.916E-02
DAV:  11    -0.161897353822E+03   -0.17551E-04   -0.12038E-04 13368   0.710E-02    0.838E-02
DAV:  12    -0.161897357003E+03   -0.31813E-05   -0.35579E-05 11680   0.449E-02    0.439E-02
DAV:  13    -0.161897380191E+03   -0.23188E-04   -0.84685E-06  8368   0.191E-02    0.215E-02
DAV:  14    -0.161897408987E+03   -0.28796E-04   -0.69961E-06  8712   0.115E-02    0.123E-02
DAV:  15    -0.161897426724E+03   -0.17737E-04   -0.15284E-06  5480   0.689E-03    0.105E-02
DAV:  16    -0.161897442908E+03   -0.16184E-04   -0.12494E-06  5672   0.583E-03    0.388E-03
DAV:  17    -0.161897455178E+03   -0.12270E-04   -0.10893E-06  5272   0.380E-03    0.370E-03
DAV:  18    -0.161897461092E+03   -0.59135E-05   -0.47817E-07  5104   0.298E-03    0.196E-03
DAV:  19    -0.161897467619E+03   -0.65273E-05   -0.28192E-07  5064   0.186E-03    0.853E-04
DAV:  20    -0.161897473520E+03   -0.59009E-05   -0.17832E-07  5064   0.158E-03    0.951E-04
DAV:  21    -0.161897477315E+03   -0.37955E-05   -0.11950E-07  5040   0.113E-03    0.742E-04
DAV:  22    -0.161897481270E+03   -0.39547E-05   -0.10726E-07  5064   0.914E-04    0.664E-04
DAV:  23    -0.161897485087E+03   -0.38168E-05   -0.10691E-07  5056   0.854E-04    0.491E-04
DAV:  24    -0.161897487449E+03   -0.23625E-05   -0.88216E-08  4976   0.816E-04    0.597E-04
DAV:  25    -0.161897489506E+03   -0.20563E-05   -0.96649E-08  5000   0.764E-04    0.423E-04
DAV:  26    -0.161897490314E+03   -0.80835E-06   -0.59432E-08  5016   0.722E-04
  10 F= -.16813634E+03 E0= -.16812340E+03  d E =-.410930E-02  mag=    25.0000
 trial-energy change:   -0.004109  1 .order   -0.004111   -0.005459   -0.002764
 step:   3.5896(harm=  3.5896)  dis= 0.02160  next Energy=  -168.137760 (dE=-0.553E-02)
 bond charge predicted
       N       E                     dE             d eps       ncg     rms          rms(c)
DAV:   1    -0.161885238386E+03    0.12251E-01   -0.23779E+00  7904   0.311E+00    0.932E-01
DAV:   2    -0.161907115922E+03   -0.21878E-01   -0.18685E-01 11224   0.172E+00    0.266E+00
DAV:   3    -0.161901500588E+03    0.56153E-02   -0.14696E-01 11328   0.169E+00    0.191E+00
DAV:   4    -0.161903761001E+03   -0.22604E-02   -0.67699E-02 11488   0.910E-01    0.228E+00
DAV:   5    -0.161898301768E+03    0.54592E-02   -0.23836E-02 11448   0.638E-01    0.395E-01
DAV:   6    -0.161898749901E+03   -0.44813E-03   -0.17758E-03 11992   0.283E-01    0.293E-01
DAV:   7    -0.161898735655E+03    0.14246E-04   -0.64009E-04 12824   0.143E-01    0.180E-01
DAV:   8    -0.161898802855E+03   -0.67200E-04   -0.39322E-04 12016   0.119E-01    0.229E-01
DAV:   9    -0.161898758016E+03    0.44839E-04   -0.30506E-04 12304   0.111E-01    0.121E-01
DAV:  10    -0.161898803382E+03   -0.45366E-04   -0.23091E-04 13240   0.101E-01    0.107E-01
DAV:  11    -0.161898814986E+03   -0.11604E-04   -0.18257E-04 13256   0.907E-02    0.894E-02
DAV:  12    -0.161898817442E+03   -0.24560E-05   -0.49467E-05 12560   0.536E-02    0.455E-02
DAV:  13    -0.161898842061E+03   -0.24619E-04   -0.10301E-05 10248   0.183E-02    0.242E-02
DAV:  14    -0.161898872797E+03   -0.30736E-04   -0.61318E-06  7432   0.107E-02    0.134E-02
DAV:  15    -0.161898892963E+03   -0.20166E-04   -0.27384E-06  5920   0.797E-03    0.121E-02
DAV:  16    -0.161898908092E+03   -0.15130E-04   -0.13345E-06  5504   0.643E-03    0.406E-03
DAV:  17    -0.161898920580E+03   -0.12488E-04   -0.11041E-06  5448   0.363E-03    0.351E-03
DAV:  18    -0.161898927860E+03   -0.72797E-05   -0.49052E-07  5008   0.305E-03    0.160E-03
DAV:  19    -0.161898936209E+03   -0.83488E-05   -0.32313E-07  5176   0.198E-03    0.113E-03
DAV:  20    -0.161898941555E+03   -0.53457E-05   -0.19748E-07  5000   0.153E-03    0.996E-04
DAV:  21    -0.161898945785E+03   -0.42308E-05   -0.13013E-07  4968   0.116E-03    0.906E-04
DAV:  22    -0.161898949139E+03   -0.33535E-05   -0.96237E-08  5088   0.972E-04    0.572E-04
DAV:  23    -0.161898952836E+03   -0.36970E-05   -0.10190E-07  5056   0.794E-04    0.911E-04
DAV:  24    -0.161898956373E+03   -0.35372E-05   -0.11079E-07  5000   0.852E-04    0.455E-04
DAV:  25    -0.161898958778E+03   -0.24046E-05   -0.11558E-07  5144   0.850E-04    0.433E-04
DAV:  26    -0.161898959385E+03   -0.60751E-06   -0.60228E-08  5072   0.762E-04
  11 F= -.16813773E+03 E0= -.16812487E+03  d E =-.549366E-02  mag=    25.0000
 curvature:  -4.19 expect dE=-0.128E-01 dE for cont linesearch -0.620E-06
 trial: gam= 0.98718 g(F)=  0.305E-02 g(S)=  0.000E+00 ort =-0.326E-04 (trialstep = 0.154E+01)
 search vector abs. value=  0.100E-01
 bond charge predicted
       N       E                     dE             d eps       ncg     rms          rms(c)
DAV:   1    -0.161888641294E+03    0.10317E-01   -0.19591E+00  7904   0.287E+00    0.859E-01
DAV:   2    -0.161908779410E+03   -0.20138E-01   -0.17523E-01 11264   0.155E+00    0.266E+00
DAV:   3    -0.161903763329E+03    0.50161E-02   -0.14128E-01 11296   0.149E+00    0.176E+00
DAV:   4    -0.161905707129E+03   -0.19438E-02   -0.43503E-02 11376   0.831E-01    0.190E+00
DAV:   5    -0.161901523250E+03    0.41839E-02   -0.13902E-02 11496   0.569E-01    0.335E-01
DAV:   6    -0.161901927970E+03   -0.40472E-03   -0.11099E-03 12400   0.213E-01    0.270E-01
DAV:   7    -0.161901886594E+03    0.41375E-04   -0.54535E-04 12848   0.129E-01    0.184E-01
DAV:   8    -0.161901933067E+03   -0.46473E-04   -0.40108E-04 12928   0.113E-01    0.216E-01
DAV:   9    -0.161901873088E+03    0.59979E-04   -0.24923E-04 12496   0.100E-01    0.882E-02
DAV:  10    -0.161901913332E+03   -0.40243E-04   -0.11234E-04 12120   0.643E-02    0.750E-02
DAV:  11    -0.161901922060E+03   -0.87278E-05   -0.81626E-05 13504   0.642E-02    0.580E-02
DAV:  12    -0.161901926673E+03   -0.46134E-05   -0.41695E-05 11048   0.454E-02    0.493E-02
DAV:  13    -0.161901934809E+03   -0.81359E-05   -0.12289E-05  7352   0.266E-02    0.211E-02
DAV:  14    -0.161901953210E+03   -0.18401E-04   -0.58722E-06  7896   0.114E-02    0.155E-02
DAV:  15    -0.161901963830E+03   -0.10620E-04   -0.19185E-06  5664   0.649E-03    0.939E-03
DAV:  16    -0.161901971564E+03   -0.77332E-05   -0.91422E-07  5032   0.438E-03    0.312E-03
DAV:  17    -0.161901976691E+03   -0.51270E-05   -0.51791E-07  5104   0.323E-03    0.266E-03
DAV:  18    -0.161901980227E+03   -0.35364E-05   -0.27745E-07  4984   0.226E-03    0.156E-03
DAV:  19    -0.161901985231E+03   -0.50042E-05   -0.19907E-07  5040   0.183E-03    0.102E-03
DAV:  20    -0.161901988394E+03   -0.31632E-05   -0.12976E-07  5024   0.132E-03    0.133E-03
DAV:  21    -0.161901990445E+03   -0.20501E-05   -0.79299E-08  4944   0.111E-03    0.726E-04
DAV:  22    -0.161901991925E+03   -0.14804E-05   -0.55330E-08  4984   0.677E-04    0.435E-04
DAV:  23    -0.161901993232E+03   -0.13075E-05   -0.32378E-08  4936   0.608E-04    0.534E-04
DAV:  24    -0.161901994750E+03   -0.15179E-05   -0.34205E-08  4864   0.435E-04    0.471E-04
DAV:  25    -0.161901996562E+03   -0.18115E-05   -0.45572E-08  5152   0.502E-04    0.322E-04
DAV:  26    -0.161901997111E+03   -0.54886E-06   -0.25739E-08  5032   0.480E-04
  12 F= -.16814068E+03 E0= -.16812771E+03  d E =-.295676E-02  mag=    25.0000
 trial-energy change:   -0.002957  1 .order   -0.002964   -0.004643   -0.001285
 step:   2.1245(harm=  2.1245)  dis= 0.01390  next Energy=  -168.140935 (dE=-0.321E-02)
 bond charge predicted
       N       E                     dE             d eps       ncg     rms          rms(c)
DAV:   1    -0.161900321664E+03    0.16749E-02   -0.28694E-01  7904   0.110E+00    0.327E-01
DAV:   2    -0.161903148829E+03   -0.28272E-02   -0.25806E-02 11184   0.587E-01    0.978E-01
DAV:   3    -0.161902550901E+03    0.59793E-03   -0.20225E-02 11176   0.559E-01    0.757E-01
DAV:   4    -0.161902692037E+03   -0.14114E-03   -0.60650E-03 11192   0.332E-01    0.631E-01
DAV:   5    -0.161902184293E+03    0.50774E-03   -0.11104E-03 11312   0.218E-01    0.106E-01
DAV:   6    -0.161902250212E+03   -0.65920E-04   -0.14016E-04 12688   0.722E-02    0.932E-02
DAV:   7    -0.161902242844E+03    0.73682E-05   -0.75426E-05 12496   0.497E-02    0.683E-02
DAV:   8    -0.161902254777E+03   -0.11932E-04   -0.62771E-05 12448   0.458E-02    0.818E-02
DAV:   9    -0.161902245149E+03    0.96280E-05   -0.45683E-05 11496   0.433E-02    0.304E-02
DAV:  10    -0.161902254990E+03   -0.98416E-05   -0.14873E-05 11432   0.180E-02    0.206E-02
DAV:  11    -0.161902257509E+03   -0.25193E-05   -0.59092E-06  6952   0.188E-02    0.189E-02
DAV:  12    -0.161902259156E+03   -0.16463E-05   -0.34174E-06  5968   0.137E-02    0.149E-02
DAV:  13    -0.161902261288E+03   -0.21320E-05   -0.13330E-06  5264   0.891E-03    0.736E-03
DAV:  14    -0.161902265125E+03   -0.38375E-05   -0.71589E-07  4848   0.487E-03    0.338E-03
DAV:  15    -0.161902267630E+03   -0.25042E-05   -0.44663E-07  5040   0.284E-03    0.327E-03
DAV:  16    -0.161902269359E+03   -0.17293E-05   -0.18691E-07  4912   0.194E-03    0.147E-03
DAV:  17    -0.161902270651E+03   -0.12926E-05   -0.88467E-08  4976   0.129E-03    0.159E-03
DAV:  18    -0.161902271388E+03   -0.73613E-06   -0.45044E-08  4960   0.103E-03
  13 F= -.16814092E+03 E0= -.16812791E+03  d E =-.319758E-02  mag=    25.0000
 curvature:  -3.52 expect dE=-0.984E-02 dE for cont linesearch -0.291E-07
 trial: gam= 0.88245 g(F)=  0.280E-02 g(S)=  0.000E+00 ort =-0.910E-05 (trialstep = 0.156E+01)
 search vector abs. value=  0.106E-01
 bond charge predicted
       N       E                     dE             d eps       ncg     rms          rms(c)
DAV:   1    -0.161889498535E+03    0.12772E-01   -0.22631E+00  7904   0.309E+00    0.939E-01
DAV:   2    -0.161912299052E+03   -0.22801E-01   -0.19057E-01 11320   0.161E+00    0.284E+00
DAV:   3    -0.161907075621E+03    0.52234E-02   -0.15571E-01 11304   0.163E+00    0.204E+00
DAV:   4    -0.161908644025E+03   -0.15684E-02   -0.49855E-02 11376   0.920E-01    0.187E+00
DAV:   5    -0.161904319250E+03    0.43248E-02   -0.13284E-02 11520   0.623E-01    0.344E-01
DAV:   6    -0.161904710213E+03   -0.39096E-03   -0.13642E-03 12544   0.225E-01    0.283E-01
DAV:   7    -0.161904706621E+03    0.35924E-05   -0.57599E-04 12448   0.126E-01    0.203E-01
DAV:   8    -0.161904733835E+03   -0.27214E-04   -0.43374E-04 12240   0.115E-01    0.204E-01
DAV:   9    -0.161904731731E+03    0.21045E-05   -0.30447E-04 11712   0.108E-01    0.128E-01
DAV:  10    -0.161904773207E+03   -0.41476E-04   -0.16991E-04 13248   0.967E-02    0.817E-02
DAV:  11    -0.161904815501E+03   -0.42293E-04   -0.17123E-04 13224   0.903E-02    0.840E-02
DAV:  12    -0.161904804151E+03    0.11350E-04   -0.79092E-05 12872   0.679E-02    0.378E-02
DAV:  13    -0.161904825503E+03   -0.21352E-04   -0.10905E-05  9960   0.202E-02    0.198E-02
DAV:  14    -0.161904840585E+03   -0.15083E-04   -0.38575E-06  6872   0.114E-02    0.139E-02
DAV:  15    -0.161904850674E+03   -0.10089E-04   -0.20990E-06  5568   0.804E-03    0.108E-02
DAV:  16    -0.161904857497E+03   -0.68232E-05   -0.15676E-06  5040   0.558E-03    0.283E-03
DAV:  17    -0.161904862613E+03   -0.51154E-05   -0.89926E-07  5280   0.377E-03    0.322E-03
DAV:  18    -0.161904864651E+03   -0.20387E-05   -0.38485E-07  5080   0.219E-03    0.177E-03
DAV:  19    -0.161904868267E+03   -0.36156E-05   -0.18609E-07  4840   0.185E-03    0.161E-03
DAV:  20    -0.161904870644E+03   -0.23770E-05   -0.99382E-08  4992   0.131E-03    0.107E-03
DAV:  21    -0.161904872526E+03   -0.18820E-05   -0.80394E-08  4976   0.969E-04    0.896E-04
DAV:  22    -0.161904874133E+03   -0.16067E-05   -0.64585E-08  4976   0.811E-04    0.453E-04
DAV:  23    -0.161904874882E+03   -0.74980E-06   -0.37083E-08  5024   0.624E-04
  14 F= -.16814363E+03 E0= -.16813049E+03  d E =-.270469E-02  mag=    25.0000
 trial-energy change:   -0.002705  1 .order   -0.002687   -0.004369   -0.001005
 step:   2.0141(harm=  2.0324)  dis= 0.01067  next Energy=  -168.143772 (dE=-0.285E-02)
 bond charge predicted
       N       E                     dE             d eps       ncg     rms          rms(c)
DAV:   1    -0.161903735016E+03    0.11391E-02   -0.18654E-01  7904   0.887E-01    0.268E-01
DAV:   2    -0.161905541185E+03   -0.18062E-02   -0.16026E-02 11352   0.456E-01    0.820E-01
DAV:   3    -0.161905157547E+03    0.38364E-03   -0.13627E-02 11168   0.458E-01    0.655E-01
DAV:   4    -0.161905205753E+03   -0.48206E-04   -0.35614E-03 11112   0.278E-01    0.446E-01
DAV:   5    -0.161904932876E+03    0.27288E-03   -0.53332E-04 11320   0.180E-01    0.769E-02
DAV:   6    -0.161904973226E+03   -0.40350E-04   -0.87816E-05 12792   0.543E-02    0.696E-02
DAV:   7    -0.161904974636E+03   -0.14108E-05   -0.42681E-05 11272   0.363E-02    0.548E-02
DAV:   8    -0.161904981922E+03   -0.72856E-05   -0.38468E-05 10640   0.349E-02    0.624E-02
DAV:   9    -0.161904982499E+03   -0.57678E-06   -0.35841E-05 11304   0.350E-02    0.343E-02
DAV:  10    -0.161904988978E+03   -0.64792E-05   -0.91942E-06  7944   0.251E-02    0.236E-02
DAV:  11    -0.161904993094E+03   -0.41161E-05   -0.12841E-05 10264   0.223E-02    0.196E-02
DAV:  12    -0.161904993593E+03   -0.49865E-06   -0.37137E-06  6208   0.152E-02
  15 F= -.16814377E+03 E0= -.16813060E+03  d E =-.285029E-02  mag=    25.0000
 curvature:  -3.84 expect dE=-0.658E-02 dE for cont linesearch -0.183E-05
 trial: gam= 0.58525 g(F)=  0.171E-02 g(S)=  0.000E+00 ort = 0.710E-04 (trialstep = 0.165E+01)
 search vector abs. value=  0.542E-02
 bond charge predicted
       N       E                     dE             d eps       ncg     rms          rms(c)
DAV:   1    -0.161898886750E+03    0.61063E-02   -0.13229E+00  7904   0.235E+00    0.678E-01
DAV:   2    -0.161908545494E+03   -0.96587E-02   -0.87558E-02 11152   0.108E+00    0.140E+00
DAV:   3    -0.161910746411E+03   -0.22009E-02   -0.67223E-02 11400   0.107E+00    0.196E+00
DAV:   4    -0.161908792609E+03    0.19538E-02   -0.38759E-02 11360   0.655E-01    0.134E+00
DAV:   5    -0.161907038946E+03    0.17537E-02   -0.64286E-03 11496   0.436E-01    0.288E-01
DAV:   6    -0.161907236031E+03   -0.19708E-03   -0.60175E-04 11784   0.126E-01    0.210E-01
DAV:   7    -0.161907185490E+03    0.50541E-04   -0.23353E-04 11936   0.754E-02    0.132E-01
DAV:   8    -0.161907233961E+03   -0.48471E-04   -0.28513E-04 11808   0.893E-02    0.172E-01
DAV:   9    -0.161907208283E+03    0.25679E-04   -0.20051E-04 11736   0.864E-02    0.621E-02
DAV:  10    -0.161907251285E+03   -0.43002E-04   -0.92078E-05 13776   0.656E-02    0.568E-02
DAV:  11    -0.161907257037E+03   -0.57518E-05   -0.71819E-05 12152   0.644E-02    0.334E-02
DAV:  12    -0.161907270459E+03   -0.13422E-04   -0.14789E-05  7992   0.340E-02    0.215E-02
DAV:  13    -0.161907289646E+03   -0.19187E-04   -0.32730E-06  6768   0.172E-02    0.107E-02
DAV:  14    -0.161907316858E+03   -0.27212E-04   -0.24508E-06  5632   0.743E-03    0.898E-03
DAV:  15    -0.161907331364E+03   -0.14507E-04   -0.12515E-06  5232   0.541E-03    0.647E-03
DAV:  16    -0.161907343243E+03   -0.11879E-04   -0.67169E-07  5376   0.346E-03    0.259E-03
DAV:  17    -0.161907352461E+03   -0.92186E-05   -0.39532E-07  4992   0.258E-03    0.220E-03
DAV:  18    -0.161907359439E+03   -0.69773E-05   -0.25606E-07  4944   0.205E-03    0.157E-03
DAV:  19    -0.161907367303E+03   -0.78643E-05   -0.21559E-07  5288   0.160E-03    0.100E-03
DAV:  20    -0.161907374435E+03   -0.71320E-05   -0.19203E-07  4928   0.123E-03    0.894E-04
DAV:  21    -0.161907377242E+03   -0.28073E-05   -0.96180E-08  5048   0.105E-03    0.587E-04
DAV:  22    -0.161907380106E+03   -0.28634E-05   -0.77635E-08  4936   0.694E-04    0.403E-04
DAV:  23    -0.161907382862E+03   -0.27563E-05   -0.58504E-08  5048   0.699E-04    0.417E-04
DAV:  24    -0.161907384895E+03   -0.20335E-05   -0.52813E-08  4944   0.567E-04    0.300E-04
DAV:  25    -0.161907387261E+03   -0.23653E-05   -0.64933E-08  5144   0.587E-04    0.306E-04
DAV:  26    -0.161907388180E+03   -0.91925E-06   -0.41810E-08  4960   0.578E-04
  16 F= -.16814603E+03 E0= -.16813289E+03  d E =-.225193E-02  mag=    25.0000
 trial-energy change:   -0.002252  1 .order   -0.002253   -0.002901   -0.001605
 step:   3.7050(harm=  3.7050)  dis= 0.01700  next Energy=  -168.147021 (dE=-0.325E-02)
 bond charge predicted
       N       E                     dE             d eps       ncg     rms          rms(c)
DAV:   1    -0.161895536161E+03    0.11851E-01   -0.20316E+00  7904   0.291E+00    0.836E-01
DAV:   2    -0.161910254296E+03   -0.14718E-01   -0.13400E-01 11160   0.132E+00    0.169E+00
DAV:   3    -0.161914147955E+03   -0.38937E-02   -0.10650E-01 11392   0.131E+00    0.251E+00
DAV:   4    -0.161910763216E+03    0.33847E-02   -0.62729E-02 11296   0.818E-01    0.164E+00
DAV:   5    -0.161908200939E+03    0.25623E-02   -0.10485E-02 11448   0.543E-01    0.396E-01
DAV:   6    -0.161908394259E+03   -0.19332E-03   -0.10175E-03 11784   0.161E-01    0.265E-01
DAV:   7    -0.161908303197E+03    0.91061E-04   -0.35239E-04 11848   0.893E-02    0.157E-01
DAV:   8    -0.161908376769E+03   -0.73572E-04   -0.38873E-04 11808   0.104E-01    0.203E-01
DAV:   9    -0.161908339916E+03    0.36854E-04   -0.29845E-04 11752   0.110E-01    0.770E-02
DAV:  10    -0.161908406797E+03   -0.66881E-04   -0.13761E-04 13712   0.807E-02    0.660E-02
DAV:  11    -0.161908416807E+03   -0.10010E-04   -0.98889E-05 12232   0.765E-02    0.402E-02
DAV:  12    -0.161908438080E+03   -0.21273E-04   -0.22063E-05  9152   0.404E-02    0.249E-02
DAV:  13    -0.161908464552E+03   -0.26472E-04   -0.48068E-06  7120   0.216E-02    0.129E-02
DAV:  14    -0.161908501840E+03   -0.37288E-04   -0.29198E-06  6112   0.918E-03    0.119E-02
DAV:  15    -0.161908522915E+03   -0.21074E-04   -0.17104E-06  5696   0.612E-03    0.795E-03
DAV:  16    -0.161908541614E+03   -0.18700E-04   -0.10003E-06  5208   0.431E-03    0.318E-03
DAV:  17    -0.161908555173E+03   -0.13558E-04   -0.62010E-07  5208   0.309E-03    0.241E-03
DAV:  18    -0.161908565981E+03   -0.10808E-04   -0.39366E-07  5104   0.256E-03    0.157E-03
DAV:  19    -0.161908576072E+03   -0.10091E-04   -0.30352E-07  5072   0.182E-03    0.107E-03
DAV:  20    -0.161908585908E+03   -0.98358E-05   -0.24496E-07  5152   0.148E-03    0.108E-03
DAV:  21    -0.161908590012E+03   -0.41044E-05   -0.13031E-07  5040   0.120E-03    0.543E-04
DAV:  22    -0.161908594950E+03   -0.49373E-05   -0.12161E-07  4984   0.839E-04    0.629E-04
DAV:  23    -0.161908600319E+03   -0.53688E-05   -0.11259E-07  5112   0.913E-04    0.569E-04
DAV:  24    -0.161908603286E+03   -0.29676E-05   -0.94748E-08  5016   0.787E-04    0.362E-04
DAV:  25    -0.161908606180E+03   -0.28937E-05   -0.10543E-07  5032   0.734E-04    0.414E-04
DAV:  26    -0.161908607050E+03   -0.86982E-06   -0.57093E-08  5064   0.698E-04
  17 F= -.16814706E+03 E0= -.16813397E+03  d E =-.328273E-02  mag=    25.0000
 curvature:  -5.72 expect dE=-0.681E-02 dE for cont linesearch -0.867E-06
 trial: gam= 0.69481 g(F)=  0.119E-02 g(S)=  0.000E+00 ort = 0.286E-04 (trialstep = 0.206E+01)
 search vector abs. value=  0.384E-02
 bond charge predicted
       N       E                     dE             d eps       ncg     rms          rms(c)
DAV:   1    -0.161901173476E+03    0.74327E-02   -0.14020E+00  7904   0.244E+00    0.756E-01
DAV:   2    -0.161916902128E+03   -0.15729E-01   -0.14484E-01 11280   0.132E+00    0.250E+00
DAV:   3    -0.161911844324E+03    0.50578E-02   -0.79289E-02 11504   0.125E+00    0.166E+00
DAV:   4    -0.161912544180E+03   -0.69986E-03   -0.26952E-02 11360   0.715E-01    0.135E+00
DAV:   5    -0.161910418784E+03    0.21254E-02   -0.70914E-03 11584   0.465E-01    0.255E-01
DAV:   6    -0.161910668574E+03   -0.24979E-03   -0.62600E-04 11752   0.142E-01    0.190E-01
DAV:   7    -0.161910601776E+03    0.66798E-04   -0.24930E-04 11960   0.770E-02    0.149E-01
DAV:   8    -0.161910596366E+03    0.54104E-05   -0.22573E-04 12504   0.950E-02    0.169E-01
DAV:   9    -0.161910523404E+03    0.72961E-04   -0.23037E-04 12864   0.921E-02    0.669E-02
DAV:  10    -0.161910564325E+03   -0.40921E-04   -0.15336E-04 13280   0.864E-02    0.730E-02
DAV:  11    -0.161910563428E+03    0.89781E-06   -0.81759E-05 11384   0.706E-02    0.282E-02
DAV:  12    -0.161910612703E+03   -0.49275E-04   -0.92448E-06  7904   0.253E-02    0.204E-02
DAV:  13    -0.161910650389E+03   -0.37687E-04   -0.39056E-06  7056   0.166E-02    0.108E-02
DAV:  14    -0.161910703481E+03   -0.53092E-04   -0.28874E-06  6672   0.870E-03    0.702E-03
DAV:  15    -0.161910732554E+03   -0.29073E-04   -0.12810E-06  5792   0.533E-03    0.580E-03
DAV:  16    -0.161910756805E+03   -0.24250E-04   -0.80057E-07  5280   0.365E-03    0.255E-03
DAV:  17    -0.161910782089E+03   -0.25285E-04   -0.67061E-07  5384   0.266E-03    0.203E-03
DAV:  18    -0.161910794011E+03   -0.11921E-04   -0.38236E-07  4992   0.194E-03    0.118E-03
DAV:  19    -0.161910816719E+03   -0.22708E-04   -0.44557E-07  5536   0.168E-03    0.136E-03
DAV:  20    -0.161910826637E+03   -0.99177E-05   -0.23749E-07  5016   0.165E-03    0.947E-04
DAV:  21    -0.161910835387E+03   -0.87499E-05   -0.22555E-07  5136   0.119E-03    0.922E-04
DAV:  22    -0.161910843256E+03   -0.78696E-05   -0.18660E-07  5088   0.126E-03    0.575E-04
DAV:  23    -0.161910848814E+03   -0.55577E-05   -0.17205E-07  5064   0.103E-03    0.513E-04
DAV:  24    -0.161910854804E+03   -0.59903E-05   -0.21958E-07  5384   0.105E-03    0.457E-04
DAV:  25    -0.161910856952E+03   -0.21477E-05   -0.14177E-07  5000   0.102E-03    0.371E-04
DAV:  26    -0.161910857844E+03   -0.89166E-06   -0.97184E-08  5072   0.782E-04
  18 F= -.16814854E+03 E0= -.16813557E+03  d E =-.148761E-02  mag=    25.0000
 trial-energy change:   -0.001488  1 .order   -0.001489   -0.002497   -0.000480
 step:   2.5559(harm=  2.5559)  dis= 0.00835  next Energy=  -168.148602 (dE=-0.155E-02)
 bond charge predicted
       N       E                     dE             d eps       ncg     rms          rms(c)
DAV:   1    -0.161910549283E+03    0.30767E-03   -0.79350E-02  8288   0.580E-01    0.179E-01
DAV:   2    -0.161911410302E+03   -0.86102E-03   -0.80304E-03 11128   0.311E-01    0.647E-01
DAV:   3    -0.161911080569E+03    0.32973E-03   -0.62988E-03 11304   0.297E-01    0.408E-01
DAV:   4    -0.161911181382E+03   -0.10081E-03   -0.13918E-03 11240   0.181E-01    0.313E-01
DAV:   5    -0.161911045525E+03    0.13586E-03   -0.34118E-04 11536   0.118E-01    0.653E-02
DAV:   6    -0.161911070129E+03   -0.24604E-04   -0.35982E-05 11288   0.336E-02    0.429E-02
DAV:   7    -0.161911066004E+03    0.41250E-05   -0.13484E-05 10480   0.165E-02    0.329E-02
DAV:   8    -0.161911064990E+03    0.10140E-05   -0.12689E-05  7504   0.250E-02    0.430E-02
DAV:   9    -0.161911057289E+03    0.77005E-05   -0.20384E-05 11064   0.259E-02    0.147E-02
DAV:  10    -0.161911061668E+03   -0.43788E-05   -0.47296E-06  6576   0.167E-02    0.138E-02
DAV:  11    -0.161911063872E+03   -0.22040E-05   -0.31903E-06  5584   0.152E-02    0.557E-03
DAV:  12    -0.161911071551E+03   -0.76795E-05   -0.83759E-07  4920   0.561E-03    0.335E-03
DAV:  13    -0.161911076683E+03   -0.51314E-05   -0.40923E-07  5080   0.375E-03    0.243E-03
DAV:  14    -0.161911080840E+03   -0.41574E-05   -0.22750E-07  5096   0.259E-03    0.169E-03
DAV:  15    -0.161911083635E+03   -0.27952E-05   -0.13458E-07  5032   0.160E-03    0.161E-03
DAV:  16    -0.161911085972E+03   -0.23370E-05   -0.85544E-08  4944   0.108E-03    0.103E-03
DAV:  17    -0.161911088379E+03   -0.24065E-05   -0.65258E-08  4920   0.735E-04    0.746E-04
DAV:  18    -0.161911089947E+03   -0.15683E-05   -0.36855E-08  4984   0.621E-04    0.581E-04
DAV:  19    -0.161911091567E+03   -0.16200E-05   -0.31204E-08  4896   0.519E-04    0.451E-04
DAV:  20    -0.161911093488E+03   -0.19209E-05   -0.37910E-08  4968   0.497E-04    0.609E-04
DAV:  21    -0.161911094469E+03   -0.98070E-06   -0.25356E-08  4968   0.524E-04
  19 F= -.16814860E+03 E0= -.16813566E+03  d E =-.154156E-02  mag=    25.0000
 curvature:  -4.06 expect dE=-0.385E-02 dE for cont linesearch -0.404E-07
 trial: gam= 0.81096 g(F)=  0.948E-03 g(S)=  0.000E+00 ort =-0.618E-05 (trialstep = 0.216E+01)
 search vector abs. value=  0.347E-02
 bond charge predicted
       N       E                     dE             d eps       ncg     rms          rms(c)
DAV:   1    -0.161903416077E+03    0.76774E-02   -0.14235E+00  7904   0.246E+00    0.728E-01
DAV:   2    -0.161918540356E+03   -0.15124E-01   -0.14501E-01 11240   0.133E+00    0.239E+00
DAV:   3    -0.161914055633E+03    0.44847E-02   -0.67302E-02 11408   0.120E+00    0.170E+00
DAV:   4    -0.161914199009E+03   -0.14338E-03   -0.24051E-02 11208   0.689E-01    0.109E+00
DAV:   5    -0.161912590769E+03    0.16082E-02   -0.53847E-03 11488   0.433E-01    0.216E-01
DAV:   6    -0.161912815477E+03   -0.22471E-03   -0.48174E-04 12488   0.136E-01    0.184E-01
DAV:   7    -0.161912773380E+03    0.42097E-04   -0.26048E-04 12760   0.965E-02    0.139E-01
DAV:   8    -0.161912778093E+03   -0.47129E-05   -0.25472E-04 13632   0.109E-01    0.139E-01
DAV:   9    -0.161912758291E+03    0.19802E-04   -0.25131E-04 13576   0.109E-01    0.868E-02
DAV:  10    -0.161912785140E+03   -0.26849E-04   -0.84938E-05 12648   0.613E-02    0.630E-02
DAV:  11    -0.161912815869E+03   -0.30730E-04   -0.44718E-05 11456   0.470E-02    0.424E-02
DAV:  12    -0.161912838060E+03   -0.22190E-04   -0.23488E-05  9264   0.374E-02    0.185E-02
DAV:  13    -0.161912888242E+03   -0.50182E-04   -0.43496E-06  6520   0.185E-02    0.993E-03
DAV:  14    -0.161912938256E+03   -0.50014E-04   -0.31736E-06  6664   0.812E-03    0.583E-03
DAV:  15    -0.161912961435E+03   -0.23179E-04   -0.12670E-06  5432   0.518E-03    0.426E-03
DAV:  16    -0.161912978857E+03   -0.17422E-04   -0.69141E-07  5072   0.327E-03    0.271E-03
DAV:  17    -0.161912998923E+03   -0.20065E-04   -0.47544E-07  5368   0.256E-03    0.187E-03
DAV:  18    -0.161913010689E+03   -0.11766E-04   -0.29769E-07  5008   0.193E-03    0.127E-03
DAV:  19    -0.161913026567E+03   -0.15878E-04   -0.29690E-07  5104   0.168E-03    0.121E-03
DAV:  20    -0.161913039872E+03   -0.13305E-04   -0.25914E-07  5184   0.155E-03    0.110E-03
DAV:  21    -0.161913045904E+03   -0.60329E-05   -0.16679E-07  5016   0.129E-03    0.686E-04
DAV:  22    -0.161913051342E+03   -0.54379E-05   -0.13276E-07  4944   0.958E-04    0.468E-04
DAV:  23    -0.161913056508E+03   -0.51654E-05   -0.10898E-07  5104   0.863E-04    0.522E-04
DAV:  24    -0.161913061816E+03   -0.53087E-05   -0.12084E-07  5000   0.801E-04    0.373E-04
DAV:  25    -0.161913067362E+03   -0.55459E-05   -0.17378E-07  5320   0.873E-04    0.503E-04
DAV:  26    -0.161913069084E+03   -0.17217E-05   -0.10112E-07  4952   0.925E-04    0.201E-04
DAV:  27    -0.161913069797E+03   -0.71278E-06   -0.69220E-08  4984   0.619E-04
  20 F= -.16814978E+03 E0= -.16813697E+03  d E =-.118131E-02  mag=    25.0000
 trial-energy change:   -0.001181  1 .order   -0.001186   -0.002040   -0.000333
 step:   2.5938(harm=  2.5847)  dis= 0.00910  next Energy=  -168.149812 (dE=-0.121E-02)
 bond charge predicted
       N       E                     dE             d eps       ncg     rms          rms(c)
DAV:   1    -0.161912879146E+03    0.18994E-03   -0.56477E-02  8264   0.489E-01    0.145E-01
DAV:   2    -0.161913455478E+03   -0.57633E-03   -0.56661E-03 11136   0.264E-01    0.542E-01
DAV:   3    -0.161913210365E+03    0.24511E-03   -0.42634E-03 11304   0.239E-01    0.328E-01
DAV:   4    -0.161913305215E+03   -0.94851E-04   -0.95178E-04 11152   0.147E-01    0.243E-01
DAV:   5    -0.161913211670E+03    0.93545E-04   -0.24194E-04 10984   0.957E-02    0.539E-02
DAV:   6    -0.161913232172E+03   -0.20501E-04   -0.19469E-05 10368   0.268E-02    0.389E-02
DAV:   7    -0.161913231810E+03    0.36178E-06   -0.10121E-05  7640   0.168E-02    0.279E-02
DAV:   8    -0.161913231245E+03    0.56521E-06   -0.15049E-05 10200   0.211E-02    0.301E-02
DAV:   9    -0.161913231007E+03    0.23753E-06   -0.88769E-06  8256   0.197E-02
  21 F= -.16814978E+03 E0= -.16813701E+03  d E =-.118333E-02  mag=    25.0000
 curvature:  -4.75 expect dE=-0.312E-02 dE for cont linesearch -0.409E-05
 trial: gam= 0.66275 g(F)=  0.656E-03 g(S)=  0.000E+00 ort = 0.546E-04 (trialstep = 0.225E+01)
 search vector abs. value=  0.225E-02
 bond charge predicted
       N       E                     dE             d eps       ncg     rms          rms(c)
DAV:   1    -0.161907127524E+03    0.61037E-02   -0.89187E-01  7904   0.195E+00    0.641E-01
DAV:   2    -0.161922233822E+03   -0.15106E-01   -0.14776E-01 11312   0.122E+00    0.289E+00
DAV:   3    -0.161912303168E+03    0.99307E-02   -0.54383E-02 11536   0.113E+00    0.911E-01
DAV:   4    -0.161914644441E+03   -0.23413E-02   -0.11709E-02 11296   0.576E-01    0.937E-01
DAV:   5    -0.161913169828E+03    0.14746E-02   -0.42976E-03 11664   0.390E-01    0.209E-01
DAV:   6    -0.161913269485E+03   -0.99658E-04   -0.23357E-04 11752   0.101E-01    0.146E-01
DAV:   7    -0.161913224613E+03    0.44873E-04   -0.16515E-04 12128   0.625E-02    0.121E-01
DAV:   8    -0.161913224628E+03   -0.14796E-07   -0.22125E-04 13608   0.981E-02    0.150E-01
DAV:   9    -0.161913182205E+03    0.42423E-04   -0.18289E-04 13248   0.872E-02    0.523E-02
DAV:  10    -0.161913241635E+03   -0.59430E-04   -0.79929E-05 13512   0.531E-02    0.606E-02
DAV:  11    -0.161913250540E+03   -0.89053E-05   -0.44065E-05 10960   0.496E-02    0.208E-02
DAV:  12    -0.161913313854E+03   -0.63313E-04   -0.44408E-06  6568   0.128E-02    0.784E-03
DAV:  13    -0.161913361950E+03   -0.48097E-04   -0.22358E-06  5968   0.931E-03    0.785E-03
DAV:  14    -0.161913390392E+03   -0.28442E-04   -0.13984E-06  5688   0.749E-03    0.641E-03
DAV:  15    -0.161913412196E+03   -0.21803E-04   -0.11212E-06  5128   0.395E-03    0.284E-03
DAV:  16    -0.161913433380E+03   -0.21184E-04   -0.72183E-07  5392   0.273E-03    0.303E-03
DAV:  17    -0.161913446071E+03   -0.12692E-04   -0.39077E-07  5016   0.206E-03    0.186E-03
DAV:  18    -0.161913458263E+03   -0.12191E-04   -0.25004E-07  5056   0.168E-03    0.114E-03
DAV:  19    -0.161913473937E+03   -0.15674E-04   -0.27337E-07  5192   0.150E-03    0.109E-03
DAV:  20    -0.161913488666E+03   -0.14729E-04   -0.29695E-07  5264   0.144E-03    0.670E-04
DAV:  21    -0.161913497865E+03   -0.91988E-05   -0.24365E-07  5008   0.130E-03    0.615E-04
DAV:  22    -0.161913502282E+03   -0.44173E-05   -0.15004E-07  4992   0.108E-03    0.431E-04
DAV:  23    -0.161913506287E+03   -0.40046E-05   -0.11798E-07  5104   0.853E-04    0.420E-04
DAV:  24    -0.161913511058E+03   -0.47718E-05   -0.12913E-07  5160   0.858E-04    0.431E-04
DAV:  25    -0.161913514222E+03   -0.31635E-05   -0.12000E-07  4960   0.886E-04    0.355E-04
DAV:  26    -0.161913515938E+03   -0.17164E-05   -0.10409E-07  5096   0.822E-04    0.359E-04
DAV:  27    -0.161913516419E+03   -0.48045E-06   -0.62133E-08  5032   0.707E-04
  22 F= -.16815029E+03 E0= -.16813768E+03  d E =-.508068E-03  mag=    25.0000
 trial-energy change:   -0.000508  1 .order   -0.000516   -0.001557    0.000525
 step:   1.6721(harm=  1.6818)  dis= 0.00370  next Energy=  -168.150356 (dE=-0.576E-03)
 bond charge predicted
       N       E                     dE             d eps       ncg     rms          rms(c)
DAV:   1    -0.161913221889E+03    0.29405E-03   -0.58796E-02  8160   0.500E-01    0.164E-01
DAV:   2    -0.161914245659E+03   -0.10238E-02   -0.92002E-03 11328   0.311E-01    0.901E-01
DAV:   3    -0.161913396215E+03    0.84944E-03   -0.73694E-03 11472   0.295E-01    0.213E-01
DAV:   4    -0.161913734953E+03   -0.33874E-03   -0.87078E-04 11328   0.150E-01    0.289E-01
DAV:   5    -0.161913594251E+03    0.14070E-03   -0.36269E-04 11568   0.106E-01    0.685E-02
DAV:   6    -0.161913614453E+03   -0.20202E-04   -0.17605E-05 10976   0.241E-02    0.496E-02
DAV:   7    -0.161913613279E+03    0.11748E-05   -0.12773E-05  7184   0.192E-02    0.323E-02
DAV:   8    -0.161913608239E+03    0.50392E-05   -0.25798E-05 11616   0.242E-02    0.307E-02
DAV:   9    -0.161913606227E+03    0.20119E-05   -0.10813E-05  8552   0.252E-02    0.278E-02
DAV:  10    -0.161913607507E+03   -0.12797E-05   -0.23355E-06  5512   0.128E-02    0.198E-02
DAV:  11    -0.161913612343E+03   -0.48357E-05   -0.28311E-06  5344   0.103E-02    0.183E-02
DAV:  12    -0.161913616346E+03   -0.40034E-05   -0.20602E-06  5560   0.113E-02    0.554E-03
DAV:  13    -0.161913623641E+03   -0.72948E-05   -0.98753E-07  5032   0.366E-03    0.270E-03
DAV:  14    -0.161913626693E+03   -0.30519E-05   -0.34086E-07  4984   0.261E-03    0.308E-03
DAV:  15    -0.161913629390E+03   -0.26971E-05   -0.17858E-07  4904   0.145E-03    0.152E-03
DAV:  16    -0.161913631617E+03   -0.22273E-05   -0.10459E-07  4952   0.116E-03    0.167E-03
DAV:  17    -0.161913633477E+03   -0.18601E-05   -0.50078E-08  4944   0.996E-04    0.119E-03
DAV:  18    -0.161913634889E+03   -0.14117E-05   -0.45896E-08  4928   0.771E-04    0.675E-04
DAV:  19    -0.161913636288E+03   -0.13990E-05   -0.35441E-08  4920   0.614E-04    0.712E-04
DAV:  20    -0.161913637793E+03   -0.15047E-05   -0.34371E-08  4888   0.526E-04    0.283E-04
DAV:  21    -0.161913638437E+03   -0.64374E-06   -0.19704E-08  5008   0.431E-04
  23 F= -.16815035E+03 E0= -.16813770E+03  d E =-.573376E-03  mag=    25.0000
 curvature:  -2.73 expect dE=-0.120E-02 dE for cont linesearch -0.388E-08
 trial: gam= 0.66326 g(F)=  0.437E-03 g(S)=  0.000E+00 ort =-0.179E-05 (trialstep = 0.213E+01)
 search vector abs. value=  0.143E-02
 bond charge predicted
       N       E                     dE             d eps       ncg     rms          rms(c)
DAV:   1    -0.161909950146E+03    0.36876E-02   -0.64316E-01  7904   0.162E+00    0.533E-01
DAV:   2    -0.161921713894E+03   -0.11764E-01   -0.11206E-01 11376   0.102E+00    0.290E+00
DAV:   3    -0.161912114313E+03    0.95996E-02   -0.54062E-02 11448   0.996E-01    0.586E-01
DAV:   4    -0.161914374336E+03   -0.22600E-02   -0.61302E-03 11136   0.461E-01    0.735E-01
DAV:   5    -0.161913399628E+03    0.97471E-03   -0.26747E-03 11360   0.329E-01    0.197E-01
DAV:   6    -0.161913501156E+03   -0.10153E-03   -0.19442E-04 12080   0.823E-02    0.138E-01
DAV:   7    -0.161913515178E+03   -0.14022E-04   -0.16031E-04 12448   0.680E-02    0.105E-01
DAV:   8    -0.161913545611E+03   -0.30433E-04   -0.11209E-04 12984   0.624E-02    0.104E-01
DAV:   9    -0.161913549612E+03   -0.40002E-05   -0.86016E-05 12448   0.572E-02    0.840E-02
DAV:  10    -0.161913559975E+03   -0.10363E-04   -0.39061E-05 10960   0.351E-02    0.520E-02
DAV:  11    -0.161913567771E+03   -0.77958E-05   -0.26443E-05  9776   0.394E-02    0.358E-02
DAV:  12    -0.161913571012E+03   -0.32415E-05   -0.12082E-05  7624   0.278E-02    0.132E-02
DAV:  13    -0.161913576180E+03   -0.51674E-05   -0.29218E-06  6328   0.125E-02    0.708E-03
DAV:  14    -0.161913578178E+03   -0.19983E-05   -0.94440E-07  4872   0.628E-03    0.720E-03
DAV:  15    -0.161913578685E+03   -0.50690E-06   -0.59897E-07  5016   0.315E-03
  24 F= -.16815097E+03 E0= -.16813839E+03  d E =-.611585E-03  mag=    25.0000
 trial-energy change:   -0.000612  1 .order   -0.000605   -0.000931   -0.000279
 step:   2.9727(harm=  3.0454)  dis= 0.00549  next Energy=  -168.151021 (dE=-0.667E-03)
 reached required accuracy - stopping structural energy minimisation
 writing wavefunctions
Note: The following floating-point exceptions are signalling: IEEE_OVERFLOW_FLAG IEEE_UNDERFLOW_FLAG IEEE_DENORMAL
Note: The following floating-point exceptions are signalling: IEEE_OVERFLOW_FLAG IEEE_UNDERFLOW_FLAG IEEE_DENORMAL
Note: The following floating-point exceptions are signalling: IEEE_OVERFLOW_FLAG IEEE_UNDERFLOW_FLAG IEEE_DENORMAL
Note: The following floating-point exceptions are signalling: IEEE_OVERFLOW_FLAG IEEE_UNDERFLOW_FLAG IEEE_DENORMAL
Note: The following floating-point exceptions are signalling: IEEE_OVERFLOW_FLAG IEEE_UNDERFLOW_FLAG IEEE_DENORMAL
Note: The following floating-point exceptions are signalling: IEEE_OVERFLOW_FLAG IEEE_UNDERFLOW_FLAG IEEE_DENORMAL
Note: The following floating-point exceptions are signalling: IEEE_OVERFLOW_FLAG IEEE_UNDERFLOW_FLAG IEEE_DENORMAL
Note: The following floating-point exceptions are signalling: IEEE_OVERFLOW_FLAG IEEE_UNDERFLOW_FLAG IEEE_DENORMAL
Note: The following floating-point exceptions are signalling: IEEE_OVERFLOW_FLAG IEEE_UNDERFLOW_FLAG IEEE_DENORMAL
Note: The following floating-point exceptions are signalling: IEEE_OVERFLOW_FLAG IEEE_UNDERFLOW_FLAG IEEE_DENORMAL
Note: The following floating-point exceptions are signalling: IEEE_OVERFLOW_FLAG IEEE_UNDERFLOW_FLAG IEEE_DENORMAL
Note: The following floating-point exceptions are signalling: IEEE_OVERFLOW_FLAG IEEE_UNDERFLOW_FLAG IEEE_DENORMAL
Note: The following floating-point exceptions are signalling: IEEE_OVERFLOW_FLAG IEEE_UNDERFLOW_FLAG IEEE_DENORMAL
Note: The following floating-point exceptions are signalling: IEEE_OVERFLOW_FLAG IEEE_UNDERFLOW_FLAG IEEE_DENORMAL
Note: The following floating-point exceptions are signalling: IEEE_OVERFLOW_FLAG IEEE_UNDERFLOW_FLAG IEEE_DENORMAL
Note: The following floating-point exceptions are signalling: IEEE_OVERFLOW_FLAG IEEE_UNDERFLOW_FLAG IEEE_DENORMAL
Note: The following floating-point exceptions are signalling: IEEE_OVERFLOW_FLAG IEEE_UNDERFLOW_FLAG IEEE_DENORMAL
Note: The following floating-point exceptions are signalling: IEEE_OVERFLOW_FLAG IEEE_UNDERFLOW_FLAG IEEE_DENORMAL
Note: The following floating-point exceptions are signalling: IEEE_OVERFLOW_FLAG IEEE_UNDERFLOW_FLAG IEEE_DENORMAL
Note: The following floating-point exceptions are signalling: IEEE_OVERFLOW_FLAG IEEE_UNDERFLOW_FLAG IEEE_DENORMAL
Note: The following floating-point exceptions are signalling: IEEE_OVERFLOW_FLAG IEEE_UNDERFLOW_FLAG IEEE_DENORMAL
Note: The following floating-point exceptions are signalling: IEEE_OVERFLOW_FLAG IEEE_UNDERFLOW_FLAG IEEE_DENORMAL
Note: The following floating-point exceptions are signalling: IEEE_OVERFLOW_FLAG IEEE_UNDERFLOW_FLAG IEEE_DENORMAL
Note: The following floating-point exceptions are signalling: IEEE_OVERFLOW_FLAG IEEE_UNDERFLOW_FLAG IEEE_DENORMAL
Note: The following floating-point exceptions are signalling: IEEE_OVERFLOW_FLAG IEEE_UNDERFLOW_FLAG IEEE_DENORMAL
Note: The following floating-point exceptions are signalling: IEEE_OVERFLOW_FLAG IEEE_UNDERFLOW_FLAG IEEE_DENORMAL
Note: The following floating-point exceptions are signalling: IEEE_OVERFLOW_FLAG IEEE_UNDERFLOW_FLAG IEEE_DENORMAL
Note: The following floating-point exceptions are signalling: IEEE_OVERFLOW_FLAG IEEE_UNDERFLOW_FLAG IEEE_DENORMAL
Note: The following floating-point exceptions are signalling: IEEE_OVERFLOW_FLAG IEEE_UNDERFLOW_FLAG IEEE_DENORMAL
Note: The following floating-point exceptions are signalling: IEEE_OVERFLOW_FLAG IEEE_UNDERFLOW_FLAG IEEE_DENORMAL
Note: The following floating-point exceptions are signalling: IEEE_OVERFLOW_FLAG IEEE_UNDERFLOW_FLAG IEEE_DENORMAL
Note: The following floating-point exceptions are signalling: IEEE_OVERFLOW_FLAG IEEE_UNDERFLOW_FLAG IEEE_DENORMAL
