CrCl3 3x3 + H S3 top-Cr (D3, U=0) (a=18.
   1.00000000000000     
    18.1388234955739875    0.0000000000000000    0.0000000000000000
    -9.0694117477869938   15.7086819419291253    0.0000000000000000
     0.0000000000000000    0.0000000000000000   20.0000000000000000
   Cr   Cl   H 
    18    54     1
Direct
     0.1098902050481231    0.2220158953924139    0.4992356403746803
     0.2203174960315997    0.1111996772407452    0.4989478870372377
     0.1111111111111143    0.5555555555555571    0.5000060946091800
     0.2220733351270851    0.4443820862383496    0.5000183354173935
     0.1109564470251565    0.8887390943132744    0.4998169281040884
     0.2222845804283148    0.7776912488887355    0.5000183354173935
     0.4444444444444429    0.2222222222222214    0.5087646844685956
     0.5554669894259261    0.1091178187908616    0.4989478870372377
     0.4444493139547891    0.5557102196415149    0.4998169281040884
     0.5575488478758096    0.4463491706350646    0.4989478870372377
     0.4446507712742505    0.8878743096557022    0.4992356403746803
     0.5556195842674578    0.7775861236302442    0.5000316898526096
     0.7779275723533899    0.2222173527118753    0.4998169281040884
     0.8886332060294504    0.1110470823992134    0.5000316898526096
     0.7787923570109621    0.5567764616185483    0.4992356403746803
     0.8889754177779288    0.4445933315395792    0.5000183354173935
     0.7777777777777786    0.8888888888888857    0.5000337045590743
     0.8890805430364201    0.7780334606372139    0.5000316898526096
     0.1189694521559664    0.3337642010819764    0.4334702255526557
     0.3350730793955150    0.1214740527025213    0.4377176620340191
     0.2107757533292819    0.2124039823061221    0.4313337460988962
     0.2132129379710851    0.3326869844837920    0.5658327351784270
     0.9995975732450662    0.2140799567477308    0.5662475004745813
     0.1160939005764574    0.1177262931660912    0.5647640487674656
     0.1192608368013817    0.6666327849526371    0.4337057870268901
     0.3331658732608097    0.4525416229584204    0.4337471531718288
     0.2140386148179269    0.5474058298652826    0.4337057870268901
     0.2139903723119785    0.6665746752452631    0.5662912268098145
     0.0000919914214012    0.5474156970667082    0.5662912268098145
     0.1192509695999561    0.4526762943546929    0.5662912268098145
     0.1190487780877889    0.9990875479193743    0.4325570506610101
     0.3329024655846950    0.7852052510739900    0.4334702255526557
     0.2141250437082511    0.8806242503023892    0.4337471531718288
     0.2128820629921374    0.0007318521933359    0.5661012979532997
     0.0000470304441601    0.8806124658979638    0.5661896483993517
     0.1195529665880019    0.7862311144494510    0.5662951595571775
     0.4530676399736778    0.3315935872711565    0.4377176620340191
     0.6675791187472900    0.1199612301684145    0.4325570506610101
     0.5451926139641429    0.2135990266929936    0.4377176620340191
     0.5583617332091448    0.3404079003987217    0.5650609701831878
     0.3262587662679498    0.2179538328104303    0.5650609701831878
     0.4487128338562411    0.1083049334575194    0.5650609701831878
     0.4522094706520575    0.6668229019635442    0.4337665606422249
     0.6682948956435044    0.4558909133373896    0.4313337460988962
     0.5467054364982500    0.5476178885788754    0.4325570506610101
     0.5472321021204684    0.6666196362225043    0.5661896483993517
     0.3333448145281205    0.5471137000786623    0.5662951595571775
     0.4545164558678699    0.4537846036745338    0.5661012979532997
     0.4542626843605493    0.9983717710231599    0.4313337460988962
     0.6667356818532734    0.7858926926684576    0.4336756963091423
     0.5474757686200521    0.8797347922693756    0.4331090975200907
     0.5489403735005731    0.9983676074103662    0.5647640487674656
     0.3339796821828794    0.8805259534872932    0.5658327351784270
     0.4525867099189407    0.7855176164973354    0.5662475004745813
     0.7860424163642751    0.3335007934058617    0.4337471531718288
     0.9989256903159875    0.1191908980466120    0.4331090975200907
     0.8812800979781582    0.2144571960146139    0.4337665606422249
     0.8804355522172133    0.3333218521385509    0.5662951595571775
     0.6659348144733284    0.2121502107988015    0.5661012979532997
     0.7860542007687005    0.1194345645461960    0.5661896483993517
     0.7869318743972887    0.6677409763506768    0.4331090975200907
     0.0000338817140269    0.4526280518487444    0.4337057870268901
     0.8814614155926743    0.5476972145106980    0.4334702255526557
     0.8811490501693289    0.6670690934215981    0.5662475004745813
     0.6682990592562981    0.5505727660902068    0.5647640487674656
     0.7861407131793711    0.4534537286955863    0.5658327351784270
     0.7858236774818484    0.9999309848133908    0.4336756963091423
     0.9998437647031201    0.7853865686885061    0.4337665606422249
     0.8807739739982067    0.8808429891848158    0.4336756963091423
     0.8805639498172397    0.9999577260740374    0.5662858521758449
     0.6667089405926269    0.8806062237432025    0.5662858521758449
     0.7860604429234618    0.7861027168494246    0.5662858521758449
     0.4444444444444429    0.2222222222222214    0.5860898184574002
 
  0.00000000E+00  0.00000000E+00  0.00000000E+00
  0.00000000E+00  0.00000000E+00  0.00000000E+00
  0.00000000E+00  0.00000000E+00  0.00000000E+00
  0.00000000E+00  0.00000000E+00  0.00000000E+00
  0.00000000E+00  0.00000000E+00  0.00000000E+00
  0.00000000E+00  0.00000000E+00  0.00000000E+00
  0.00000000E+00  0.00000000E+00  0.00000000E+00
  0.00000000E+00  0.00000000E+00  0.00000000E+00
  0.00000000E+00  0.00000000E+00  0.00000000E+00
  0.00000000E+00  0.00000000E+00  0.00000000E+00
  0.00000000E+00  0.00000000E+00  0.00000000E+00
  0.00000000E+00  0.00000000E+00  0.00000000E+00
  0.00000000E+00  0.00000000E+00  0.00000000E+00
  0.00000000E+00  0.00000000E+00  0.00000000E+00
  0.00000000E+00  0.00000000E+00  0.00000000E+00
  0.00000000E+00  0.00000000E+00  0.00000000E+00
  0.00000000E+00  0.00000000E+00  0.00000000E+00
  0.00000000E+00  0.00000000E+00  0.00000000E+00
  0.00000000E+00  0.00000000E+00  0.00000000E+00
  0.00000000E+00  0.00000000E+00  0.00000000E+00
  0.00000000E+00  0.00000000E+00  0.00000000E+00
  0.00000000E+00  0.00000000E+00  0.00000000E+00
  0.00000000E+00  0.00000000E+00  0.00000000E+00
  0.00000000E+00  0.00000000E+00  0.00000000E+00
  0.00000000E+00  0.00000000E+00  0.00000000E+00
  0.00000000E+00  0.00000000E+00  0.00000000E+00
  0.00000000E+00  0.00000000E+00  0.00000000E+00
  0.00000000E+00  0.00000000E+00  0.00000000E+00
  0.00000000E+00  0.00000000E+00  0.00000000E+00
  0.00000000E+00  0.00000000E+00  0.00000000E+00
  0.00000000E+00  0.00000000E+00  0.00000000E+00
  0.00000000E+00  0.00000000E+00  0.00000000E+00
  0.00000000E+00  0.00000000E+00  0.00000000E+00
  0.00000000E+00  0.00000000E+00  0.00000000E+00
  0.00000000E+00  0.00000000E+00  0.00000000E+00
  0.00000000E+00  0.00000000E+00  0.00000000E+00
  0.00000000E+00  0.00000000E+00  0.00000000E+00
  0.00000000E+00  0.00000000E+00  0.00000000E+00
  0.00000000E+00  0.00000000E+00  0.00000000E+00
  0.00000000E+00  0.00000000E+00  0.00000000E+00
  0.00000000E+00  0.00000000E+00  0.00000000E+00
  0.00000000E+00  0.00000000E+00  0.00000000E+00
  0.00000000E+00  0.00000000E+00  0.00000000E+00
  0.00000000E+00  0.00000000E+00  0.00000000E+00
  0.00000000E+00  0.00000000E+00  0.00000000E+00
  0.00000000E+00  0.00000000E+00  0.00000000E+00
  0.00000000E+00  0.00000000E+00  0.00000000E+00
  0.00000000E+00  0.00000000E+00  0.00000000E+00
  0.00000000E+00  0.00000000E+00  0.00000000E+00
  0.00000000E+00  0.00000000E+00  0.00000000E+00
  0.00000000E+00  0.00000000E+00  0.00000000E+00
  0.00000000E+00  0.00000000E+00  0.00000000E+00
  0.00000000E+00  0.00000000E+00  0.00000000E+00
  0.00000000E+00  0.00000000E+00  0.00000000E+00
  0.00000000E+00  0.00000000E+00  0.00000000E+00
  0.00000000E+00  0.00000000E+00  0.00000000E+00
  0.00000000E+00  0.00000000E+00  0.00000000E+00
  0.00000000E+00  0.00000000E+00  0.00000000E+00
  0.00000000E+00  0.00000000E+00  0.00000000E+00
  0.00000000E+00  0.00000000E+00  0.00000000E+00
  0.00000000E+00  0.00000000E+00  0.00000000E+00
  0.00000000E+00  0.00000000E+00  0.00000000E+00
  0.00000000E+00  0.00000000E+00  0.00000000E+00
  0.00000000E+00  0.00000000E+00  0.00000000E+00
  0.00000000E+00  0.00000000E+00  0.00000000E+00
  0.00000000E+00  0.00000000E+00  0.00000000E+00
  0.00000000E+00  0.00000000E+00  0.00000000E+00
  0.00000000E+00  0.00000000E+00  0.00000000E+00
  0.00000000E+00  0.00000000E+00  0.00000000E+00
  0.00000000E+00  0.00000000E+00  0.00000000E+00
  0.00000000E+00  0.00000000E+00  0.00000000E+00
  0.00000000E+00  0.00000000E+00  0.00000000E+00
  0.00000000E+00  0.00000000E+00  0.00000000E+00
