       N       E                     dE             d eps       ncg     rms          rms(c)
DAV:   1     0.514484870299E+03    0.51448E+03   -0.15298E+04   720   0.905E+02
DAV:   2     0.862930272406E+02   -0.42819E+03   -0.40833E+03   928   0.245E+02
DAV:   3    -0.354671261191E+02   -0.12176E+03   -0.11877E+03  1032   0.130E+02
DAV:   4    -0.430071579996E+02   -0.75400E+01   -0.74446E+01  1012   0.460E+01
DAV:   5    -0.432439020067E+02   -0.23674E+00   -0.23591E+00  1012   0.785E+00    0.204E+01
DAV:   6    -0.406646196082E+02    0.25793E+01   -0.37201E+01  1060   0.619E+01    0.211E+01
DAV:   7    -0.390104694565E+02    0.16542E+01   -0.59401E+00  1072   0.548E+01    0.978E+00
DAV:   8    -0.391083862236E+02   -0.97917E-01   -0.11688E+00   900   0.507E+00    0.448E+00
DAV:   9    -0.390528900106E+02    0.55496E-01   -0.25853E-01  1076   0.804E+00    0.127E+00
DAV:  10    -0.390528082348E+02    0.81776E-04   -0.52672E-02  1060   0.254E+00    0.546E-01
DAV:  11    -0.390565153640E+02   -0.37071E-02   -0.34202E-03  1072   0.716E-01    0.227E-01
DAV:  12    -0.390618971742E+02   -0.53818E-02   -0.10142E-03   960   0.211E-01    0.126E-01
DAV:  13    -0.390647187664E+02   -0.28216E-02   -0.13521E-04  1040   0.932E-02    0.529E-02
DAV:  14    -0.390669654157E+02   -0.22466E-02   -0.46554E-05  1000   0.423E-02    0.372E-02
DAV:  15    -0.390689999952E+02   -0.20346E-02   -0.43565E-05   956   0.400E-02    0.147E-02
DAV:  16    -0.390704713610E+02   -0.14714E-02   -0.38976E-05   988   0.445E-02    0.170E-02
DAV:  17    -0.390707970890E+02   -0.32573E-03   -0.36517E-06   736   0.965E-03    0.122E-02
DAV:  18    -0.390714778404E+02   -0.68075E-03   -0.20186E-05   808   0.205E-02    0.700E-03
DAV:  19    -0.390715814941E+02   -0.10365E-03   -0.38084E-06   740   0.921E-03    0.349E-03
DAV:  20    -0.390715920927E+02   -0.10599E-04   -0.76330E-07   548   0.475E-03    0.169E-03
DAV:  21    -0.390716222114E+02   -0.30119E-04   -0.64048E-07   540   0.375E-03    0.143E-03
DAV:  22    -0.390716371951E+02   -0.14984E-04   -0.32137E-07   512   0.269E-03    0.685E-04
DAV:  23    -0.390716456057E+02   -0.84106E-05   -0.22750E-07   512   0.227E-03    0.740E-04
DAV:  24    -0.390716512159E+02   -0.56103E-05   -0.21333E-07   524   0.250E-03    0.701E-04
DAV:  25    -0.390716539046E+02   -0.26887E-05   -0.79596E-08   472   0.201E-03    0.368E-04
DAV:  26    -0.390716566261E+02   -0.27215E-05   -0.52205E-08   448   0.961E-04    0.375E-04
DAV:  27    -0.390716593588E+02   -0.27327E-05   -0.51266E-08   472   0.102E-03    0.291E-04
DAV:  28    -0.390716602702E+02   -0.91144E-06   -0.27377E-08   436   0.794E-04
   1 F= -.39983163E+02 E0= -.39983163E+02  d E =-.399832E+02  mag=     6.0000
       N       E                     dE             d eps       ncg     rms          rms(c)
DAV:   1    -0.390713237033E+02    0.33566E-03   -0.40143E-02   732   0.793E-01    0.106E-01
DAV:   2    -0.390715465658E+02   -0.22286E-03   -0.26416E-03  1040   0.364E-01    0.628E-02
DAV:   3    -0.390715338049E+02    0.12761E-04   -0.42311E-05  1044   0.830E-02    0.394E-02
DAV:   4    -0.390715309221E+02    0.28828E-05   -0.40625E-06   796   0.229E-02    0.325E-02
DAV:   5    -0.390715273665E+02    0.35555E-05   -0.21891E-05   756   0.201E-02    0.163E-02
DAV:   6    -0.390715279358E+02   -0.56924E-06   -0.39232E-06   676   0.220E-02
   2 F= -.39983539E+02 E0= -.39983539E+02  d E =-.376588E-03  mag=     6.0000
       N       E                     dE             d eps       ncg     rms          rms(c)
DAV:   1    -0.390687006666E+02    0.28267E-02   -0.36129E-01   720   0.238E+00    0.314E-01
DAV:   2    -0.390707360665E+02   -0.20354E-02   -0.23990E-02  1040   0.110E+00    0.191E-01
DAV:   3    -0.390706260768E+02    0.10999E-03   -0.37992E-04  1040   0.248E-01    0.118E-01
DAV:   4    -0.390706015952E+02    0.24482E-04   -0.48245E-05  1088   0.674E-02    0.954E-02
DAV:   5    -0.390705733091E+02    0.28286E-04   -0.12513E-04   752   0.494E-02    0.480E-02
DAV:   6    -0.390705766777E+02   -0.33686E-05   -0.34443E-05   992   0.626E-02    0.121E-02
DAV:   7    -0.390705799738E+02   -0.32961E-05   -0.21169E-06   524   0.875E-03    0.777E-03
DAV:   8    -0.390705816473E+02   -0.16735E-05   -0.37626E-07   468   0.805E-03    0.568E-03
DAV:   9    -0.390705835606E+02   -0.19133E-05   -0.15684E-07   444   0.304E-03    0.432E-03
DAV:  10    -0.390705855235E+02   -0.19629E-05   -0.21480E-07   448   0.321E-03    0.164E-03
DAV:  11    -0.390705862409E+02   -0.71739E-06   -0.10081E-07   460   0.261E-03
   3 F= -.39984116E+02 E0= -.39984116E+02  d E =-.953634E-03  mag=     6.0000
