 vasp.6.5.1 10Mar25 (build Jan 13 2026 20:43:53) complex                         
 executed on             LinuxAMD date 2026.09.08  23:35:45
 running   16 mpi-ranks, with    1 threads/rank, on    1 nodes
 distrk:  each k-point on   16 cores,    1 groups
 distr:  one band on NCORE=   4 cores,    4 groups


--------------------------------------------------------------------------------------------------------


 INCAR:
   SYSTEM = CrCl3 1x1 Clean Substrate (D3, U\=0eV)
   PREC = Accurate
   ENCUT = 400.0
   ALGO = Normal
   EDIFF = 1.0E-06
   NELM = 100
   ISPIN = 2
   MAGMOM = 2*3.0 6*0.0
   ISMEAR = 0
   SIGMA = 0.05
   NCORE = 4
   LREAL = Auto
   IVDW = 11
   IBRION = 2
   NSW = 100
   ISIF = 2
   EDIFFG = -0.025
   LASPH = .TRUE.
   LMAXMIX = 4
   LDAU = .FALSE.
   LDIPOL = .TRUE.
   IDIPOL = 3
   DIPOL = 0.5 0.5 0.5
   LWAVE = .FALSE.
   LCHARG = .FALSE.

 POTCAR:    PAW_PBE Cr 06Sep2000                  
 POTCAR:    PAW_PBE Cl 06Sep2000                  
 POTCAR:    PAW_PBE Cr 06Sep2000                  
   SHA256 =  56e7271fac8042f322b235801e26979132a24da65eb043fa6a03029023cb2fcc Cr/POTCAR             
   COPYR  = (c) Copyright 06Sep2000 Georg Kresse                                                    
   COPYR  = This file is part of the software VASP. Any use, copying, and all other rights are regul
   COPYR  = If you do not have a valid VASP license, you may not use, copy or distribute this file. 
   VRHFIN =Cr : d5 s1                                                                               
   LEXCH  = PE                                                                                      
   EATOM  =   276.8859 eV,   20.3505 Ry                                                             
                                                                                                    
   TITEL  = PAW_PBE Cr 06Sep2000                                                                    
   LULTRA =        F    use ultrasoft PP ?                                                          
   IUNSCR =        1    unscreen: 0-lin 1-nonlin 2-no                                               
   RPACOR =    2.080    partial core radius                                                         
   POMASS =   51.996; ZVAL   =    6.000    mass and valenz                                          
   RCORE  =    2.500    outmost cutoff radius                                                       
   RWIGS  =    2.500; RWIGS  =    1.323    wigner-seitz radius (au A)                               
   ENMAX  =  227.080; ENMIN  =  170.310 eV                                                          
   RCLOC  =    1.721    cutoff for local pot                                                        
   LCOR   =        T    correct aug charges                                                         
   LPAW   =        T    paw PP                                                                      
   EAUG   =  402.108                                                                                
   DEXC   =    0.000                                                                                
   RMAX   =    2.552    core radius for proj-oper                                                   
   RAUG   =    1.300    factor for augmentation sphere                                              
   RDEP   =    2.609    radius for radial grids                                                     
   RDEPT  =    2.065    core radius for aug-charge                                                  
                                                                                                    
   Atomic configuration                                                                             
    9 entries                                                                                       
     n  l   j            E        occ.                                                              
     1  0  0.50     -5880.4963   2.0000                                                             
     2  0  0.50      -667.0865   2.0000                                                             
     2  1  1.50      -560.6250   6.0000                                                             
     3  0  0.50       -73.9860   2.0000                                                             
     3  1  1.50       -45.4378   6.0000                                                             
     3  2  2.50        -2.9137   5.0000                                                             
     4  0  0.50        -4.0071   1.0000                                                             
     4  1  0.50        -1.2789   0.0000                                                             
     4  3  2.50        -1.3606   0.0000                                                             
   Description                                                                                      
     l       E           TYP  RCUT    TYP  RCUT                                                     
     2     -2.9136677     23  2.500                                                                 
     2     -4.2742503     23  2.500                                                                 
     0     -4.0071322     23  2.500                                                                 
     0      9.4498801     23  2.500                                                                 
     1     -5.4423304     23  2.500                                                                 
     1     27.2116520     23  2.500                                                                 
  local pseudopotential read in
  partial core-charges read in
  partial kinetic energy density read in
  atomic valenz-charges read in
  non local Contribution for L=            2  read in
    real space projection operators read in
  non local Contribution for L=            2  read in
    real space projection operators read in
  non local Contribution for L=            0  read in
    real space projection operators read in
  non local Contribution for L=            0  read in
    real space projection operators read in
  non local Contribution for L=            1  read in
    real space projection operators read in
  non local Contribution for L=            1  read in
    real space projection operators read in
    PAW grid and wavefunctions read in
 
   number of l-projection  operators is LMAX  =            6
   number of lm-projection operators is LMMAX =           18
 
 POTCAR:    PAW_PBE Cl 06Sep2000                  
   SHA256 =  9f1b6e6ed4247ac726a768b330d26d7667cc3c95a39ff49c1d064c2d9dcce931 Cl/POTCAR             
   COPYR  = (c) Copyright 06Sep2000 Georg Kresse                                                    
   COPYR  = This file is part of the software VASP. Any use, copying, and all other rights are regul
   COPYR  = If you do not have a valid VASP license, you may not use, copy or distribute this file. 
   VRHFIN =Cl: s2p5                                                                                 
   LEXCH  = PE                                                                                      
   EATOM  =   409.7259 eV,   30.1140 Ry                                                             
                                                                                                    
   TITEL  = PAW_PBE Cl 06Sep2000                                                                    
   LULTRA =        F    use ultrasoft PP ?                                                          
   IUNSCR =        1    unscreen: 0-lin 1-nonlin 2-no                                               
   RPACOR =    1.500    partial core radius                                                         
   POMASS =   35.453; ZVAL   =    7.000    mass and valenz                                          
   RCORE  =    1.900    outmost cutoff radius                                                       
   RWIGS  =    2.100; RWIGS  =    1.111    wigner-seitz radius (au A)                               
   ENMAX  =  262.472; ENMIN  =  196.854 eV                                                          
   ICORE  =        2    local potential                                                             
   LCOR   =        T    correct aug charges                                                         
   LPAW   =        T    paw PP                                                                      
   EAUG   =  356.192                                                                                
   DEXC   =    0.000                                                                                
   RMAX   =    1.945    core radius for proj-oper                                                   
   RAUG   =    1.300    factor for augmentation sphere                                              
   RDEP   =    2.020    radius for radial grids                                                     
   RDEPT  =    1.678    core radius for aug-charge                                                  
                                                                                                    
   Atomic configuration                                                                             
    6 entries                                                                                       
     n  l   j            E        occ.                                                              
     1  0  0.50     -2751.1850   2.0000                                                             
     2  0  0.50      -252.6861   2.0000                                                             
     2  1  1.50      -191.6157   6.0000                                                             
     3  0  0.50       -20.6916   2.0000                                                             
     3  1  0.50        -8.5949   5.0000                                                             
     3  2  1.50        -8.1635   0.0000                                                             
   Description                                                                                      
     l       E           TYP  RCUT    TYP  RCUT                                                     
     0    -20.6915656     23  1.900                                                                 
     0    -22.0521482     23  1.900                                                                 
     1     -8.5948577     23  1.900                                                                 
     1     -5.3847331     23  1.900                                                                 
     2     -8.1634956     23  1.900                                                                 
  local pseudopotential read in
  partial core-charges read in
  partial kinetic energy density read in
  atomic valenz-charges read in
  non local Contribution for L=            0  read in
    real space projection operators read in
  non local Contribution for L=            0  read in
    real space projection operators read in
  non local Contribution for L=            1  read in
    real space projection operators read in
  non local Contribution for L=            1  read in
    real space projection operators read in
    PAW grid and wavefunctions read in
 
   number of l-projection  operators is LMAX  =            4
   number of lm-projection operators is LMMAX =            8
 
 -----------------------------------------------------------------------------
|                                                                             |
|               ----> ADVICE to this user running VASP <----                  |
|                                                                             |
|     You have a (more or less) 'small supercell' and for smaller cells       |
|     it is recommended to use the reciprocal-space projection scheme!        |
|     The real-space optimization is not efficient for small cells and it     |
|     is also less accurate ...                                               |
|     Therefore, set LREAL=.FALSE. in the INCAR file.                         |
|                                                                             |
 -----------------------------------------------------------------------------

 Optimization of the real space projectors (new method)

 maximal supplied QI-value         = 15.12
 optimisation between [QCUT,QGAM] = [ 10.13, 20.41] = [ 28.73,116.64] Ry 
 Optimized for a Real-space Cutoff    1.55 Angstroem

   l    n(q)    QCUT    max X(q) W(low)/X(q) W(high)/X(q)  e(spline) 
   2      9    10.129    94.395    0.23E-03    0.29E-03    0.30E-06
   2      9    10.129    88.078    0.23E-03    0.29E-03    0.30E-06
   0      9    10.129    50.173    0.57E-04    0.58E-04    0.11E-06
   0      9    10.129    24.906    0.50E-04    0.51E-04    0.96E-07
   1      9    10.129    12.133    0.24E-03    0.21E-04    0.16E-06
   1      9    10.129     7.290    0.17E-03    0.12E-04    0.12E-06
 Optimization of the real space projectors (new method)

 maximal supplied QI-value         = 19.84
 optimisation between [QCUT,QGAM] = [ 10.12, 20.44] = [ 28.68,116.96] Ry 
 Optimized for a Real-space Cutoff    1.42 Angstroem

   l    n(q)    QCUT    max X(q) W(low)/X(q) W(high)/X(q)  e(spline) 
   0      9    10.119   168.010    0.50E-04    0.84E-04    0.57E-07
   0      9    10.119   164.674    0.49E-04    0.82E-04    0.55E-07
   1      8    10.119    69.222    0.16E-03    0.16E-03    0.24E-06
   1      8    10.119    56.786    0.16E-03    0.16E-03    0.23E-06
  PAW_PBE Cr 06Sep2000                  :
 energy of atom  1       EATOM= -276.8859
 kinetic energy error for atom=    0.0018 (will be added to EATOM!!)
  PAW_PBE Cl 06Sep2000                  :
 energy of atom  2       EATOM= -409.7259
 kinetic energy error for atom=    0.0089 (will be added to EATOM!!)
 
 
 POSCAR: CrCl3 1x1 Clean Substrate (D3, U=0) (a=6
  positions in direct lattice
  No initial velocities read in
 IVDW         = 11
 VDW_S6       =    1.0000
 VDW_S8       =    0.7220
 VDW_SR       =    1.2170
 VDW_RADIUS   =   50.2022 A
 VDW_CNRADIUS =   21.1671 A


 exchange-correlation table for PE
   RHO(1)=    0.500       N(1)  =     2000
   RHO(2)=  100.500       N(2)  =     4000
 


--------------------------------------------------------------------------------------------------------


 ion  position               nearest neighbor table
   1  0.333  0.667  0.500-   5 2.36   8 2.36   4 2.36   6 2.36   7 2.36   3 2.36
   2  0.667  0.333  0.500-   5 2.36   8 2.36   7 2.36   3 2.36   4 2.36   6 2.36
   3  0.359  0.000  0.433-   2 2.36   1 2.36
   4  0.000  0.359  0.433-   1 2.36   2 2.36
   5  0.641  0.641  0.433-   1 2.36   2 2.36
   6  0.641  0.000  0.567-   1 2.36   2 2.36
   7  0.000  0.641  0.567-   2 2.36   1 2.36
   8  0.359  0.359  0.567-   1 2.36   2 2.36
 
  LATTYP: Found a hexagonal cell.
 ALAT       =     6.0462744985
 C/A-ratio  =     3.3078220324
  
  Lattice vectors:
  
 A1 = (   6.0462744985,   0.0000000000,   0.0000000000)
 A2 = (  -3.0231372493,   5.2362273140,   0.0000000000)
 A3 = (   0.0000000000,   0.0000000000,  20.0000000000)


Analysis of symmetry for initial positions (statically):
=====================================================================
 Subroutine PRICEL returns:
 Original cell was already a primitive cell.
 

 Routine SETGRP: Setting up the symmetry group for a 
 hexagonal supercell.


 Subroutine GETGRP returns: Found 12 space group operations
 (whereof 12 operations were pure point group operations)
 out of a pool of 24 trial point group operations.


The static configuration has the point symmetry D_3d.


Analysis of symmetry for dynamics (positions and initial velocities):
=====================================================================
 Subroutine PRICEL returns:
 Original cell was already a primitive cell.
 

 Routine SETGRP: Setting up the symmetry group for a 
 hexagonal supercell.


 Subroutine GETGRP returns: Found 12 space group operations
 (whereof 12 operations were pure point group operations)
 out of a pool of 24 trial point group operations.


The dynamic configuration has the point symmetry D_3d.


Analysis of structural, dynamic, and magnetic symmetry:
=====================================================================
 Subroutine PRICEL returns:
 Original cell was already a primitive cell.
 

 Routine SETGRP: Setting up the symmetry group for a 
 hexagonal supercell.


 Subroutine GETGRP returns: Found 12 space group operations
 (whereof 12 operations were pure point group operations)
 out of a pool of 24 trial point group operations.


The overall configuration has the point symmetry D_3d.


 Subroutine INISYM returns: Found 12 space group operations
 (whereof 12 operations are pure point group operations),
 and found     1 'primitive' translations


----------------------------------------------------------------------------------------

                                     Primitive cell                                     

  volume of cell :     633.1934

  direct lattice vectors                    reciprocal lattice vectors
     6.046274499  0.000000000  0.000000000     0.165391102  0.095488597 -0.000000000
    -3.023137249  5.236227314  0.000000000     0.000000000  0.190977194  0.000000000
     0.000000000  0.000000000 20.000000000     0.000000000 -0.000000000  0.050000000

  length of vectors
     6.046274499  6.046274499 20.000000000     0.190977194  0.190977194  0.050000000

  position of ions in fractional coordinates (direct lattice)
     0.333333333  0.666666667  0.500000000
     0.666666667  0.333333333  0.500000000
     0.359300197  0.000000000  0.433213807
     0.000000000  0.359300197  0.433213807
     0.640699803  0.640699803  0.433213807
     0.640699803  0.000000000  0.566786193
     0.000000000  0.640699803  0.566786193
     0.359300197  0.359300197  0.566786193

  ion indices of the primitive-cell ions
   primitive index   ion index
                 1           1
                 2           2
                 3           3
                 4           4
                 5           5
                 6           6
                 7           7
                 8           8

----------------------------------------------------------------------------------------

 
 
 KPOINTS: K-Points 5x5x1 Gamma-centered           

Automatic generation of k-mesh.
 Grid dimensions read from file:
 generate k-points for:    5    5    1

 Generating k-lattice:

  Cartesian coordinates                     Fractional coordinates (reciprocal lattice)
     0.033078220  0.019097719 -0.000000000     0.200000000 -0.000000000  0.000000000
     0.000000000  0.038195439  0.000000000     0.000000000  0.200000000  0.000000000
     0.000000000 -0.000000000  0.050000000     0.000000000  0.000000000  1.000000000

  Length of vectors
     0.038195439  0.038195439  0.050000000

  Shift w.r.t. Gamma in fractional coordinates (k-lattice)
     0.000000000  0.000000000  0.000000000

 
 Subroutine IBZKPT returns following result:
 ===========================================
 
 Found      5 irreducible k-points:
 
 Following reciprocal coordinates:
            Coordinates               Weight
  0.000000  0.000000  0.000000      1.000000
  0.200000  0.000000  0.000000      6.000000
  0.400000  0.000000  0.000000      6.000000
  0.200000  0.200000  0.000000      6.000000
  0.400000  0.200000  0.000000      6.000000
 
 Following cartesian coordinates:
            Coordinates               Weight
  0.000000  0.000000  0.000000      1.000000
  0.033078  0.019098  0.000000      6.000000
  0.066156  0.038195  0.000000      6.000000
  0.033078  0.057293  0.000000      6.000000
  0.066156  0.076391  0.000000      6.000000
 


--------------------------------------------------------------------------------------------------------




 Dimension of arrays:
   k-points           NKPTS =      5   k-points in BZ     NKDIM =      5   number of bands    NBANDS=     36
   number of dos      NEDOS =    301   number of ions     NIONS =      8
   non local maximal  LDIM  =      6   non local SUM 2l+1 LMDIM =     18
   total plane-waves  NPLWV = 224000
   max r-space proj   IRMAX =   5608   max aug-charges    IRDMAX=  18270
   dimension x,y,z NGX =    40 NGY =   40 NGZ =  140
   dimension x,y,z NGXF=    80 NGYF=   80 NGZF=  280
   support grid    NGXF=    80 NGYF=   80 NGZF=  280
   ions per type =               2   6
   NGX,Y,Z   is equivalent  to a cutoff of  11.00, 11.00, 11.64 a.u.
   NGXF,Y,Z  is equivalent  to a cutoff of  22.00, 22.00, 23.27 a.u.

 SYSTEM =  CrCl3 1x1 Clean Substrate (D3, U=0eV)   
 POSCAR =  CrCl3 1x1 Clean Substrate (D3, U=0) (a=6

 Startparameter for this run:
   NWRITE =      2    write-flag & timer
   PREC   = accura    normal or accurate (medium, high low for compatibility)
   ISTART =      0    job   : 0-new  1-cont  2-samecut
   ICHARG =      2    charge: 1-file 2-atom 10-const
   ISPIN  =      2    spin polarized calculation?
   LNONCOLLINEAR =      F non collinear calculations
   LSORBIT =      F    spin-orbit coupling
   INIWAV =      1    electr: 0-lowe 1-rand  2-diag
   LASPH  =      T    aspherical Exc in radial PAW
 Electronic Relaxation 1
   ENCUT  =  400.0 eV  29.40 Ry    5.42 a.u.   9.86  9.86 32.61*2*pi/ulx,y,z
   ENINI  =  400.0     initial cutoff
   ENAUG  =  402.1 eV  augmentation charge cutoff
   NELM   =    100;   NELMIN=  2; NELMDL= -5     # of ELM steps 
   EDIFF  = 0.1E-05   stopping-criterion for ELM
   LREAL  =      T    real-space projection
   NLSPLINE    = F    spline interpolate recip. space projectors
   LCOMPAT=      F    compatible to vasp.4.4
   GGA_COMPAT  = T    GGA compatible to vasp.4.4-vasp.4.6
   LMAXPAW     = -100 max onsite density
   LMAXMIX     =    4 max onsite mixed and CHGCAR
   VOSKOWN=      0    Vosko Wilk Nusair interpolation
   ROPT   =   -0.00025  -0.00025
 Ionic relaxation
   EDIFFG = -.3E-01   stopping-criterion for IOM
   NSW    =    100    number of steps for IOM
   NBLOCK =      1;   KBLOCK =    100    inner block; outer block 
   IBRION =      2    ionic relax: 0-MD 1-quasi-New 2-CG
   NFREE  =      1    steps in history (QN), initial steepest desc. (CG)
   ISIF   =      2    stress and relaxation
   IWAVPR =     11    prediction:  0-non 1-charg 2-wave 3-comb
   ISYM   =      2    0-nonsym 1-usesym 2-fastsym
   LCORR  =      T    Harris-Foulkes like correction to forces

   POTIM  = 0.5000    time-step for ionic-motion
   TEIN   =    0.0    initial temperature
   TEBEG  =    0.0;   TEEND  =   0.0 temperature during run
   SMASS  =  -3.00    Nose mass-parameter (am)
   estimated Nose-frequenzy (Omega)   =  0.10E-29 period in steps = 0.13E+47 mass=  -0.835E-27a.u.
   SCALEE = 1.0000    scale energy and forces
   NPACO  =    256;   APACO  = 10.0  distance and # of slots for P.C.
   PSTRESS=    0.0 pullay stress

  Mass of Ions in am
   POMASS =  52.00 35.45
  Ionic Valenz
   ZVAL   =   6.00  7.00
  Atomic Wigner-Seitz radii
   RWIGS  =  -1.00 -1.00
  virtual crystal weights 
   VCA    =   1.00  1.00
   NELECT =      54.0000    total number of electrons
   NUPDOWN=      -1.0000    fix difference up-down

 DOS related values:
   EMIN   =  10.00;   EMAX   =-10.00  energy-range for DOS
   EFERMI =   0.00;   METHOD = LEGACY      
   ISMEAR =     0;   SIGMA  =   0.05  broadening in eV -4-tet -1-fermi 0-gaus
   EFERMI_NEDOS =   21; number of points for ismear=-14 and -15

 Electronic relaxation 2 (details)
   IALGO  =     38    algorithm
   LDIAG  =      T    sub-space diagonalisation (order eigenvalues)
   LSUBROT=      F    optimize rotation matrix (better conditioning)
   LROBUST=      F    robust break criterion during scf (extrapolated energy error)
   ISEARCH=      0    line search for conjugate gradient (0, 1=use gradient)
   TURBO    =      0    0=normal 1=particle mesh
   IRESTART =      0    0=no restart 2=restart with 2 vectors
   NREBOOT  =      0    no. of reboots
   NMIN     =      0    reboot dimension
   EREF     =   0.00    reference energy to select bands
   IMIX   =      4    mixing-type and parameters
     AMIX     =   0.40;   BMIX     =  1.00
     AMIX_MAG =   1.60;   BMIX_MAG =  1.00
     AMIN     =   0.10
     WC   =   100.;   INIMIX=   1;  MIXPRE=   1;  MAXMIX= -45

 Intra band minimization:
   WEIMIN = 0.0010     energy-eigenvalue tresh-hold
   EBREAK =  0.69E-08  absolut break condition
   DEPER  =   0.30     relativ break condition  

   TIME   =   0.40     timestep for ELM

  volume/ion in A,a.u.               =      79.15       534.12
  Fermi-wavevector in a.u.,A,eV,Ry     =   0.720600  1.361736  7.065011  0.519264
  Thomas-Fermi vector in A             =   1.810093
 
 Write flags
   LWAVE        =      F    write WAVECAR
   LDOWNSAMPLE  =      F    k-point downsampling of WAVECAR
   LCHARG       =      F    write CHGCAR
   LVTOT        =      F    write LOCPOT, total local potential
   LVHAR        =      F    write LOCPOT, Hartree potential only
   WRT_POTENTIAL= false  ! write potential to hdf5 file
   LELF         =      F    write electronic localiz. function (ELF)
   LORBIT       =      0    0 simple, 1 ext, 2 COOP (PROOUT), +10 PAW based schemes


 Python interface
   PLUGINS active      =      F    recompile with -DPLUGINS to activate
 
 Dipole corrections
   LMONO      =      F    monopole corrections only (constant potential shift)
   LDIPOL     =      T    correct potential (dipole corrections)
   IDIPOL     =      3    1-x, 2-y, 3-z, 4-all directions 
   EPSILON    =  1.0000000 bulk dielectric constant
   LVACPOTAV  =      F  vacuum potentials using an averaging scheme for the charge density
   VACPOTFLAT =  0.1000000 required flatness to determine vacuum potential
 
Coulomb truncation method
  LTRUNCATE          =      F  Coulomb kernel truncation to be used

 
 Exchange correlation treatment:
   GGA     = PE    functional components
   XC_C    = 1    coefficients multiplying the functional components
   LIBXC   =     F    Libxc                    
   VOSKOWN =     0    Vosko Wilk Nusair interpolation
   LHFCALC =     F    Hartree Fock is set to
   LHFONE  =     F    Hartree Fock one center treatment
   AEXX    =    0.0000 exact exchange contribution

 Parameters of functionals:
   PE:
     No parameter
 
 Van der Waals corrections
   IVDW    =    11    specifies the selected vdW correction

 Linear response parameters
   LEPSILON=     F    determine dielectric tensor
   LRPA    =     F    only Hartree local field effects (RPA)
   LNABLA  =     F    use nabla operator in PAW spheres
   LVEL    =     F    velocity operator in full k-point grid
   CSHIFT  =0.1000    complex shift for real part using Kramers Kronig
   OMEGAMAX=  -1.0    maximum frequency
   DEG_THRESHOLD= 0.2000000E-02 threshold for treating states as degnerate
   RTIME   =   -0.100 relaxation time in fs
  (WPLASMAI=    0.000 imaginary part of plasma frequency in eV, 0.658/RTIME)
   DFIELD  = 0.0000000 0.0000000 0.0000000 field for delta impulse in time
 
  Optional k-point grid parameters
   LKPOINTS_OPT  =     F    use optional k-point grid
   KPOINTS_OPT_MODE=     1    mode for optional k-point grid
 
 Orbital magnetization related:
   ORBITALMAG=     F  switch on orbital magnetization
   LCHIMAG   =     F  perturbation theory with respect to B field
   DQ        =  0.001000  dq finite difference perturbation B field
   LLRAUG    =     F  two centre corrections for induced B field
   LBONE     =     F  B-component reconstruction in AE one-centre
   LVGVCALC  =     T  calculate vGv susceptibility
   LVGVAPPL  =     F  apply vGv susceptibility instead of pGv for G=0

 Random number generation:
   RANDOM_GENERATOR = DEFAULT
   PCG_SEED         = not used


--------------------------------------------------------------------------------------------------------


 conjugate gradient relaxation of ions
 charge density and potential will be updated during run
 spin polarized calculation
 Variant of blocked Davidson
 Davidson routine will perform the subspace rotation
 perform sub-space diagonalisation
    after iterative eigenvector-optimisation
 modified Broyden-mixing scheme, WC =      100.0
 initial mixing is a Kerker type mixing with AMIX =  0.4000 and BMIX =      1.0000
 Hartree-type preconditioning will be used
 using additional bands             9
 real space projection scheme for non local part
 use partial core corrections
 calculate Harris-corrections to forces 
   (improved forces if not selfconsistent)
 use gradient corrections 
 use of overlap-Matrix (Vanderbilt PP)
 Gauss-broadening in eV      SIGMA  =   0.05


--------------------------------------------------------------------------------------------------------


  energy-cutoff  :      400.00
  volume of cell :      633.19
      direct lattice vectors                 reciprocal lattice vectors
     6.046274499  0.000000000  0.000000000     0.165391102  0.095488597 -0.000000000
    -3.023137249  5.236227314  0.000000000     0.000000000  0.190977194  0.000000000
     0.000000000  0.000000000 20.000000000     0.000000000 -0.000000000  0.050000000

  length of vectors
     6.046274499  6.046274499 20.000000000     0.190977194  0.190977194  0.050000000


 
 k-points in units of 2pi/SCALE and weight: K-Points 5x5x1 Gamma-centered           
   0.00000000  0.00000000  0.00000000       0.040
   0.03307822  0.01909772  0.00000000       0.240
   0.06615644  0.03819544  0.00000000       0.240
   0.03307822  0.05729316  0.00000000       0.240
   0.06615644  0.07639088  0.00000000       0.240
 
 k-points in reciprocal lattice and weights: K-Points 5x5x1 Gamma-centered           
   0.00000000  0.00000000  0.00000000       0.040
   0.20000000  0.00000000  0.00000000       0.240
   0.40000000  0.00000000  0.00000000       0.240
   0.20000000  0.20000000  0.00000000       0.240
   0.40000000  0.20000000  0.00000000       0.240
 
 position of ions in fractional coordinates (direct lattice) 
   0.33333333  0.66666667  0.50000000
   0.66666667  0.33333333  0.50000000
   0.35930020  0.00000000  0.43321381
   0.00000000  0.35930020  0.43321381
   0.64069980  0.64069980  0.43321381
   0.64069980  0.00000000  0.56678619
   0.00000000  0.64069980  0.56678619
   0.35930020  0.35930020  0.56678619
 
 position of ions in cartesian coordinates  (Angst):
   0.00000000  3.49081821 10.00000000
   3.02313725  1.74540910 10.00000000
   2.17242762  0.00000000  8.66427613
  -1.08621381  1.88137750  8.66427613
   1.93692344  3.35484981  8.66427613
   3.87384688  0.00000000 11.33572387
  -1.93692344  3.35484981 11.33572387
   1.08621381  1.88137750 11.33572387
 


--------------------------------------------------------------------------------------------------------


 k-point     1 :   0.0000 0.0000 0.0000  plane waves:   11441
 k-point     2 :   0.2000 0.0000 0.0000  plane waves:   11505
 k-point     3 :   0.4000 0.0000 0.0000  plane waves:   11507
 k-point     4 :   0.2000 0.2000 0.0000  plane waves:   11510
 k-point     5 :   0.4000 0.2000 0.0000  plane waves:   11544

 maximum and minimum number of plane-waves per node :      2906     2836

 maximum number of plane-waves:     11544
 maximum index in each direction: 
   IXMAX=    9   IYMAX=    9   IZMAX=   32
   IXMIN=  -10   IYMIN=  -10   IZMIN=  -32


 real space projection operators:
  total allocation   :       3063.38 KBytes
  max/ min on nodes  :        771.50        760.75


 parallel 3D FFT for wavefunctions:
    minimum data exchange during FFTs selected (reduces bandwidth)
 parallel 3D FFT for charge:
    minimum data exchange during FFTs selected (reduces bandwidth)


 total amount of memory used by VASP MPI-rank0    54961. kBytes
=======================================================================

   base                                    :      30000. kBytes
   nonlr-proj                              :       1704. kBytes
   fftplans                                :       5464. kBytes
   grid                                    :      13504. kBytes
   one-center                              :         62. kBytes
   wavefun                                 :       4227. kBytes
 
     INWAV:  cpu time      0.0001: real time      0.0105
 Broyden mixing: mesh for mixing (old mesh)
   NGX = 19   NGY = 19   NGZ = 65
  (NGX  = 80   NGY  = 80   NGZ  =280)
  gives a total of  23465 points

 initial charge density was supplied:
 charge density of overlapping atoms calculated
 number of electron      54.0000000 magnetization       6.0000000
 keeping initial charge density in first step


--------------------------------------------------------------------------------------------------------


 Maximum index for non-local projection operator          1364
 Maximum index for augmentation-charges          1154 (set IRDMAX)


--------------------------------------------------------------------------------------------------------


 First call to EWALD:  gamma=   0.206
 Maximum number of real-space cells   4x   4x   1
 Maximum number of reciprocal cells   2x   2x   6

    FEWALD:  cpu time      0.0318: real time      0.2560


--------------------------------------- Ionic step        1  -------------------------------------------




--------------------------------------- Iteration      1(   1)  ---------------------------------------


    POTLOK:  cpu time      0.3063: real time      2.4369
    SETDIJ:  cpu time      0.1588: real time      1.2795
     EDDAV:  cpu time     28.8360: real time    231.8500
       DOS:  cpu time      0.1992: real time      1.6000
    --------------------------------------------
      LOOP:  cpu time     29.5003: real time    237.1665

 eigenvalue-minimisations  :   720
 total energy-change (2. order) : 0.5144849E+03  (-0.1529822E+04)
 number of electron      54.0000000 magnetization       6.0000000
 augmentation part       54.0000000 magnetization       6.0000000

 DIPCOR: dipole corrections for dipol
 direction  3 min pos     1,
 dipolmoment           0.000000      0.000000     -0.000000 electrons x Angstroem
 Tr[quadrupol]      -351.983071

 energy correction for charged system         0.000000 eV
 dipol+quadrupol energy correction           -0.000000 eV
 added-field ion interaction          0.000000 eV  (added to PSCEN)


 Free energy of the ion-electron system (eV)
  ---------------------------------------------------
  alpha Z        PSCENC =        27.18754189
  Ewald energy   TEWEN  =      6068.92090359
  -Hartree energ DENC   =     -8746.01124544
  -exchange      EXHF   =         0.00000000
  -V(xc)+E(xc)   XCENC  =        82.52784492
  PAW double counting   =      2504.81294498    -2466.15146486
  entropy T*S    EENTRO =        -0.00775903
  eigenvalues    EBANDS =        31.13604323
  atomic energy  EATOM  =      3012.07006103
  Solvation  Ediel_sol  =         0.00000000
  ---------------------------------------------------
  free energy    TOTEN  =       514.48487030 eV

  energy without entropy =      514.49262933  energy(sigma->0) =      514.48874981


--------------------------------------------------------------------------------------------------------




--------------------------------------- Iteration      1(   2)  ---------------------------------------


     EDDAV:  cpu time     33.8766: real time    272.2360
       DOS:  cpu time      0.2031: real time      1.6360
    --------------------------------------------
      LOOP:  cpu time     34.0797: real time    273.8720

 eigenvalue-minimisations  :   928
 total energy-change (2. order) :-0.4281918E+03  (-0.4083341E+03)
 number of electron      54.0000000 magnetization       6.0000000
 augmentation part       54.0000000 magnetization       6.0000000

 DIPCOR: dipole corrections for dipol
 direction  3 min pos     1,
 dipolmoment           0.000000      0.000000     -0.000000 electrons x Angstroem
 Tr[quadrupol]      -351.983071

 energy correction for charged system         0.000000 eV
 dipol+quadrupol energy correction           -0.000000 eV
 added-field ion interaction          0.000000 eV  (added to PSCEN)


 Free energy of the ion-electron system (eV)
  ---------------------------------------------------
  alpha Z        PSCENC =        27.18754189
  Ewald energy   TEWEN  =      6068.92090359
  -Hartree energ DENC   =     -8746.01124544
  -exchange      EXHF   =         0.00000000
  -V(xc)+E(xc)   XCENC  =        82.52784492
  PAW double counting   =      2504.81294498    -2466.15146486
  entropy T*S    EENTRO =        -0.00660518
  eigenvalues    EBANDS =      -397.05695368
  atomic energy  EATOM  =      3012.07006103
  Solvation  Ediel_sol  =         0.00000000
  ---------------------------------------------------
  free energy    TOTEN  =        86.29302724 eV

  energy without entropy =       86.29963242  energy(sigma->0) =       86.29632983


--------------------------------------------------------------------------------------------------------




--------------------------------------- Iteration      1(   3)  ---------------------------------------


     EDDAV:  cpu time     35.8949: real time    288.4660
       DOS:  cpu time      0.0439: real time      0.3540
    --------------------------------------------
      LOOP:  cpu time     35.9388: real time    288.8200

 eigenvalue-minimisations  :  1032
 total energy-change (2. order) :-0.1217602E+03  (-0.1187686E+03)
 number of electron      54.0000000 magnetization       6.0000000
 augmentation part       54.0000000 magnetization       6.0000000

 DIPCOR: dipole corrections for dipol
 direction  3 min pos     1,
 dipolmoment           0.000000      0.000000     -0.000000 electrons x Angstroem
 Tr[quadrupol]      -351.983071

 energy correction for charged system         0.000000 eV
 dipol+quadrupol energy correction           -0.000000 eV
 added-field ion interaction          0.000000 eV  (added to PSCEN)


 Free energy of the ion-electron system (eV)
  ---------------------------------------------------
  alpha Z        PSCENC =        27.18754189
  Ewald energy   TEWEN  =      6068.92090359
  -Hartree energ DENC   =     -8746.01124544
  -exchange      EXHF   =         0.00000000
  -V(xc)+E(xc)   XCENC  =        82.52784492
  PAW double counting   =      2504.81294498    -2466.15146486
  entropy T*S    EENTRO =        -0.00000000
  eigenvalues    EBANDS =      -518.82371222
  atomic energy  EATOM  =      3012.07006103
  Solvation  Ediel_sol  =         0.00000000
  ---------------------------------------------------
  free energy    TOTEN  =       -35.46712612 eV

  energy without entropy =      -35.46712612  energy(sigma->0) =      -35.46712612


--------------------------------------------------------------------------------------------------------




--------------------------------------- Iteration      1(   4)  ---------------------------------------


     EDDAV:  cpu time     36.2207: real time    356.1680
       DOS:  cpu time      0.0438: real time      0.4400
    --------------------------------------------
      LOOP:  cpu time     36.2646: real time    356.6080

 eigenvalue-minimisations  :  1012
 total energy-change (2. order) :-0.7540032E+01  (-0.7444610E+01)
 number of electron      54.0000000 magnetization       6.0000000
 augmentation part       54.0000000 magnetization       6.0000000

 DIPCOR: dipole corrections for dipol
 direction  3 min pos     1,
 dipolmoment           0.000000      0.000000     -0.000000 electrons x Angstroem
 Tr[quadrupol]      -351.983071

 energy correction for charged system         0.000000 eV
 dipol+quadrupol energy correction           -0.000000 eV
 added-field ion interaction          0.000000 eV  (added to PSCEN)


 Free energy of the ion-electron system (eV)
  ---------------------------------------------------
  alpha Z        PSCENC =        27.18754189
  Ewald energy   TEWEN  =      6068.92090359
  -Hartree energ DENC   =     -8746.01124544
  -exchange      EXHF   =         0.00000000
  -V(xc)+E(xc)   XCENC  =        82.52784492
  PAW double counting   =      2504.81294498    -2466.15146486
  entropy T*S    EENTRO =        -0.00000000
  eigenvalues    EBANDS =      -526.36374410
  atomic energy  EATOM  =      3012.07006103
  Solvation  Ediel_sol  =         0.00000000
  ---------------------------------------------------
  free energy    TOTEN  =       -43.00715800 eV

  energy without entropy =      -43.00715800  energy(sigma->0) =      -43.00715800


--------------------------------------------------------------------------------------------------------




--------------------------------------- Iteration      1(   5)  ---------------------------------------


     EDDAV:  cpu time     36.6698: real time    368.4370
       DOS:  cpu time      0.0438: real time      0.4400
    CHARGE:  cpu time      1.1748: real time     11.7714
    MIXING:  cpu time      0.0792: real time      0.7955
    --------------------------------------------
      LOOP:  cpu time     37.9676: real time    381.4440

 eigenvalue-minimisations  :  1012
 total energy-change (2. order) :-0.2367440E+00  (-0.2359121E+00)
 number of electron      53.9999996 magnetization       6.0000000
 augmentation part       -2.0739423 magnetization       3.3808576

 DIPCOR: dipole corrections for dipol
 direction  3 min pos     1,
 dipolmoment           0.000000      0.000000     -0.000000 electrons x Angstroem
 Tr[quadrupol]      -351.983071

 energy correction for charged system         0.000000 eV
 dipol+quadrupol energy correction           -0.000000 eV
 added-field ion interaction          0.000000 eV  (added to PSCEN)


 Broyden mixing:
  rms(total) = 0.20364E+01    rms(broyden)= 0.20359E+01
  rms(prec ) = 0.21495E+01
  weight for this iteration     100.00

 Free energy of the ion-electron system (eV)
  ---------------------------------------------------
  alpha Z        PSCENC =        27.18754189
  Ewald energy   TEWEN  =      6068.92090359
  -Hartree energ DENC   =     -8746.01124544
  -exchange      EXHF   =         0.00000000
  -V(xc)+E(xc)   XCENC  =        82.52784492
  PAW double counting   =      2504.81294498    -2466.15146486
  entropy T*S    EENTRO =        -0.00000000
  eigenvalues    EBANDS =      -526.60048811
  atomic energy  EATOM  =      3012.07006103
  Solvation  Ediel_sol  =         0.00000000
  ---------------------------------------------------
  free energy    TOTEN  =       -43.24390201 eV

  energy without entropy =      -43.24390201  energy(sigma->0) =      -43.24390201


--------------------------------------------------------------------------------------------------------




--------------------------------------- Iteration      1(   6)  ---------------------------------------


    POTLOK:  cpu time      0.3473: real time      3.5035
    SETDIJ:  cpu time      0.1668: real time      1.6805
     EDDAV:  cpu time     37.7035: real time    378.7440
       DOS:  cpu time      0.0319: real time      0.3200
    CHARGE:  cpu time      1.2229: real time     12.2934
    MIXING:  cpu time      0.0991: real time      0.9955
    --------------------------------------------
      LOOP:  cpu time     39.5713: real time    397.5369

 eigenvalue-minimisations  :  1060
 total energy-change (2. order) : 0.2579282E+01  (-0.3720083E+01)
 number of electron      53.9999996 magnetization       6.0000000
 augmentation part        0.8334056 magnetization       3.9696955

 DIPCOR: dipole corrections for dipol
 direction  3 min pos     1,
 dipolmoment           0.000000      0.000000     -0.000000 electrons x Angstroem
 Tr[quadrupol]      -351.655101

 energy correction for charged system         0.000000 eV
 dipol+quadrupol energy correction           -0.000000 eV
 added-field ion interaction          0.000000 eV  (added to PSCEN)


 Broyden mixing:
  rms(total) = 0.21121E+01    rms(broyden)= 0.21120E+01
  rms(prec ) = 0.21834E+01
  weight for this iteration     100.00

 eigenvalues of (default mixing * dielectric matrix)
  average eigenvalue GAMMA=   0.3184
  0.3184

 Free energy of the ion-electron system (eV)
  ---------------------------------------------------
  alpha Z        PSCENC =        27.18754189
  Ewald energy   TEWEN  =      6068.92090359
  -Hartree energ DENC   =     -8732.59862027
  -exchange      EXHF   =         0.00000000
  -V(xc)+E(xc)   XCENC  =        85.57221134
  PAW double counting   =      2850.98815457    -2807.89562454
  entropy T*S    EENTRO =        -0.00000000
  eigenvalues    EBANDS =      -544.90924721
  atomic energy  EATOM  =      3012.07006103
  Solvation  Ediel_sol  =         0.00000000
  ---------------------------------------------------
  free energy    TOTEN  =       -40.66461961 eV

  energy without entropy =      -40.66461961  energy(sigma->0) =      -40.66461961


--------------------------------------------------------------------------------------------------------




--------------------------------------- Iteration      1(   7)  ---------------------------------------


    POTLOK:  cpu time      0.3629: real time      3.6485
    SETDIJ:  cpu time      0.1627: real time      1.6355
     EDDAV:  cpu time     35.5131: real time    356.9000
       DOS:  cpu time      0.0438: real time      0.4400
    CHARGE:  cpu time      1.1657: real time     11.7044
    MIXING:  cpu time      0.1032: real time      1.0396
    --------------------------------------------
      LOOP:  cpu time     37.3513: real time    375.3680

 eigenvalue-minimisations  :  1072
 total energy-change (2. order) : 0.1654150E+01  (-0.5940078E+00)
 number of electron      53.9999996 magnetization       5.9999999
 augmentation part       -0.6661738 magnetization       3.9855463

 DIPCOR: dipole corrections for dipol
 direction  3 min pos     1,
 dipolmoment           0.000000      0.000000     -0.000000 electrons x Angstroem
 Tr[quadrupol]      -351.965058

 energy correction for charged system         0.000000 eV
 dipol+quadrupol energy correction           -0.000000 eV
 added-field ion interaction          0.000000 eV  (added to PSCEN)


 Broyden mixing:
  rms(total) = 0.97782E+00    rms(broyden)= 0.97777E+00
  rms(prec ) = 0.98226E+00
  weight for this iteration     100.00

 eigenvalues of (default mixing * dielectric matrix)
  average eigenvalue GAMMA=   0.7359
  1.0838  0.3881

 Free energy of the ion-electron system (eV)
  ---------------------------------------------------
  alpha Z        PSCENC =        27.18754189
  Ewald energy   TEWEN  =      6068.92090359
  -Hartree energ DENC   =     -8743.36216627
  -exchange      EXHF   =         0.00000000
  -V(xc)+E(xc)   XCENC  =        85.18610905
  PAW double counting   =      3034.24253221    -2994.55475345
  entropy T*S    EENTRO =        -0.00000000
  eigenvalues    EBANDS =      -528.70069750
  atomic energy  EATOM  =      3012.07006103
  Solvation  Ediel_sol  =         0.00000000
  ---------------------------------------------------
  free energy    TOTEN  =       -39.01046946 eV

  energy without entropy =      -39.01046946  energy(sigma->0) =      -39.01046946


--------------------------------------------------------------------------------------------------------




--------------------------------------- Iteration      1(   8)  ---------------------------------------


    POTLOK:  cpu time      0.3469: real time      3.4725
    SETDIJ:  cpu time      0.1669: real time      1.6915
     EDDAV:  cpu time     34.4689: real time    364.0620
       DOS:  cpu time      0.0339: real time      0.3540
    CHARGE:  cpu time      1.2222: real time     13.5203
    MIXING:  cpu time      0.1111: real time      1.2296
    --------------------------------------------
      LOOP:  cpu time     36.3498: real time    384.3300

 eigenvalue-minimisations  :   900
 total energy-change (2. order) :-0.9791677E-01  (-0.1168804E+00)
 number of electron      53.9999996 magnetization       5.9999999
 augmentation part       -0.7196089 magnetization       4.0405103

 DIPCOR: dipole corrections for dipol
 direction  3 min pos     1,
 dipolmoment           0.000000      0.000000     -0.000000 electrons x Angstroem
 Tr[quadrupol]      -352.069669

 energy correction for charged system         0.000000 eV
 dipol+quadrupol energy correction           -0.000000 eV
 added-field ion interaction          0.000000 eV  (added to PSCEN)


 Broyden mixing:
  rms(total) = 0.44845E+00    rms(broyden)= 0.44844E+00
  rms(prec ) = 0.45779E+00
  weight for this iteration     100.00

 eigenvalues of (default mixing * dielectric matrix)
  average eigenvalue GAMMA=   1.0525
  2.0218  0.6930  0.4428

 Free energy of the ion-electron system (eV)
  ---------------------------------------------------
  alpha Z        PSCENC =        27.18754189
  Ewald energy   TEWEN  =      6068.92090359
  -Hartree energ DENC   =     -8744.65452941
  -exchange      EXHF   =         0.00000000
  -V(xc)+E(xc)   XCENC  =        85.64061791
  PAW double counting   =      3403.21437519    -3364.98703720
  entropy T*S    EENTRO =        -0.00000000
  eigenvalues    EBANDS =      -526.50031921
  atomic energy  EATOM  =      3012.07006103
  Solvation  Ediel_sol  =         0.00000000
  ---------------------------------------------------
  free energy    TOTEN  =       -39.10838622 eV

  energy without entropy =      -39.10838622  energy(sigma->0) =      -39.10838622


--------------------------------------------------------------------------------------------------------




--------------------------------------- Iteration      1(   9)  ---------------------------------------


    POTLOK:  cpu time      0.3548: real time      3.9095
    SETDIJ:  cpu time      0.1668: real time      1.8475
     EDDAV:  cpu time     38.6415: real time    427.0520
       DOS:  cpu time      0.0478: real time      0.5280
    CHARGE:  cpu time      1.1792: real time     13.0268
    MIXING:  cpu time      0.1225: real time      1.3621
    --------------------------------------------
      LOOP:  cpu time     40.5126: real time    447.7260

 eigenvalue-minimisations  :  1076
 total energy-change (2. order) : 0.5549621E-01  (-0.2585278E-01)
 number of electron      53.9999996 magnetization       5.9999999
 augmentation part       -0.4538938 magnetization       4.1087321

 DIPCOR: dipole corrections for dipol
 direction  3 min pos     1,
 dipolmoment           0.000000      0.000000     -0.000000 electrons x Angstroem
 Tr[quadrupol]      -352.165415

 energy correction for charged system         0.000000 eV
 dipol+quadrupol energy correction           -0.000000 eV
 added-field ion interaction          0.000000 eV  (added to PSCEN)


 Broyden mixing:
  rms(total) = 0.12674E+00    rms(broyden)= 0.12673E+00
  rms(prec ) = 0.13147E+00
  weight for this iteration     100.00

 eigenvalues of (default mixing * dielectric matrix)
  average eigenvalue GAMMA=   1.0771
  2.3075  0.9170  0.4525  0.6314

 Free energy of the ion-electron system (eV)
  ---------------------------------------------------
  alpha Z        PSCENC =        27.18754189
  Ewald energy   TEWEN  =      6068.92090359
  -Hartree energ DENC   =     -8746.93917359
  -exchange      EXHF   =         0.00000000
  -V(xc)+E(xc)   XCENC  =        86.15036321
  PAW double counting   =      3686.58253034    -3649.09101855
  entropy T*S    EENTRO =        -0.00000000
  eigenvalues    EBANDS =      -523.93409792
  atomic energy  EATOM  =      3012.07006103
  Solvation  Ediel_sol  =         0.00000000
  ---------------------------------------------------
  free energy    TOTEN  =       -39.05289001 eV

  energy without entropy =      -39.05289001  energy(sigma->0) =      -39.05289001


--------------------------------------------------------------------------------------------------------




--------------------------------------- Iteration      1(  10)  ---------------------------------------


    POTLOK:  cpu time      0.3498: real time      3.8685
    SETDIJ:  cpu time      0.1787: real time      1.9835
     EDDAV:  cpu time     38.0715: real time    420.8820
       DOS:  cpu time      0.0439: real time      0.4880
    CHARGE:  cpu time      1.1515: real time     12.7145
    MIXING:  cpu time      0.1429: real time      1.5914
    --------------------------------------------
      LOOP:  cpu time     39.9382: real time    441.5280

 eigenvalue-minimisations  :  1060
 total energy-change (2. order) : 0.8177572E-04  (-0.5267178E-02)
 number of electron      53.9999996 magnetization       5.9999998
 augmentation part       -0.5110095 magnetization       4.0914315

 DIPCOR: dipole corrections for dipol
 direction  3 min pos     1,
 dipolmoment           0.000000      0.000000     -0.000000 electrons x Angstroem
 Tr[quadrupol]      -352.216473

 energy correction for charged system         0.000000 eV
 dipol+quadrupol energy correction           -0.000000 eV
 added-field ion interaction         -0.000000 eV  (added to PSCEN)


 Broyden mixing:
  rms(total) = 0.54557E-01    rms(broyden)= 0.54556E-01
  rms(prec ) = 0.55921E-01
  weight for this iteration     100.00

 eigenvalues of (default mixing * dielectric matrix)
  average eigenvalue GAMMA=   1.0877
  2.4538  1.1752  0.4499  0.6798  0.6798

 Free energy of the ion-electron system (eV)
  ---------------------------------------------------
  alpha Z        PSCENC =        27.18754189
  Ewald energy   TEWEN  =      6068.92090359
  -Hartree energ DENC   =     -8748.41098712
  -exchange      EXHF   =         0.00000000
  -V(xc)+E(xc)   XCENC  =        86.18126339
  PAW double counting   =      3691.58067015    -3654.33774694
  entropy T*S    EENTRO =        -0.00000000
  eigenvalues    EBANDS =      -522.24451422
  atomic energy  EATOM  =      3012.07006103
  Solvation  Ediel_sol  =         0.00000000
  ---------------------------------------------------
  free energy    TOTEN  =       -39.05280823 eV

  energy without entropy =      -39.05280823  energy(sigma->0) =      -39.05280823


--------------------------------------------------------------------------------------------------------




--------------------------------------- Iteration      1(  11)  ---------------------------------------


    POTLOK:  cpu time      0.3411: real time      3.7536
    SETDIJ:  cpu time      0.1657: real time      1.8464
     EDDAV:  cpu time     37.9064: real time    418.9350
       DOS:  cpu time      0.0438: real time      0.4840
    CHARGE:  cpu time      1.2266: real time     13.5605
    MIXING:  cpu time      0.1389: real time      1.5355
    --------------------------------------------
      LOOP:  cpu time     39.8226: real time    440.1150

 eigenvalue-minimisations  :  1072
 total energy-change (2. order) :-0.3707129E-02  (-0.3420242E-03)
 number of electron      53.9999996 magnetization       5.9999998
 augmentation part       -0.5335755 magnetization       4.0849108

 DIPCOR: dipole corrections for dipol
 direction  3 min pos     1,
 dipolmoment           0.000000      0.000000     -0.000000 electrons x Angstroem
 Tr[quadrupol]      -352.253628

 energy correction for charged system         0.000000 eV
 dipol+quadrupol energy correction           -0.000000 eV
 added-field ion interaction          0.000000 eV  (added to PSCEN)


 Broyden mixing:
  rms(total) = 0.22686E-01    rms(broyden)= 0.22684E-01
  rms(prec ) = 0.23269E-01
  weight for this iteration     100.00

 eigenvalues of (default mixing * dielectric matrix)
  average eigenvalue GAMMA=   1.1546
  2.5495  1.5357  1.0864  0.4495  0.6532  0.6532

 Free energy of the ion-electron system (eV)
  ---------------------------------------------------
  alpha Z        PSCENC =        27.18754189
  Ewald energy   TEWEN  =      6068.92090359
  -Hartree energ DENC   =     -8749.17192170
  -exchange      EXHF   =         0.00000000
  -V(xc)+E(xc)   XCENC  =        86.14912356
  PAW double counting   =      3704.92884081    -3667.76247045
  entropy T*S    EENTRO =        -0.00000000
  eigenvalues    EBANDS =      -521.37859409
  atomic energy  EATOM  =      3012.07006103
  Solvation  Ediel_sol  =         0.00000000
  ---------------------------------------------------
  free energy    TOTEN  =       -39.05651536 eV

  energy without entropy =      -39.05651536  energy(sigma->0) =      -39.05651536


--------------------------------------------------------------------------------------------------------




--------------------------------------- Iteration      1(  12)  ---------------------------------------


    POTLOK:  cpu time      0.3386: real time      3.7445
    SETDIJ:  cpu time      0.1707: real time      1.8936
     EDDAV:  cpu time     35.4430: real time    391.8620
       DOS:  cpu time      0.0359: real time      0.3960
    CHARGE:  cpu time      1.1310: real time     12.5004
    MIXING:  cpu time      0.1379: real time      1.5385
    --------------------------------------------
      LOOP:  cpu time     37.2571: real time    411.9350

 eigenvalue-minimisations  :   960
 total energy-change (2. order) :-0.5381810E-02  (-0.1014170E-03)
 number of electron      53.9999996 magnetization       5.9999998
 augmentation part       -0.5318333 magnetization       4.0832341

 DIPCOR: dipole corrections for dipol
 direction  3 min pos     1,
 dipolmoment           0.000000      0.000000     -0.000000 electrons x Angstroem
 Tr[quadrupol]      -352.298110

 energy correction for charged system         0.000000 eV
 dipol+quadrupol energy correction           -0.000000 eV
 added-field ion interaction          0.000000 eV  (added to PSCEN)


 Broyden mixing:
  rms(total) = 0.12569E-01    rms(broyden)= 0.12568E-01
  rms(prec ) = 0.13139E-01
  weight for this iteration     100.00

 eigenvalues of (default mixing * dielectric matrix)
  average eigenvalue GAMMA=   1.1710
  2.4575  2.0163  1.2450  0.4494  0.7486  0.6747  0.6052

 Free energy of the ion-electron system (eV)
  ---------------------------------------------------
  alpha Z        PSCENC =        27.18754189
  Ewald energy   TEWEN  =      6068.92090359
  -Hartree energ DENC   =     -8749.99570893
  -exchange      EXHF   =         0.00000000
  -V(xc)+E(xc)   XCENC  =        86.14494384
  PAW double counting   =      3705.80718356    -3668.63255811
  entropy T*S    EENTRO =        -0.00000000
  eigenvalues    EBANDS =      -520.56426404
  atomic energy  EATOM  =      3012.07006103
  Solvation  Ediel_sol  =         0.00000000
  ---------------------------------------------------
  free energy    TOTEN  =       -39.06189717 eV

  energy without entropy =      -39.06189717  energy(sigma->0) =      -39.06189717


--------------------------------------------------------------------------------------------------------




--------------------------------------- Iteration      1(  13)  ---------------------------------------


    POTLOK:  cpu time      0.3787: real time      4.1855
    SETDIJ:  cpu time      0.1707: real time      1.8915
     EDDAV:  cpu time     37.8587: real time    418.4690
       DOS:  cpu time      0.0399: real time      0.4400
    CHARGE:  cpu time      1.1556: real time     12.7566
    MIXING:  cpu time      0.1587: real time      1.7623
    --------------------------------------------
      LOOP:  cpu time     39.7622: real time    439.5050

 eigenvalue-minimisations  :  1040
 total energy-change (2. order) :-0.2821592E-02  (-0.1352086E-04)
 number of electron      53.9999996 magnetization       5.9999998
 augmentation part       -0.5338984 magnetization       4.0829687

 DIPCOR: dipole corrections for dipol
 direction  3 min pos     1,
 dipolmoment           0.000000      0.000000     -0.000000 electrons x Angstroem
 Tr[quadrupol]      -352.321048

 energy correction for charged system         0.000000 eV
 dipol+quadrupol energy correction           -0.000000 eV
 added-field ion interaction          0.000000 eV  (added to PSCEN)


 Broyden mixing:
  rms(total) = 0.52884E-02    rms(broyden)= 0.52883E-02
  rms(prec ) = 0.61020E-02
  weight for this iteration     100.00

 eigenvalues of (default mixing * dielectric matrix)
  average eigenvalue GAMMA=   1.1597
  2.3747  2.1621  1.0783  1.0783  0.4493  0.8705  0.6321  0.6321

 Free energy of the ion-electron system (eV)
  ---------------------------------------------------
  alpha Z        PSCENC =        27.18754189
  Ewald energy   TEWEN  =      6068.92090359
  -Hartree energ DENC   =     -8750.47838344
  -exchange      EXHF   =         0.00000000
  -V(xc)+E(xc)   XCENC  =        86.14981937
  PAW double counting   =      3700.21604445    -3663.02335927
  entropy T*S    EENTRO =        -0.00000000
  eigenvalues    EBANDS =      -520.10734638
  atomic energy  EATOM  =      3012.07006103
  Solvation  Ediel_sol  =         0.00000000
  ---------------------------------------------------
  free energy    TOTEN  =       -39.06471877 eV

  energy without entropy =      -39.06471877  energy(sigma->0) =      -39.06471877


--------------------------------------------------------------------------------------------------------




--------------------------------------- Iteration      1(  14)  ---------------------------------------


    POTLOK:  cpu time      0.3470: real time      3.8285
    SETDIJ:  cpu time      0.1737: real time      1.8945
     EDDAV:  cpu time     36.4435: real time    402.9220
       DOS:  cpu time      0.0398: real time      0.4400
    CHARGE:  cpu time      1.3222: real time     14.6075
    MIXING:  cpu time      0.1468: real time      1.6265
    --------------------------------------------
      LOOP:  cpu time     38.4732: real time    425.3190

 eigenvalue-minimisations  :  1000
 total energy-change (2. order) :-0.2246649E-02  (-0.4655426E-05)
 number of electron      53.9999996 magnetization       5.9999998
 augmentation part       -0.5346839 magnetization       4.0830017

 DIPCOR: dipole corrections for dipol
 direction  3 min pos     1,
 dipolmoment           0.000000      0.000000     -0.000000 electrons x Angstroem
 Tr[quadrupol]      -352.339275

 energy correction for charged system         0.000000 eV
 dipol+quadrupol energy correction           -0.000000 eV
 added-field ion interaction          0.000000 eV  (added to PSCEN)


 Broyden mixing:
  rms(total) = 0.37188E-02    rms(broyden)= 0.37187E-02
  rms(prec ) = 0.44961E-02
  weight for this iteration     100.00

 eigenvalues of (default mixing * dielectric matrix)
  average eigenvalue GAMMA=   1.1714
  2.3481  1.8268  1.5338  1.5338  0.9085  0.4494  0.6637  0.6637  0.6150

 Free energy of the ion-electron system (eV)
  ---------------------------------------------------
  alpha Z        PSCENC =        27.18754189
  Ewald energy   TEWEN  =      6068.92090359
  -Hartree energ DENC   =     -8750.86853128
  -exchange      EXHF   =         0.00000000
  -V(xc)+E(xc)   XCENC  =        86.15164413
  PAW double counting   =      3697.64603540    -3660.45486240
  entropy T*S    EENTRO =        -0.00000000
  eigenvalues    EBANDS =      -519.71975777
  atomic energy  EATOM  =      3012.07006103
  Solvation  Ediel_sol  =         0.00000000
  ---------------------------------------------------
  free energy    TOTEN  =       -39.06696542 eV

  energy without entropy =      -39.06696542  energy(sigma->0) =      -39.06696542


--------------------------------------------------------------------------------------------------------




--------------------------------------- Iteration      1(  15)  ---------------------------------------


    POTLOK:  cpu time      0.3469: real time      3.8255
    SETDIJ:  cpu time      0.1740: real time      1.9335
     EDDAV:  cpu time     36.1622: real time    399.7510
       DOS:  cpu time      0.0439: real time      0.4840
    CHARGE:  cpu time      1.1278: real time     12.4526
    MIXING:  cpu time      0.1586: real time      1.7594
    --------------------------------------------
      LOOP:  cpu time     38.0134: real time    420.2060

 eigenvalue-minimisations  :   956
 total energy-change (2. order) :-0.2034580E-02  (-0.4356531E-05)
 number of electron      53.9999996 magnetization       5.9999998
 augmentation part       -0.5337030 magnetization       4.0831783

 DIPCOR: dipole corrections for dipol
 direction  3 min pos     1,
 dipolmoment           0.000000      0.000000     -0.000000 electrons x Angstroem
 Tr[quadrupol]      -352.364818

 energy correction for charged system         0.000000 eV
 dipol+quadrupol energy correction           -0.000000 eV
 added-field ion interaction          0.000000 eV  (added to PSCEN)


 Broyden mixing:
  rms(total) = 0.14696E-02    rms(broyden)= 0.14695E-02
  rms(prec ) = 0.24094E-02
  weight for this iteration     100.00

 eigenvalues of (default mixing * dielectric matrix)
  average eigenvalue GAMMA=   1.2506
  2.4422  2.4422  1.9317  1.3657  1.1119  0.4494  0.8071  0.6397  0.6397  0.6768

 Free energy of the ion-electron system (eV)
  ---------------------------------------------------
  alpha Z        PSCENC =        27.18754189
  Ewald energy   TEWEN  =      6068.92090359
  -Hartree energ DENC   =     -8751.37342490
  -exchange      EXHF   =         0.00000000
  -V(xc)+E(xc)   XCENC  =        86.15836072
  PAW double counting   =      3694.91369451    -3657.72005016
  entropy T*S    EENTRO =        -0.00000000
  eigenvalues    EBANDS =      -519.22608666
  atomic energy  EATOM  =      3012.07006103
  Solvation  Ediel_sol  =         0.00000000
  ---------------------------------------------------
  free energy    TOTEN  =       -39.06900000 eV

  energy without entropy =      -39.06900000  energy(sigma->0) =      -39.06900000


--------------------------------------------------------------------------------------------------------




--------------------------------------- Iteration      1(  16)  ---------------------------------------


    POTLOK:  cpu time      0.3429: real time      3.7805
    SETDIJ:  cpu time      0.1708: real time      1.8945
     EDDAV:  cpu time     37.1482: real time    410.5450
       DOS:  cpu time      0.0478: real time      0.5280
    CHARGE:  cpu time      1.2685: real time     13.9990
    MIXING:  cpu time      0.1563: real time      1.7570
    --------------------------------------------
      LOOP:  cpu time     39.1346: real time    432.5040

 eigenvalue-minimisations  :   988
 total energy-change (2. order) :-0.1471366E-02  (-0.3897640E-05)
 number of electron      53.9999996 magnetization       5.9999998
 augmentation part       -0.5324338 magnetization       4.0835244

 DIPCOR: dipole corrections for dipol
 direction  3 min pos     1,
 dipolmoment           0.000000      0.000000      0.000000 electrons x Angstroem
 Tr[quadrupol]      -352.400943

 energy correction for charged system         0.000000 eV
 dipol+quadrupol energy correction           -0.000000 eV
 added-field ion interaction          0.000000 eV  (added to PSCEN)


 Broyden mixing:
  rms(total) = 0.17047E-02    rms(broyden)= 0.17047E-02
  rms(prec ) = 0.20977E-02
  weight for this iteration     100.00

 eigenvalues of (default mixing * dielectric matrix)
  average eigenvalue GAMMA=   1.2130
  2.5365  2.5365  1.5470  1.5470  1.2771  0.4494  0.8429  0.6906  0.6906  0.6127
  0.6127

 Free energy of the ion-electron system (eV)
  ---------------------------------------------------
  alpha Z        PSCENC =        27.18754189
  Ewald energy   TEWEN  =      6068.92090359
  -Hartree energ DENC   =     -8752.04234971
  -exchange      EXHF   =         0.00000000
  -V(xc)+E(xc)   XCENC  =        86.16549052
  PAW double counting   =      3692.89589161    -3655.69807536
  entropy T*S    EENTRO =        -0.00000000
  eigenvalues    EBANDS =      -518.56993492
  atomic energy  EATOM  =      3012.07006103
  Solvation  Ediel_sol  =         0.00000000
  ---------------------------------------------------
  free energy    TOTEN  =       -39.07047136 eV

  energy without entropy =      -39.07047136  energy(sigma->0) =      -39.07047136


--------------------------------------------------------------------------------------------------------




--------------------------------------- Iteration      1(  17)  ---------------------------------------


    POTLOK:  cpu time      0.3362: real time      3.6977
    SETDIJ:  cpu time      0.1735: real time      1.9343
     EDDAV:  cpu time     30.7086: real time    339.5080
       DOS:  cpu time      0.0438: real time      0.4840
    CHARGE:  cpu time      1.2259: real time     13.5424
    MIXING:  cpu time      0.1866: real time      2.0665
    --------------------------------------------
      LOOP:  cpu time     32.6747: real time    361.2330

 eigenvalue-minimisations  :   736
 total energy-change (2. order) :-0.3257280E-03  (-0.3651705E-06)
 number of electron      53.9999996 magnetization       5.9999998
 augmentation part       -0.5325582 magnetization       4.0835936

 DIPCOR: dipole corrections for dipol
 direction  3 min pos     1,
 dipolmoment           0.000000      0.000000      0.000000 electrons x Angstroem
 Tr[quadrupol]      -352.413565

 energy correction for charged system         0.000000 eV
 dipol+quadrupol energy correction           -0.000000 eV
 added-field ion interaction         -0.000000 eV  (added to PSCEN)


 Broyden mixing:
  rms(total) = 0.12214E-02    rms(broyden)= 0.12214E-02
  rms(prec ) = 0.15672E-02
  weight for this iteration     100.00

 eigenvalues of (default mixing * dielectric matrix)
  average eigenvalue GAMMA=   1.3125
  2.9419  2.1288  2.1288  2.1271  1.4355  1.0465  0.4494  0.7959  0.7959  0.6290
  0.6290  0.6425

 Free energy of the ion-electron system (eV)
  ---------------------------------------------------
  alpha Z        PSCENC =        27.18754189
  Ewald energy   TEWEN  =      6068.92090359
  -Hartree energ DENC   =     -8752.24567939
  -exchange      EXHF   =         0.00000000
  -V(xc)+E(xc)   XCENC  =        86.16677821
  PAW double counting   =      3693.30959140    -3656.11175996
  entropy T*S    EENTRO =        -0.00000000
  eigenvalues    EBANDS =      -518.36823386
  atomic energy  EATOM  =      3012.07006103
  Solvation  Ediel_sol  =         0.00000000
  ---------------------------------------------------
  free energy    TOTEN  =       -39.07079709 eV

  energy without entropy =      -39.07079709  energy(sigma->0) =      -39.07079709


--------------------------------------------------------------------------------------------------------




--------------------------------------- Iteration      1(  18)  ---------------------------------------


    POTLOK:  cpu time      0.3545: real time      3.9155
    SETDIJ:  cpu time      0.1827: real time      2.0235
     EDDAV:  cpu time     32.0896: real time    354.6840
       DOS:  cpu time      0.0438: real time      0.4830
    CHARGE:  cpu time      1.1674: real time     12.8964
    MIXING:  cpu time      0.1947: real time      2.1576
    --------------------------------------------
      LOOP:  cpu time     34.0328: real time    376.1600

 eigenvalue-minimisations  :   808
 total energy-change (2. order) :-0.6807514E-03  (-0.2018614E-05)
 number of electron      53.9999996 magnetization       5.9999998
 augmentation part       -0.5331349 magnetization       4.0836244

 DIPCOR: dipole corrections for dipol
 direction  3 min pos     1,
 dipolmoment           0.000000      0.000000      0.000000 electrons x Angstroem
 Tr[quadrupol]      -352.446942

 energy correction for charged system         0.000000 eV
 dipol+quadrupol energy correction           -0.000000 eV
 added-field ion interaction          0.000000 eV  (added to PSCEN)


 Broyden mixing:
  rms(total) = 0.70004E-03    rms(broyden)= 0.70001E-03
  rms(prec ) = 0.79517E-03
  weight for this iteration     100.00

 eigenvalues of (default mixing * dielectric matrix)
  average eigenvalue GAMMA=   1.4176
  4.5505  2.4446  2.4446  1.5528  1.5528  1.1639  0.4494  0.8020  0.8020  0.7604
  0.6377  0.6377  0.6300

 Free energy of the ion-electron system (eV)
  ---------------------------------------------------
  alpha Z        PSCENC =        27.18754189
  Ewald energy   TEWEN  =      6068.92090359
  -Hartree energ DENC   =     -8752.76193513
  -exchange      EXHF   =         0.00000000
  -V(xc)+E(xc)   XCENC  =        86.16845895
  PAW double counting   =      3694.41832987    -3657.22002857
  entropy T*S    EENTRO =        -0.00000000
  eigenvalues    EBANDS =      -517.85480947
  atomic energy  EATOM  =      3012.07006103
  Solvation  Ediel_sol  =         0.00000000
  ---------------------------------------------------
  free energy    TOTEN  =       -39.07147784 eV

  energy without entropy =      -39.07147784  energy(sigma->0) =      -39.07147784


--------------------------------------------------------------------------------------------------------




--------------------------------------- Iteration      1(  19)  ---------------------------------------


    POTLOK:  cpu time      0.3423: real time      3.7725
    SETDIJ:  cpu time      0.1786: real time      1.9806
     EDDAV:  cpu time     31.7725: real time    351.1980
       DOS:  cpu time      0.0438: real time      0.4840
    CHARGE:  cpu time      1.1986: real time     13.2514
    MIXING:  cpu time      0.1789: real time      1.9786
    --------------------------------------------
      LOOP:  cpu time     33.7147: real time    372.6650

 eigenvalue-minimisations  :   740
 total energy-change (2. order) :-0.1036537E-03  (-0.3808363E-06)
 number of electron      53.9999996 magnetization       5.9999998
 augmentation part       -0.5332324 magnetization       4.0835021

 DIPCOR: dipole corrections for dipol
 direction  3 min pos     1,
 dipolmoment           0.000000      0.000000      0.000000 electrons x Angstroem
 Tr[quadrupol]      -352.458779

 energy correction for charged system         0.000000 eV
 dipol+quadrupol energy correction           -0.000000 eV
 added-field ion interaction          0.000000 eV  (added to PSCEN)


 Broyden mixing:
  rms(total) = 0.34882E-03    rms(broyden)= 0.34881E-03
  rms(prec ) = 0.41316E-03
  weight for this iteration     100.00

 eigenvalues of (default mixing * dielectric matrix)
  average eigenvalue GAMMA=   1.5120
  6.0561  2.5391  2.3670  1.5296  1.5296  1.3745  1.0329  0.4494  0.8414  0.8414
  0.7158  0.6333  0.6333  0.6243

 Free energy of the ion-electron system (eV)
  ---------------------------------------------------
  alpha Z        PSCENC =        27.18754189
  Ewald energy   TEWEN  =      6068.92090359
  -Hartree energ DENC   =     -8752.94265585
  -exchange      EXHF   =         0.00000000
  -V(xc)+E(xc)   XCENC  =        86.16886706
  PAW double counting   =      3694.14154460    -3656.94320599
  entropy T*S    EENTRO =        -0.00000000
  eigenvalues    EBANDS =      -517.67463783
  atomic energy  EATOM  =      3012.07006103
  Solvation  Ediel_sol  =         0.00000000
  ---------------------------------------------------
  free energy    TOTEN  =       -39.07158149 eV

  energy without entropy =      -39.07158149  energy(sigma->0) =      -39.07158149


--------------------------------------------------------------------------------------------------------




--------------------------------------- Iteration      1(  20)  ---------------------------------------


    POTLOK:  cpu time      0.3384: real time      3.7395
    SETDIJ:  cpu time      0.1747: real time      1.9355
     EDDAV:  cpu time     27.7401: real time    306.6860
       DOS:  cpu time      0.0239: real time      0.2641
    CHARGE:  cpu time      1.3023: real time     14.3944
    MIXING:  cpu time      0.1867: real time      2.0746
    --------------------------------------------
      LOOP:  cpu time     29.7661: real time    329.0940

 eigenvalue-minimisations  :   548
 total energy-change (2. order) :-0.1059859E-04  (-0.7633017E-07)
 number of electron      53.9999996 magnetization       5.9999998
 augmentation part       -0.5331529 magnetization       4.0834669

 DIPCOR: dipole corrections for dipol
 direction  3 min pos     1,
 dipolmoment           0.000000      0.000000      0.000000 electrons x Angstroem
 Tr[quadrupol]      -352.464279

 energy correction for charged system         0.000000 eV
 dipol+quadrupol energy correction           -0.000000 eV
 added-field ion interaction          0.000000 eV  (added to PSCEN)


 Broyden mixing:
  rms(total) = 0.16867E-03    rms(broyden)= 0.16866E-03
  rms(prec ) = 0.22778E-03
  weight for this iteration     100.00

 eigenvalues of (default mixing * dielectric matrix)
  average eigenvalue GAMMA=   1.5381
  6.5641  2.7062  2.2544  1.6472  1.6472  1.4433  1.1075  0.9470  0.9470  0.4494
  0.7589  0.7038  0.6368  0.6368  0.6228

 Free energy of the ion-electron system (eV)
  ---------------------------------------------------
  alpha Z        PSCENC =        27.18754189
  Ewald energy   TEWEN  =      6068.92090359
  -Hartree energ DENC   =     -8753.01054043
  -exchange      EXHF   =         0.00000000
  -V(xc)+E(xc)   XCENC  =        86.16901192
  PAW double counting   =      3693.85238871    -3656.65397884
  entropy T*S    EENTRO =        -0.00000000
  eigenvalues    EBANDS =      -517.60697996
  atomic energy  EATOM  =      3012.07006103
  Solvation  Ediel_sol  =         0.00000000
  ---------------------------------------------------
  free energy    TOTEN  =       -39.07159209 eV

  energy without entropy =      -39.07159209  energy(sigma->0) =      -39.07159209


--------------------------------------------------------------------------------------------------------




--------------------------------------- Iteration      1(  21)  ---------------------------------------


    POTLOK:  cpu time      0.3427: real time      3.7886
    SETDIJ:  cpu time      0.2065: real time      2.2834
     EDDAV:  cpu time     26.6508: real time    294.6040
       DOS:  cpu time      0.0438: real time      0.4840
    CHARGE:  cpu time      1.2371: real time     13.6725
    MIXING:  cpu time      0.1986: real time      2.2015
    --------------------------------------------
      LOOP:  cpu time     28.6795: real time    317.0340

 eigenvalue-minimisations  :   540
 total energy-change (2. order) :-0.3011873E-04  (-0.6404772E-07)
 number of electron      53.9999996 magnetization       5.9999998
 augmentation part       -0.5331217 magnetization       4.0834762

 DIPCOR: dipole corrections for dipol
 direction  3 min pos     1,
 dipolmoment           0.000000      0.000000      0.000000 electrons x Angstroem
 Tr[quadrupol]      -352.469332

 energy correction for charged system         0.000000 eV
 dipol+quadrupol energy correction           -0.000000 eV
 added-field ion interaction          0.000000 eV  (added to PSCEN)


 Broyden mixing:
  rms(total) = 0.14300E-03    rms(broyden)= 0.14299E-03
  rms(prec ) = 0.17314E-03
  weight for this iteration     100.00

 eigenvalues of (default mixing * dielectric matrix)
  average eigenvalue GAMMA=   1.5629
  6.9630  2.7854  2.2846  2.2099  1.5074  1.5074  1.2418  0.9793  0.9793  0.4494
  0.8208  0.7550  0.6369  0.6369  0.6244  0.6244

 Free energy of the ion-electron system (eV)
  ---------------------------------------------------
  alpha Z        PSCENC =        27.18754189
  Ewald energy   TEWEN  =      6068.92090359
  -Hartree energ DENC   =     -8753.05325901
  -exchange      EXHF   =         0.00000000
  -V(xc)+E(xc)   XCENC  =        86.16912147
  PAW double counting   =      3693.90440151    -3656.70619441
  entropy T*S    EENTRO =        -0.00000000
  eigenvalues    EBANDS =      -517.56419828
  atomic energy  EATOM  =      3012.07006103
  Solvation  Ediel_sol  =         0.00000000
  ---------------------------------------------------
  free energy    TOTEN  =       -39.07162221 eV

  energy without entropy =      -39.07162221  energy(sigma->0) =      -39.07162221


--------------------------------------------------------------------------------------------------------




--------------------------------------- Iteration      1(  22)  ---------------------------------------


    POTLOK:  cpu time      0.3549: real time      3.9135
    SETDIJ:  cpu time      0.1748: real time      1.9365
     EDDAV:  cpu time     27.1050: real time    299.5780
       DOS:  cpu time      0.0448: real time      0.4830
    CHARGE:  cpu time      1.1372: real time     12.5745
    MIXING:  cpu time      0.2018: real time      2.2445
    --------------------------------------------
      LOOP:  cpu time     29.0186: real time    320.7300

 eigenvalue-minimisations  :   512
 total energy-change (2. order) :-0.1498361E-04  (-0.3213703E-07)
 number of electron      53.9999996 magnetization       5.9999998
 augmentation part       -0.5331122 magnetization       4.0834827

 DIPCOR: dipole corrections for dipol
 direction  3 min pos     1,
 dipolmoment           0.000000      0.000000      0.000000 electrons x Angstroem
 Tr[quadrupol]      -352.472209

 energy correction for charged system         0.000000 eV
 dipol+quadrupol energy correction           -0.000000 eV
 added-field ion interaction          0.000000 eV  (added to PSCEN)


 Broyden mixing:
  rms(total) = 0.68534E-04    rms(broyden)= 0.68533E-04
  rms(prec ) = 0.98530E-04
  weight for this iteration     100.00

 eigenvalues of (default mixing * dielectric matrix)
  average eigenvalue GAMMA=   1.5543
  7.1338  2.9629  2.3786  2.2174  1.5389  1.5389  1.2735  1.1518  0.8925  0.8925
  0.4494  0.7755  0.7193  0.6331  0.6331  0.6286  0.6028

 Free energy of the ion-electron system (eV)
  ---------------------------------------------------
  alpha Z        PSCENC =        27.18754189
  Ewald energy   TEWEN  =      6068.92090359
  -Hartree energ DENC   =     -8753.07113524
  -exchange      EXHF   =         0.00000000
  -V(xc)+E(xc)   XCENC  =        86.16911284
  PAW double counting   =      3693.99550892    -3656.79746926
  entropy T*S    EENTRO =        -0.00000000
  eigenvalues    EBANDS =      -517.54616096
  atomic energy  EATOM  =      3012.07006103
  Solvation  Ediel_sol  =         0.00000000
  ---------------------------------------------------
  free energy    TOTEN  =       -39.07163720 eV

  energy without entropy =      -39.07163720  energy(sigma->0) =      -39.07163720


--------------------------------------------------------------------------------------------------------




--------------------------------------- Iteration      1(  23)  ---------------------------------------


    POTLOK:  cpu time      0.3430: real time      3.7835
    SETDIJ:  cpu time      0.1787: real time      1.9825
     EDDAV:  cpu time     26.8446: real time    296.7540
       DOS:  cpu time      0.0357: real time      0.3920
    CHARGE:  cpu time      1.2584: real time     13.9044
    MIXING:  cpu time      0.2424: real time      2.6836
    --------------------------------------------
      LOOP:  cpu time     28.9029: real time    319.5000

 eigenvalue-minimisations  :   512
 total energy-change (2. order) :-0.8410603E-05  (-0.2275017E-07)
 number of electron      53.9999996 magnetization       5.9999998
 augmentation part       -0.5331431 magnetization       4.0834862

 DIPCOR: dipole corrections for dipol
 direction  3 min pos     1,
 dipolmoment           0.000000      0.000000      0.000000 electrons x Angstroem
 Tr[quadrupol]      -352.474714

 energy correction for charged system         0.000000 eV
 dipol+quadrupol energy correction           -0.000000 eV
 added-field ion interaction          0.000000 eV  (added to PSCEN)


 Broyden mixing:
  rms(total) = 0.74024E-04    rms(broyden)= 0.74024E-04
  rms(prec ) = 0.89436E-04
  weight for this iteration     100.00

 eigenvalues of (default mixing * dielectric matrix)
  average eigenvalue GAMMA=   1.5705
  7.2897  3.1571  2.6013  2.2164  1.6344  1.6344  1.4981  1.0950  1.0950  0.9284
  0.4494  0.7745  0.7745  0.6470  0.6470  0.6238  0.6238  0.5794

 Free energy of the ion-electron system (eV)
  ---------------------------------------------------
  alpha Z        PSCENC =        27.18754189
  Ewald energy   TEWEN  =      6068.92090359
  -Hartree energ DENC   =     -8753.08105226
  -exchange      EXHF   =         0.00000000
  -V(xc)+E(xc)   XCENC  =        86.16894583
  PAW double counting   =      3694.06706732    -3656.86888221
  entropy T*S    EENTRO =        -0.00000000
  eigenvalues    EBANDS =      -517.53623079
  atomic energy  EATOM  =      3012.07006103
  Solvation  Ediel_sol  =         0.00000000
  ---------------------------------------------------
  free energy    TOTEN  =       -39.07164561 eV

  energy without entropy =      -39.07164561  energy(sigma->0) =      -39.07164561


--------------------------------------------------------------------------------------------------------




--------------------------------------- Iteration      1(  24)  ---------------------------------------


    POTLOK:  cpu time      0.3504: real time      3.8794
    SETDIJ:  cpu time      0.1707: real time      1.8956
     EDDAV:  cpu time     26.0253: real time    287.7080
       DOS:  cpu time      0.0319: real time      0.3480
    CHARGE:  cpu time      1.3507: real time     14.9324
    MIXING:  cpu time      0.2145: real time      2.3755
    --------------------------------------------
      LOOP:  cpu time     28.1435: real time    311.1390

 eigenvalue-minimisations  :   524
 total energy-change (2. order) :-0.5610264E-05  (-0.2133262E-07)
 number of electron      53.9999996 magnetization       5.9999998
 augmentation part       -0.5331061 magnetization       4.0834913

 DIPCOR: dipole corrections for dipol
 direction  3 min pos     1,
 dipolmoment           0.000000      0.000000      0.000000 electrons x Angstroem
 Tr[quadrupol]      -352.477256

 energy correction for charged system         0.000000 eV
 dipol+quadrupol energy correction           -0.000000 eV
 added-field ion interaction         -0.000000 eV  (added to PSCEN)


 Broyden mixing:
  rms(total) = 0.70100E-04    rms(broyden)= 0.70100E-04
  rms(prec ) = 0.77779E-04
  weight for this iteration     100.00

 eigenvalues of (default mixing * dielectric matrix)
  average eigenvalue GAMMA=   1.5933
  7.4196  3.8440  2.5780  2.1667  2.0555  1.5140  1.5140  1.2572  1.0692  0.9508
  0.9508  0.4494  0.7248  0.7248  0.6399  0.6399  0.6146  0.6146  0.5456

 Free energy of the ion-electron system (eV)
  ---------------------------------------------------
  alpha Z        PSCENC =        27.18754189
  Ewald energy   TEWEN  =      6068.92090359
  -Hartree energ DENC   =     -8753.09215760
  -exchange      EXHF   =         0.00000000
  -V(xc)+E(xc)   XCENC  =        86.16892548
  PAW double counting   =      3694.04386346    -3656.84564198
  entropy T*S    EENTRO =        -0.00000000
  eigenvalues    EBANDS =      -517.52514707
  atomic energy  EATOM  =      3012.07006103
  Solvation  Ediel_sol  =         0.00000000
  ---------------------------------------------------
  free energy    TOTEN  =       -39.07165122 eV

  energy without entropy =      -39.07165122  energy(sigma->0) =      -39.07165122


--------------------------------------------------------------------------------------------------------




--------------------------------------- Iteration      1(  25)  ---------------------------------------


    POTLOK:  cpu time      0.3469: real time      3.8244
    SETDIJ:  cpu time      0.1708: real time      1.8916
     EDDAV:  cpu time     25.7202: real time    284.2330
       DOS:  cpu time      0.0437: real time      0.4840
    CHARGE:  cpu time      1.1349: real time     12.5488
    MIXING:  cpu time      0.2342: real time      2.5952
    --------------------------------------------
      LOOP:  cpu time     27.6508: real time    305.5770

 eigenvalue-minimisations  :   472
 total energy-change (2. order) :-0.2688699E-05  (-0.7959607E-08)
 number of electron      53.9999996 magnetization       5.9999998
 augmentation part       -0.5331280 magnetization       4.0834863

 DIPCOR: dipole corrections for dipol
 direction  3 min pos     1,
 dipolmoment           0.000000      0.000000      0.000000 electrons x Angstroem
 Tr[quadrupol]      -352.478622

 energy correction for charged system         0.000000 eV
 dipol+quadrupol energy correction           -0.000000 eV
 added-field ion interaction          0.000000 eV  (added to PSCEN)


 Broyden mixing:
  rms(total) = 0.36845E-04    rms(broyden)= 0.36845E-04
  rms(prec ) = 0.44504E-04
  weight for this iteration     100.00

 eigenvalues of (default mixing * dielectric matrix)
  average eigenvalue GAMMA=   1.6270
  7.4331  4.6714  2.7627  2.3758  2.1168  1.5483  1.5483  1.3714  1.0792  1.0792
  0.8718  0.8718  0.4494  0.6984  0.6984  0.6367  0.6367  0.6146  0.6146  0.4612

 Free energy of the ion-electron system (eV)
  ---------------------------------------------------
  alpha Z        PSCENC =        27.18754189
  Ewald energy   TEWEN  =      6068.92090359
  -Hartree energ DENC   =     -8753.09825908
  -exchange      EXHF   =         0.00000000
  -V(xc)+E(xc)   XCENC  =        86.16890117
  PAW double counting   =      3694.01754066    -3656.81931908
  entropy T*S    EENTRO =        -0.00000000
  eigenvalues    EBANDS =      -517.51902408
  atomic energy  EATOM  =      3012.07006103
  Solvation  Ediel_sol  =         0.00000000
  ---------------------------------------------------
  free energy    TOTEN  =       -39.07165390 eV

  energy without entropy =      -39.07165390  energy(sigma->0) =      -39.07165390


--------------------------------------------------------------------------------------------------------




--------------------------------------- Iteration      1(  26)  ---------------------------------------


    POTLOK:  cpu time      0.3587: real time      3.9564
    SETDIJ:  cpu time      0.1787: real time      1.9796
     EDDAV:  cpu time     24.9176: real time    275.4160
       DOS:  cpu time      0.0319: real time      0.3560
    CHARGE:  cpu time      1.1658: real time     12.9053
    MIXING:  cpu time      0.2146: real time      2.3766
    --------------------------------------------
      LOOP:  cpu time     26.8673: real time    296.9900

 eigenvalue-minimisations  :   448
 total energy-change (2. order) :-0.2721463E-05  (-0.5220522E-08)
 number of electron      53.9999996 magnetization       5.9999998
 augmentation part       -0.5331217 magnetization       4.0834826

 DIPCOR: dipole corrections for dipol
 direction  3 min pos     1,
 dipolmoment           0.000000      0.000000      0.000000 electrons x Angstroem
 Tr[quadrupol]      -352.479974

 energy correction for charged system         0.000000 eV
 dipol+quadrupol energy correction           -0.000000 eV
 added-field ion interaction          0.000000 eV  (added to PSCEN)


 Broyden mixing:
  rms(total) = 0.37510E-04    rms(broyden)= 0.37510E-04
  rms(prec ) = 0.41152E-04
  weight for this iteration     100.00

 eigenvalues of (default mixing * dielectric matrix)
  average eigenvalue GAMMA=   1.6635
  7.4700  5.3719  2.9163  2.5472  2.2551  1.6345  1.6345  1.2892  1.2892  1.0311
  1.0311  0.4494  0.8702  0.7834  0.7834  0.6377  0.6377  0.6313  0.6313  0.6007
  0.4389

 Free energy of the ion-electron system (eV)
  ---------------------------------------------------
  alpha Z        PSCENC =        27.18754189
  Ewald energy   TEWEN  =      6068.92090359
  -Hartree energ DENC   =     -8753.10510553
  -exchange      EXHF   =         0.00000000
  -V(xc)+E(xc)   XCENC  =        86.16895892
  PAW double counting   =      3693.96074099    -3656.76254311
  entropy T*S    EENTRO =        -0.00000000
  eigenvalues    EBANDS =      -517.51221440
  atomic energy  EATOM  =      3012.07006103
  Solvation  Ediel_sol  =         0.00000000
  ---------------------------------------------------
  free energy    TOTEN  =       -39.07165663 eV

  energy without entropy =      -39.07165663  energy(sigma->0) =      -39.07165663


--------------------------------------------------------------------------------------------------------




--------------------------------------- Iteration      1(  27)  ---------------------------------------


    POTLOK:  cpu time      0.3428: real time      3.7855
    SETDIJ:  cpu time      0.1707: real time      1.8835
     EDDAV:  cpu time     25.6194: real time    283.3270
       DOS:  cpu time      0.0319: real time      0.3500
    CHARGE:  cpu time      1.0855: real time     11.9748
    MIXING:  cpu time      0.1883: real time      2.1122
    --------------------------------------------
      LOOP:  cpu time     27.4387: real time    303.4330

 eigenvalue-minimisations  :   472
 total energy-change (2. order) :-0.2732711E-05  (-0.5126556E-08)
 number of electron      53.9999996 magnetization       5.9999998
 augmentation part       -0.5331264 magnetization       4.0834835

 DIPCOR: dipole corrections for dipol
 direction  3 min pos     1,
 dipolmoment           0.000000      0.000000      0.000000 electrons x Angstroem
 Tr[quadrupol]      -352.481264

 energy correction for charged system         0.000000 eV
 dipol+quadrupol energy correction           -0.000000 eV
 added-field ion interaction          0.000000 eV  (added to PSCEN)


 Broyden mixing:
  rms(total) = 0.29096E-04    rms(broyden)= 0.29096E-04
  rms(prec ) = 0.30455E-04
  weight for this iteration     100.00

 eigenvalues of (default mixing * dielectric matrix)
  average eigenvalue GAMMA=   1.6848
  7.5541  6.0480  3.1404  2.6080  2.4007  1.5354  1.5354  1.5156  1.4168  1.0486
  1.0486  0.8697  0.8697  0.4494  0.7409  0.7409  0.6417  0.6417  0.6157  0.6090
  0.6090  0.4267

 Free energy of the ion-electron system (eV)
  ---------------------------------------------------
  alpha Z        PSCENC =        27.18754189
  Ewald energy   TEWEN  =      6068.92090359
  -Hartree energ DENC   =     -8753.10984495
  -exchange      EXHF   =         0.00000000
  -V(xc)+E(xc)   XCENC  =        86.16895686
  PAW double counting   =      3693.97403652    -3656.77581726
  entropy T*S    EENTRO =        -0.00000000
  eigenvalues    EBANDS =      -517.50749704
  atomic energy  EATOM  =      3012.07006103
  Solvation  Ediel_sol  =         0.00000000
  ---------------------------------------------------
  free energy    TOTEN  =       -39.07165936 eV

  energy without entropy =      -39.07165936  energy(sigma->0) =      -39.07165936


--------------------------------------------------------------------------------------------------------




--------------------------------------- Iteration      1(  28)  ---------------------------------------


    POTLOK:  cpu time      0.3309: real time      3.6475
    SETDIJ:  cpu time      0.1787: real time      1.9795
     EDDAV:  cpu time     24.6358: real time    272.2980
       DOS:  cpu time      0.0319: real time      0.3520
    --------------------------------------------
      LOOP:  cpu time     25.1773: real time    278.2770

 eigenvalue-minimisations  :   436
 total energy-change (2. order) :-0.9114447E-06  (-0.2737682E-08)
 number of electron      53.9999996 magnetization       5.9999998
 augmentation part       -0.5331264 magnetization       4.0834835

 DIPCOR: dipole corrections for dipol
 direction  3 min pos     1,
 dipolmoment           0.000000      0.000000      0.000000 electrons x Angstroem
 Tr[quadrupol]      -352.481773

 energy correction for charged system         0.000000 eV
 dipol+quadrupol energy correction           -0.000000 eV
 added-field ion interaction          0.000000 eV  (added to PSCEN)


 Free energy of the ion-electron system (eV)
  ---------------------------------------------------
  alpha Z        PSCENC =        27.18754189
  Ewald energy   TEWEN  =      6068.92090359
  -Hartree energ DENC   =     -8753.11100379
  -exchange      EXHF   =         0.00000000
  -V(xc)+E(xc)   XCENC  =        86.16893396
  PAW double counting   =      3694.00546914    -3656.80724611
  entropy T*S    EENTRO =        -0.00000000
  eigenvalues    EBANDS =      -517.50631998
  atomic energy  EATOM  =      3012.07006103
  Solvation  Ediel_sol  =         0.00000000
  ---------------------------------------------------
  free energy    TOTEN  =       -39.07166027 eV

  energy without entropy =      -39.07166027  energy(sigma->0) =      -39.07166027


--------------------------------------------------------------------------------------------------------




 average (electrostatic) potential at core
  the test charge radii are     1.1394  0.9406
  (the norm of the test charge is              1.0000)
       1 -52.8811       2 -52.8811       3 -99.3083       4 -99.3083       5 -99.3083
       6 -99.3083       7 -99.3083       8 -99.3083
 
 
 
 E-fermi :  -4.1741     XC(G=0):  -2.9518     alpha+bet : -2.3820

 val. band max:       -4.3984284421   @ k =   0.4000   0.0000   0.0000
 cond. band min:      -2.6180968448   @ k =   0.4000   0.2000   0.0000
 fundamental gap:      1.7803315974
 Fermi energy:        -4.1741082406

 spin component 1

 k-point     1 :       0.0000    0.0000    0.0000
  band No.  band energies     occupation 
      1     -19.6331      1.00000
      2     -18.8080      1.00000
      3     -18.6564      1.00000
      4     -18.6564      1.00000
      5     -18.5420      1.00000
      6     -18.5420      1.00000
      7      -9.3469      1.00000
      8      -8.9212      1.00000
      9      -8.4404      1.00000
     10      -8.4404      1.00000
     11      -8.4073      1.00000
     12      -8.4073      1.00000
     13      -7.9851      1.00000
     14      -7.9522      1.00000
     15      -7.9522      1.00000
     16      -7.2785      1.00000
     17      -7.2099      1.00000
     18      -7.2099      1.00000
     19      -6.4381      1.00000
     20      -6.1236      1.00000
     21      -6.0289      1.00000
     22      -6.0289      1.00000
     23      -5.6872      1.00000
     24      -5.6872      1.00000
     25      -5.2002      1.00000
     26      -4.8596      1.00000
     27      -4.8596      1.00000
     28      -4.7583      1.00000
     29      -4.5988      1.00000
     30      -4.5988      1.00000
     31      -2.5849      0.00000
     32      -2.5849      0.00000
     33      -2.3380      0.00000
     34      -2.3380      0.00000
     35       1.3613      0.00000
     36       1.9702      0.00000

 k-point     2 :       0.2000    0.0000    0.0000
  band No.  band energies     occupation 
      1     -19.5529      1.00000
      2     -18.7771      1.00000
      3     -18.7491      1.00000
      4     -18.6758      1.00000
      5     -18.5564      1.00000
      6     -18.5548      1.00000
      7      -9.3377      1.00000
      8      -8.8839      1.00000
      9      -8.4768      1.00000
     10      -8.4688      1.00000
     11      -8.4228      1.00000
     12      -8.2530      1.00000
     13      -8.0665      1.00000
     14      -7.9277      1.00000
     15      -7.9265      1.00000
     16      -7.2473      1.00000
     17      -6.9848      1.00000
     18      -6.9651      1.00000
     19      -6.4977      1.00000
     20      -6.2940      1.00000
     21      -6.2426      1.00000
     22      -6.0995      1.00000
     23      -5.8546      1.00000
     24      -5.7796      1.00000
     25      -5.1228      1.00000
     26      -4.8951      1.00000
     27      -4.8439      1.00000
     28      -4.6799      1.00000
     29      -4.5739      1.00000
     30      -4.5080      1.00000
     31      -2.5827      0.00000
     32      -2.5645      0.00000
     33      -2.4706      0.00000
     34      -2.3683      0.00000
     35       1.7038      0.00000
     36       2.1810      0.00000

 k-point     3 :       0.4000    0.0000    0.0000
  band No.  band energies     occupation 
      1     -19.3537      1.00000
      2     -18.9677      1.00000
      3     -18.7145      1.00000
      4     -18.6902      1.00000
      5     -18.6050      1.00000
      6     -18.5803      1.00000
      7      -9.3202      1.00000
      8      -8.7856      1.00000
      9      -8.5265      1.00000
     10      -8.4632      1.00000
     11      -8.3103      1.00000
     12      -8.2309      1.00000
     13      -8.1315      1.00000
     14      -7.7824      1.00000
     15      -7.6142      1.00000
     16      -7.3879      1.00000
     17      -7.0485      1.00000
     18      -6.9278      1.00000
     19      -6.6803      1.00000
     20      -6.4758      1.00000
     21      -6.2366      1.00000
     22      -6.1937      1.00000
     23      -5.8205      1.00000
     24      -5.7443      1.00000
     25      -5.1925      1.00000
     26      -4.8808      1.00000
     27      -4.8793      1.00000
     28      -4.6273      1.00000
     29      -4.5751      1.00000
     30      -4.3984      1.00000
     31      -2.6073      0.00000
     32      -2.5593      0.00000
     33      -2.4855      0.00000
     34      -2.4557      0.00000
     35       2.5033      0.00000
     36       2.7217      0.00000

 k-point     4 :       0.2000    0.2000    0.0000
  band No.  band energies     occupation 
      1     -19.4088      1.00000
      2     -18.8928      1.00000
      3     -18.7334      1.00000
      4     -18.7103      1.00000
      5     -18.5804      1.00000
      6     -18.5772      1.00000
      7      -9.2423      1.00000
      8      -8.8731      1.00000
      9      -8.5439      1.00000
     10      -8.4618      1.00000
     11      -8.4050      1.00000
     12      -8.1514      1.00000
     13      -8.1137      1.00000
     14      -8.0278      1.00000
     15      -7.5114      1.00000
     16      -7.3405      1.00000
     17      -7.0711      1.00000
     18      -6.7847      1.00000
     19      -6.6095      1.00000
     20      -6.3023      1.00000
     21      -6.2751      1.00000
     22      -6.2525      1.00000
     23      -6.0154      1.00000
     24      -5.8242      1.00000
     25      -5.0787      1.00000
     26      -4.9004      1.00000
     27      -4.8318      1.00000
     28      -4.6344      1.00000
     29      -4.5283      1.00000
     30      -4.4773      1.00000
     31      -2.5845      0.00000
     32      -2.5785      0.00000
     33      -2.5309      0.00000
     34      -2.3789      0.00000
     35       2.2429      0.00000
     36       2.5492      0.00000

 k-point     5 :       0.4000    0.2000    0.0000
  band No.  band energies     occupation 
      1     -19.2341      1.00000
      2     -19.0649      1.00000
      3     -18.7543      1.00000
      4     -18.6528      1.00000
      5     -18.6281      1.00000
      6     -18.5918      1.00000
      7      -9.1438      1.00000
      8      -8.8035      1.00000
      9      -8.5833      1.00000
     10      -8.4802      1.00000
     11      -8.3640      1.00000
     12      -8.1462      1.00000
     13      -8.1447      1.00000
     14      -7.9411      1.00000
     15      -7.7723      1.00000
     16      -7.1835      1.00000
     17      -6.9858      1.00000
     18      -6.7679      1.00000
     19      -6.6842      1.00000
     20      -6.5290      1.00000
     21      -6.2019      1.00000
     22      -6.1253      1.00000
     23      -6.0172      1.00000
     24      -5.9244      1.00000
     25      -5.1269      1.00000
     26      -4.8143      1.00000
     27      -4.8050      1.00000
     28      -4.6057      1.00000
     29      -4.5852      1.00000
     30      -4.4607      1.00000
     31      -2.6181      0.00000
     32      -2.5456      0.00000
     33      -2.5442      0.00000
     34      -2.3575      0.00000
     35       2.9048      0.00000
     36       2.9051      0.00000
 Fermi energy:        -4.1741082406

 spin component 2

 k-point     1 :       0.0000    0.0000    0.0000
  band No.  band energies     occupation 
      1     -19.6091      1.00000
      2     -18.8213      1.00000
      3     -18.6691      1.00000
      4     -18.6691      1.00000
      5     -18.5518      1.00000
      6     -18.5518      1.00000
      7      -9.0973      1.00000
      8      -8.6273      1.00000
      9      -8.2242      1.00000
     10      -8.2242      1.00000
     11      -8.0971      1.00000
     12      -8.0971      1.00000
     13      -7.9334      1.00000
     14      -7.5279      1.00000
     15      -7.5279      1.00000
     16      -7.0327      1.00000
     17      -6.8676      1.00000
     18      -6.8676      1.00000
     19      -6.3905      1.00000
     20      -6.1048      1.00000
     21      -5.8168      1.00000
     22      -5.8168      1.00000
     23      -5.5964      1.00000
     24      -5.5964      1.00000
     25      -2.0584      0.00000
     26      -2.0584      0.00000
     27      -2.0220      0.00000
     28      -1.9443      0.00000
     29      -1.7628      0.00000
     30      -1.7628      0.00000
     31      -1.2115      0.00000
     32      -1.2115      0.00000
     33      -1.0673      0.00000
     34      -1.0673      0.00000
     35       1.4911      0.00000
     36       2.0034      0.00000

 k-point     2 :       0.2000    0.0000    0.0000
  band No.  band energies     occupation 
      1     -19.5312      1.00000
      2     -18.7900      1.00000
      3     -18.7579      1.00000
      4     -18.6888      1.00000
      5     -18.5654      1.00000
      6     -18.5647      1.00000
      7      -9.0927      1.00000
      8      -8.6004      1.00000
      9      -8.2654      1.00000
     10      -8.2346      1.00000
     11      -8.1438      1.00000
     12      -8.0100      1.00000
     13      -7.7333      1.00000
     14      -7.6128      1.00000
     15      -7.5378      1.00000
     16      -6.9348      1.00000
     17      -6.7336      1.00000
     18      -6.7188      1.00000
     19      -6.3571      1.00000
     20      -6.1370      1.00000
     21      -6.0549      1.00000
     22      -5.8594      1.00000
     23      -5.7785      1.00000
     24      -5.6670      1.00000
     25      -2.1579      0.00000
     26      -2.0308      0.00000
     27      -1.9949      0.00000
     28      -1.8265      0.00000
     29      -1.8077      0.00000
     30      -1.7445      0.00000
     31      -1.2103      0.00000
     32      -1.2100      0.00000
     33      -1.1686      0.00000
     34      -1.0910      0.00000
     35       1.8098      0.00000
     36       2.2189      0.00000

 k-point     3 :       0.4000    0.0000    0.0000
  band No.  band energies     occupation 
      1     -19.3379      1.00000
      2     -18.9682      1.00000
      3     -18.7262      1.00000
      4     -18.7040      1.00000
      5     -18.6157      1.00000
      6     -18.5884      1.00000
      7      -9.0645      1.00000
      8      -8.5244      1.00000
      9      -8.3681      1.00000
     10      -8.2039      1.00000
     11      -7.9798      1.00000
     12      -7.9375      1.00000
     13      -7.8017      1.00000
     14      -7.4637      1.00000
     15      -7.2914      1.00000
     16      -7.0861      1.00000
     17      -6.7927      1.00000
     18      -6.6103      1.00000
     19      -6.4783      1.00000
     20      -6.2905      1.00000
     21      -6.1918      1.00000
     22      -5.9463      1.00000
     23      -5.7495      1.00000
     24      -5.6182      1.00000
     25      -2.2300      0.00000
     26      -2.2060      0.00000
     27      -1.9642      0.00000
     28      -1.8294      0.00000
     29      -1.6953      0.00000
     30      -1.6831      0.00000
     31      -1.2829      0.00000
     32      -1.2157      0.00000
     33      -1.1570      0.00000
     34      -1.1170      0.00000
     35       2.5745      0.00000
     36       2.7755      0.00000

 k-point     4 :       0.2000    0.2000    0.0000
  band No.  band energies     occupation 
      1     -19.3915      1.00000
      2     -18.8952      1.00000
      3     -18.7450      1.00000
      4     -18.7240      1.00000
      5     -18.5910      1.00000
      6     -18.5857      1.00000
      7      -9.0002      1.00000
      8      -8.5943      1.00000
      9      -8.3098      1.00000
     10      -8.2865      1.00000
     11      -8.0823      1.00000
     12      -7.8634      1.00000
     13      -7.8258      1.00000
     14      -7.6148      1.00000
     15      -7.2222      1.00000
     16      -7.0572      1.00000
     17      -6.7625      1.00000
     18      -6.5939      1.00000
     19      -6.4337      1.00000
     20      -6.2611      1.00000
     21      -6.0100      1.00000
     22      -5.9683      1.00000
     23      -5.7755      1.00000
     24      -5.7614      1.00000
     25      -2.1782      0.00000
     26      -2.1761      0.00000
     27      -1.9246      0.00000
     28      -1.9103      0.00000
     29      -1.7224      0.00000
     30      -1.6934      0.00000
     31      -1.2671      0.00000
     32      -1.1774      0.00000
     33      -1.1527      0.00000
     34      -1.1301      0.00000
     35       2.3250      0.00000
     36       2.6004      0.00000

 k-point     5 :       0.4000    0.2000    0.0000
  band No.  band energies     occupation 
      1     -19.2221      1.00000
      2     -19.0607      1.00000
      3     -18.7668      1.00000
      4     -18.6654      1.00000
      5     -18.6386      1.00000
      6     -18.6003      1.00000
      7      -8.8921      1.00000
      8      -8.5572      1.00000
      9      -8.3350      1.00000
     10      -8.2268      1.00000
     11      -8.1217      1.00000
     12      -7.8628      1.00000
     13      -7.8089      1.00000
     14      -7.5469      1.00000
     15      -7.4751      1.00000
     16      -6.9584      1.00000
     17      -6.8181      1.00000
     18      -6.5457      1.00000
     19      -6.3467      1.00000
     20      -6.3106      1.00000
     21      -6.0636      1.00000
     22      -5.9744      1.00000
     23      -5.7740      1.00000
     24      -5.7316      1.00000
     25      -2.2283      0.00000
     26      -2.2197      0.00000
     27      -1.9617      0.00000
     28      -1.9213      0.00000
     29      -1.6898      0.00000
     30      -1.6752      0.00000
     31      -1.2491      0.00000
     32      -1.1910      0.00000
     33      -1.1414      0.00000
     34      -1.0989      0.00000
     35       3.0144      0.00000
     36       3.0965      0.00000


--------------------------------------------------------------------------------------------------------


 soft charge-density along one line, spin component            1
         0         1         2         3         4         5         6         7         8         9
 total charge-density along one line
 
 soft charge-density along one line, spin component            2
         0         1         2         3         4         5         6         7         8         9
 total charge-density along one line
 
 pseudopotential strength for first ion, spin component:            1
 -9.737   0.199  -0.000   0.000   0.000 -10.061   0.192  -0.000
  0.199  -9.598  -0.000   0.000  -0.000   0.192  -9.927  -0.000
 -0.000  -0.000  -9.884  -0.000   0.000  -0.000  -0.000 -10.203
  0.000   0.000  -0.000  -9.598  -0.199   0.000   0.000  -0.000
  0.000  -0.000   0.000  -0.199  -9.737   0.000  -0.000   0.000
-10.061   0.192  -0.000   0.000   0.000 -10.349   0.185  -0.000
  0.192  -9.927  -0.000   0.000  -0.000   0.185 -10.219  -0.000
 -0.000  -0.000 -10.203  -0.000   0.000  -0.000  -0.000 -10.486
  0.000   0.000  -0.000  -9.927  -0.192   0.000   0.000  -0.000
  0.000  -0.000   0.000  -0.192 -10.061   0.000  -0.000   0.000
 -0.000  -0.000   0.000  -0.000   0.000  -0.000  -0.000   0.000
 -0.000  -0.000   0.001  -0.000   0.000  -0.000  -0.000   0.001
 -0.000  -0.000  -0.000   0.000  -0.002  -0.000  -0.000  -0.000
  0.000   0.000   0.000  -0.000   0.000   0.000   0.000   0.000
 -0.002   0.000   0.000   0.000  -0.000  -0.002   0.000   0.000
 -0.000  -0.000  -0.000   0.000  -0.003  -0.000  -0.000  -0.000
  0.000   0.000   0.000  -0.000   0.000   0.000   0.000   0.000
 -0.003   0.000   0.000   0.000  -0.000  -0.003   0.000   0.000
 pseudopotential strength for first ion, spin component:            2
 -8.059  -0.261   0.000   0.000   0.000  -8.439  -0.252   0.000
 -0.261  -8.249  -0.000  -0.000  -0.000  -0.252  -8.623  -0.000
  0.000  -0.000  -7.879  -0.000  -0.000   0.000  -0.000  -8.266
  0.000  -0.000  -0.000  -8.249   0.261   0.000  -0.000  -0.000
  0.000  -0.000  -0.000   0.261  -8.059   0.000  -0.000  -0.000
 -8.439  -0.252   0.000   0.000   0.000  -8.782  -0.243   0.000
 -0.252  -8.623  -0.000  -0.000  -0.000  -0.243  -8.959  -0.000
  0.000  -0.000  -8.266  -0.000  -0.000   0.000  -0.000  -8.614
  0.000  -0.000  -0.000  -8.623   0.252   0.000   0.000  -0.000
  0.000  -0.000  -0.000   0.252  -8.439   0.000  -0.000  -0.000
  0.000  -0.000   0.000  -0.000  -0.000   0.000  -0.000  -0.000
  0.000  -0.000  -0.000  -0.000  -0.000   0.000  -0.000  -0.000
  0.000  -0.000   0.000   0.000  -0.000   0.000  -0.000   0.000
  0.000  -0.000   0.000   0.000   0.000   0.000   0.000   0.000
 -0.000   0.000  -0.000   0.000   0.000  -0.001   0.000  -0.000
  0.000  -0.000   0.000   0.000   0.000   0.000  -0.000   0.000
  0.000  -0.000   0.000   0.000   0.000   0.000  -0.000   0.000
  0.000   0.000  -0.000   0.000   0.000  -0.000   0.000  -0.000
 total augmentation occupancy for first ion, spin component:            1
  3.853  -1.325   0.000   0.000   0.000  -2.860   0.135  -0.000   0.000   0.000  -0.000   0.000   0.000   0.000   0.100   0.000
 -1.325   2.815  -0.000   0.000   0.000   0.134  -2.653   0.000   0.000   0.000   0.000   0.000   0.000  -0.000  -0.035   0.000
  0.000   0.000   4.636  -0.000  -0.000  -0.000   0.000  -2.793   0.000   0.000   0.065  -0.010  -0.000  -0.000   0.000   0.000
  0.000   0.000  -0.000   2.815   1.325   0.000   0.000   0.000  -2.653  -0.134   0.000   0.000   0.035  -0.000   0.000  -0.000
  0.000   0.000  -0.000   1.325   3.853   0.000   0.000   0.000  -0.135  -2.860  -0.000   0.000   0.100   0.000   0.000  -0.004
 -2.860   0.134   0.000   0.000   0.000   2.820   0.797  -0.000   0.000   0.000   0.000  -0.000   0.000  -0.000  -0.109   0.000
  0.135  -2.653   0.000   0.000   0.000   0.797   3.262  -0.000   0.000   0.000  -0.000   0.000   0.000   0.000   0.030   0.000
  0.000   0.000  -2.793   0.000   0.000  -0.000   0.000   2.079   0.000  -0.000  -0.072   0.012   0.000  -0.000   0.000  -0.000
  0.000   0.000   0.000  -2.653  -0.135   0.000   0.000   0.000   3.262  -0.797   0.000  -0.000  -0.030   0.000   0.000   0.000
  0.000   0.000   0.000  -0.134  -2.860   0.000   0.000  -0.000  -0.797   2.820  -0.000   0.000  -0.109  -0.000   0.000   0.004
  0.000  -0.000   0.065   0.000  -0.000   0.000  -0.000  -0.072   0.000   0.000   1.837  -0.220   0.000  -0.000   0.000   0.000
 -0.000   0.000  -0.010  -0.000   0.000   0.000  -0.000   0.012  -0.000   0.000  -0.220   0.034   0.000   0.000  -0.000   0.000
  0.000   0.000  -0.000   0.035   0.100   0.000   0.000   0.000  -0.030  -0.109  -0.000   0.000   0.283   0.000   0.000  -0.008
 -0.000   0.000   0.000   0.000   0.000   0.000   0.000   0.000  -0.000  -0.000  -0.000  -0.000   0.000   0.276  -0.000   0.000
  0.100  -0.035   0.000   0.000   0.000  -0.109   0.030   0.000   0.000   0.000   0.000   0.000   0.000   0.000   0.283   0.000
  0.000  -0.000   0.000  -0.000  -0.004   0.000  -0.000  -0.000   0.000   0.004   0.000   0.000  -0.008   0.000   0.000   0.000
  0.000   0.000  -0.000  -0.000   0.000   0.000   0.000  -0.000   0.000  -0.000   0.000  -0.000   0.000  -0.008   0.000   0.000
 -0.004   0.000  -0.000   0.000   0.000   0.004  -0.000   0.000   0.000   0.000   0.000   0.000   0.000   0.000  -0.008   0.000
 total augmentation occupancy for first ion, spin component:            2
  2.617  -2.172   0.000   0.000   0.000  -1.169   1.277  -0.000   0.000   0.000   0.000   0.000   0.000  -0.000   0.015   0.000
 -2.172   1.076   0.000   0.000   0.000   1.276  -0.269  -0.000   0.000   0.000   0.000   0.000   0.000   0.000  -0.027  -0.000
  0.000   0.000   4.081  -0.000  -0.000  -0.000  -0.000  -2.019   0.000   0.000  -0.006   0.003  -0.000   0.000   0.000  -0.000
  0.000   0.000  -0.000   1.076   2.172   0.000   0.000   0.000  -0.269  -1.276   0.000   0.000   0.027  -0.000   0.000   0.000
  0.000   0.000  -0.000   2.172   2.617   0.000   0.000   0.000  -1.277  -1.169   0.000   0.000   0.015   0.000   0.000   0.000
 -1.169   1.276   0.000   0.000   0.000   0.459  -0.797   0.000   0.000   0.000   0.000  -0.000   0.000   0.000  -0.005   0.000
  1.277  -0.269   0.000   0.000   0.000  -0.797  -0.097   0.000   0.000   0.000   0.000   0.000   0.000   0.000   0.013   0.000
 -0.000   0.000  -2.019   0.000   0.000   0.000   0.000   0.993  -0.000  -0.000   0.010  -0.002  -0.000  -0.000   0.000   0.000
  0.000   0.000   0.000  -0.269  -1.277   0.000   0.000  -0.000  -0.097   0.797   0.000   0.000  -0.013   0.000   0.000   0.000
  0.000   0.000   0.000  -1.276  -1.169   0.000   0.000  -0.000   0.797   0.459  -0.000  -0.000  -0.005   0.000   0.000  -0.001
  0.000   0.000  -0.006   0.000  -0.000   0.000   0.000   0.010   0.000  -0.000  -0.043   0.049   0.000  -0.000   0.000   0.000
  0.000  -0.000   0.003   0.000   0.000   0.000  -0.000  -0.002   0.000  -0.000   0.049  -0.009   0.000  -0.000   0.000   0.000
  0.000   0.000   0.000   0.027   0.015   0.000   0.000   0.000  -0.013  -0.005   0.000   0.000   0.017   0.000   0.000   0.002
 -0.000  -0.000  -0.000   0.000   0.000   0.000  -0.000   0.000   0.000   0.000   0.000  -0.000   0.000   0.014   0.000   0.000
  0.015  -0.027  -0.000   0.000   0.000  -0.005   0.013  -0.000   0.000   0.000   0.000   0.000   0.000   0.000   0.017   0.000
  0.000   0.000  -0.000   0.000   0.000   0.000   0.000   0.000   0.000  -0.001   0.000   0.000   0.002  -0.000   0.000  -0.000
 -0.000   0.000   0.000   0.000   0.000   0.000   0.000  -0.000   0.000  -0.000   0.000   0.000  -0.000   0.001  -0.000   0.000
  0.000  -0.000  -0.000   0.000   0.000  -0.001  -0.000   0.000   0.000   0.000   0.000  -0.000   0.000  -0.000   0.002   0.000


------------------------ aborting loop because EDIFF is reached ----------------------------------------


    CHARGE:  cpu time      1.1379: real time     12.5458
    FORLOC:  cpu time      0.0081: real time      0.1292
    FORNL :  cpu time      2.1186: real time     23.4050
    STRESS:  cpu time      5.6888: real time     62.5180
    FORCOR:  cpu time      0.1832: real time      2.0280
    FORHAR:  cpu time      0.0518: real time      0.5710
    MIXING:  cpu time      0.2419: real time      2.6750
    OFIELD:  cpu time      0.0000: real time      0.0000

 ---------------------------------------------------------------------------------------------

         DFTD3 V3.0 Rev 1        
 DF pbe       
 parameters
 rs18     =    1.0000
 alpha6   =   14.0000
 alpha8   =   16.0000
 k1-k3    =   16.0000    1.3333   -4.0000
 Edisp (eV)   -0.91150

 E6    (eV) :    -0.3572
 E8    (eV) :    -0.5543
 % E8        : 60.81
    FORVDW:  cpu time      0.0079: real time      0.0479

  FORCE on cell =-STRESS in cart. coord.  units (eV):
  Direction    XX          YY          ZZ          XY          YZ          ZX
  --------------------------------------------------------------------------------------
  Alpha Z    27.18754    27.18754    27.18754
  Ewald    7750.53478  7750.53478 -9432.15105    -0.00000    -0.00000     0.00000
  Hartree  8367.77603  8367.77603 -7982.43999    -0.00000     0.00000     0.00000
  E(xc)    -209.35055  -209.35056  -209.64363    -0.00000    -0.00000    -0.00000
  Local  -17145.25020-17145.25010 16384.25761     0.00009     0.00000     0.00000
  n-local   477.33290   477.58822   476.56815    -0.44199     0.06341     0.00620
  augment   -58.84059   -58.84068   -59.06257    -0.00007     0.00000     0.00000
  Kinetic   790.66401   790.30889   795.16577     0.42234    -0.26861     0.07545
  Fock        0.00000     0.00000     0.00000     0.00000     0.00000     0.00000
  vdW        -0.74976    -0.74976    -0.00163    -0.00000    -0.00000     0.00000
  -------------------------------------------------------------------------------------
  Total      -0.74574    -0.74574    -0.11980     0.00000     0.00000    -0.00000
  in kB      -1.88695    -1.88695    -0.30313     0.00000     0.00000    -0.00000
  external pressure =       -1.36 kB  Pullay stress =        0.00 kB


 VOLUME and BASIS-vectors are now :
 -----------------------------------------------------------------------------
  energy-cutoff  :      400.00
  volume of cell :      633.19
      direct lattice vectors                 reciprocal lattice vectors
     6.046274499  0.000000000  0.000000000     0.165391102  0.095488597 -0.000000000
    -3.023137249  5.236227314  0.000000000     0.000000000  0.190977194  0.000000000
     0.000000000  0.000000000 20.000000000     0.000000000 -0.000000000  0.050000000

  length of vectors
     6.046274499  6.046274499 20.000000000     0.190977194  0.190977194  0.050000000


 FORCES acting on ions
    electron-ion (+dipol)            ewald-force                    non-local-force                 convergence-correction
 -----------------------------------------------------------------------------------------------
   0.409E-06 -.236E-06 0.605E-12   -.906E-11 0.521E-11 0.523E-13   0.412E-17 0.130E-17 0.931E-24   0.949E-10 -.548E-10 0.114E-13
   -.409E-06 0.236E-06 -.131E-10   0.915E-11 -.521E-11 0.872E-14   -.173E-17 0.434E-18 -.331E-23   -.949E-10 0.548E-10 0.329E-13
   0.716E+02 0.890E-06 0.481E+03   -.735E+02 -.671E-11 -.484E+03   0.199E+01 0.000E+00 0.297E+01   0.467E-04 -.370E-08 0.129E-03
   -.358E+02 0.620E+02 0.481E+03   0.368E+02 -.637E+02 -.484E+03   -.997E+00 0.173E+01 0.297E+01   -.234E-04 0.405E-04 0.129E-03
   -.358E+02 -.620E+02 0.481E+03   0.368E+02 0.637E+02 -.484E+03   -.997E+00 -.173E+01 0.297E+01   -.234E-04 -.405E-04 0.129E-03
   -.716E+02 -.890E-06 -.481E+03   0.735E+02 0.673E-11 0.484E+03   -.199E+01 -.434E-18 -.297E+01   -.467E-04 0.370E-08 -.129E-03
   0.358E+02 -.620E+02 -.481E+03   -.368E+02 0.637E+02 0.484E+03   0.997E+00 -.173E+01 -.297E+01   0.234E-04 -.405E-04 -.129E-03
   0.358E+02 0.620E+02 -.481E+03   -.368E+02 -.637E+02 0.484E+03   0.997E+00 0.173E+01 -.297E+01   0.234E-04 0.405E-04 -.129E-03
 -----------------------------------------------------------------------------------------------
   -.239E-12 -.585E-13 -.141E-10   -.142E-13 -.711E-14 0.171E-12   0.222E-15 0.000E+00 0.000E+00   0.723E-14 0.402E-14 0.179E-12
 
 
 POSITION                                       TOTAL-FORCE (eV/Angst)
 -----------------------------------------------------------------------------------
      0.00000      3.49082     10.00000         0.000000     -0.000000     -0.000000
      3.02314      1.74541     10.00000         0.000000     -0.000000     -0.000000
      2.17243      0.00000      8.66428        -0.038360     -0.000000      0.002188
     -1.08621      1.88138      8.66428         0.019180     -0.033221      0.002188
      1.93692      3.35485      8.66428         0.019180      0.033221      0.002188
      3.87385      0.00000     11.33572         0.038360     -0.000000     -0.002188
     -1.93692      3.35485     11.33572        -0.019180      0.033221     -0.002188
      1.08621      1.88138     11.33572        -0.019180     -0.033221     -0.002188
 -----------------------------------------------------------------------------------
    total drift:                               -0.000000     -0.000000     -0.000000


--------------------------------------------------------------------------------------------------------



  FREE ENERGIE OF THE ION-ELECTRON SYSTEM (eV)
  ---------------------------------------------------
  free  energy   TOTEN  =       -39.98316280 eV

  energy  without entropy=      -39.98316280  energy(sigma->0) =      -39.98316280
 


--------------------------------------------------------------------------------------------------------


    POTLOK:  cpu time      0.4943: real time      5.4981


--------------------------------------------------------------------------------------------------------




--------------------------------------------------------------------------------------------------------


      MLFF:  cpu time      0.0125: real time      0.1660
    WAVPRE:  cpu time      0.0124: real time      0.1205
    FEWALD:  cpu time      0.0353: real time      0.3875

 real space projection operators:
  total allocation   :       3062.25 KBytes
  max/ min on nodes  :        770.88        760.25

    ORTHCH:  cpu time      2.0813: real time     22.9861
     LOOP+:  cpu time    964.3104: real time  10181.4879


--------------------------------------- Ionic step        2  -------------------------------------------




--------------------------------------- Iteration      2(   1)  ---------------------------------------


    POTLOK:  cpu time      0.3310: real time      3.6325
    SETDIJ:  cpu time      0.1826: real time      2.0195
     EDDAV:  cpu time     30.2438: real time    334.1390
       DOS:  cpu time      0.0399: real time      0.4400
    CHARGE:  cpu time      1.2305: real time     13.6035
    MIXING:  cpu time      0.0750: real time      0.8394
    --------------------------------------------
      LOOP:  cpu time     32.1029: real time    354.6740

 eigenvalue-minimisations  :   732
 total energy-change (2. order) : 0.3356555E-03  (-0.4014277E-02)
 number of electron      53.9999997 magnetization       5.9999998
 augmentation part       -0.5347785 magnetization       4.0840265

 DIPCOR: dipole corrections for dipol
 direction  3 min pos     1,
 dipolmoment           0.000000      0.000000      0.000000 electrons x Angstroem
 Tr[quadrupol]      -352.031897

 energy correction for charged system         0.000000 eV
 dipol+quadrupol energy correction           -0.000000 eV
 added-field ion interaction          0.000000 eV  (added to PSCEN)


 Broyden mixing:
  rms(total) = 0.10553E-01    rms(broyden)= 0.10552E-01
  rms(prec ) = 0.10661E-01
  weight for this iteration     100.00

 Free energy of the ion-electron system (eV)
  ---------------------------------------------------
  alpha Z        PSCENC =        27.18754189
  Ewald energy   TEWEN  =      6068.41139657
  -Hartree energ DENC   =     -8752.67689038
  -exchange      EXHF   =         0.00000000
  -V(xc)+E(xc)   XCENC  =        86.15942158
  PAW double counting   =      3694.01155356    -3656.81333586
  entropy T*S    EENTRO =        -0.00000000
  eigenvalues    EBANDS =      -517.42107209
  atomic energy  EATOM  =      3012.07006103
  Solvation  Ediel_sol  =         0.00000000
  ---------------------------------------------------
  free energy    TOTEN  =       -39.07132370 eV

  energy without entropy =      -39.07132370  energy(sigma->0) =      -39.07132370


--------------------------------------------------------------------------------------------------------




--------------------------------------- Iteration      2(   2)  ---------------------------------------


    POTLOK:  cpu time      0.3669: real time      4.0536
    SETDIJ:  cpu time      0.1735: real time      1.8924
     EDDAV:  cpu time     37.9171: real time    419.2830
       DOS:  cpu time      0.0319: real time      0.3530
    CHARGE:  cpu time      1.3044: real time     14.3908
    MIXING:  cpu time      0.1167: real time      1.2971
    --------------------------------------------
      LOOP:  cpu time     39.9103: real time    441.2700

 eigenvalue-minimisations  :  1040
 total energy-change (2. order) :-0.2228625E-03  (-0.2641611E-03)
 number of electron      53.9999997 magnetization       5.9999998
 augmentation part       -0.5312752 magnetization       4.0850740

 DIPCOR: dipole corrections for dipol
 direction  3 min pos     1,
 dipolmoment           0.000000      0.000000      0.000000 electrons x Angstroem
 Tr[quadrupol]      -352.031062

 energy correction for charged system         0.000000 eV
 dipol+quadrupol energy correction           -0.000000 eV
 added-field ion interaction          0.000000 eV  (added to PSCEN)


 Broyden mixing:
  rms(total) = 0.62754E-02    rms(broyden)= 0.62734E-02
  rms(prec ) = 0.63659E-02
  weight for this iteration     100.00

 eigenvalues of (default mixing * dielectric matrix)
  average eigenvalue GAMMA=   0.5853
  0.5853

 Free energy of the ion-electron system (eV)
  ---------------------------------------------------
  alpha Z        PSCENC =        27.18754189
  Ewald energy   TEWEN  =      6068.41139657
  -Hartree energ DENC   =     -8752.64379101
  -exchange      EXHF   =         0.00000000
  -V(xc)+E(xc)   XCENC  =        86.16159160
  PAW double counting   =      3692.36014573    -3655.15207725
  entropy T*S    EENTRO =        -0.00000000
  eigenvalues    EBANDS =      -517.46641512
  atomic energy  EATOM  =      3012.07006103
  Solvation  Ediel_sol  =         0.00000000
  ---------------------------------------------------
  free energy    TOTEN  =       -39.07154657 eV

  energy without entropy =      -39.07154657  energy(sigma->0) =      -39.07154657


--------------------------------------------------------------------------------------------------------




--------------------------------------- Iteration      2(   3)  ---------------------------------------


    POTLOK:  cpu time      0.3390: real time      3.7395
    SETDIJ:  cpu time      0.1668: real time      1.8515
     EDDAV:  cpu time     37.3219: real time    412.3450
       DOS:  cpu time      0.0359: real time      0.3960
    CHARGE:  cpu time      1.2073: real time     13.3324
    MIXING:  cpu time      0.1349: real time      1.4945
    --------------------------------------------
      LOOP:  cpu time     39.2058: real time    433.1590

 eigenvalue-minimisations  :  1044
 total energy-change (2. order) : 0.1276086E-04  (-0.4231128E-05)
 number of electron      53.9999997 magnetization       5.9999998
 augmentation part       -0.5332145 magnetization       4.0846090

 DIPCOR: dipole corrections for dipol
 direction  3 min pos     1,
 dipolmoment           0.000000      0.000000      0.000000 electrons x Angstroem
 Tr[quadrupol]      -352.031374

 energy correction for charged system         0.000000 eV
 dipol+quadrupol energy correction           -0.000000 eV
 added-field ion interaction         -0.000000 eV  (added to PSCEN)


 Broyden mixing:
  rms(total) = 0.39376E-02    rms(broyden)= 0.39376E-02
  rms(prec ) = 0.39873E-02
  weight for this iteration     100.00

 eigenvalues of (default mixing * dielectric matrix)
  average eigenvalue GAMMA=   0.5595
  0.5595  0.5595

 Free energy of the ion-electron system (eV)
  ---------------------------------------------------
  alpha Z        PSCENC =        27.18754189
  Ewald energy   TEWEN  =      6068.41139657
  -Hartree energ DENC   =     -8752.65680491
  -exchange      EXHF   =         0.00000000
  -V(xc)+E(xc)   XCENC  =        86.16224181
  PAW double counting   =      3692.30895154    -3655.10638388
  entropy T*S    EENTRO =        -0.00000000
  eigenvalues    EBANDS =      -517.44853786
  atomic energy  EATOM  =      3012.07006103
  Solvation  Ediel_sol  =         0.00000000
  ---------------------------------------------------
  free energy    TOTEN  =       -39.07153380 eV

  energy without entropy =      -39.07153380  energy(sigma->0) =      -39.07153380


--------------------------------------------------------------------------------------------------------




--------------------------------------- Iteration      2(   4)  ---------------------------------------


    POTLOK:  cpu time      0.3868: real time      4.2785
    SETDIJ:  cpu time      0.1747: real time      1.9295
     EDDAV:  cpu time     32.4179: real time    358.3630
       DOS:  cpu time      0.0398: real time      0.4390
    CHARGE:  cpu time      1.1508: real time     12.7114
    MIXING:  cpu time      0.1150: real time      1.2716
    --------------------------------------------
      LOOP:  cpu time     34.2850: real time    378.9930

 eigenvalue-minimisations  :   796
 total energy-change (2. order) : 0.2882829E-05  (-0.4062489E-06)
 number of electron      53.9999997 magnetization       5.9999998
 augmentation part       -0.5326793 magnetization       4.0846550

 DIPCOR: dipole corrections for dipol
 direction  3 min pos     1,
 dipolmoment           0.000000      0.000000      0.000000 electrons x Angstroem
 Tr[quadrupol]      -352.031190

 energy correction for charged system         0.000000 eV
 dipol+quadrupol energy correction           -0.000000 eV
 added-field ion interaction         -0.000000 eV  (added to PSCEN)


 Broyden mixing:
  rms(total) = 0.32494E-02    rms(broyden)= 0.32494E-02
  rms(prec ) = 0.32832E-02
  weight for this iteration     100.00

 eigenvalues of (default mixing * dielectric matrix)
  average eigenvalue GAMMA=   0.9622
  1.1989  1.1989  0.4889

 Free energy of the ion-electron system (eV)
  ---------------------------------------------------
  alpha Z        PSCENC =        27.18754189
  Ewald energy   TEWEN  =      6068.41139657
  -Hartree energ DENC   =     -8752.64873921
  -exchange      EXHF   =         0.00000000
  -V(xc)+E(xc)   XCENC  =        86.16208698
  PAW double counting   =      3692.37253258    -3655.16849580
  entropy T*S    EENTRO =        -0.00000000
  eigenvalues    EBANDS =      -517.45791497
  atomic energy  EATOM  =      3012.07006103
  Solvation  Ediel_sol  =         0.00000000
  ---------------------------------------------------
  free energy    TOTEN  =       -39.07153092 eV

  energy without entropy =      -39.07153092  energy(sigma->0) =      -39.07153092


--------------------------------------------------------------------------------------------------------




--------------------------------------- Iteration      2(   5)  ---------------------------------------


    POTLOK:  cpu time      0.3466: real time      3.8325
    SETDIJ:  cpu time      0.1706: real time      1.8915
     EDDAV:  cpu time     30.7465: real time    339.6310
       DOS:  cpu time      0.0319: real time      0.3520
    CHARGE:  cpu time      1.1357: real time     12.5264
    MIXING:  cpu time      0.1161: real time      1.2725
    --------------------------------------------
      LOOP:  cpu time     32.5474: real time    359.5060

 eigenvalue-minimisations  :   756
 total energy-change (2. order) : 0.3555524E-05  (-0.2189099E-05)
 number of electron      53.9999997 magnetization       5.9999998
 augmentation part       -0.5325632 magnetization       4.0845912

 DIPCOR: dipole corrections for dipol
 direction  3 min pos     1,
 dipolmoment           0.000000      0.000000      0.000000 electrons x Angstroem
 Tr[quadrupol]      -352.030992

 energy correction for charged system         0.000000 eV
 dipol+quadrupol energy correction           -0.000000 eV
 added-field ion interaction          0.000000 eV  (added to PSCEN)


 Broyden mixing:
  rms(total) = 0.16302E-02    rms(broyden)= 0.16302E-02
  rms(prec ) = 0.16438E-02
  weight for this iteration     100.00

 eigenvalues of (default mixing * dielectric matrix)
  average eigenvalue GAMMA=   1.0206
  1.4677  1.4677  0.5735  0.5735

 Free energy of the ion-electron system (eV)
  ---------------------------------------------------
  alpha Z        PSCENC =        27.18754189
  Ewald energy   TEWEN  =      6068.41139657
  -Hartree energ DENC   =     -8752.63878547
  -exchange      EXHF   =         0.00000000
  -V(xc)+E(xc)   XCENC  =        86.16209258
  PAW double counting   =      3692.49032594    -3655.28625685
  entropy T*S    EENTRO =        -0.00000000
  eigenvalues    EBANDS =      -517.46790306
  atomic energy  EATOM  =      3012.07006103
  Solvation  Ediel_sol  =         0.00000000
  ---------------------------------------------------
  free energy    TOTEN  =       -39.07152737 eV

  energy without entropy =      -39.07152737  energy(sigma->0) =      -39.07152737


--------------------------------------------------------------------------------------------------------




--------------------------------------- Iteration      2(   6)  ---------------------------------------


    POTLOK:  cpu time      0.3410: real time      3.7445
    SETDIJ:  cpu time      0.1708: real time      1.8865
     EDDAV:  cpu time     28.9866: real time    319.7440
       DOS:  cpu time      0.0319: real time      0.3520
    --------------------------------------------
      LOOP:  cpu time     29.5302: real time    325.7270

 eigenvalue-minimisations  :   676
 total energy-change (2. order) :-0.5692364E-06  (-0.3923242E-06)
 number of electron      53.9999997 magnetization       5.9999998
 augmentation part       -0.5325632 magnetization       4.0845912

 DIPCOR: dipole corrections for dipol
 direction  3 min pos     1,
 dipolmoment           0.000000      0.000000      0.000000 electrons x Angstroem
 Tr[quadrupol]      -352.031045

 energy correction for charged system         0.000000 eV
 dipol+quadrupol energy correction           -0.000000 eV
 added-field ion interaction         -0.000000 eV  (added to PSCEN)


 Free energy of the ion-electron system (eV)
  ---------------------------------------------------
  alpha Z        PSCENC =        27.18754189
  Ewald energy   TEWEN  =      6068.41139657
  -Hartree energ DENC   =     -8752.64163361
  -exchange      EXHF   =         0.00000000
  -V(xc)+E(xc)   XCENC  =        86.16215513
  PAW double counting   =      3692.55436696    -3655.35107944
  entropy T*S    EENTRO =        -0.00000000
  eigenvalues    EBANDS =      -517.46433647
  atomic energy  EATOM  =      3012.07006103
  Solvation  Ediel_sol  =         0.00000000
  ---------------------------------------------------
  free energy    TOTEN  =       -39.07152794 eV

  energy without entropy =      -39.07152794  energy(sigma->0) =      -39.07152794


--------------------------------------------------------------------------------------------------------




 average (electrostatic) potential at core
  the test charge radii are     1.1394  0.9406
  (the norm of the test charge is              1.0000)
       1 -52.8831       2 -52.8831       3 -99.3080       4 -99.3080       5 -99.3080
       6 -99.3080       7 -99.3080       8 -99.3080
 
 
 
 E-fermi :  -4.1704     XC(G=0):  -2.9422     alpha+bet : -2.3820

 val. band max:       -4.4021159497   @ k =   0.4000   0.0000   0.0000
 cond. band min:      -2.6213607058   @ k =   0.4000   0.2000   0.0000
 fundamental gap:      1.7807552440
 Fermi energy:        -4.1703549555

 spin component 1

 k-point     1 :       0.0000    0.0000    0.0000
  band No.  band energies     occupation 
      1     -19.6309      1.00000
      2     -18.8064      1.00000
      3     -18.6545      1.00000
      4     -18.6545      1.00000
      5     -18.5418      1.00000
      6     -18.5418      1.00000
      7      -9.3412      1.00000
      8      -8.9194      1.00000
      9      -8.4384      1.00000
     10      -8.4384      1.00000
     11      -8.4065      1.00000
     12      -8.4065      1.00000
     13      -7.9796      1.00000
     14      -7.9500      1.00000
     15      -7.9500      1.00000
     16      -7.2829      1.00000
     17      -7.2103      1.00000
     18      -7.2103      1.00000
     19      -6.4421      1.00000
     20      -6.1220      1.00000
     21      -6.0277      1.00000
     22      -6.0277      1.00000
     23      -5.6852      1.00000
     24      -5.6852      1.00000
     25      -5.2020      1.00000
     26      -4.8621      1.00000
     27      -4.8621      1.00000
     28      -4.7603      1.00000
     29      -4.6011      1.00000
     30      -4.6011      1.00000
     31      -2.5883      0.00000
     32      -2.5883      0.00000
     33      -2.3425      0.00000
     34      -2.3425      0.00000
     35       1.3588      0.00000
     36       1.9654      0.00000

 k-point     2 :       0.2000    0.0000    0.0000
  band No.  band energies     occupation 
      1     -19.5506      1.00000
      2     -18.7756      1.00000
      3     -18.7472      1.00000
      4     -18.6741      1.00000
      5     -18.5561      1.00000
      6     -18.5543      1.00000
      7      -9.3337      1.00000
      8      -8.8825      1.00000
      9      -8.4749      1.00000
     10      -8.4675      1.00000
     11      -8.4212      1.00000
     12      -8.2497      1.00000
     13      -8.0635      1.00000
     14      -7.9258      1.00000
     15      -7.9240      1.00000
     16      -7.2479      1.00000
     17      -6.9874      1.00000
     18      -6.9650      1.00000
     19      -6.4994      1.00000
     20      -6.2933      1.00000
     21      -6.2427      1.00000
     22      -6.0978      1.00000
     23      -5.8536      1.00000
     24      -5.7779      1.00000
     25      -5.1250      1.00000
     26      -4.8962      1.00000
     27      -4.8454      1.00000
     28      -4.6816      1.00000
     29      -4.5769      1.00000
     30      -4.5112      1.00000
     31      -2.5863      0.00000
     32      -2.5677      0.00000
     33      -2.4750      0.00000
     34      -2.3727      0.00000
     35       1.7010      0.00000
     36       2.1762      0.00000

 k-point     3 :       0.4000    0.0000    0.0000
  band No.  band energies     occupation 
      1     -19.3513      1.00000
      2     -18.9659      1.00000
      3     -18.7130      1.00000
      4     -18.6888      1.00000
      5     -18.6042      1.00000
      6     -18.5801      1.00000
      7      -9.3184      1.00000
      8      -8.7843      1.00000
      9      -8.5246      1.00000
     10      -8.4613      1.00000
     11      -8.3075      1.00000
     12      -8.2285      1.00000
     13      -8.1275      1.00000
     14      -7.7808      1.00000
     15      -7.6131      1.00000
     16      -7.3873      1.00000
     17      -7.0491      1.00000
     18      -6.9264      1.00000
     19      -6.6808      1.00000
     20      -6.4770      1.00000
     21      -6.2367      1.00000
     22      -6.1925      1.00000
     23      -5.8188      1.00000
     24      -5.7433      1.00000
     25      -5.1946      1.00000
     26      -4.8821      1.00000
     27      -4.8805      1.00000
     28      -4.6307      1.00000
     29      -4.5770      1.00000
     30      -4.4021      1.00000
     31      -2.6102      0.00000
     32      -2.5626      0.00000
     33      -2.4890      0.00000
     34      -2.4605      0.00000
     35       2.5000      0.00000
     36       2.7178      0.00000

 k-point     4 :       0.2000    0.2000    0.0000
  band No.  band energies     occupation 
      1     -19.4065      1.00000
      2     -18.8907      1.00000
      3     -18.7321      1.00000
      4     -18.7090      1.00000
      5     -18.5796      1.00000
      6     -18.5768      1.00000
      7      -9.2398      1.00000
      8      -8.8723      1.00000
      9      -8.5421      1.00000
     10      -8.4594      1.00000
     11      -8.4027      1.00000
     12      -8.1503      1.00000
     13      -8.1098      1.00000
     14      -8.0252      1.00000
     15      -7.5096      1.00000
     16      -7.3397      1.00000
     17      -7.0715      1.00000
     18      -6.7847      1.00000
     19      -6.6117      1.00000
     20      -6.3033      1.00000
     21      -6.2754      1.00000
     22      -6.2505      1.00000
     23      -6.0138      1.00000
     24      -5.8227      1.00000
     25      -5.0797      1.00000
     26      -4.9027      1.00000
     27      -4.8324      1.00000
     28      -4.6364      1.00000
     29      -4.5320      1.00000
     30      -4.4805      1.00000
     31      -2.5888      0.00000
     32      -2.5818      0.00000
     33      -2.5333      0.00000
     34      -2.3837      0.00000
     35       2.2398      0.00000
     36       2.5449      0.00000

 k-point     5 :       0.4000    0.2000    0.0000
  band No.  band energies     occupation 
      1     -19.2317      1.00000
      2     -19.0628      1.00000
      3     -18.7535      1.00000
      4     -18.6513      1.00000
      5     -18.6273      1.00000
      6     -18.5913      1.00000
      7      -9.1425      1.00000
      8      -8.8024      1.00000
      9      -8.5819      1.00000
     10      -8.4779      1.00000
     11      -8.3616      1.00000
     12      -8.1426      1.00000
     13      -8.1414      1.00000
     14      -7.9389      1.00000
     15      -7.7713      1.00000
     16      -7.1853      1.00000
     17      -6.9859      1.00000
     18      -6.7654      1.00000
     19      -6.6847      1.00000
     20      -6.5287      1.00000
     21      -6.2023      1.00000
     22      -6.1236      1.00000
     23      -6.0165      1.00000
     24      -5.9234      1.00000
     25      -5.1270      1.00000
     26      -4.8167      1.00000
     27      -4.8065      1.00000
     28      -4.6100      1.00000
     29      -4.5867      1.00000
     30      -4.4643      1.00000
     31      -2.6214      0.00000
     32      -2.5481      0.00000
     33      -2.5477      0.00000
     34      -2.3622      0.00000
     35       2.9028      0.00000
     36       2.9034      0.00000
 Fermi energy:        -4.1703549555

 spin component 2

 k-point     1 :       0.0000    0.0000    0.0000
  band No.  band energies     occupation 
      1     -19.6072      1.00000
      2     -18.8200      1.00000
      3     -18.6675      1.00000
      4     -18.6675      1.00000
      5     -18.5518      1.00000
      6     -18.5518      1.00000
      7      -9.0919      1.00000
      8      -8.6257      1.00000
      9      -8.2230      1.00000
     10      -8.2230      1.00000
     11      -8.0963      1.00000
     12      -8.0963      1.00000
     13      -7.9281      1.00000
     14      -7.5254      1.00000
     15      -7.5254      1.00000
     16      -7.0376      1.00000
     17      -6.8683      1.00000
     18      -6.8683      1.00000
     19      -6.3948      1.00000
     20      -6.1034      1.00000
     21      -5.8153      1.00000
     22      -5.8153      1.00000
     23      -5.5952      1.00000
     24      -5.5952      1.00000
     25      -2.0607      0.00000
     26      -2.0607      0.00000
     27      -2.0232      0.00000
     28      -1.9449      0.00000
     29      -1.7638      0.00000
     30      -1.7638      0.00000
     31      -1.2140      0.00000
     32      -1.2140      0.00000
     33      -1.0713      0.00000
     34      -1.0713      0.00000
     35       1.4955      0.00000
     36       2.0138      0.00000

 k-point     2 :       0.2000    0.0000    0.0000
  band No.  band energies     occupation 
      1     -19.5292      1.00000
      2     -18.7887      1.00000
      3     -18.7563      1.00000
      4     -18.6874      1.00000
      5     -18.5654      1.00000
      6     -18.5645      1.00000
      7      -9.0889      1.00000
      8      -8.5992      1.00000
      9      -8.2639      1.00000
     10      -8.2327      1.00000
     11      -8.1426      1.00000
     12      -8.0074      1.00000
     13      -7.7304      1.00000
     14      -7.6107      1.00000
     15      -7.5356      1.00000
     16      -6.9360      1.00000
     17      -6.7342      1.00000
     18      -6.7222      1.00000
     19      -6.3599      1.00000
     20      -6.1352      1.00000
     21      -6.0544      1.00000
     22      -5.8576      1.00000
     23      -5.7776      1.00000
     24      -5.6658      1.00000
     25      -2.1597      0.00000
     26      -2.0313      0.00000
     27      -1.9970      0.00000
     28      -1.8278      0.00000
     29      -1.8090      0.00000
     30      -1.7457      0.00000
     31      -1.2135      0.00000
     32      -1.2134      0.00000
     33      -1.1711      0.00000
     34      -1.0945      0.00000
     35       1.8159      0.00000
     36       2.2293      0.00000

 k-point     3 :       0.4000    0.0000    0.0000
  band No.  band energies     occupation 
      1     -19.3358      1.00000
      2     -18.9667      1.00000
      3     -18.7250      1.00000
      4     -18.7028      1.00000
      5     -18.6151      1.00000
      6     -18.5884      1.00000
      7      -9.0629      1.00000
      8      -8.5232      1.00000
      9      -8.3663      1.00000
     10      -8.2025      1.00000
     11      -7.9773      1.00000
     12      -7.9357      1.00000
     13      -7.7976      1.00000
     14      -7.4625      1.00000
     15      -7.2898      1.00000
     16      -7.0856      1.00000
     17      -6.7939      1.00000
     18      -6.6111      1.00000
     19      -6.4763      1.00000
     20      -6.2924      1.00000
     21      -6.1922      1.00000
     22      -5.9446      1.00000
     23      -5.7480      1.00000
     24      -5.6180      1.00000
     25      -2.2320      0.00000
     26      -2.2068      0.00000
     27      -1.9643      0.00000
     28      -1.8328      0.00000
     29      -1.6970      0.00000
     30      -1.6839      0.00000
     31      -1.2855      0.00000
     32      -1.2201      0.00000
     33      -1.1597      0.00000
     34      -1.1196      0.00000
     35       2.5832      0.00000
     36       2.7841      0.00000

 k-point     4 :       0.2000    0.2000    0.0000
  band No.  band energies     occupation 
      1     -19.3895      1.00000
      2     -18.8934      1.00000
      3     -18.7440      1.00000
      4     -18.7230      1.00000
      5     -18.5905      1.00000
      6     -18.5855      1.00000
      7      -8.9978      1.00000
      8      -8.5937      1.00000
      9      -8.3074      1.00000
     10      -8.2856      1.00000
     11      -8.0800      1.00000
     12      -7.8621      1.00000
     13      -7.8219      1.00000
     14      -7.6124      1.00000
     15      -7.2206      1.00000
     16      -7.0569      1.00000
     17      -6.7630      1.00000
     18      -6.5945      1.00000
     19      -6.4354      1.00000
     20      -6.2628      1.00000
     21      -6.0094      1.00000
     22      -5.9664      1.00000
     23      -5.7737      1.00000
     24      -5.7604      1.00000
     25      -2.1790      0.00000
     26      -2.1781      0.00000
     27      -1.9282      0.00000
     28      -1.9104      0.00000
     29      -1.7233      0.00000
     30      -1.6949      0.00000
     31      -1.2707      0.00000
     32      -1.1800      0.00000
     33      -1.1554      0.00000
     34      -1.1335      0.00000
     35       2.3329      0.00000
     36       2.6098      0.00000

 k-point     5 :       0.4000    0.2000    0.0000
  band No.  band energies     occupation 
      1     -19.2199      1.00000
      2     -19.0589      1.00000
      3     -18.7663      1.00000
      4     -18.6642      1.00000
      5     -18.6379      1.00000
      6     -18.6001      1.00000
      7      -8.8909      1.00000
      8      -8.5562      1.00000
      9      -8.3334      1.00000
     10      -8.2256      1.00000
     11      -8.1201      1.00000
     12      -7.8594      1.00000
     13      -7.8049      1.00000
     14      -7.5447      1.00000
     15      -7.4739      1.00000
     16      -6.9610      1.00000
     17      -6.8178      1.00000
     18      -6.5465      1.00000
     19      -6.3472      1.00000
     20      -6.3086      1.00000
     21      -6.0648      1.00000
     22      -5.9722      1.00000
     23      -5.7727      1.00000
     24      -5.7303      1.00000
     25      -2.2297      0.00000
     26      -2.2218      0.00000
     27      -1.9614      0.00000
     28      -1.9253      0.00000
     29      -1.6904      0.00000
     30      -1.6764      0.00000
     31      -1.2517      0.00000
     32      -1.1943      0.00000
     33      -1.1439      0.00000
     34      -1.1026      0.00000
     35       3.0188      0.00000
     36       3.1010      0.00000


--------------------------------------------------------------------------------------------------------


 soft charge-density along one line, spin component            1
         0         1         2         3         4         5         6         7         8         9
 total charge-density along one line
 
 soft charge-density along one line, spin component            2
         0         1         2         3         4         5         6         7         8         9
 total charge-density along one line
 
 pseudopotential strength for first ion, spin component:            1
 -9.738   0.199  -0.000   0.000   0.000 -10.063   0.192  -0.000
  0.199  -9.599   0.000   0.000  -0.000   0.192  -9.929   0.000
 -0.000   0.000  -9.885   0.000   0.000  -0.000   0.000 -10.205
  0.000   0.000   0.000  -9.599  -0.199   0.000   0.000   0.000
  0.000  -0.000   0.000  -0.199  -9.738   0.000  -0.000   0.000
-10.063   0.192  -0.000   0.000   0.000 -10.350   0.185  -0.000
  0.192  -9.929   0.000   0.000  -0.000   0.185 -10.221   0.000
 -0.000   0.000 -10.205   0.000   0.000  -0.000   0.000 -10.487
  0.000   0.000   0.000  -9.929  -0.192   0.000   0.000   0.000
  0.000  -0.000   0.000  -0.192 -10.063   0.000  -0.000   0.000
 -0.000  -0.000   0.000  -0.000   0.000  -0.000  -0.000   0.000
 -0.000  -0.000   0.001  -0.000   0.000  -0.000  -0.000   0.001
 -0.000  -0.000  -0.000   0.000  -0.002  -0.000  -0.000  -0.000
  0.000   0.000   0.000  -0.000   0.000   0.000   0.000   0.000
 -0.002   0.000   0.000   0.000  -0.000  -0.002   0.000   0.000
 -0.000  -0.000  -0.000   0.000  -0.003  -0.000  -0.000  -0.000
  0.000   0.000   0.000  -0.000   0.000   0.000   0.000   0.000
 -0.003   0.000   0.000   0.000  -0.000  -0.003   0.000   0.000
 pseudopotential strength for first ion, spin component:            2
 -8.061  -0.261   0.000   0.000   0.000  -8.441  -0.252   0.000
 -0.261  -8.250  -0.000   0.000  -0.000  -0.252  -8.624  -0.000
  0.000  -0.000  -7.880  -0.000  -0.000   0.000  -0.000  -8.267
  0.000   0.000  -0.000  -8.250   0.261   0.000   0.000  -0.000
  0.000  -0.000  -0.000   0.261  -8.061   0.000  -0.000  -0.000
 -8.441  -0.252   0.000   0.000   0.000  -8.783  -0.243   0.000
 -0.252  -8.624  -0.000   0.000  -0.000  -0.243  -8.960  -0.000
  0.000  -0.000  -8.267  -0.000  -0.000   0.000  -0.000  -8.615
  0.000   0.000  -0.000  -8.624   0.252   0.000   0.000  -0.000
  0.000  -0.000  -0.000   0.252  -8.441   0.000  -0.000  -0.000
  0.000  -0.000  -0.000  -0.000  -0.000   0.000  -0.000  -0.000
  0.000  -0.000  -0.000  -0.000  -0.000   0.000  -0.000  -0.000
  0.000  -0.000   0.000   0.000  -0.000   0.000  -0.000   0.000
  0.000  -0.000   0.000   0.000   0.000   0.000   0.000   0.000
 -0.000   0.000  -0.000   0.000   0.000  -0.001   0.000  -0.000
  0.000  -0.000   0.000   0.000   0.000   0.000  -0.000   0.000
  0.000  -0.000   0.000   0.000   0.000   0.000  -0.000   0.000
  0.000   0.000  -0.000   0.000   0.000  -0.000   0.000  -0.000
 total augmentation occupancy for first ion, spin component:            1
  3.850  -1.328  -0.000   0.000  -0.000  -2.856   0.138   0.000   0.000   0.000   0.000  -0.000  -0.000  -0.000   0.098   0.000
 -1.328   2.810   0.000   0.000   0.000   0.137  -2.646   0.000   0.000   0.000  -0.000   0.000   0.000   0.000  -0.035   0.000
 -0.000   0.000   4.638  -0.000  -0.000   0.000  -0.000  -2.794   0.000   0.000   0.066  -0.010  -0.000   0.000   0.000   0.000
  0.000   0.000  -0.000   2.810   1.328  -0.000   0.000   0.000  -2.646  -0.137   0.000   0.000   0.035  -0.000   0.000  -0.000
 -0.000   0.000  -0.000   1.328   3.850   0.000   0.000   0.000  -0.138  -2.856  -0.000   0.000   0.098   0.000   0.000  -0.004
 -2.856   0.137  -0.000  -0.000   0.000   2.816   0.794   0.000   0.000   0.000  -0.000  -0.000   0.000   0.000  -0.108   0.000
  0.138  -2.646   0.000   0.000   0.000   0.794   3.253   0.000   0.000   0.000   0.000   0.000   0.000   0.000   0.029   0.000
 -0.000  -0.000  -2.794   0.000   0.000  -0.000   0.000   2.078   0.000  -0.000  -0.074   0.013   0.000   0.000   0.000  -0.000
  0.000   0.000   0.000  -2.646  -0.138   0.000   0.000   0.000   3.253  -0.794   0.000  -0.000  -0.029   0.000   0.000   0.000
  0.000  -0.000   0.000  -0.137  -2.856   0.000   0.000  -0.000  -0.794   2.816  -0.000   0.000  -0.108  -0.000   0.000   0.004
  0.000  -0.000   0.066  -0.000  -0.000   0.000   0.000  -0.074   0.000   0.000   1.835  -0.219  -0.000  -0.000   0.000   0.000
  0.000  -0.000  -0.010   0.000   0.000   0.000   0.000   0.013  -0.000   0.000  -0.219   0.034   0.000   0.000   0.000  -0.000
  0.000   0.000  -0.000   0.035   0.098   0.000   0.000   0.000  -0.029  -0.108  -0.000   0.000   0.283   0.000   0.000  -0.008
 -0.000  -0.000  -0.000  -0.000   0.000   0.000   0.000   0.000  -0.000   0.000  -0.000   0.000   0.000   0.275  -0.000   0.000
  0.098  -0.035   0.000   0.000   0.000  -0.108   0.029   0.000   0.000   0.000  -0.000   0.000   0.000   0.000   0.283   0.000
  0.000   0.000   0.000  -0.000  -0.004   0.000   0.000  -0.000   0.000   0.004   0.000   0.000  -0.008   0.000   0.000   0.000
 -0.000   0.000   0.000   0.000  -0.000   0.000   0.000   0.000  -0.000   0.000   0.000   0.000   0.000  -0.008   0.000   0.000
 -0.004   0.000  -0.000   0.000   0.000   0.004  -0.000   0.000   0.000   0.000   0.000   0.000   0.000   0.000  -0.008   0.000
 total augmentation occupancy for first ion, spin component:            2
  2.618  -2.173   0.000   0.000   0.000  -1.169   1.278   0.000   0.000   0.000   0.000   0.000   0.000  -0.000   0.015   0.000
 -2.173   1.078   0.000   0.000   0.000   1.277  -0.270   0.000   0.000   0.000   0.000   0.000   0.000   0.000  -0.027   0.000
  0.000   0.000   4.085  -0.000  -0.000  -0.000   0.000  -2.022   0.000   0.000  -0.005   0.003  -0.000   0.000   0.000  -0.000
  0.000   0.000  -0.000   1.078   2.173   0.000   0.000   0.000  -0.270  -1.277  -0.000   0.000   0.027  -0.000   0.000  -0.000
  0.000   0.000  -0.000   2.173   2.618   0.000   0.000   0.000  -1.278  -1.169   0.000  -0.000   0.015   0.000   0.000   0.000
 -1.169   1.277   0.000   0.000   0.000   0.459  -0.798   0.000   0.000   0.000   0.000   0.000   0.000   0.000  -0.005   0.000
  1.278  -0.270   0.000   0.000   0.000  -0.798  -0.096   0.000   0.000   0.000   0.000   0.000   0.000   0.000   0.013   0.000
 -0.000   0.000  -2.022   0.000   0.000   0.000   0.000   0.995  -0.000  -0.000   0.010  -0.002   0.000  -0.000  -0.000   0.000
  0.000  -0.000   0.000  -0.270  -1.278   0.000   0.000  -0.000  -0.096   0.798  -0.000   0.000  -0.013   0.000   0.000   0.000
  0.000   0.000   0.000  -1.277  -1.169   0.000   0.000  -0.000   0.798   0.459  -0.000   0.000  -0.005   0.000  -0.000  -0.001
 -0.000   0.000  -0.005   0.000  -0.000   0.000   0.000   0.010   0.000  -0.000  -0.042   0.049  -0.000  -0.000   0.000   0.000
  0.000   0.000   0.003   0.000   0.000   0.000  -0.000  -0.002   0.000   0.000   0.049  -0.009   0.000  -0.000   0.000   0.000
  0.000   0.000   0.000   0.027   0.015   0.000   0.000  -0.000  -0.013  -0.005   0.000   0.000   0.017  -0.000   0.000   0.002
 -0.000  -0.000  -0.000   0.000   0.000  -0.000   0.000  -0.000   0.000   0.000  -0.000  -0.000   0.000   0.014   0.000  -0.000
  0.015  -0.027   0.000   0.000   0.000  -0.005   0.013   0.000   0.000   0.000   0.000  -0.000   0.000  -0.000   0.017   0.000
  0.000   0.000  -0.000  -0.000   0.000   0.000   0.000   0.000   0.000  -0.001   0.000   0.000   0.002   0.000   0.000  -0.000
 -0.000   0.000  -0.000   0.000   0.000   0.000   0.000   0.000  -0.000   0.000  -0.000  -0.000   0.000   0.001  -0.000   0.000
  0.000   0.000   0.000   0.000   0.000  -0.001  -0.000  -0.000   0.000   0.000  -0.000  -0.000   0.000   0.000   0.002   0.000


------------------------ aborting loop because EDIFF is reached ----------------------------------------


    CHARGE:  cpu time      1.1335: real time     12.5014
    FORLOC:  cpu time      0.0036: real time      0.0436
    FORNL :  cpu time      2.1785: real time     24.0810
    STRESS:  cpu time      5.7886: real time     63.9770
    FORCOR:  cpu time      0.1749: real time      1.9400
    FORHAR:  cpu time      0.0438: real time      0.4800
    MIXING:  cpu time      0.1274: real time      1.4120
    OFIELD:  cpu time      0.0000: real time      0.0000

 ---------------------------------------------------------------------------------------------

         DFTD3 V3.0 Rev 1        
 Edisp (eV)   -0.91201

 E6    (eV) :    -0.3572
 E8    (eV) :    -0.5549
 % E8        : 60.84
    FORVDW:  cpu time      0.0057: real time      0.0458

  FORCE on cell =-STRESS in cart. coord.  units (eV):
  Direction    XX          YY          ZZ          XY          YZ          ZX
  --------------------------------------------------------------------------------------
  Alpha Z    27.18754    27.18754    27.18754
  Ewald    7750.95068  7750.95068 -9433.49236    -0.00000     0.00000    -0.00000
  Hartree  8368.01610  8368.01610 -7983.40091    -0.00000     0.00000     0.00000
  E(xc)    -209.33884  -209.33884  -209.63307    -0.00000    -0.00000    -0.00000
  Local  -17145.86891-17145.86881 16386.53205     0.00009     0.00000     0.00000
  n-local   477.30451   477.55936   476.53795    -0.44132     0.06407     0.00614
  augment   -58.83877   -58.83885   -59.05967    -0.00007    -0.00000    -0.00000
  Kinetic   790.59394   790.23545   795.16631     0.42666    -0.26767     0.07519
  Fock        0.00000     0.00000     0.00000     0.00000     0.00000     0.00000
  vdW        -0.75032    -0.75032    -0.00091    -0.00000    -0.00000     0.00000
  -------------------------------------------------------------------------------------
  Total      -0.79589    -0.79589    -0.16306     0.00000     0.00000     0.00000
  in kB      -2.01385    -2.01385    -0.41260     0.00000     0.00000     0.00000
  external pressure =       -1.48 kB  Pullay stress =        0.00 kB


 VOLUME and BASIS-vectors are now :
 -----------------------------------------------------------------------------
  energy-cutoff  :      400.00
  volume of cell :      633.19
      direct lattice vectors                 reciprocal lattice vectors
     6.046274499  0.000000000  0.000000000     0.165391102  0.095488597 -0.000000000
    -3.023137249  5.236227314  0.000000000     0.000000000  0.190977194  0.000000000
     0.000000000  0.000000000 20.000000000     0.000000000 -0.000000000  0.050000000

  length of vectors
     6.046274499  6.046274499 20.000000000     0.190977194  0.190977194  0.050000000


 FORCES acting on ions
    electron-ion (+dipol)            ewald-force                    non-local-force                 convergence-correction
 -----------------------------------------------------------------------------------------------
   0.417E-06 -.241E-06 0.813E-12   -.515E-11 0.293E-11 0.000E+00   0.434E-18 -.867E-18 -.159E-21   -.138E-08 0.794E-09 0.237E-13
   -.417E-06 0.241E-06 -.129E-10   0.519E-11 -.297E-11 -.174E-13   -.434E-18 0.867E-18 -.106E-21   0.138E-08 -.794E-09 -.150E-12
   0.714E+02 0.895E-06 0.481E+03   -.734E+02 -.340E-11 -.484E+03   0.201E+01 0.434E-18 0.297E+01   -.632E-03 -.104E-05 0.270E-03
   -.357E+02 0.619E+02 0.481E+03   0.367E+02 -.636E+02 -.484E+03   -.100E+01 0.174E+01 0.297E+01   0.315E-03 -.547E-03 0.270E-03
   -.357E+02 -.619E+02 0.481E+03   0.367E+02 0.636E+02 -.484E+03   -.100E+01 -.174E+01 0.297E+01   0.317E-03 0.549E-03 0.270E-03
   -.714E+02 -.895E-06 -.481E+03   0.734E+02 0.339E-11 0.484E+03   -.201E+01 -.434E-18 -.297E+01   0.632E-03 0.104E-05 -.270E-03
   0.357E+02 -.619E+02 -.481E+03   -.367E+02 0.636E+02 0.484E+03   0.100E+01 -.174E+01 -.297E+01   -.315E-03 0.547E-03 -.270E-03
   0.357E+02 0.619E+02 -.481E+03   -.367E+02 -.636E+02 0.484E+03   0.100E+01 0.174E+01 -.297E+01   -.317E-03 -.549E-03 -.270E-03
 -----------------------------------------------------------------------------------------------
   0.628E-12 0.346E-13 -.966E-11   0.355E-13 -.711E-14 -.171E-12   0.666E-15 0.222E-15 -.444E-15   -.171E-12 0.108E-12 0.147E-12
 
 
 POSITION                                       TOTAL-FORCE (eV/Angst)
 -----------------------------------------------------------------------------------
      0.00000      3.49082     10.00000         0.000000     -0.000000     -0.000000
      3.02314      1.74541     10.00000         0.000000     -0.000000     -0.000000
     -0.85256      5.23623      8.66438        -0.029673     -0.000000      0.007414
      4.96099      1.87977      8.66438         0.014837     -0.025698      0.007414
      1.93785      3.35645      8.66438         0.014837      0.025698      0.007414
      0.85256      5.23623     11.33562         0.029673     -0.000000     -0.007414
     -1.93785      3.35645     11.33562        -0.014837      0.025698     -0.007414
      1.08529      1.87977     11.33562        -0.014837     -0.025698     -0.007414
 -----------------------------------------------------------------------------------
    total drift:                                0.000000      0.000000     -0.000000


--------------------------------------------------------------------------------------------------------



  FREE ENERGIE OF THE ION-ELECTRON SYSTEM (eV)
  ---------------------------------------------------
  free  energy   TOTEN  =       -39.98353939 eV

  energy  without entropy=      -39.98353939  energy(sigma->0) =      -39.98353939
 d Force = 0.3807430E-03[ 0.334E-03, 0.427E-03]  d Energy = 0.3765881E-03 0.415E-05
 d Force = 0.5095057E+00[ 0.509E+00, 0.510E+00]  d Ewald  = 0.5095070E+00-0.132E-05
 


--------------------------------------------------------------------------------------------------------


    POTLOK:  cpu time      0.5119: real time      5.6732


--------------------------------------------------------------------------------------------------------


 Steepest descent step on ions:
 trial-energy change:   -0.000377  1 .order   -0.000381   -0.000427   -0.000334
  (g-gl).g = 0.427E-03      g.g   = 0.427E-03  gl.gl    = 0.000E+00
 g(Force)  = 0.427E-03   g(Stress)= 0.000E+00 ortho     = 0.000E+00
 gamma     =   0.00000
 trial     =   1.00000
 opt step  =   4.00000  (harmonic =   4.58764) maximal distance =0.00740234
 next E    =   -39.984143   (d E  =  -0.00098)


--------------------------------------------------------------------------------------------------------


      MLFF:  cpu time      0.0167: real time      0.2200
    WAVPRE:  cpu time      0.0122: real time      0.1035
    FEWALD:  cpu time      0.0433: real time      0.4835

 real space projection operators:
  total allocation   :       3060.00 KBytes
  max/ min on nodes  :        769.63        760.50

    ORTHCH:  cpu time      2.2446: real time     24.8131
     LOOP+:  cpu time    220.1070: real time   2431.7680


--------------------------------------- Ionic step        3  -------------------------------------------




--------------------------------------- Iteration      3(   1)  ---------------------------------------


    POTLOK:  cpu time      0.3390: real time      3.7155
    SETDIJ:  cpu time      0.1748: real time      1.9345
     EDDAV:  cpu time     30.5079: real time    337.2810
       DOS:  cpu time      0.0319: real time      0.3520
    CHARGE:  cpu time      1.2228: real time     13.5208
    MIXING:  cpu time      0.0789: real time      0.8792
    --------------------------------------------
      LOOP:  cpu time     32.3552: real time    357.6830

 eigenvalue-minimisations  :   720
 total energy-change (2. order) : 0.2826700E-02  (-0.3612871E-01)
 number of electron      54.0000002 magnetization       5.9999998
 augmentation part       -0.5379288 magnetization       4.0860244

 DIPCOR: dipole corrections for dipol
 direction  3 min pos     1,
 dipolmoment           0.000000      0.000000      0.000000 electrons x Angstroem
 Tr[quadrupol]      -350.683045

 energy correction for charged system         0.000000 eV
 dipol+quadrupol energy correction           -0.000000 eV
 added-field ion interaction          0.000000 eV  (added to PSCEN)


 Broyden mixing:
  rms(total) = 0.31363E-01    rms(broyden)= 0.31359E-01
  rms(prec ) = 0.31695E-01
  weight for this iteration     100.00

 Free energy of the ion-electron system (eV)
  ---------------------------------------------------
  alpha Z        PSCENC =        27.18754189
  Ewald energy   TEWEN  =      6066.89088904
  -Hartree energ DENC   =     -8751.34396090
  -exchange      EXHF   =         0.00000000
  -V(xc)+E(xc)   XCENC  =        86.13355795
  PAW double counting   =      3692.52968339    -3655.32608888
  entropy T*S    EENTRO =        -0.00000000
  eigenvalues    EBANDS =      -517.21038418
  atomic energy  EATOM  =      3012.07006103
  Solvation  Ediel_sol  =         0.00000000
  ---------------------------------------------------
  free energy    TOTEN  =       -39.06870067 eV

  energy without entropy =      -39.06870067  energy(sigma->0) =      -39.06870067


--------------------------------------------------------------------------------------------------------




--------------------------------------- Iteration      3(   2)  ---------------------------------------


    POTLOK:  cpu time      0.3309: real time      3.6525
    SETDIJ:  cpu time      0.1707: real time      1.8915
     EDDAV:  cpu time     37.2683: real time    411.8840
       DOS:  cpu time      0.0398: real time      0.4410
    CHARGE:  cpu time      1.1355: real time     12.5444
    MIXING:  cpu time      0.0991: real time      1.0995
    --------------------------------------------
      LOOP:  cpu time     39.0443: real time    431.5130

 eigenvalue-minimisations  :  1040
 total energy-change (2. order) :-0.2035400E-02  (-0.2398996E-02)
 number of electron      54.0000002 magnetization       5.9999998
 augmentation part       -0.5274555 magnetization       4.0892775

 DIPCOR: dipole corrections for dipol
 direction  3 min pos     1,
 dipolmoment           0.000000      0.000000      0.000000 electrons x Angstroem
 Tr[quadrupol]      -350.680401

 energy correction for charged system         0.000000 eV
 dipol+quadrupol energy correction           -0.000000 eV
 added-field ion interaction          0.000000 eV  (added to PSCEN)


 Broyden mixing:
  rms(total) = 0.19099E-01    rms(broyden)= 0.19093E-01
  rms(prec ) = 0.19369E-01
  weight for this iteration     100.00

 eigenvalues of (default mixing * dielectric matrix)
  average eigenvalue GAMMA=   0.5715
  0.5715

 Free energy of the ion-electron system (eV)
  ---------------------------------------------------
  alpha Z        PSCENC =        27.18754189
  Ewald energy   TEWEN  =      6066.89088904
  -Hartree energ DENC   =     -8751.23915838
  -exchange      EXHF   =         0.00000000
  -V(xc)+E(xc)   XCENC  =        86.13982477
  PAW double counting   =      3687.69927701    -3650.46561104
  entropy T*S    EENTRO =        -0.00000000
  eigenvalues    EBANDS =      -517.35356038
  atomic energy  EATOM  =      3012.07006103
  Solvation  Ediel_sol  =         0.00000000
  ---------------------------------------------------
  free energy    TOTEN  =       -39.07073607 eV

  energy without entropy =      -39.07073607  energy(sigma->0) =      -39.07073607


--------------------------------------------------------------------------------------------------------




--------------------------------------- Iteration      3(   3)  ---------------------------------------


    POTLOK:  cpu time      0.3430: real time      3.7846
    SETDIJ:  cpu time      0.1747: real time      1.9354
     EDDAV:  cpu time     37.3034: real time    412.2800
       DOS:  cpu time      0.0438: real time      0.4840
    CHARGE:  cpu time      1.1987: real time     13.2445
    MIXING:  cpu time      0.1189: real time      1.3195
    --------------------------------------------
      LOOP:  cpu time     39.1825: real time    433.0480

 eigenvalue-minimisations  :  1040
 total energy-change (2. order) : 0.1099896E-03  (-0.3799240E-04)
 number of electron      54.0000002 magnetization       5.9999998
 augmentation part       -0.5332550 magnetization       4.0878737

 DIPCOR: dipole corrections for dipol
 direction  3 min pos     1,
 dipolmoment           0.000000      0.000000      0.000000 electrons x Angstroem
 Tr[quadrupol]      -350.681248

 energy correction for charged system         0.000000 eV
 dipol+quadrupol energy correction           -0.000000 eV
 added-field ion interaction         -0.000000 eV  (added to PSCEN)


 Broyden mixing:
  rms(total) = 0.11784E-01    rms(broyden)= 0.11784E-01
  rms(prec ) = 0.11936E-01
  weight for this iteration     100.00

 eigenvalues of (default mixing * dielectric matrix)
  average eigenvalue GAMMA=   0.5608
  0.5608  0.5608

 Free energy of the ion-electron system (eV)
  ---------------------------------------------------
  alpha Z        PSCENC =        27.18754189
  Ewald energy   TEWEN  =      6066.89088904
  -Hartree energ DENC   =     -8751.27937751
  -exchange      EXHF   =         0.00000000
  -V(xc)+E(xc)   XCENC  =        86.14202051
  PAW double counting   =      3687.48235179    -3650.26535931
  entropy T*S    EENTRO =        -0.00000000
  eigenvalues    EBANDS =      -517.29875352
  atomic energy  EATOM  =      3012.07006103
  Solvation  Ediel_sol  =         0.00000000
  ---------------------------------------------------
  free energy    TOTEN  =       -39.07062608 eV

  energy without entropy =      -39.07062608  energy(sigma->0) =      -39.07062608


--------------------------------------------------------------------------------------------------------




--------------------------------------- Iteration      3(   4)  ---------------------------------------


    POTLOK:  cpu time      0.3389: real time      3.7406
    SETDIJ:  cpu time      0.1742: real time      1.9394
     EDDAV:  cpu time     38.2259: real time    422.6480
       DOS:  cpu time      0.0438: real time      0.4860
    CHARGE:  cpu time      1.2352: real time     13.6414
    MIXING:  cpu time      0.1111: real time      1.2315
    --------------------------------------------
      LOOP:  cpu time     40.1290: real time    443.6870

 eigenvalue-minimisations  :  1088
 total energy-change (2. order) : 0.2448159E-04  (-0.4824476E-05)
 number of electron      54.0000002 magnetization       5.9999998
 augmentation part       -0.5317462 magnetization       4.0879737

 DIPCOR: dipole corrections for dipol
 direction  3 min pos     1,
 dipolmoment           0.000000      0.000000      0.000000 electrons x Angstroem
 Tr[quadrupol]      -350.680652

 energy correction for charged system         0.000000 eV
 dipol+quadrupol energy correction           -0.000000 eV
 added-field ion interaction         -0.000000 eV  (added to PSCEN)


 Broyden mixing:
  rms(total) = 0.95386E-02    rms(broyden)= 0.95386E-02
  rms(prec ) = 0.96327E-02
  weight for this iteration     100.00

 eigenvalues of (default mixing * dielectric matrix)
  average eigenvalue GAMMA=   0.9669
  1.2037  1.2037  0.4932

 Free energy of the ion-electron system (eV)
  ---------------------------------------------------
  alpha Z        PSCENC =        27.18754189
  Ewald energy   TEWEN  =      6066.89088904
  -Hartree energ DENC   =     -8751.25572951
  -exchange      EXHF   =         0.00000000
  -V(xc)+E(xc)   XCENC  =        86.14159303
  PAW double counting   =      3687.65356272    -3650.43236855
  entropy T*S    EENTRO =        -0.00000000
  eigenvalues    EBANDS =      -517.32615124
  atomic energy  EATOM  =      3012.07006103
  Solvation  Ediel_sol  =         0.00000000
  ---------------------------------------------------
  free energy    TOTEN  =       -39.07060160 eV

  energy without entropy =      -39.07060160  energy(sigma->0) =      -39.07060160


--------------------------------------------------------------------------------------------------------




--------------------------------------- Iteration      3(   5)  ---------------------------------------


    POTLOK:  cpu time      0.3749: real time      4.1435
    SETDIJ:  cpu time      0.1744: real time      1.9335
     EDDAV:  cpu time     31.0224: real time    342.9000
       DOS:  cpu time      0.0359: real time      0.3961
    CHARGE:  cpu time      1.1793: real time     13.0364
    MIXING:  cpu time      0.1071: real time      1.1876
    --------------------------------------------
      LOOP:  cpu time     32.8941: real time    363.5970

 eigenvalue-minimisations  :   752
 total energy-change (2. order) : 0.2828611E-04  (-0.1251278E-04)
 number of electron      54.0000002 magnetization       5.9999998
 augmentation part       -0.5314399 magnetization       4.0878072

 DIPCOR: dipole corrections for dipol
 direction  3 min pos     1,
 dipolmoment           0.000000      0.000000      0.000000 electrons x Angstroem
 Tr[quadrupol]      -350.679955

 energy correction for charged system         0.000000 eV
 dipol+quadrupol energy correction           -0.000000 eV
 added-field ion interaction          0.000000 eV  (added to PSCEN)


 Broyden mixing:
  rms(total) = 0.48022E-02    rms(broyden)= 0.48021E-02
  rms(prec ) = 0.48369E-02
  weight for this iteration     100.00

 eigenvalues of (default mixing * dielectric matrix)
  average eigenvalue GAMMA=   1.0077
  1.4559  1.4559  0.5595  0.5595

 Free energy of the ion-electron system (eV)
  ---------------------------------------------------
  alpha Z        PSCENC =        27.18754189
  Ewald energy   TEWEN  =      6066.89088904
  -Hartree energ DENC   =     -8751.23278760
  -exchange      EXHF   =         0.00000000
  -V(xc)+E(xc)   XCENC  =        86.14170251
  PAW double counting   =      3687.78380311    -3650.56260810
  entropy T*S    EENTRO =        -0.00000000
  eigenvalues    EBANDS =      -517.34917519
  atomic energy  EATOM  =      3012.07006103
  Solvation  Ediel_sol  =         0.00000000
  ---------------------------------------------------
  free energy    TOTEN  =       -39.07057331 eV

  energy without entropy =      -39.07057331  energy(sigma->0) =      -39.07057331


--------------------------------------------------------------------------------------------------------




--------------------------------------- Iteration      3(   6)  ---------------------------------------


    POTLOK:  cpu time      0.3390: real time      3.7355
    SETDIJ:  cpu time      0.1748: real time      1.9355
     EDDAV:  cpu time     36.0644: real time    398.6850
       DOS:  cpu time      0.0398: real time      0.4400
    CHARGE:  cpu time      1.3617: real time     15.0444
    MIXING:  cpu time      0.1270: real time      1.4075
    --------------------------------------------
      LOOP:  cpu time     38.1066: real time    421.2480

 eigenvalue-minimisations  :   992
 total energy-change (2. order) :-0.3368601E-05  (-0.3444328E-05)
 number of electron      54.0000002 magnetization       5.9999998
 augmentation part       -0.5328252 magnetization       4.0874668

 DIPCOR: dipole corrections for dipol
 direction  3 min pos     1,
 dipolmoment           0.000000      0.000000      0.000000 electrons x Angstroem
 Tr[quadrupol]      -350.679947

 energy correction for charged system         0.000000 eV
 dipol+quadrupol energy correction           -0.000000 eV
 added-field ion interaction          0.000000 eV  (added to PSCEN)


 Broyden mixing:
  rms(total) = 0.12085E-02    rms(broyden)= 0.12084E-02
  rms(prec ) = 0.12148E-02
  weight for this iteration     100.00

 eigenvalues of (default mixing * dielectric matrix)
  average eigenvalue GAMMA=   1.1430
  2.4818  1.0624  1.0624  0.5542  0.5542

 Free energy of the ion-electron system (eV)
  ---------------------------------------------------
  alpha Z        PSCENC =        27.18754189
  Ewald energy   TEWEN  =      6066.89088904
  -Hartree energ DENC   =     -8751.23633953
  -exchange      EXHF   =         0.00000000
  -V(xc)+E(xc)   XCENC  =        86.14208007
  PAW double counting   =      3688.04777854    -3650.82906585
  entropy T*S    EENTRO =        -0.00000000
  eigenvalues    EBANDS =      -517.34352186
  atomic energy  EATOM  =      3012.07006103
  Solvation  Ediel_sol  =         0.00000000
  ---------------------------------------------------
  free energy    TOTEN  =       -39.07057668 eV

  energy without entropy =      -39.07057668  energy(sigma->0) =      -39.07057668


--------------------------------------------------------------------------------------------------------




--------------------------------------- Iteration      3(   7)  ---------------------------------------


    POTLOK:  cpu time      0.3427: real time      3.7845
    SETDIJ:  cpu time      0.1707: real time      1.8915
     EDDAV:  cpu time     26.6312: real time    294.4300
       DOS:  cpu time      0.0438: real time      0.4840
    CHARGE:  cpu time      1.1451: real time     12.6744
    MIXING:  cpu time      0.1430: real time      1.5836
    --------------------------------------------
      LOOP:  cpu time     28.4765: real time    314.8480

 eigenvalue-minimisations  :   524
 total energy-change (2. order) :-0.3296103E-05  (-0.2116871E-06)
 number of electron      54.0000002 magnetization       5.9999998
 augmentation part       -0.5329358 magnetization       4.0873808

 DIPCOR: dipole corrections for dipol
 direction  3 min pos     1,
 dipolmoment           0.000000      0.000000      0.000000 electrons x Angstroem
 Tr[quadrupol]      -350.679512

 energy correction for charged system         0.000000 eV
 dipol+quadrupol energy correction           -0.000000 eV
 added-field ion interaction         -0.000000 eV  (added to PSCEN)


 Broyden mixing:
  rms(total) = 0.77683E-03    rms(broyden)= 0.77682E-03
  rms(prec ) = 0.78780E-03
  weight for this iteration     100.00

 eigenvalues of (default mixing * dielectric matrix)
  average eigenvalue GAMMA=   1.1453
  2.6953  1.1782  1.1782  0.6104  0.6104  0.5992

 Free energy of the ion-electron system (eV)
  ---------------------------------------------------
  alpha Z        PSCENC =        27.18754189
  Ewald energy   TEWEN  =      6066.89088904
  -Hartree energ DENC   =     -8751.22616529
  -exchange      EXHF   =         0.00000000
  -V(xc)+E(xc)   XCENC  =        86.14204426
  PAW double counting   =      3688.02518456    -3650.80622326
  entropy T*S    EENTRO =        -0.00000000
  eigenvalues    EBANDS =      -517.35391221
  atomic energy  EATOM  =      3012.07006103
  Solvation  Ediel_sol  =         0.00000000
  ---------------------------------------------------
  free energy    TOTEN  =       -39.07057997 eV

  energy without entropy =      -39.07057997  energy(sigma->0) =      -39.07057997


--------------------------------------------------------------------------------------------------------




--------------------------------------- Iteration      3(   8)  ---------------------------------------


    POTLOK:  cpu time      0.3432: real time      3.7885
    SETDIJ:  cpu time      0.1708: real time      1.8915
     EDDAV:  cpu time     25.6121: real time    283.0810
       DOS:  cpu time      0.0438: real time      0.4840
    CHARGE:  cpu time      1.2178: real time     13.4625
    MIXING:  cpu time      0.1787: real time      1.9775
    --------------------------------------------
      LOOP:  cpu time     27.5665: real time    304.6850

 eigenvalue-minimisations  :   468
 total energy-change (2. order) :-0.1673465E-05  (-0.3762554E-07)
 number of electron      54.0000002 magnetization       5.9999998
 augmentation part       -0.5327807 magnetization       4.0874248

 DIPCOR: dipole corrections for dipol
 direction  3 min pos     1,
 dipolmoment           0.000000      0.000000      0.000000 electrons x Angstroem
 Tr[quadrupol]      -350.679365

 energy correction for charged system         0.000000 eV
 dipol+quadrupol energy correction           -0.000000 eV
 added-field ion interaction          0.000000 eV  (added to PSCEN)


 Broyden mixing:
  rms(total) = 0.56803E-03    rms(broyden)= 0.56803E-03
  rms(prec ) = 0.57454E-03
  weight for this iteration     100.00

 eigenvalues of (default mixing * dielectric matrix)
  average eigenvalue GAMMA=   1.1841
  2.8779  1.3828  1.3828  0.5644  0.5644  0.7581  0.7581

 Free energy of the ion-electron system (eV)
  ---------------------------------------------------
  alpha Z        PSCENC =        27.18754189
  Ewald energy   TEWEN  =      6066.89088904
  -Hartree energ DENC   =     -8751.22371874
  -exchange      EXHF   =         0.00000000
  -V(xc)+E(xc)   XCENC  =        86.14213631
  PAW double counting   =      3687.90421451    -3650.68505063
  entropy T*S    EENTRO =        -0.00000000
  eigenvalues    EBANDS =      -517.35665506
  atomic energy  EATOM  =      3012.07006103
  Solvation  Ediel_sol  =         0.00000000
  ---------------------------------------------------
  free energy    TOTEN  =       -39.07058165 eV

  energy without entropy =      -39.07058165  energy(sigma->0) =      -39.07058165


--------------------------------------------------------------------------------------------------------




--------------------------------------- Iteration      3(   9)  ---------------------------------------


    POTLOK:  cpu time      0.3509: real time      3.8725
    SETDIJ:  cpu time      0.1748: real time      1.9345
     EDDAV:  cpu time     25.3595: real time    280.2640
       DOS:  cpu time      0.0518: real time      0.5720
    CHARGE:  cpu time      1.1805: real time     13.0464
    MIXING:  cpu time      0.1310: real time      1.4526
    --------------------------------------------
      LOOP:  cpu time     27.2485: real time    301.1420

 eigenvalue-minimisations  :   444
 total energy-change (2. order) :-0.1913308E-05  (-0.1568431E-07)
 number of electron      54.0000002 magnetization       5.9999998
 augmentation part       -0.5327923 magnetization       4.0874155

 DIPCOR: dipole corrections for dipol
 direction  3 min pos     1,
 dipolmoment           0.000000      0.000000      0.000000 electrons x Angstroem
 Tr[quadrupol]      -350.679194

 energy correction for charged system         0.000000 eV
 dipol+quadrupol energy correction           -0.000000 eV
 added-field ion interaction         -0.000000 eV  (added to PSCEN)


 Broyden mixing:
  rms(total) = 0.43230E-03    rms(broyden)= 0.43230E-03
  rms(prec ) = 0.43682E-03
  weight for this iteration     100.00

 eigenvalues of (default mixing * dielectric matrix)
  average eigenvalue GAMMA=   1.2229
  2.9583  1.6890  1.6890  0.8741  0.8741  0.5774  0.5774  0.5443

 Free energy of the ion-electron system (eV)
  ---------------------------------------------------
  alpha Z        PSCENC =        27.18754189
  Ewald energy   TEWEN  =      6066.89088904
  -Hartree energ DENC   =     -8751.22120968
  -exchange      EXHF   =         0.00000000
  -V(xc)+E(xc)   XCENC  =        86.14218547
  PAW double counting   =      3687.76887544    -3650.54983739
  entropy T*S    EENTRO =        -0.00000000
  eigenvalues    EBANDS =      -517.35908935
  atomic energy  EATOM  =      3012.07006103
  Solvation  Ediel_sol  =         0.00000000
  ---------------------------------------------------
  free energy    TOTEN  =       -39.07058356 eV

  energy without entropy =      -39.07058356  energy(sigma->0) =      -39.07058356


--------------------------------------------------------------------------------------------------------




--------------------------------------- Iteration      3(  10)  ---------------------------------------


    POTLOK:  cpu time      0.3269: real time      3.6035
    SETDIJ:  cpu time      0.1747: real time      1.9345
     EDDAV:  cpu time     25.7658: real time    284.8380
       DOS:  cpu time      0.0468: real time      0.5200
    CHARGE:  cpu time      1.1274: real time     12.4348
    MIXING:  cpu time      0.1534: real time      1.7141
    --------------------------------------------
      LOOP:  cpu time     27.5950: real time    305.0450

 eigenvalue-minimisations  :   448
 total energy-change (2. order) :-0.1962931E-05  (-0.2148009E-07)
 number of electron      54.0000002 magnetization       5.9999998
 augmentation part       -0.5327467 magnetization       4.0874344

 DIPCOR: dipole corrections for dipol
 direction  3 min pos     1,
 dipolmoment           0.000000      0.000000      0.000000 electrons x Angstroem
 Tr[quadrupol]      -350.679037

 energy correction for charged system         0.000000 eV
 dipol+quadrupol energy correction           -0.000000 eV
 added-field ion interaction         -0.000000 eV  (added to PSCEN)


 Broyden mixing:
  rms(total) = 0.16368E-03    rms(broyden)= 0.16367E-03
  rms(prec ) = 0.16578E-03
  weight for this iteration     100.00

 eigenvalues of (default mixing * dielectric matrix)
  average eigenvalue GAMMA=   1.2049
  3.0055  1.7577  1.7577  0.9670  0.9670  0.6017  0.6017  0.6274  0.5587

 Free energy of the ion-electron system (eV)
  ---------------------------------------------------
  alpha Z        PSCENC =        27.18754189
  Ewald energy   TEWEN  =      6066.89088904
  -Hartree energ DENC   =     -8751.21824328
  -exchange      EXHF   =         0.00000000
  -V(xc)+E(xc)   XCENC  =        86.14215607
  PAW double counting   =      3687.66226787    -3650.44318207
  entropy T*S    EENTRO =        -0.00000000
  eigenvalues    EBANDS =      -517.36207607
  atomic energy  EATOM  =      3012.07006103
  Solvation  Ediel_sol  =         0.00000000
  ---------------------------------------------------
  free energy    TOTEN  =       -39.07058552 eV

  energy without entropy =      -39.07058552  energy(sigma->0) =      -39.07058552


--------------------------------------------------------------------------------------------------------




--------------------------------------- Iteration      3(  11)  ---------------------------------------


    POTLOK:  cpu time      0.3425: real time      3.7844
    SETDIJ:  cpu time      0.1727: real time      1.8936
     EDDAV:  cpu time     25.7286: real time    284.3980
       DOS:  cpu time      0.0478: real time      0.5320
    --------------------------------------------
      LOOP:  cpu time     26.2917: real time    290.6080

 eigenvalue-minimisations  :   460
 total energy-change (2. order) :-0.7173858E-06  (-0.1008144E-07)
 number of electron      54.0000002 magnetization       5.9999998
 augmentation part       -0.5327467 magnetization       4.0874344

 DIPCOR: dipole corrections for dipol
 direction  3 min pos     1,
 dipolmoment           0.000000      0.000000      0.000000 electrons x Angstroem
 Tr[quadrupol]      -350.678969

 energy correction for charged system         0.000000 eV
 dipol+quadrupol energy correction           -0.000000 eV
 added-field ion interaction          0.000000 eV  (added to PSCEN)


 Free energy of the ion-electron system (eV)
  ---------------------------------------------------
  alpha Z        PSCENC =        27.18754189
  Ewald energy   TEWEN  =      6066.89088904
  -Hartree energ DENC   =     -8751.21647122
  -exchange      EXHF   =         0.00000000
  -V(xc)+E(xc)   XCENC  =        86.14214863
  PAW double counting   =      3687.65956817    -3650.44047831
  entropy T*S    EENTRO =        -0.00000000
  eigenvalues    EBANDS =      -517.36384547
  atomic energy  EATOM  =      3012.07006103
  Solvation  Ediel_sol  =         0.00000000
  ---------------------------------------------------
  free energy    TOTEN  =       -39.07058624 eV

  energy without entropy =      -39.07058624  energy(sigma->0) =      -39.07058624


--------------------------------------------------------------------------------------------------------




 average (electrostatic) potential at core
  the test charge radii are     1.1394  0.9406
  (the norm of the test charge is              1.0000)
       1 -52.8898       2 -52.8898       3 -99.3073       4 -99.3073       5 -99.3073
       6 -99.3073       7 -99.3073       8 -99.3073
 
 
 
 E-fermi :  -4.1740     XC(G=0):  -2.9380     alpha+bet : -2.3820

 val. band max:       -4.4137037984   @ k =   0.4000   0.0000   0.0000
 cond. band min:      -2.6317805246   @ k =   0.4000   0.2000   0.0000
 fundamental gap:      1.7819232738
 Fermi energy:        -4.1739517703

 spin component 1

 k-point     1 :       0.0000    0.0000    0.0000
  band No.  band energies     occupation 
      1     -19.6248      1.00000
      2     -18.8021      1.00000
      3     -18.6493      1.00000
      4     -18.6493      1.00000
      5     -18.5416      1.00000
      6     -18.5416      1.00000
      7      -9.3247      1.00000
      8      -8.9144      1.00000
      9      -8.4329      1.00000
     10      -8.4329      1.00000
     11      -8.4048      1.00000
     12      -8.4048      1.00000
     13      -7.9634      1.00000
     14      -7.9440      1.00000
     15      -7.9440      1.00000
     16      -7.2969      1.00000
     17      -7.2117      1.00000
     18      -7.2117      1.00000
     19      -6.4547      1.00000
     20      -6.1177      1.00000
     21      -6.0247      1.00000
     22      -6.0247      1.00000
     23      -5.6796      1.00000
     24      -5.6796      1.00000
     25      -5.2082      1.00000
     26      -4.8704      1.00000
     27      -4.8704      1.00000
     28      -4.7668      1.00000
     29      -4.6085      1.00000
     30      -4.6085      1.00000
     31      -2.5992      0.00000
     32      -2.5992      0.00000
     33      -2.3565      0.00000
     34      -2.3565      0.00000
     35       1.3577      0.00000
     36       1.9724      0.00000

 k-point     2 :       0.2000    0.0000    0.0000
  band No.  band energies     occupation 
      1     -19.5444      1.00000
      2     -18.7714      1.00000
      3     -18.7421      1.00000
      4     -18.6696      1.00000
      5     -18.5558      1.00000
      6     -18.5531      1.00000
      7      -9.3221      1.00000
      8      -8.8788      1.00000
      9      -8.4698      1.00000
     10      -8.4641      1.00000
     11      -8.4168      1.00000
     12      -8.2403      1.00000
     13      -8.0553      1.00000
     14      -7.9206      1.00000
     15      -7.9171      1.00000
     16      -7.2503      1.00000
     17      -6.9958      1.00000
     18      -6.9652      1.00000
     19      -6.5052      1.00000
     20      -6.2915      1.00000
     21      -6.2435      1.00000
     22      -6.0930      1.00000
     23      -5.8512      1.00000
     24      -5.7731      1.00000
     25      -5.1322      1.00000
     26      -4.8999      1.00000
     27      -4.8504      1.00000
     28      -4.6872      1.00000
     29      -4.5866      1.00000
     30      -4.5213      1.00000
     31      -2.5976      0.00000
     32      -2.5779      0.00000
     33      -2.4888      0.00000
     34      -2.3864      0.00000
     35       1.7015      0.00000
     36       2.1833      0.00000

 k-point     3 :       0.4000    0.0000    0.0000
  band No.  band energies     occupation 
      1     -19.3446      1.00000
      2     -18.9610      1.00000
      3     -18.7090      1.00000
      4     -18.6849      1.00000
      5     -18.6020      1.00000
      6     -18.5798      1.00000
      7      -9.3138      1.00000
      8      -8.7809      1.00000
      9      -8.5195      1.00000
     10      -8.4562      1.00000
     11      -8.2996      1.00000
     12      -8.2221      1.00000
     13      -8.1161      1.00000
     14      -7.7764      1.00000
     15      -7.6105      1.00000
     16      -7.3861      1.00000
     17      -7.0514      1.00000
     18      -6.9227      1.00000
     19      -6.6825      1.00000
     20      -6.4811      1.00000
     21      -6.2376      1.00000
     22      -6.1893      1.00000
     23      -5.8141      1.00000
     24      -5.7409      1.00000
     25      -5.2016      1.00000
     26      -4.8863      1.00000
     27      -4.8847      1.00000
     28      -4.6417      1.00000
     29      -4.5830      1.00000
     30      -4.4137      1.00000
     31      -2.6197      0.00000
     32      -2.5733      0.00000
     33      -2.5002      0.00000
     34      -2.4753      0.00000
     35       2.5035      0.00000
     36       2.7233      0.00000

 k-point     4 :       0.2000    0.2000    0.0000
  band No.  band energies     occupation 
      1     -19.4000      1.00000
      2     -18.8849      1.00000
      3     -18.7287      1.00000
      4     -18.7058      1.00000
      5     -18.5777      1.00000
      6     -18.5759      1.00000
      7      -9.2327      1.00000
      8      -8.8704      1.00000
      9      -8.5373      1.00000
     10      -8.4526      1.00000
     11      -8.3963      1.00000
     12      -8.1474      1.00000
     13      -8.0984      1.00000
     14      -8.0181      1.00000
     15      -7.5047      1.00000
     16      -7.3378      1.00000
     17      -7.0734      1.00000
     18      -6.7850      1.00000
     19      -6.6186      1.00000
     20      -6.3071      1.00000
     21      -6.2766      1.00000
     22      -6.2447      1.00000
     23      -6.0096      1.00000
     24      -5.8187      1.00000
     25      -5.0833      1.00000
     26      -4.9098      1.00000
     27      -4.8349      1.00000
     28      -4.6431      1.00000
     29      -4.5435      1.00000
     30      -4.4908      1.00000
     31      -2.6026      0.00000
     32      -2.5920      0.00000
     33      -2.5410      0.00000
     34      -2.3986      0.00000
     35       2.2423      0.00000
     36       2.5507      0.00000

 k-point     5 :       0.4000    0.2000    0.0000
  band No.  band energies     occupation 
      1     -19.2247      1.00000
      2     -19.0571      1.00000
      3     -18.7517      1.00000
      4     -18.6473      1.00000
      5     -18.6251      1.00000
      6     -18.5901      1.00000
      7      -9.1392      1.00000
      8      -8.7997      1.00000
      9      -8.5782      1.00000
     10      -8.4714      1.00000
     11      -8.3550      1.00000
     12      -8.1324      1.00000
     13      -8.1319      1.00000
     14      -7.9327      1.00000
     15      -7.7686      1.00000
     16      -7.1912      1.00000
     17      -6.9867      1.00000
     18      -6.7586      1.00000
     19      -6.6866      1.00000
     20      -6.5286      1.00000
     21      -6.2040      1.00000
     22      -6.1191      1.00000
     23      -6.0149      1.00000
     24      -5.9206      1.00000
     25      -5.1281      1.00000
     26      -4.8245      1.00000
     27      -4.8116      1.00000
     28      -4.6235      1.00000
     29      -4.5916      1.00000
     30      -4.4756      1.00000
     31      -2.6318      0.00000
     32      -2.5588      0.00000
     33      -2.5562      0.00000
     34      -2.3769      0.00000
     35       2.8977      0.00000
     36       2.9051      0.00000
 Fermi energy:        -4.1739517703

 spin component 2

 k-point     1 :       0.0000    0.0000    0.0000
  band No.  band energies     occupation 
      1     -19.6017      1.00000
      2     -18.8164      1.00000
      3     -18.6630      1.00000
      4     -18.6630      1.00000
      5     -18.5523      1.00000
      6     -18.5523      1.00000
      7      -9.0760      1.00000
      8      -8.6214      1.00000
      9      -8.2199      1.00000
     10      -8.2199      1.00000
     11      -8.0943      1.00000
     12      -8.0943      1.00000
     13      -7.9124      1.00000
     14      -7.5183      1.00000
     15      -7.5183      1.00000
     16      -7.0527      1.00000
     17      -6.8709      1.00000
     18      -6.8709      1.00000
     19      -6.4083      1.00000
     20      -6.0995      1.00000
     21      -5.8109      1.00000
     22      -5.8109      1.00000
     23      -5.5923      1.00000
     24      -5.5923      1.00000
     25      -2.0682      0.00000
     26      -2.0682      0.00000
     27      -2.0272      0.00000
     28      -1.9473      0.00000
     29      -1.7673      0.00000
     30      -1.7673      0.00000
     31      -1.2219      0.00000
     32      -1.2219      0.00000
     33      -1.0836      0.00000
     34      -1.0836      0.00000
     35       1.4947      0.00000
     36       2.0163      0.00000

 k-point     2 :       0.2000    0.0000    0.0000
  band No.  band energies     occupation 
      1     -19.5237      1.00000
      2     -18.7853      1.00000
      3     -18.7519      1.00000
      4     -18.6836      1.00000
      5     -18.5658      1.00000
      6     -18.5640      1.00000
      7      -9.0779      1.00000
      8      -8.5963      1.00000
      9      -8.2600      1.00000
     10      -8.2272      1.00000
     11      -8.1393      1.00000
     12      -8.0000      1.00000
     13      -7.7219      1.00000
     14      -7.6048      1.00000
     15      -7.5293      1.00000
     16      -6.9400      1.00000
     17      -6.7364      1.00000
     18      -6.7327      1.00000
     19      -6.3690      1.00000
     20      -6.1301      1.00000
     21      -6.0532      1.00000
     22      -5.8524      1.00000
     23      -5.7753      1.00000
     24      -5.6623      1.00000
     25      -2.1659      0.00000
     26      -2.0336      0.00000
     27      -2.0042      0.00000
     28      -1.8323      0.00000
     29      -1.8133      0.00000
     30      -1.7498      0.00000
     31      -1.2247      0.00000
     32      -1.2236      0.00000
     33      -1.1792      0.00000
     34      -1.1054      0.00000
     35       1.8158      0.00000
     36       2.2317      0.00000

 k-point     3 :       0.4000    0.0000    0.0000
  band No.  band energies     occupation 
      1     -19.3298      1.00000
      2     -18.9626      1.00000
      3     -18.7218      1.00000
      4     -18.6996      1.00000
      5     -18.6136      1.00000
      6     -18.5888      1.00000
      7      -9.0585      1.00000
      8      -8.5203      1.00000
      9      -8.3612      1.00000
     10      -8.1990      1.00000
     11      -7.9703      1.00000
     12      -7.9306      1.00000
     13      -7.7857      1.00000
     14      -7.4593      1.00000
     15      -7.2853      1.00000
     16      -7.0848      1.00000
     17      -6.7978      1.00000
     18      -6.6140      1.00000
     19      -6.4707      1.00000
     20      -6.2985      1.00000
     21      -6.1939      1.00000
     22      -5.9399      1.00000
     23      -5.7437      1.00000
     24      -5.6177      1.00000
     25      -2.2387      0.00000
     26      -2.2097      0.00000
     27      -1.9654      0.00000
     28      -1.8436      0.00000
     29      -1.7028      0.00000
     30      -1.6868      0.00000
     31      -1.2937      0.00000
     32      -1.2336      0.00000
     33      -1.1684      0.00000
     34      -1.1279      0.00000
     35       2.5846      0.00000
     36       2.7858      0.00000

 k-point     4 :       0.2000    0.2000    0.0000
  band No.  band energies     occupation 
      1     -19.3838      1.00000
      2     -18.8883      1.00000
      3     -18.7413      1.00000
      4     -18.7205      1.00000
      5     -18.5892      1.00000
      6     -18.5854      1.00000
      7      -8.9912      1.00000
      8      -8.5923      1.00000
      9      -8.3009      1.00000
     10      -8.2834      1.00000
     11      -8.0734      1.00000
     12      -7.8585      1.00000
     13      -7.8107      1.00000
     14      -7.6055      1.00000
     15      -7.2163      1.00000
     16      -7.0567      1.00000
     17      -6.7653      1.00000
     18      -6.5966      1.00000
     19      -6.4411      1.00000
     20      -6.2687      1.00000
     21      -6.0083      1.00000
     22      -5.9608      1.00000
     23      -5.7685      1.00000
     24      -5.7577      1.00000
     25      -2.1845      0.00000
     26      -2.1819      0.00000
     27      -1.9395      0.00000
     28      -1.9113      0.00000
     29      -1.7266      0.00000
     30      -1.6998      0.00000
     31      -1.2821      0.00000
     32      -1.1884      0.00000
     33      -1.1650      0.00000
     34      -1.1435      0.00000
     35       2.3338      0.00000
     36       2.6116      0.00000

 k-point     5 :       0.4000    0.2000    0.0000
  band No.  band energies     occupation 
      1     -19.2137      1.00000
      2     -19.0540      1.00000
      3     -18.7652      1.00000
      4     -18.6610      1.00000
      5     -18.6364      1.00000
      6     -18.5997      1.00000
      7      -8.8879      1.00000
      8      -8.5536      1.00000
      9      -8.3291      1.00000
     10      -8.2223      1.00000
     11      -8.1157      1.00000
     12      -7.8496      1.00000
     13      -7.7934      1.00000
     14      -7.5385      1.00000
     15      -7.4704      1.00000
     16      -6.9692      1.00000
     17      -6.8171      1.00000
     18      -6.5493      1.00000
     19      -6.3493      1.00000
     20      -6.3030      1.00000
     21      -6.0691      1.00000
     22      -5.9660      1.00000
     23      -5.7695      1.00000
     24      -5.7270      1.00000
     25      -2.2345      0.00000
     26      -2.2289      0.00000
     27      -1.9612      0.00000
     28      -1.9381      0.00000
     29      -1.6929      0.00000
     30      -1.6805      0.00000
     31      -1.2600      0.00000
     32      -1.2049      0.00000
     33      -1.1518      0.00000
     34      -1.1141      0.00000
     35       3.0192      0.00000
     36       3.1005      0.00000


--------------------------------------------------------------------------------------------------------


 soft charge-density along one line, spin component            1
         0         1         2         3         4         5         6         7         8         9
 total charge-density along one line
 
 soft charge-density along one line, spin component            2
         0         1         2         3         4         5         6         7         8         9
 total charge-density along one line
 
 pseudopotential strength for first ion, spin component:            1
 -9.743   0.199  -0.000   0.000   0.000 -10.067   0.192  -0.000
  0.199  -9.604  -0.000   0.000  -0.000   0.192  -9.933  -0.000
 -0.000  -0.000  -9.889  -0.000   0.000  -0.000  -0.000 -10.209
  0.000   0.000  -0.000  -9.604  -0.199   0.000   0.000  -0.000
  0.000  -0.000   0.000  -0.199  -9.743   0.000  -0.000   0.000
-10.067   0.192  -0.000   0.000   0.000 -10.355   0.185  -0.000
  0.192  -9.933  -0.000   0.000  -0.000   0.185 -10.225  -0.000
 -0.000  -0.000 -10.209  -0.000   0.000  -0.000  -0.000 -10.491
  0.000   0.000  -0.000  -9.933  -0.192   0.000   0.000  -0.000
  0.000  -0.000   0.000  -0.192 -10.067   0.000  -0.000   0.000
 -0.000  -0.000   0.000  -0.000   0.000  -0.000  -0.000   0.000
 -0.000  -0.000   0.001  -0.000   0.000  -0.000  -0.000   0.001
 -0.000  -0.000  -0.000   0.000  -0.002  -0.000  -0.000  -0.000
  0.000   0.000   0.000  -0.000   0.000   0.000   0.000   0.000
 -0.002   0.000   0.000   0.000  -0.000  -0.002   0.000   0.000
 -0.000  -0.000  -0.000   0.000  -0.002  -0.000  -0.000  -0.000
  0.000   0.000   0.000  -0.000   0.000   0.000   0.000   0.000
 -0.002   0.000   0.000   0.000  -0.000  -0.002   0.000   0.000
 pseudopotential strength for first ion, spin component:            2
 -8.065  -0.261   0.000   0.000   0.000  -8.445  -0.252   0.000
 -0.261  -8.253  -0.000  -0.000  -0.000  -0.252  -8.627  -0.000
  0.000  -0.000  -7.884  -0.000  -0.000   0.000  -0.000  -8.270
  0.000  -0.000  -0.000  -8.253   0.261   0.000  -0.000  -0.000
  0.000  -0.000  -0.000   0.261  -8.065   0.000  -0.000  -0.000
 -8.445  -0.252   0.000   0.000   0.000  -8.787  -0.243   0.000
 -0.252  -8.627  -0.000  -0.000  -0.000  -0.243  -8.963  -0.000
  0.000  -0.000  -8.270  -0.000  -0.000   0.000  -0.000  -8.618
  0.000  -0.000  -0.000  -8.627   0.252   0.000  -0.000  -0.000
  0.000  -0.000  -0.000   0.252  -8.445   0.000  -0.000  -0.000
  0.000  -0.000  -0.000  -0.000  -0.000   0.000  -0.000  -0.000
  0.000  -0.000  -0.001  -0.000  -0.000   0.000  -0.000  -0.001
  0.000  -0.000   0.000   0.000  -0.000   0.000  -0.000   0.000
  0.000  -0.000   0.000   0.000   0.000   0.000  -0.000   0.000
 -0.000   0.000  -0.000   0.000   0.000  -0.001   0.000  -0.000
  0.000  -0.000   0.000   0.000   0.000   0.000  -0.000   0.000
  0.000  -0.000   0.000   0.000   0.000   0.000  -0.000   0.000
  0.000   0.000  -0.000   0.000   0.000  -0.000   0.000  -0.000
 total augmentation occupancy for first ion, spin component:            1
  3.842  -1.334   0.000   0.000   0.000  -2.846   0.145   0.000   0.000   0.000   0.000   0.000   0.000  -0.000   0.094   0.000
 -1.334   2.798   0.000   0.000   0.000   0.144  -2.627   0.000   0.000   0.000   0.000   0.000   0.000   0.000  -0.034   0.000
  0.000  -0.000   4.640  -0.000  -0.000   0.000   0.000  -2.792   0.000   0.000   0.070  -0.010  -0.000   0.000   0.000   0.000
  0.000   0.000  -0.000   2.798   1.334  -0.000   0.000   0.000  -2.627  -0.144  -0.000   0.000   0.034  -0.000   0.000  -0.000
  0.000   0.000  -0.000   1.334   3.842   0.000   0.000   0.000  -0.145  -2.846  -0.000   0.000   0.094   0.000   0.000  -0.004
 -2.846   0.144   0.000   0.000   0.000   2.803   0.787   0.000   0.000   0.000   0.000   0.000   0.000   0.000  -0.103   0.000
  0.145  -2.627  -0.000   0.000   0.000   0.787   3.227  -0.000   0.000   0.000   0.000   0.000   0.000   0.000   0.028  -0.000
 -0.000  -0.000  -2.792   0.000   0.000   0.000   0.000   2.073   0.000  -0.000  -0.077   0.013   0.000   0.000  -0.000  -0.000
  0.000   0.000   0.000  -2.627  -0.145   0.000   0.000   0.000   3.227  -0.787  -0.000  -0.000  -0.028  -0.000   0.000   0.000
  0.000   0.000   0.000  -0.144  -2.846   0.000   0.000  -0.000  -0.787   2.803   0.000   0.000  -0.103   0.000   0.000   0.004
  0.000   0.000   0.070   0.000  -0.000  -0.000   0.000  -0.077   0.000   0.000   1.827  -0.218   0.000  -0.000   0.000   0.000
  0.000   0.000  -0.010  -0.000  -0.000   0.000  -0.000   0.013  -0.000   0.000  -0.218   0.034  -0.000  -0.000  -0.000   0.000
  0.000   0.000  -0.000   0.034   0.094   0.000   0.000   0.000  -0.028  -0.103   0.000   0.000   0.282   0.000   0.000  -0.008
 -0.000  -0.000   0.000   0.000  -0.000   0.000   0.000   0.000   0.000   0.000  -0.000   0.000   0.000   0.273   0.000   0.000
  0.094  -0.034  -0.000   0.000   0.000  -0.103   0.028   0.000   0.000   0.000   0.000   0.000   0.000   0.000   0.282   0.000
  0.000   0.000   0.000  -0.000  -0.004   0.000   0.000  -0.000   0.000   0.004   0.000  -0.000  -0.008   0.000   0.000   0.000
  0.000  -0.000  -0.000   0.000   0.000   0.000  -0.000  -0.000   0.000   0.000   0.000   0.000  -0.000  -0.007  -0.000   0.000
 -0.004   0.000   0.000  -0.000   0.000   0.004  -0.000   0.000   0.000   0.000   0.000   0.000   0.000  -0.000  -0.008   0.000
 total augmentation occupancy for first ion, spin component:            2
  2.618  -2.173  -0.000   0.000   0.000  -1.170   1.278  -0.000   0.000   0.000  -0.000  -0.000   0.000  -0.000   0.013   0.000
 -2.173   1.082   0.000   0.000   0.000   1.277  -0.272   0.000   0.000   0.000   0.000   0.000   0.000   0.000  -0.026   0.000
  0.000   0.000   4.093  -0.000  -0.000   0.000   0.000  -2.028   0.000   0.000  -0.005   0.003  -0.000   0.000  -0.000  -0.000
  0.000   0.000  -0.000   1.082   2.173   0.000   0.000   0.000  -0.272  -1.277   0.000   0.000   0.026   0.000   0.000  -0.000
  0.000   0.000  -0.000   2.173   2.618   0.000   0.000   0.000  -1.278  -1.170   0.000   0.000   0.013   0.000   0.000   0.000
 -1.170   1.277   0.000   0.000   0.000   0.459  -0.798   0.000   0.000   0.000   0.000   0.000  -0.000   0.000  -0.004   0.000
  1.278  -0.272  -0.000   0.000   0.000  -0.798  -0.095  -0.000   0.000   0.000   0.000  -0.000   0.000  -0.000   0.013   0.000
  0.000   0.000  -2.028   0.000   0.000   0.000  -0.000   0.999  -0.000  -0.000   0.010  -0.002   0.000   0.000   0.000   0.000
  0.000   0.000   0.000  -0.272  -1.278   0.000   0.000  -0.000  -0.095   0.798  -0.000   0.000  -0.013   0.000   0.000   0.000
  0.000   0.000   0.000  -1.277  -1.170   0.000   0.000  -0.000   0.798   0.459  -0.000   0.000  -0.004  -0.000   0.000  -0.001
 -0.000  -0.000  -0.005   0.000   0.000   0.000   0.000   0.010  -0.000  -0.000  -0.042   0.049  -0.000  -0.000   0.000   0.000
  0.000   0.000   0.003   0.000  -0.000  -0.000   0.000  -0.002   0.000   0.000   0.049  -0.009  -0.000   0.000   0.000   0.000
  0.000   0.000  -0.000   0.026   0.013   0.000   0.000   0.000  -0.013  -0.004  -0.000   0.000   0.017   0.000   0.000   0.002
 -0.000   0.000   0.000   0.000   0.000   0.000   0.000  -0.000   0.000   0.000   0.000   0.000   0.000   0.014   0.000   0.000
  0.013  -0.026   0.000   0.000   0.000  -0.004   0.013  -0.000   0.000   0.000   0.000   0.000   0.000  -0.000   0.017   0.000
  0.000   0.000   0.000  -0.000   0.000   0.000   0.000   0.000   0.000  -0.001   0.000   0.000   0.002  -0.000   0.000  -0.000
 -0.000  -0.000   0.000   0.000   0.000   0.000   0.000  -0.000  -0.000   0.000  -0.000   0.000   0.000   0.001  -0.000  -0.000
  0.000   0.000  -0.000   0.000   0.000  -0.001  -0.000  -0.000   0.000   0.000   0.000   0.000   0.000  -0.000   0.002   0.000


------------------------ aborting loop because EDIFF is reached ----------------------------------------


    CHARGE:  cpu time      1.1504: real time     12.7084
    FORLOC:  cpu time      0.0075: real time      0.0875
    FORNL :  cpu time      1.9952: real time     22.0490
    STRESS:  cpu time      6.0512: real time     66.8573
    FORCOR:  cpu time      0.1988: real time      2.1977
    FORHAR:  cpu time      0.0478: real time      0.5280
    MIXING:  cpu time      0.1742: real time      1.9210
    OFIELD:  cpu time      0.0000: real time      0.0000

 ---------------------------------------------------------------------------------------------

         DFTD3 V3.0 Rev 1        
 Edisp (eV)   -0.91353

 E6    (eV) :    -0.3569
 E8    (eV) :    -0.5566
 % E8        : 60.93
    FORVDW:  cpu time      0.0057: real time      0.0457

  FORCE on cell =-STRESS in cart. coord.  units (eV):
  Direction    XX          YY          ZZ          XY          YZ          ZX
  --------------------------------------------------------------------------------------
  Alpha Z    27.18754    27.18754    27.18754
  Ewald    7752.19678  7752.19678 -9437.50508    -0.00000     0.00000     0.00000
  Hartree  8368.73758  8368.73758 -7986.27638    -0.00000    -0.00000     0.00000
  E(xc)    -209.30442  -209.30443  -209.60164    -0.00000    -0.00000    -0.00000
  Local  -17147.72699-17147.72689 16393.34152     0.00009     0.00000     0.00000
  n-local   477.22247   477.47584   476.44754    -0.43917     0.06591     0.00603
  augment   -58.83251   -58.83260   -59.05094    -0.00007     0.00000     0.00000
  Kinetic   790.38492   790.01657   795.17188     0.43941    -0.26474     0.07438
  Fock        0.00000     0.00000     0.00000     0.00000     0.00000     0.00000
  vdW        -0.75195    -0.75195     0.00121    -0.00000     0.00000    -0.00000
  -------------------------------------------------------------------------------------
  Total      -0.94406    -0.94406    -0.28435     0.00000     0.00000    -0.00000
  in kB      -2.38876    -2.38876    -0.71950     0.00000     0.00000    -0.00000
  external pressure =       -1.83 kB  Pullay stress =        0.00 kB


 VOLUME and BASIS-vectors are now :
 -----------------------------------------------------------------------------
  energy-cutoff  :      400.00
  volume of cell :      633.19
      direct lattice vectors                 reciprocal lattice vectors
     6.046274499  0.000000000  0.000000000     0.165391102  0.095488597 -0.000000000
    -3.023137249  5.236227314  0.000000000     0.000000000  0.190977194  0.000000000
     0.000000000  0.000000000 20.000000000     0.000000000 -0.000000000  0.050000000

  length of vectors
     6.046274499  6.046274499 20.000000000     0.190977194  0.190977194  0.050000000


 FORCES acting on ions
    electron-ion (+dipol)            ewald-force                    non-local-force                 convergence-correction
 -----------------------------------------------------------------------------------------------
   0.376E-06 -.217E-06 0.123E-11   -.517E-11 0.297E-11 -.949E-13   0.130E-17 0.434E-18 0.132E-22   0.135E-09 -.779E-10 0.759E-12
   -.376E-06 0.217E-06 -.125E-10   0.512E-11 -.298E-11 -.668E-13   -.434E-18 -.130E-17 -.298E-22   -.135E-09 0.779E-10 0.772E-12
   0.710E+02 0.905E-06 0.481E+03   -.730E+02 -.339E-11 -.483E+03   0.204E+01 0.651E-18 0.297E+01   -.454E-03 0.120E-06 0.356E-03
   -.355E+02 0.615E+02 0.481E+03   0.365E+02 -.633E+02 -.483E+03   -.102E+01 0.177E+01 0.297E+01   0.227E-03 -.393E-03 0.356E-03
   -.355E+02 -.615E+02 0.481E+03   0.365E+02 0.633E+02 -.483E+03   -.102E+01 -.177E+01 0.297E+01   0.227E-03 0.393E-03 0.356E-03
   -.710E+02 -.905E-06 -.481E+03   0.730E+02 0.338E-11 0.483E+03   -.204E+01 -.217E-18 -.297E+01   0.454E-03 -.120E-06 -.356E-03
   0.355E+02 -.615E+02 -.481E+03   -.365E+02 0.633E+02 0.483E+03   0.102E+01 -.177E+01 -.297E+01   -.227E-03 0.393E-03 -.356E-03
   0.355E+02 0.615E+02 -.481E+03   -.365E+02 -.633E+02 0.483E+03   0.102E+01 0.177E+01 -.297E+01   -.227E-03 -.393E-03 -.356E-03
 -----------------------------------------------------------------------------------------------
   0.124E-11 -.882E-12 -.440E-10   0.213E-13 -.711E-14 -.568E-13   0.444E-15 0.000E+00 -.444E-15   -.518E-14 -.117E-13 0.629E-11
 
 
 POSITION                                       TOTAL-FORCE (eV/Angst)
 -----------------------------------------------------------------------------------
      0.00000      3.49082     10.00000         0.000000      0.000000      0.000000
      3.02314      1.74541     10.00000        -0.000000     -0.000000     -0.000000
      2.16503      0.00000      8.66470        -0.003315     -0.000000      0.022259
     -1.08251      1.87497      8.66470         0.001657     -0.002871      0.022259
      1.94062      3.36126      8.66470         0.001657      0.002871      0.022259
      3.88125      0.00000     11.33530         0.003315      0.000000     -0.022259
     -1.94062      3.36126     11.33530        -0.001657      0.002871     -0.022259
      1.08251      1.87497     11.33530        -0.001657     -0.002871     -0.022259
 -----------------------------------------------------------------------------------
    total drift:                                0.000000     -0.000000     -0.000000


--------------------------------------------------------------------------------------------------------



  FREE ENERGIE OF THE ION-ELECTRON SYSTEM (eV)
  ---------------------------------------------------
  free  energy   TOTEN  =       -39.98411643 eV

  energy  without entropy=      -39.98411643  energy(sigma->0) =      -39.98411643
 d Force = 0.5776050E-03[ 0.153E-03, 0.100E-02]  d Energy = 0.5770459E-03 0.559E-06
 d Force = 0.1520472E+01[ 0.151E+01, 0.153E+01]  d Ewald  = 0.1520508E+01-0.356E-04
 


--------------------------------------------------------------------------------------------------------


    POTLOK:  cpu time      0.5040: real time      5.5832


--------------------------------------------------------------------------------------------------------




--------------------------------------------------------------------------------------------------------


  
 reached required accuracy - stopping structural energy minimisation
     LOOP+:  cpu time    369.2773: real time   4081.9269
 vacuum level on the upper side and lower side of the slab         2.180         2.180
    4ORBIT:  cpu time      0.0000: real time      0.0000

 total amount of memory used by VASP MPI-rank0    54961. kBytes
=======================================================================

   base                                    :      30000. kBytes
   nonlr-proj                              :       1704. kBytes
   fftplans                                :       5464. kBytes
   grid                                    :      13504. kBytes
   one-center                              :         62. kBytes
   wavefun                                 :       4227. kBytes
 
  
  
 General timing and accounting informations for this job:
 ========================================================
  
                  Total CPU time used (sec):     1569.597
                            User time (sec):     1569.318
                          System time (sec):        0.279
                         Elapsed time (sec):    16807.305
  
                   Maximum memory used (kb):      203212.
                   Average memory used (kb):          N/A
  
                          Minor page faults:       130150
                          Major page faults:            2
                 Voluntary context switches:         1691
