       N       E                     dE             d eps       ncg     rms          rms(c)
DAV:   1     0.207344803899E+04    0.20734E+04   -0.61385E+04  2952   0.915E+02
DAV:   2     0.407405778592E+03   -0.16660E+04   -0.15471E+04  3520   0.246E+02
DAV:   3    -0.127803507711E+03   -0.53521E+03   -0.51951E+03  4112   0.139E+02
DAV:   4    -0.172106503537E+03   -0.44303E+02   -0.43626E+02  4432   0.570E+01
DAV:   5    -0.172975832332E+03   -0.86933E+00   -0.85045E+00  4408   0.100E+01    0.408E+01
DAV:   6    -0.162500532156E+03    0.10475E+02   -0.14714E+02  4288   0.622E+01    0.419E+01
DAV:   7    -0.155983295998E+03    0.65172E+01   -0.23097E+01  4200   0.556E+01    0.199E+01
DAV:   8    -0.156470788796E+03   -0.48749E+00   -0.55312E+00  3744   0.559E+00    0.921E+00
DAV:   9    -0.156205378990E+03    0.26541E+00   -0.11208E+00  4304   0.835E+00    0.282E+00
DAV:  10    -0.156211952463E+03   -0.65735E-02   -0.24091E-01  4248   0.243E+00    0.131E+00
DAV:  11    -0.156225257385E+03   -0.13305E-01   -0.15793E-02  4112   0.834E-01    0.538E-01
DAV:  12    -0.156248009150E+03   -0.22752E-01   -0.73787E-03  4080   0.304E-01    0.285E-01
DAV:  13    -0.156260292287E+03   -0.12283E-01   -0.81358E-04  3800   0.110E-01    0.116E-01
DAV:  14    -0.156268223817E+03   -0.79315E-02   -0.24849E-04  3928   0.485E-02    0.791E-02
DAV:  15    -0.156275801002E+03   -0.75772E-02   -0.14860E-04  3272   0.265E-02    0.366E-02
DAV:  16    -0.156281121667E+03   -0.53207E-02   -0.11553E-04  4088   0.448E-02    0.319E-02
DAV:  17    -0.156282615456E+03   -0.14938E-02   -0.18389E-05  3624   0.147E-02    0.207E-02
DAV:  18    -0.156286030275E+03   -0.34148E-02   -0.10946E-04  3024   0.194E-02    0.216E-02
DAV:  19    -0.156286433890E+03   -0.40362E-03   -0.14986E-05  3456   0.116E-02    0.853E-03
DAV:  20    -0.156286498905E+03   -0.65015E-04   -0.50700E-06  2848   0.597E-03    0.454E-03
DAV:  21    -0.156286603281E+03   -0.10438E-03   -0.15623E-06  2176   0.359E-03    0.370E-03
DAV:  22    -0.156286675993E+03   -0.72712E-04   -0.13039E-06  2176   0.224E-03    0.154E-03
DAV:  23    -0.156286708935E+03   -0.32942E-04   -0.46642E-07  1944   0.168E-03    0.129E-03
DAV:  24    -0.156286744324E+03   -0.35389E-04   -0.12865E-06  2144   0.220E-03    0.195E-03
DAV:  25    -0.156286753543E+03   -0.92191E-05   -0.17738E-07  1816   0.200E-03    0.105E-03
DAV:  26    -0.156286759364E+03   -0.58211E-05   -0.86089E-08  1616   0.675E-04    0.397E-04
DAV:  27    -0.156286769310E+03   -0.99456E-05   -0.99099E-08  1696   0.714E-04    0.742E-04
DAV:  28    -0.156286776086E+03   -0.67758E-05   -0.11810E-07  1768   0.685E-04    0.546E-04
DAV:  29    -0.156286779656E+03   -0.35703E-05   -0.83758E-08  1592   0.789E-04    0.463E-04
DAV:  30    -0.156286780716E+03   -0.10602E-05   -0.54107E-08  1608   0.627E-04    0.198E-04
DAV:  31    -0.156286781246E+03   -0.53041E-06   -0.33396E-08  1568   0.504E-04
   1 F= -.15628678E+03 E0= -.15628678E+03  d E =-.156287E+03  mag=    24.0000
