CrCl3 2x2 + Fe S1 top-Cl (D3, U=0) (a_2x
   1.00000000000000     
    12.0925489970493256    0.0000000000000000    0.0000000000000000
    -6.0462744985246628   10.4724546279527502    0.0000000000000000
     0.0000000000000000    0.0000000000000000   20.0000000000000000
   Cr   Cl   Fe
     8    24     1
Direct
     0.1634387393828959    0.3173547780670942    0.5074828672417426
     0.3330460522952056    0.1569100675327070    0.5042319690614441
     0.6669539477047939    0.3238640152374866    0.5042319690614441
     0.8338206722503865    0.1617716015603173    0.4995847826939501
     0.1661793277496135    0.8279509293099165    0.4995847826939501
     0.3325459170898288    0.6727529501034664    0.4955802969100258
     0.6674540829101705    0.8402070330136241    0.4955802969100258
     0.8365612606171050    0.6539160386842131    0.5074828672417426
     0.1811436385124224    0.4876205502074947    0.4417016232137883
     0.5000000000000000    0.1737146874874554    0.4366988213909529
     0.3245708189323763    0.3166803995376016    0.4418648353092249
     0.3057074867403494    0.4649208277081471    0.5886492947991134
     0.9957254497375307    0.3078892464465008    0.5709997361402227
     0.1718125972570554    0.1562581935564633    0.5702442923672516
     0.6754291810676240    0.4921095806052255    0.4418648353092249
     0.0008410568634026    0.1726400141282374    0.4351738277199461
     0.8232768505388981    0.3198883741017835    0.4362072446906705
     0.8281874027429448    0.4844455962994083    0.5702442923672516
     0.5000000000000000    0.3094134322664348    0.5725260993088249
     0.6762671603649998    0.1658237005415911    0.5672606467041480
     0.1767231494611023    0.9966115235628856    0.4362072446906705
     0.5000000000000000    0.6596429386695780    0.4399794094199392
     0.3164763272763790    0.8247525077966095    0.4267051168432675
     0.3237328396349995    0.9895565401765909    0.5672606467041480
     0.0042745502624695    0.8121637967089703    0.5709997361402227
     0.1800815321934223    0.6744724637234504    0.5656507779243433
     0.6835236727236215    0.0082761805202307    0.4267051168432675
     0.9991589431365977    0.6717989572648347    0.4351738277199461
     0.8188563614875773    0.8064769116950721    0.4417016232137883
     0.8199184678065777    0.9943909315300284    0.5656507779243433
     0.5000000000000000    0.8063197641640516    0.5721475930358182
     0.6942925132596511    0.6592133409677979    0.5886492947991134
     0.5000000000000000    0.6105420283929213    0.5552596468661155
 
  0.00000000E+00  0.00000000E+00  0.00000000E+00
  0.00000000E+00  0.00000000E+00  0.00000000E+00
  0.00000000E+00  0.00000000E+00  0.00000000E+00
  0.00000000E+00  0.00000000E+00  0.00000000E+00
  0.00000000E+00  0.00000000E+00  0.00000000E+00
  0.00000000E+00  0.00000000E+00  0.00000000E+00
  0.00000000E+00  0.00000000E+00  0.00000000E+00
  0.00000000E+00  0.00000000E+00  0.00000000E+00
  0.00000000E+00  0.00000000E+00  0.00000000E+00
  0.00000000E+00  0.00000000E+00  0.00000000E+00
  0.00000000E+00  0.00000000E+00  0.00000000E+00
  0.00000000E+00  0.00000000E+00  0.00000000E+00
  0.00000000E+00  0.00000000E+00  0.00000000E+00
  0.00000000E+00  0.00000000E+00  0.00000000E+00
  0.00000000E+00  0.00000000E+00  0.00000000E+00
  0.00000000E+00  0.00000000E+00  0.00000000E+00
  0.00000000E+00  0.00000000E+00  0.00000000E+00
  0.00000000E+00  0.00000000E+00  0.00000000E+00
  0.00000000E+00  0.00000000E+00  0.00000000E+00
  0.00000000E+00  0.00000000E+00  0.00000000E+00
  0.00000000E+00  0.00000000E+00  0.00000000E+00
  0.00000000E+00  0.00000000E+00  0.00000000E+00
  0.00000000E+00  0.00000000E+00  0.00000000E+00
  0.00000000E+00  0.00000000E+00  0.00000000E+00
  0.00000000E+00  0.00000000E+00  0.00000000E+00
  0.00000000E+00  0.00000000E+00  0.00000000E+00
  0.00000000E+00  0.00000000E+00  0.00000000E+00
  0.00000000E+00  0.00000000E+00  0.00000000E+00
  0.00000000E+00  0.00000000E+00  0.00000000E+00
  0.00000000E+00  0.00000000E+00  0.00000000E+00
  0.00000000E+00  0.00000000E+00  0.00000000E+00
  0.00000000E+00  0.00000000E+00  0.00000000E+00
  0.00000000E+00  0.00000000E+00  0.00000000E+00
