CrCl3 2x2 Clean Substrate (D3, U=0) (a_2
   1.0000000000000000     
    12.0925489970493256    0.0000000000000000    0.0000000000000000
    -6.0462744985246628   10.4724546279527502    0.0000000000000000
     0.0000000000000000    0.0000000000000000   20.0000000000000000
   Cr   Cl
     8    24
Direct
  0.1666666666666714  0.3333333333333286  0.5000000000000000
  0.3333333333333286  0.1666666666666714  0.5000000000000000
  0.6666666666666714  0.3333333333333286  0.5000000000000000
  0.8333333333333286  0.1666666666666714  0.5000000000000000
  0.1666666666666714  0.8333333333333286  0.5000000000000000
  0.3333333333333286  0.6666666666666714  0.5000000000000000
  0.6666666666666714  0.8333333333333286  0.5000000000000000
  0.8333333333333286  0.6666666666666714  0.5000000000000000
  0.1794202636465801  0.5000000000000000  0.4336354741894763
  0.5000000000000000  0.1794202636465801  0.4336354741894763
  0.3205797363534199  0.3205797363534199  0.4336354741894763
  0.3205797363534199  0.5000000000000000  0.5663645258105238
  0.0000000000000000  0.3205797363534199  0.5663645258105238
  0.1794202636465801  0.1794202636465801  0.5663645258105238
  0.6794202636465801  0.5000000000000000  0.4336354741894763
 -0.0000000000000000  0.1794202636465801  0.4336354741894763
  0.8205797363534199  0.3205797363534199  0.4336354741894763
  0.8205797363534199  0.5000000000000000  0.5663645258105238
  0.5000000000000000  0.3205797363534199  0.5663645258105238
  0.6794202636465801  0.1794202636465801  0.5663645258105238
  0.1794202636465801 -0.0000000000000000  0.4336354741894763
  0.5000000000000000  0.6794202636465801  0.4336354741894763
  0.3205797363534199  0.8205797363534199  0.4336354741894763
  0.3205797363534199 -0.0000000000000000  0.5663645258105238
  0.0000000000000000  0.8205797363534199  0.5663645258105238
  0.1794202636465801  0.6794202636465801  0.5663645258105238
  0.6794202636465801 -0.0000000000000000  0.4336354741894763
 -0.0000000000000000  0.6794202636465801  0.4336354741894763
  0.8205797363534199  0.8205797363534199  0.4336354741894763
  0.8205797363534199 -0.0000000000000000  0.5663645258105238
  0.5000000000000000  0.8205797363534199  0.5663645258105238
  0.6794202636465801  0.6794202636465801  0.5663645258105238

  0.00000000E+00  0.00000000E+00  0.00000000E+00
  0.00000000E+00  0.00000000E+00  0.00000000E+00
  0.00000000E+00  0.00000000E+00  0.00000000E+00
  0.00000000E+00  0.00000000E+00  0.00000000E+00
  0.00000000E+00  0.00000000E+00  0.00000000E+00
  0.00000000E+00  0.00000000E+00  0.00000000E+00
  0.00000000E+00  0.00000000E+00  0.00000000E+00
  0.00000000E+00  0.00000000E+00  0.00000000E+00
  0.00000000E+00  0.00000000E+00  0.00000000E+00
  0.00000000E+00  0.00000000E+00  0.00000000E+00
  0.00000000E+00  0.00000000E+00  0.00000000E+00
  0.00000000E+00  0.00000000E+00  0.00000000E+00
  0.00000000E+00  0.00000000E+00  0.00000000E+00
  0.00000000E+00  0.00000000E+00  0.00000000E+00
  0.00000000E+00  0.00000000E+00  0.00000000E+00
  0.00000000E+00  0.00000000E+00  0.00000000E+00
  0.00000000E+00  0.00000000E+00  0.00000000E+00
  0.00000000E+00  0.00000000E+00  0.00000000E+00
  0.00000000E+00  0.00000000E+00  0.00000000E+00
  0.00000000E+00  0.00000000E+00  0.00000000E+00
  0.00000000E+00  0.00000000E+00  0.00000000E+00
  0.00000000E+00  0.00000000E+00  0.00000000E+00
  0.00000000E+00  0.00000000E+00  0.00000000E+00
  0.00000000E+00  0.00000000E+00  0.00000000E+00
  0.00000000E+00  0.00000000E+00  0.00000000E+00
  0.00000000E+00  0.00000000E+00  0.00000000E+00
  0.00000000E+00  0.00000000E+00  0.00000000E+00
  0.00000000E+00  0.00000000E+00  0.00000000E+00
  0.00000000E+00  0.00000000E+00  0.00000000E+00
  0.00000000E+00  0.00000000E+00  0.00000000E+00
  0.00000000E+00  0.00000000E+00  0.00000000E+00
  0.00000000E+00  0.00000000E+00  0.00000000E+00
