       N       E                     dE             d eps       ncg     rms          rms(c)
DAV:   1     0.207344803899E+04    0.20734E+04   -0.61385E+04  2952   0.915E+02
DAV:   2     0.407405778592E+03   -0.16660E+04   -0.15471E+04  3520   0.246E+02
DAV:   3    -0.127803507711E+03   -0.53521E+03   -0.51951E+03  4112   0.139E+02
DAV:   4    -0.172106503537E+03   -0.44303E+02   -0.43626E+02  4432   0.570E+01
DAV:   5    -0.172975832332E+03   -0.86933E+00   -0.85045E+00  4408   0.100E+01    0.408E+01
DAV:   6    -0.162500532156E+03    0.10475E+02   -0.14714E+02  4288   0.622E+01    0.419E+01
DAV:   7    -0.155983295998E+03    0.65172E+01   -0.23097E+01  4200   0.556E+01    0.199E+01
DAV:   8    -0.156470788796E+03   -0.48749E+00   -0.55312E+00  3744   0.559E+00    0.921E+00
DAV:   9    -0.156205378990E+03    0.26541E+00   -0.11208E+00  4304   0.835E+00    0.282E+00
DAV:  10    -0.156211952463E+03   -0.65735E-02   -0.24091E-01  4248   0.243E+00    0.131E+00
DAV:  11    -0.156225257385E+03   -0.13305E-01   -0.15793E-02  4112   0.834E-01    0.538E-01
DAV:  12    -0.156248009150E+03   -0.22752E-01   -0.73787E-03  4080   0.304E-01    0.285E-01
DAV:  13    -0.156260292287E+03   -0.12283E-01   -0.81358E-04  3800   0.110E-01    0.116E-01
DAV:  14    -0.156268223817E+03   -0.79315E-02   -0.24849E-04  3928   0.485E-02    0.791E-02
DAV:  15    -0.156275801001E+03   -0.75772E-02   -0.14860E-04  3272   0.265E-02    0.366E-02
DAV:  16    -0.156281121666E+03   -0.53207E-02   -0.11553E-04  4088   0.448E-02    0.319E-02
DAV:  17    -0.156282615456E+03   -0.14938E-02   -0.18389E-05  3624   0.147E-02    0.207E-02
DAV:  18    -0.156286030275E+03   -0.34148E-02   -0.10946E-04  3024   0.194E-02    0.216E-02
DAV:  19    -0.156286433888E+03   -0.40361E-03   -0.14985E-05  3456   0.116E-02    0.853E-03
DAV:  20    -0.156286498907E+03   -0.65018E-04   -0.50701E-06  2848   0.597E-03    0.454E-03
DAV:  21    -0.156286603281E+03   -0.10437E-03   -0.15622E-06  2176   0.359E-03    0.370E-03
DAV:  22    -0.156286675995E+03   -0.72713E-04   -0.13040E-06  2176   0.224E-03    0.154E-03
DAV:  23    -0.156286708935E+03   -0.32940E-04   -0.46639E-07  1944   0.168E-03    0.129E-03
DAV:  24    -0.156286744332E+03   -0.35397E-04   -0.12873E-06  2144   0.220E-03    0.195E-03
DAV:  25    -0.156286753546E+03   -0.92138E-05   -0.17719E-07  1816   0.200E-03    0.105E-03
DAV:  26    -0.156286759366E+03   -0.58204E-05   -0.86070E-08  1616   0.674E-04    0.397E-04
DAV:  27    -0.156286769311E+03   -0.99442E-05   -0.99084E-08  1696   0.714E-04    0.742E-04
DAV:  28    -0.156286776089E+03   -0.67780E-05   -0.11816E-07  1768   0.685E-04    0.545E-04
DAV:  29    -0.156286779656E+03   -0.35678E-05   -0.83708E-08  1592   0.789E-04    0.462E-04
DAV:  30    -0.156286780717E+03   -0.10605E-05   -0.54104E-08  1608   0.627E-04    0.198E-04
DAV:  31    -0.156286781248E+03   -0.53129E-06   -0.33413E-08  1568   0.504E-04
   1 F= -.16209994E+03 E0= -.16209994E+03  d E =-.162100E+03  mag=    24.0000
       N       E                     dE             d eps       ncg     rms          rms(c)
DAV:   1    -0.156283832710E+03    0.29480E-02   -0.38962E-01  2880   0.124E+00    0.419E-01
DAV:   2    -0.156286354860E+03   -0.25222E-02   -0.29763E-02  4008   0.677E-01    0.262E-01
DAV:   3    -0.156286213881E+03    0.14098E-03   -0.75803E-04  3880   0.194E-01    0.157E-01
DAV:   4    -0.156286174866E+03    0.39015E-04   -0.82670E-05  4160   0.516E-02    0.129E-01
DAV:   5    -0.156286145260E+03    0.29606E-04   -0.17970E-04  3296   0.306E-02    0.710E-02
DAV:   6    -0.156286153418E+03   -0.81577E-05   -0.56982E-05  4080   0.461E-02    0.150E-02
DAV:   7    -0.156286159270E+03   -0.58528E-05   -0.51807E-06  2560   0.684E-03    0.128E-02
DAV:   8    -0.156286163218E+03   -0.39475E-05   -0.60271E-07  1592   0.357E-03    0.121E-02
DAV:   9    -0.156286168609E+03   -0.53916E-05   -0.95751E-07  1592   0.324E-03    0.438E-03
DAV:  10    -0.156286171741E+03   -0.31318E-05   -0.50398E-07  1624   0.291E-03    0.390E-03
DAV:  11    -0.156286173330E+03   -0.15884E-05   -0.33596E-07  1680   0.270E-03    0.158E-03
DAV:  12    -0.156286175912E+03   -0.25821E-05   -0.17746E-07  1632   0.140E-03    0.954E-04
DAV:  13    -0.156286176581E+03   -0.66886E-06   -0.58804E-08  1664   0.118E-03
   2 F= -.16210338E+03 E0= -.16210338E+03  d E =-.344015E-02  mag=    24.0000
       N       E                     dE             d eps       ncg     rms          rms(c)
DAV:   1    -0.156279205263E+03    0.69706E-02   -0.65006E-01  2944   0.160E+00    0.542E-01
DAV:   2    -0.156283419725E+03   -0.42145E-02   -0.49667E-02  4056   0.874E-01    0.339E-01
DAV:   3    -0.156283176854E+03    0.24287E-03   -0.12676E-03  3840   0.251E-01    0.203E-01
DAV:   4    -0.156283110675E+03    0.66179E-04   -0.13826E-04  4176   0.670E-02    0.167E-01
DAV:   5    -0.156283058913E+03    0.51762E-04   -0.29962E-04  3256   0.395E-02    0.921E-02
DAV:   6    -0.156283070118E+03   -0.11205E-04   -0.96412E-05  4072   0.601E-02    0.195E-02
DAV:   7    -0.156283080381E+03   -0.10263E-04   -0.90885E-06  2944   0.876E-03    0.165E-02
DAV:   8    -0.156283086772E+03   -0.63918E-05   -0.84799E-07  1600   0.392E-03    0.156E-02
DAV:   9    -0.156283095621E+03   -0.88489E-05   -0.21244E-06  1720   0.419E-03    0.631E-03
DAV:  10    -0.156283100034E+03   -0.44130E-05   -0.67608E-07  1624   0.345E-03    0.551E-03
DAV:  11    -0.156283102934E+03   -0.28994E-05   -0.40738E-07  1672   0.302E-03    0.221E-03
DAV:  12    -0.156283107049E+03   -0.41157E-05   -0.26246E-07  1616   0.168E-03    0.124E-03
DAV:  13    -0.156283108284E+03   -0.12348E-05   -0.88715E-08  1664   0.147E-03    0.578E-04
DAV:  14    -0.156283111799E+03   -0.35149E-05   -0.39619E-08  1616   0.704E-04    0.228E-04
DAV:  15    -0.156283113294E+03   -0.14947E-05   -0.16292E-08  1640   0.524E-04    0.261E-04
DAV:  16    -0.156283114254E+03   -0.96009E-06   -0.77745E-09  1616   0.320E-04
   3 F= -.16210554E+03 E0= -.16210554E+03  d E =-.559241E-02  mag=    24.0000
       N       E                     dE             d eps       ncg     rms          rms(c)
DAV:   1    -0.156281231011E+03    0.18823E-02   -0.63662E-02  2920   0.501E-01    0.168E-01
DAV:   2    -0.156281643680E+03   -0.41267E-03   -0.48935E-03  4008   0.275E-01    0.106E-01
DAV:   3    -0.156281624902E+03    0.18778E-04   -0.12328E-04  3840   0.778E-02    0.633E-02
DAV:   4    -0.156281617621E+03    0.72808E-05   -0.13571E-05  3976   0.207E-02    0.521E-02
DAV:   5    -0.156281612492E+03    0.51292E-05   -0.29491E-05  3064   0.124E-02    0.284E-02
DAV:   6    -0.156281614907E+03   -0.24146E-05   -0.90722E-06  3744   0.185E-02    0.630E-03
DAV:   7    -0.156281616886E+03   -0.19797E-05   -0.87012E-07  1632   0.311E-03    0.522E-03
DAV:   8    -0.156281618166E+03   -0.12792E-05   -0.25374E-07  1640   0.222E-03    0.589E-03
DAV:   9    -0.156281619811E+03   -0.16454E-05   -0.76296E-08  1576   0.178E-03    0.190E-03
DAV:  10    -0.156281621392E+03   -0.15810E-05   -0.13760E-07  1592   0.978E-04    0.986E-04
DAV:  11    -0.156281621812E+03   -0.42037E-06   -0.44151E-08  1672   0.106E-03
   4 F= -.16210567E+03 E0= -.16210567E+03  d E =-.573013E-02  mag=    24.0000
       N       E                     dE             d eps       ncg     rms          rms(c)
DAV:   1    -0.156280163356E+03    0.14580E-02   -0.19312E-01  2976   0.866E-01    0.206E-01
DAV:   2    -0.156281215822E+03   -0.10525E-02   -0.12570E-02  4016   0.360E-01    0.112E-01
DAV:   3    -0.156281175288E+03    0.40534E-04   -0.18914E-04  3848   0.770E-02    0.772E-02
DAV:   4    -0.156281165815E+03    0.94724E-05   -0.23377E-05  4224   0.221E-02    0.613E-02
DAV:   5    -0.156281153683E+03    0.12132E-04   -0.41937E-05  3064   0.145E-02    0.359E-02
DAV:   6    -0.156281154616E+03   -0.93318E-06   -0.15726E-05  3976   0.148E-02    0.129E-02
DAV:   7    -0.156281155072E+03   -0.45601E-06   -0.10498E-06  1576   0.351E-03
   5 F= -.16210676E+03 E0= -.16210676E+03  d E =-.108480E-02  mag=    24.0000
