CrCl3 2x2 + Fe S1 top-Cl (D3, U=0) (a_2x
   1.00000000000000     
    12.0925489970493256    0.0000000000000000    0.0000000000000000
    -6.0462744985246628   10.4724546279527502    0.0000000000000000
     0.0000000000000000    0.0000000000000000   20.0000000000000000
   Cr   Cl   Fe
     8    24     1
Direct
     0.1552034230941123    0.3176328933136280    0.5026672319085942
     0.3314939302927165    0.1561270463142025    0.5071618371494815
     0.6685060697072834    0.3246331160214717    0.5071618371494815
     0.8300291155071613    0.1584084567221640    0.5021743041487857
     0.1699708844928386    0.8283793412149884    0.5021743041487857
     0.3329722301750093    0.6649953894044017    0.5067819360484114
     0.6670277698249907    0.8320231592293782    0.5067819360484114
     0.8447965769058876    0.6624294702195299    0.5026672319085942
     0.1816353660121911    0.4994033086467269    0.4391087111792948
     0.5000000000000000    0.1686688759037630    0.4407263706814133
     0.3373088874321381    0.3253931850393325    0.4393428021938221
     0.3386680837632539    0.5098248811519210    0.5801002926553986
     0.9895680556604011    0.3106877677139560    0.5721672273681377
     0.1759238006296086    0.1655911954953734    0.5726752494730516
     0.6626911125678617    0.4880842976071872    0.4393428021938221
     0.9763247137589898    0.1586567941007707    0.4268831856269964
     0.8175278010881941    0.3166529584871819    0.4363420274732578
     0.8240761993703912    0.4896673948657648    0.5726752494730516
     0.5000000000000000    0.3192562742173196    0.5775181501337584
     0.6742018112690514    0.1688670429362421    0.5734431290354379
     0.1824721989118059    0.9991251573989877    0.4363420274732578
     0.5000000000000000    0.6665034058525040    0.4384044780611989
     0.3331433601662910    0.8219791969474227    0.4376197648524591
     0.3257981887309486    0.9946652316671978    0.5734431290354379
     0.0104319443395989    0.8211197120535549    0.5721672273681377
     0.1769863644154148    0.6721378698839983    0.5720087687138861
     0.6668566398337089    0.9888358367811317    0.4376197648524591
     0.0236752862410102    0.6823320803417738    0.4268831856269964
     0.8183646339878090    0.8177679426345357    0.4391087111792948
     0.8230136355845851    0.9951515054685836    0.5720087687138861
     0.5000000000000000    0.8258196821451136    0.5724971881654634
     0.6613319162367461    0.6711567973886601    0.5801002926553986
     0.5000000000000000    0.4983726343994183    0.5131870705640487
 
  0.00000000E+00  0.00000000E+00  0.00000000E+00
  0.00000000E+00  0.00000000E+00  0.00000000E+00
  0.00000000E+00  0.00000000E+00  0.00000000E+00
  0.00000000E+00  0.00000000E+00  0.00000000E+00
  0.00000000E+00  0.00000000E+00  0.00000000E+00
  0.00000000E+00  0.00000000E+00  0.00000000E+00
  0.00000000E+00  0.00000000E+00  0.00000000E+00
  0.00000000E+00  0.00000000E+00  0.00000000E+00
  0.00000000E+00  0.00000000E+00  0.00000000E+00
  0.00000000E+00  0.00000000E+00  0.00000000E+00
  0.00000000E+00  0.00000000E+00  0.00000000E+00
  0.00000000E+00  0.00000000E+00  0.00000000E+00
  0.00000000E+00  0.00000000E+00  0.00000000E+00
  0.00000000E+00  0.00000000E+00  0.00000000E+00
  0.00000000E+00  0.00000000E+00  0.00000000E+00
  0.00000000E+00  0.00000000E+00  0.00000000E+00
  0.00000000E+00  0.00000000E+00  0.00000000E+00
  0.00000000E+00  0.00000000E+00  0.00000000E+00
  0.00000000E+00  0.00000000E+00  0.00000000E+00
  0.00000000E+00  0.00000000E+00  0.00000000E+00
  0.00000000E+00  0.00000000E+00  0.00000000E+00
  0.00000000E+00  0.00000000E+00  0.00000000E+00
  0.00000000E+00  0.00000000E+00  0.00000000E+00
  0.00000000E+00  0.00000000E+00  0.00000000E+00
  0.00000000E+00  0.00000000E+00  0.00000000E+00
  0.00000000E+00  0.00000000E+00  0.00000000E+00
  0.00000000E+00  0.00000000E+00  0.00000000E+00
  0.00000000E+00  0.00000000E+00  0.00000000E+00
  0.00000000E+00  0.00000000E+00  0.00000000E+00
  0.00000000E+00  0.00000000E+00  0.00000000E+00
  0.00000000E+00  0.00000000E+00  0.00000000E+00
  0.00000000E+00  0.00000000E+00  0.00000000E+00
  0.00000000E+00  0.00000000E+00  0.00000000E+00
