       N       E                     dE             d eps       ncg     rms          rms(c)
DAV:   1     0.233669006646E+04    0.23367E+04   -0.70841E+04  5400   0.109E+03
DAV:   2     0.489810707244E+03   -0.18469E+04   -0.17288E+04  6840   0.252E+02
DAV:   3    -0.111766837058E+03   -0.60158E+03   -0.58688E+03  8604   0.148E+02
DAV:   4    -0.154451043866E+03   -0.42684E+02   -0.41714E+02  7884   0.493E+01
DAV:   5    -0.155573176121E+03   -0.11221E+01   -0.11050E+01  8364   0.104E+01    0.415E+01
DAV:   6    -0.150242631535E+03    0.53305E+01   -0.15230E+02  8922   0.664E+01    0.536E+01
DAV:   7    -0.146550469698E+03    0.36922E+01   -0.37103E+01  7470   0.484E+01    0.282E+01
DAV:   8    -0.145863234700E+03    0.68723E+00   -0.88712E+00  9096   0.334E+01    0.176E+01
DAV:   9    -0.146253082703E+03   -0.38985E+00   -0.31462E+00  8742   0.154E+01    0.845E+00
DAV:  10    -0.146549036607E+03   -0.29595E+00   -0.10585E+00  8712   0.833E+00    0.364E+00
DAV:  11    -0.146669015355E+03   -0.11998E+00   -0.36185E-01  8358   0.448E+00    0.170E+00
DAV:  12    -0.146807154068E+03   -0.13814E+00   -0.87574E-02  7356   0.224E+00    0.116E+00
DAV:  13    -0.146903264360E+03   -0.96110E-01   -0.33610E-02  8184   0.120E+00    0.911E-01
DAV:  14    -0.146960647804E+03   -0.57383E-01   -0.12727E-02  7488   0.456E-01    0.652E-01
DAV:  15    -0.146991770298E+03   -0.31122E-01   -0.39205E-03  7902   0.477E-01    0.398E-01
DAV:  16    -0.147005112619E+03   -0.13342E-01   -0.24843E-03  7680   0.458E-01    0.216E-01
DAV:  17    -0.147017303029E+03   -0.12190E-01   -0.14157E-03  8106   0.307E-01    0.144E-01
DAV:  18    -0.147049261224E+03   -0.31958E-01   -0.14766E-03  7488   0.368E-01    0.101E-01
DAV:  19    -0.147074002981E+03   -0.24742E-01   -0.12607E-03  7866   0.132E-01    0.991E-02
DAV:  20    -0.147081818164E+03   -0.78152E-02   -0.23234E-04  7440   0.935E-02    0.780E-02
DAV:  21    -0.147086420177E+03   -0.46020E-02   -0.16798E-04  7908   0.135E-01    0.404E-02
DAV:  22    -0.147096140413E+03   -0.97202E-02   -0.27722E-04  7566   0.516E-02    0.267E-02
DAV:  23    -0.147099352132E+03   -0.32117E-02   -0.61621E-05  6756   0.189E-02    0.178E-02
DAV:  24    -0.147100884549E+03   -0.15324E-02   -0.34890E-05  7080   0.234E-02    0.890E-03
DAV:  25    -0.147101487440E+03   -0.60289E-03   -0.13703E-05  7224   0.108E-02    0.726E-03
DAV:  26    -0.147101651093E+03   -0.16365E-03   -0.32590E-06  5448   0.113E-02    0.523E-03
DAV:  27    -0.147101697646E+03   -0.46554E-04   -0.22253E-06  5010   0.701E-03    0.441E-03
DAV:  28    -0.147101722393E+03   -0.24746E-04   -0.99393E-07  4356   0.906E-03    0.225E-03
DAV:  29    -0.147101735172E+03   -0.12779E-04   -0.80995E-07  3876   0.283E-03    0.217E-03
DAV:  30    -0.147101742233E+03   -0.70610E-05   -0.22184E-07  3672   0.320E-03    0.152E-03
DAV:  31    -0.147101751960E+03   -0.97273E-05   -0.14741E-07  3600   0.149E-03    0.117E-03
DAV:  32    -0.147101770385E+03   -0.18425E-04   -0.22168E-07  3906   0.148E-03    0.136E-03
DAV:  33    -0.147101791065E+03   -0.20680E-04   -0.26141E-07  3972   0.227E-03    0.144E-03
DAV:  34    -0.147101798090E+03   -0.70248E-05   -0.16727E-07  3852   0.257E-03    0.924E-04
DAV:  35    -0.147101801243E+03   -0.31525E-05   -0.13364E-07  3750   0.198E-03    0.557E-04
DAV:  36    -0.147101803427E+03   -0.21840E-05   -0.96319E-08  3792   0.118E-03    0.821E-04
DAV:  37    -0.147101804697E+03   -0.12703E-05   -0.36732E-08  3558   0.882E-04    0.396E-04
DAV:  38    -0.147101806051E+03   -0.13545E-05   -0.23641E-08  3540   0.794E-04    0.268E-04
DAV:  39    -0.147101806672E+03   -0.62052E-06   -0.17481E-08  3516   0.498E-04
   1 F= -.15336472E+03 E0= -.15336472E+03  d E =-.153365E+03  mag=    30.0000
       N       E                     dE             d eps       ncg     rms          rms(c)
DAV:   1    -0.147104211714E+03   -0.24057E-02   -0.16237E-01  5562   0.776E-01    0.262E-01
DAV:   2    -0.147105355454E+03   -0.11437E-02   -0.96180E-03  7818   0.357E-01    0.150E-01
DAV:   3    -0.147105443466E+03   -0.88012E-04   -0.24812E-04  6828   0.704E-02    0.749E-02
DAV:   4    -0.147105428959E+03    0.14507E-04   -0.34366E-05  8160   0.175E-02    0.523E-02
DAV:   5    -0.147105420214E+03    0.87444E-05   -0.41218E-05  6432   0.170E-02    0.291E-02
DAV:   6    -0.147105426687E+03   -0.64727E-05   -0.18075E-05  7446   0.112E-02    0.787E-03
DAV:   7    -0.147105428822E+03   -0.21347E-05   -0.87451E-07  4122   0.562E-03    0.624E-03
DAV:   8    -0.147105429638E+03   -0.81670E-06   -0.55525E-07  3516   0.389E-03
   2 F= -.15336765E+03 E0= -.15336765E+03  d E =-.292602E-02  mag=    30.0000
       N       E                     dE             d eps       ncg     rms          rms(c)
DAV:   1    -0.147104014673E+03    0.14141E-02   -0.10142E+00  5424   0.194E+00    0.654E-01
DAV:   2    -0.147111269011E+03   -0.72543E-02   -0.60156E-02  7830   0.895E-01    0.378E-01
DAV:   3    -0.147111735919E+03   -0.46691E-03   -0.15261E-03  6906   0.174E-01    0.182E-01
DAV:   4    -0.147111645967E+03    0.89952E-04   -0.21650E-04  8148   0.435E-02    0.127E-01
DAV:   5    -0.147111592738E+03    0.53229E-04   -0.24275E-04  6564   0.407E-02    0.711E-02
DAV:   6    -0.147111624115E+03   -0.31377E-04   -0.10960E-04  7386   0.269E-02    0.188E-02
DAV:   7    -0.147111632067E+03   -0.79524E-05   -0.74553E-06  6696   0.140E-02    0.160E-02
DAV:   8    -0.147111634871E+03   -0.28034E-05   -0.13843E-06  4320   0.699E-03    0.113E-02
DAV:   9    -0.147111637940E+03   -0.30690E-05   -0.30182E-06  4920   0.478E-03    0.580E-03
DAV:  10    -0.147111640069E+03   -0.21296E-05   -0.62090E-07  3624   0.307E-03    0.228E-03
DAV:  11    -0.147111642223E+03   -0.21535E-05   -0.38906E-07  3726   0.264E-03    0.126E-03
DAV:  12    -0.147111643676E+03   -0.14534E-05   -0.24406E-07  3552   0.215E-03    0.785E-04
DAV:  13    -0.147111644660E+03   -0.98397E-06   -0.12894E-07  3498   0.160E-03
   3 F= -.15337212E+03 E0= -.15337212E+03  d E =-.739445E-02  mag=    30.0000
       N       E                     dE             d eps       ncg     rms          rms(c)
DAV:   1    -0.147081973716E+03    0.29670E-01   -0.40488E+00  5400   0.388E+00    0.129E+00
DAV:   2    -0.147111049043E+03   -0.29075E-01   -0.23935E-01  7836   0.179E+00    0.772E-01
DAV:   3    -0.147112817889E+03   -0.17688E-02   -0.59932E-03  6918   0.343E-01    0.349E-01
DAV:   4    -0.147112443340E+03    0.37455E-03   -0.88138E-04  8064   0.865E-02    0.245E-01
DAV:   5    -0.147112238032E+03    0.20531E-03   -0.87165E-04  6576   0.766E-02    0.141E-01
DAV:   6    -0.147112335314E+03   -0.97282E-04   -0.42539E-04  7494   0.508E-02    0.350E-02
DAV:   7    -0.147112357036E+03   -0.21722E-04   -0.31576E-05  7500   0.266E-02    0.314E-02
DAV:   8    -0.147112364390E+03   -0.73543E-05   -0.73664E-06  7560   0.128E-02    0.212E-02
DAV:   9    -0.147112371600E+03   -0.72099E-05   -0.22996E-06  4764   0.549E-03    0.116E-02
DAV:  10    -0.147112379575E+03   -0.79745E-05   -0.50400E-06  5952   0.530E-03    0.403E-03
DAV:  11    -0.147112383798E+03   -0.42237E-05   -0.50997E-07  3636   0.320E-03    0.163E-03
DAV:  12    -0.147112386648E+03   -0.28499E-05   -0.16862E-07  3612   0.190E-03    0.153E-03
DAV:  13    -0.147112390083E+03   -0.34342E-05   -0.12377E-07  3630   0.147E-03    0.107E-03
DAV:  14    -0.147112394229E+03   -0.41463E-05   -0.16695E-07  3744   0.127E-03    0.932E-04
DAV:  15    -0.147112397196E+03   -0.29667E-05   -0.12099E-07  3636   0.136E-03    0.656E-04
DAV:  16    -0.147112399387E+03   -0.21917E-05   -0.12406E-07  3654   0.103E-03    0.484E-04
DAV:  17    -0.147112400691E+03   -0.13040E-05   -0.80334E-08  3588   0.942E-04    0.350E-04
DAV:  18    -0.147112401764E+03   -0.10726E-05   -0.63904E-08  3630   0.725E-04    0.242E-04
DAV:  19    -0.147112402872E+03   -0.11081E-05   -0.61203E-08  3600   0.691E-04    0.189E-04
DAV:  20    -0.147112403387E+03   -0.51474E-06   -0.37729E-08  3540   0.618E-04
   4 F= -.15336936E+03 E0= -.15336936E+03  d E =-.463780E-02  mag=    30.0000
       N       E                     dE             d eps       ncg     rms          rms(c)
DAV:   1    -0.147099834177E+03    0.12569E-01   -0.18455E+00  5400   0.262E+00    0.888E-01
DAV:   2    -0.147112868176E+03   -0.13034E-01   -0.10649E-01  7680   0.117E+00    0.470E-01
DAV:   3    -0.147113716712E+03   -0.84854E-03   -0.28267E-03  6816   0.236E-01    0.253E-01
DAV:   4    -0.147113586140E+03    0.13057E-03   -0.35913E-04  8340   0.602E-02    0.177E-01
DAV:   5    -0.147113480844E+03    0.10530E-03   -0.42411E-04  6426   0.522E-02    0.102E-01
DAV:   6    -0.147113526173E+03   -0.45329E-04   -0.21842E-04  7512   0.393E-02    0.261E-02
DAV:   7    -0.147113536618E+03   -0.10445E-04   -0.15634E-05  7590   0.200E-02    0.191E-02
DAV:   8    -0.147113540979E+03   -0.43614E-05   -0.32083E-06  5478   0.918E-03    0.136E-02
DAV:   9    -0.147113544198E+03   -0.32181E-05   -0.35202E-06  5154   0.579E-03    0.657E-03
DAV:  10    -0.147113546744E+03   -0.25466E-05   -0.11112E-06  3840   0.340E-03    0.288E-03
DAV:  11    -0.147113548886E+03   -0.21416E-05   -0.47132E-07  3684   0.308E-03    0.153E-03
DAV:  12    -0.147113550424E+03   -0.15379E-05   -0.29282E-07  3552   0.219E-03    0.940E-04
DAV:  13    -0.147113551488E+03   -0.10643E-05   -0.14761E-07  3552   0.182E-03    0.764E-04
DAV:  14    -0.147113552754E+03   -0.12660E-05   -0.82281E-08  3564   0.116E-03    0.585E-04
DAV:  15    -0.147113554617E+03   -0.18634E-05   -0.79522E-08  3666   0.104E-03    0.501E-04
DAV:  16    -0.147113555720E+03   -0.11025E-05   -0.67853E-08  3708   0.860E-04    0.269E-04
DAV:  17    -0.147113555918E+03   -0.19787E-06   -0.27333E-08  3672   0.677E-04
   5 F= -.15337289E+03 E0= -.15337289E+03  d E =-.816751E-02  mag=    30.0000
       N       E                     dE             d eps       ncg     rms          rms(c)
DAV:   1    -0.147113661059E+03   -0.10534E-03   -0.96354E-02  5412   0.645E-01    0.224E-01
DAV:   2    -0.147114458177E+03   -0.79712E-03   -0.54777E-03  7518   0.257E-01    0.112E-01
DAV:   3    -0.147114620770E+03   -0.16259E-03   -0.19926E-04  7746   0.672E-02    0.529E-02
DAV:   4    -0.147114609400E+03    0.11370E-04   -0.20461E-05  8244   0.174E-02    0.361E-02
DAV:   5    -0.147114603624E+03    0.57762E-05   -0.17567E-05  6366   0.108E-02    0.229E-02
DAV:   6    -0.147114606210E+03   -0.25863E-05   -0.14810E-05  6894   0.950E-03    0.677E-03
DAV:   7    -0.147114611237E+03   -0.50272E-05   -0.12416E-06  4200   0.496E-03    0.432E-03
DAV:   8    -0.147114616125E+03   -0.48874E-05   -0.74496E-07  3666   0.468E-03    0.390E-03
DAV:   9    -0.147114619377E+03   -0.32522E-05   -0.45842E-07  3624   0.295E-03    0.205E-03
DAV:  10    -0.147114622776E+03   -0.33988E-05   -0.28764E-07  3654   0.232E-03    0.164E-03
DAV:  11    -0.147114626611E+03   -0.38347E-05   -0.14312E-07  3690   0.195E-03    0.991E-04
DAV:  12    -0.147114629676E+03   -0.30651E-05   -0.11719E-07  3870   0.131E-03    0.465E-04
DAV:  13    -0.147114631359E+03   -0.16830E-05   -0.72934E-08  3540   0.981E-04    0.538E-04
DAV:  14    -0.147114632160E+03   -0.80127E-06   -0.35684E-08  3624   0.691E-04
   6 F= -.15337357E+03 E0= -.15337357E+03  d E =-.682292E-03  mag=    30.0000
       N       E                     dE             d eps       ncg     rms          rms(c)
DAV:   1    -0.147114277180E+03    0.35418E-03   -0.98659E-02  5412   0.653E-01    0.227E-01
DAV:   2    -0.147115093559E+03   -0.81638E-03   -0.56019E-03  7506   0.259E-01    0.113E-01
DAV:   3    -0.147115258564E+03   -0.16500E-03   -0.20379E-04  7710   0.679E-02    0.535E-02
DAV:   4    -0.147115246553E+03    0.12011E-04   -0.20879E-05  8304   0.176E-02    0.365E-02
DAV:   5    -0.147115239971E+03    0.65815E-05   -0.18066E-05  6330   0.109E-02    0.231E-02
DAV:   6    -0.147115243090E+03   -0.31189E-05   -0.15124E-05  6864   0.962E-03    0.684E-03
DAV:   7    -0.147115248820E+03   -0.57296E-05   -0.12581E-06  4188   0.502E-03    0.437E-03
DAV:   8    -0.147115254410E+03   -0.55906E-05   -0.77617E-07  3666   0.476E-03    0.395E-03
DAV:   9    -0.147115258142E+03   -0.37320E-05   -0.48031E-07  3648   0.301E-03    0.208E-03
DAV:  10    -0.147115261877E+03   -0.37349E-05   -0.29827E-07  3630   0.237E-03    0.168E-03
DAV:  11    -0.147115266352E+03   -0.44753E-05   -0.15267E-07  3810   0.200E-03    0.102E-03
DAV:  12    -0.147115269876E+03   -0.35240E-05   -0.12895E-07  3786   0.136E-03    0.478E-04
DAV:  13    -0.147115271779E+03   -0.19022E-05   -0.81188E-08  3582   0.102E-03    0.567E-04
DAV:  14    -0.147115272679E+03   -0.90007E-06   -0.40297E-08  3636   0.723E-04
   7 F= -.15337381E+03 E0= -.15337381E+03  d E =-.923314E-03  mag=    30.0000
       N       E                     dE             d eps       ncg     rms          rms(c)
DAV:   1    -0.147115037839E+03    0.23394E-03   -0.78061E-02  5406   0.577E-01    0.201E-01
DAV:   2    -0.147115741172E+03   -0.70333E-03   -0.46615E-03  7434   0.231E-01    0.939E-02
DAV:   3    -0.147115826428E+03   -0.85256E-04   -0.13678E-04  7476   0.501E-02    0.463E-02
DAV:   4    -0.147115812169E+03    0.14259E-04   -0.12117E-05  7932   0.122E-02    0.346E-02
DAV:   5    -0.147115776782E+03    0.35387E-04   -0.15212E-05  6432   0.101E-02    0.233E-02
DAV:   6    -0.147115755588E+03    0.21194E-04   -0.11733E-05  7368   0.844E-03    0.685E-03
DAV:   7    -0.147115763290E+03   -0.77012E-05   -0.82776E-07  3648   0.368E-03    0.417E-03
DAV:   8    -0.147115778157E+03   -0.14867E-04   -0.51652E-07  3756   0.315E-03    0.315E-03
DAV:   9    -0.147115788470E+03   -0.10313E-04   -0.41270E-07  3606   0.275E-03    0.179E-03
DAV:  10    -0.147115800936E+03   -0.12466E-04   -0.35196E-07  3828   0.217E-03    0.163E-03
DAV:  11    -0.147115811868E+03   -0.10932E-04   -0.23284E-07  3792   0.203E-03    0.115E-03
DAV:  12    -0.147115822088E+03   -0.10220E-04   -0.21204E-07  3768   0.157E-03    0.587E-04
DAV:  13    -0.147115826667E+03   -0.45794E-05   -0.13184E-07  3642   0.129E-03    0.623E-04
DAV:  14    -0.147115829809E+03   -0.31415E-05   -0.83175E-08  3522   0.894E-04    0.324E-04
DAV:  15    -0.147115832898E+03   -0.30897E-05   -0.67940E-08  3750   0.756E-04    0.331E-04
DAV:  16    -0.147115836002E+03   -0.31040E-05   -0.69046E-08  3744   0.715E-04    0.237E-04
DAV:  17    -0.147115837059E+03   -0.10562E-05   -0.42602E-08  3564   0.698E-04    0.170E-04
DAV:  18    -0.147115837283E+03   -0.22496E-06   -0.20334E-08  3672   0.462E-04
   8 F= -.15337421E+03 E0= -.15337421E+03  d E =-.392687E-03  mag=    30.0000
