CrCl3 2x2 + Ni S3 top-Cr (no_vdw, U=0) (
   1.0000000000000000     
    12.0925489970493256    0.0000000000000000    0.0000000000000000
    -6.0462744985246628   10.4724546279527502    0.0000000000000000
     0.0000000000000000    0.0000000000000000   20.0000000000000000
   Cr   Cl   Ni
     8    24     1
Direct
  0.1674132601903391  0.3336093840857948  0.4998078785592037
  0.3311636445823389  0.1654005369631779  0.5001864130126572
  0.6666666666666714  0.3333333333333286  0.4937310734592884
  0.8345994630368220  0.1657631076191753  0.5001864130126572
  0.1661961238954699  0.8325867398096612  0.4998078785592037
  0.3333333333333286  0.6666666666666714  0.4999696981767613
  0.6663906159142055  0.8338038761045302  0.4998078785592037
  0.8342368923808244  0.6688363554176612  0.5001864130126572
  0.1802635663335746  0.5002883724277700  0.4331807545398589
  0.4961436676424833  0.1773368532337722  0.4317287524932807
  0.3227154141319357  0.3220657496434559  0.4340988012916658
  0.3205513688825672  0.5004052954188923  0.5671680721845912
  0.0006364703273683  0.3204460245141761  0.5671290715518208
  0.1783315565779066  0.1793577497295965  0.5671446004664329
  0.6811931855912888  0.5038563323575168  0.4317287524932807
  0.0039046841943205  0.1805740466368679  0.4324897553025367
  0.8226631467662278  0.3188068144087111  0.4317287524932807
  0.8259894774431421  0.4994540456948587  0.5706957761066099
  0.5005459543051414  0.3265354317482833  0.5706957761066099
  0.6734645682517169  0.1740105225568581  0.5706957761066099
  0.1766693624425474 -0.0039046841943205  0.4324897553025367
  0.4997116275722300  0.6799751939058045  0.4331807545398589
  0.3200248060941951  0.8197364336664253  0.4331807545398589
  0.3198095541868078 -0.0006364703273683  0.5671290715518208
  0.0010261931516899  0.8216684434220934  0.5671446004664329
  0.1798539265363250  0.6794486311174326  0.5671680721845912
  0.6779342503565442  0.0006496644884797  0.4340988012916658
 -0.0006496644884797  0.6772845858680645  0.4340988012916658
  0.8194259533631320  0.8233306375574525  0.4324897553025367
  0.8206422502704033 -0.0010261931516899  0.5671446004664329
  0.4995947045811077  0.8201460734636749  0.5671680721845912
  0.6795539754858239  0.6801904458131921  0.5671290715518208
  0.6666666666666714  0.3333333333333286  0.6204096018379781

  0.00000000E+00  0.00000000E+00  0.00000000E+00
  0.00000000E+00  0.00000000E+00  0.00000000E+00
  0.00000000E+00  0.00000000E+00  0.00000000E+00
  0.00000000E+00  0.00000000E+00  0.00000000E+00
  0.00000000E+00  0.00000000E+00  0.00000000E+00
  0.00000000E+00  0.00000000E+00  0.00000000E+00
  0.00000000E+00  0.00000000E+00  0.00000000E+00
  0.00000000E+00  0.00000000E+00  0.00000000E+00
  0.00000000E+00  0.00000000E+00  0.00000000E+00
  0.00000000E+00  0.00000000E+00  0.00000000E+00
  0.00000000E+00  0.00000000E+00  0.00000000E+00
  0.00000000E+00  0.00000000E+00  0.00000000E+00
  0.00000000E+00  0.00000000E+00  0.00000000E+00
  0.00000000E+00  0.00000000E+00  0.00000000E+00
  0.00000000E+00  0.00000000E+00  0.00000000E+00
  0.00000000E+00  0.00000000E+00  0.00000000E+00
  0.00000000E+00  0.00000000E+00  0.00000000E+00
  0.00000000E+00  0.00000000E+00  0.00000000E+00
  0.00000000E+00  0.00000000E+00  0.00000000E+00
  0.00000000E+00  0.00000000E+00  0.00000000E+00
  0.00000000E+00  0.00000000E+00  0.00000000E+00
  0.00000000E+00  0.00000000E+00  0.00000000E+00
  0.00000000E+00  0.00000000E+00  0.00000000E+00
  0.00000000E+00  0.00000000E+00  0.00000000E+00
  0.00000000E+00  0.00000000E+00  0.00000000E+00
  0.00000000E+00  0.00000000E+00  0.00000000E+00
  0.00000000E+00  0.00000000E+00  0.00000000E+00
  0.00000000E+00  0.00000000E+00  0.00000000E+00
  0.00000000E+00  0.00000000E+00  0.00000000E+00
  0.00000000E+00  0.00000000E+00  0.00000000E+00
  0.00000000E+00  0.00000000E+00  0.00000000E+00
  0.00000000E+00  0.00000000E+00  0.00000000E+00
  0.00000000E+00  0.00000000E+00  0.00000000E+00
