       N       E                     dE             d eps       ncg     rms          rms(c)
DAV:   1     0.211946960312E+04    0.21195E+04   -0.65009E+04  3096   0.914E+02
DAV:   2     0.408305735700E+03   -0.17112E+04   -0.15807E+04  3632   0.246E+02
DAV:   3    -0.130733816663E+03   -0.53904E+03   -0.52318E+03  4416   0.138E+02
DAV:   4    -0.173544188379E+03   -0.42810E+02   -0.42209E+02  4600   0.560E+01
DAV:   5    -0.174338184718E+03   -0.79400E+00   -0.78878E+00  4656   0.952E+00    0.423E+01
DAV:   6    -0.186686053262E+03   -0.12348E+02   -0.22531E+02  4400   0.651E+01    0.830E+01
DAV:   7    -0.168271812075E+03    0.18414E+02   -0.27293E+01  4824   0.553E+01    0.387E+01
DAV:   8    -0.161754398395E+03    0.65174E+01   -0.20285E+01  5088   0.269E+01    0.211E+01
DAV:   9    -0.158356776722E+03    0.33976E+01   -0.86039E+00  4376   0.334E+01    0.109E+01
DAV:  10    -0.157831835340E+03    0.52494E+00   -0.47265E+00  5248   0.128E+01    0.628E+00
DAV:  11    -0.158071767839E+03   -0.23993E+00   -0.90520E-01  4680   0.467E+00    0.429E+00
DAV:  12    -0.158269021730E+03   -0.19725E+00   -0.62666E-01  4408   0.433E+00    0.297E+00
DAV:  13    -0.158434297069E+03   -0.16528E+00   -0.24559E-01  4680   0.364E+00    0.306E+00
DAV:  14    -0.158475261987E+03   -0.40965E-01   -0.12845E-01  4536   0.246E+00    0.126E+00
DAV:  15    -0.158556707895E+03   -0.81446E-01   -0.30909E-02  4112   0.839E-01    0.907E-01
DAV:  16    -0.158652911789E+03   -0.96204E-01   -0.15272E-02  4320   0.599E-01    0.482E-01
DAV:  17    -0.158752441779E+03   -0.99530E-01   -0.99197E-03  4304   0.372E-01    0.327E-01
DAV:  18    -0.158816873493E+03   -0.64432E-01   -0.25639E-03  4192   0.253E-01    0.148E-01
DAV:  19    -0.158877195831E+03   -0.60322E-01   -0.13916E-03  4224   0.127E-01    0.155E-01
DAV:  20    -0.158958887715E+03   -0.81692E-01   -0.21423E-03  4008   0.139E-01    0.647E-02
DAV:  21    -0.158996687081E+03   -0.37799E-01   -0.71777E-04  4016   0.712E-02    0.507E-02
DAV:  22    -0.159023584847E+03   -0.26898E-01   -0.46260E-04  3560   0.412E-02    0.406E-02
DAV:  23    -0.159044350992E+03   -0.20766E-01   -0.50874E-04  3544   0.413E-02    0.241E-02
DAV:  24    -0.159052637927E+03   -0.82869E-02   -0.27475E-04  3712   0.296E-02    0.152E-02
DAV:  25    -0.159054044499E+03   -0.14066E-02   -0.45708E-05  3872   0.153E-02    0.103E-02
DAV:  26    -0.159054636341E+03   -0.59184E-03   -0.29751E-05  3600   0.123E-02    0.528E-03
DAV:  27    -0.159054760666E+03   -0.12432E-03   -0.50854E-06  2888   0.640E-03    0.343E-03
DAV:  28    -0.159054812640E+03   -0.51974E-04   -0.16247E-06  2376   0.361E-03    0.299E-03
DAV:  29    -0.159054846629E+03   -0.33989E-04   -0.12808E-06  2288   0.288E-03    0.221E-03
DAV:  30    -0.159054877619E+03   -0.30990E-04   -0.15632E-06  2368   0.254E-03    0.147E-03
DAV:  31    -0.159054889091E+03   -0.11471E-04   -0.45418E-07  2272   0.209E-03    0.116E-03
DAV:  32    -0.159054901037E+03   -0.11947E-04   -0.41573E-07  2192   0.155E-03    0.114E-03
DAV:  33    -0.159054912421E+03   -0.11384E-04   -0.34939E-07  2136   0.161E-03    0.114E-03
DAV:  34    -0.159054919254E+03   -0.68329E-05   -0.22403E-07  1984   0.137E-03    0.792E-04
DAV:  35    -0.159054923490E+03   -0.42354E-05   -0.14804E-07  1904   0.105E-03    0.643E-04
DAV:  36    -0.159054925654E+03   -0.21637E-05   -0.74689E-08  1896   0.891E-04    0.502E-04
DAV:  37    -0.159054927843E+03   -0.21896E-05   -0.64381E-08  1872   0.671E-04    0.279E-04
DAV:  38    -0.159054928818E+03   -0.97516E-06   -0.32465E-08  1904   0.570E-04
   1 F= -.15905493E+03 E0= -.15905493E+03  d E =-.159055E+03  mag=    24.0000
       N       E                     dE             d eps       ncg     rms          rms(c)
DAV:   1    -0.159012578199E+03    0.42350E-01   -0.20543E+01  3160   0.868E+00    0.299E+00
DAV:   2    -0.159199647693E+03   -0.18707E+00   -0.14679E+00  4352   0.454E+00    0.321E+00
DAV:   3    -0.159357772604E+03   -0.15812E+00   -0.70140E-01  4328   0.471E+00    0.820E+00
DAV:   4    -0.159171775469E+03    0.18600E+00   -0.29247E-01  4872   0.262E+00    0.130E+00
DAV:   5    -0.159172417232E+03   -0.64176E-03   -0.19424E-02  4456   0.977E-01    0.124E+00
DAV:   6    -0.159162019061E+03    0.10398E-01   -0.10067E-02  4672   0.634E-01    0.744E-01
DAV:   7    -0.159150578663E+03    0.11440E-01   -0.62364E-03  4360   0.339E-01    0.400E-01
DAV:   8    -0.159155872399E+03   -0.52937E-02   -0.16723E-03  4416   0.214E-01    0.133E-01
DAV:   9    -0.159163516991E+03   -0.76446E-02   -0.52433E-04  4472   0.102E-01    0.148E-01
DAV:  10    -0.159172288349E+03   -0.87714E-02   -0.21669E-04  3976   0.519E-02    0.931E-02
DAV:  11    -0.159181591535E+03   -0.93032E-02   -0.17117E-04  4264   0.463E-02    0.395E-02
DAV:  12    -0.159186326216E+03   -0.47347E-02   -0.50421E-05  4088   0.198E-02    0.174E-02
DAV:  13    -0.159190088561E+03   -0.37623E-02   -0.32606E-05  3352   0.124E-02    0.141E-02
DAV:  14    -0.159194621444E+03   -0.45329E-02   -0.64066E-05  3192   0.133E-02    0.117E-02
DAV:  15    -0.159198350002E+03   -0.37286E-02   -0.81288E-05  3232   0.139E-02    0.104E-02
DAV:  16    -0.159199823788E+03   -0.14738E-02   -0.38404E-05  3528   0.998E-03    0.351E-03
DAV:  17    -0.159200384827E+03   -0.56104E-03   -0.17453E-05  3184   0.584E-03    0.156E-03
DAV:  18    -0.159200483450E+03   -0.98624E-04   -0.25986E-06  2856   0.307E-03    0.144E-03
DAV:  19    -0.159200497180E+03   -0.13729E-04   -0.41658E-07  2208   0.209E-03    0.782E-04
DAV:  20    -0.159200503514E+03   -0.63341E-05   -0.45074E-07  2224   0.150E-03    0.570E-04
DAV:  21    -0.159200506228E+03   -0.27140E-05   -0.20120E-07  2128   0.149E-03    0.409E-04
DAV:  22    -0.159200507318E+03   -0.10902E-05   -0.11078E-07  2000   0.885E-04    0.312E-04
DAV:  23    -0.159200508522E+03   -0.12042E-05   -0.72323E-08  2032   0.859E-04    0.362E-04
DAV:  24    -0.159200509399E+03   -0.87663E-06   -0.58642E-08  1944   0.546E-04
   2 F= -.15920051E+03 E0= -.15920051E+03  d E =-.145581E+00  mag=    24.0000
       N       E                     dE             d eps       ncg     rms          rms(c)
DAV:   1    -0.159130611890E+03    0.69897E-01   -0.11326E+01  3200   0.647E+00    0.227E+00
DAV:   2    -0.159239662959E+03   -0.10905E+00   -0.78567E-01  4408   0.326E+00    0.289E+00
DAV:   3    -0.159338207648E+03   -0.98545E-01   -0.55965E-01  4456   0.409E+00    0.684E+00
DAV:   4    -0.159213740915E+03    0.12447E+00   -0.27978E-01  4752   0.223E+00    0.113E+00
DAV:   5    -0.159215477265E+03   -0.17364E-02   -0.15939E-02  4600   0.796E-01    0.907E-01
DAV:   6    -0.159210361290E+03    0.51160E-02   -0.63018E-03  4712   0.434E-01    0.534E-01
DAV:   7    -0.159204208744E+03    0.61525E-02   -0.31045E-03  4376   0.206E-01    0.294E-01
DAV:   8    -0.159206565233E+03   -0.23565E-02   -0.10359E-03  4392   0.157E-01    0.111E-01
DAV:   9    -0.159210569658E+03   -0.40044E-02   -0.26378E-04  4464   0.643E-02    0.112E-01
DAV:  10    -0.159214765554E+03   -0.41959E-02   -0.94977E-05  4296   0.411E-02    0.607E-02
DAV:  11    -0.159220020712E+03   -0.52552E-02   -0.96871E-05  4072   0.309E-02    0.197E-02
DAV:  12    -0.159222827418E+03   -0.28067E-02   -0.27919E-05  3832   0.130E-02    0.117E-02
DAV:  13    -0.159225009919E+03   -0.21825E-02   -0.17489E-05  3432   0.849E-03    0.951E-03
DAV:  14    -0.159227672873E+03   -0.26630E-02   -0.36804E-05  3168   0.935E-03    0.855E-03
DAV:  15    -0.159229995567E+03   -0.23227E-02   -0.60809E-05  3192   0.109E-02    0.665E-03
DAV:  16    -0.159230645992E+03   -0.65043E-03   -0.17912E-05  3648   0.705E-03    0.200E-03
DAV:  17    -0.159230832072E+03   -0.18608E-03   -0.44258E-06  2960   0.327E-03    0.102E-03
DAV:  18    -0.159230878841E+03   -0.46769E-04   -0.12238E-06  2400   0.209E-03    0.847E-04
DAV:  19    -0.159230885988E+03   -0.71464E-05   -0.39753E-07  2208   0.197E-03    0.516E-04
DAV:  20    -0.159230887644E+03   -0.16565E-05   -0.21864E-07  2000   0.132E-03    0.315E-04
DAV:  21    -0.159230888721E+03   -0.10768E-05   -0.12714E-07  2064   0.102E-03    0.238E-04
DAV:  22    -0.159230889684E+03   -0.96243E-06   -0.80278E-08  1976   0.788E-04
   3 F= -.15923089E+03 E0= -.15923089E+03  d E =-.175961E+00  mag=    24.0000
       N       E                     dE             d eps       ncg     rms          rms(c)
DAV:   1    -0.159212348280E+03    0.18540E-01   -0.82096E+00  3056   0.571E+00    0.189E+00
DAV:   2    -0.159323575953E+03   -0.11123E+00   -0.73996E-01  4712   0.355E+00    0.396E+00
DAV:   3    -0.159301936193E+03    0.21640E-01   -0.41578E-01  4464   0.390E+00    0.379E+00
DAV:   4    -0.159265042717E+03    0.36893E-01   -0.12737E-01  4904   0.177E+00    0.681E-01
DAV:   5    -0.159266431244E+03   -0.13885E-02   -0.80014E-03  4640   0.496E-01    0.638E-01
DAV:   6    -0.159265488660E+03    0.94258E-03   -0.26453E-03  4632   0.304E-01    0.480E-01
DAV:   7    -0.159264166811E+03    0.13218E-02   -0.38441E-03  4744   0.269E-01    0.268E-01
DAV:   8    -0.159264397345E+03   -0.23053E-03   -0.10266E-03  4376   0.159E-01    0.756E-02
DAV:   9    -0.159264930142E+03   -0.53280E-03   -0.97429E-05  4416   0.406E-02    0.511E-02
DAV:  10    -0.159265552022E+03   -0.62188E-03   -0.29072E-05  4376   0.262E-02    0.326E-02
DAV:  11    -0.159266244616E+03   -0.69259E-03   -0.23010E-05  4152   0.171E-02    0.236E-02
DAV:  12    -0.159266736416E+03   -0.49180E-03   -0.12946E-05  4320   0.141E-02    0.934E-03
DAV:  13    -0.159267081879E+03   -0.34546E-03   -0.26426E-06  2704   0.545E-03    0.398E-03
DAV:  14    -0.159267483926E+03   -0.40205E-03   -0.52093E-06  2960   0.429E-03    0.300E-03
DAV:  15    -0.159267718808E+03   -0.23488E-03   -0.19020E-06  2512   0.281E-03    0.334E-03
DAV:  16    -0.159267943470E+03   -0.22466E-03   -0.27747E-06  2616   0.318E-03    0.201E-03
DAV:  17    -0.159268157429E+03   -0.21396E-03   -0.40186E-06  2832   0.311E-03    0.135E-03
DAV:  18    -0.159268305793E+03   -0.14836E-03   -0.41479E-06  2800   0.307E-03    0.990E-04
DAV:  19    -0.159268333029E+03   -0.27235E-04   -0.60325E-07  2328   0.185E-03    0.641E-04
DAV:  20    -0.159268345513E+03   -0.12484E-04   -0.56439E-07  2184   0.170E-03    0.707E-04
DAV:  21    -0.159268346467E+03   -0.95417E-06   -0.20536E-07  1944   0.156E-03
   4 F= -.15926835E+03 E0= -.15926835E+03  d E =-.374568E-01  mag=    24.0000
       N       E                     dE             d eps       ncg     rms          rms(c)
DAV:   1    -0.159260750067E+03    0.75954E-02   -0.17419E+00  3112   0.263E+00    0.885E-01
DAV:   2    -0.159284379504E+03   -0.23629E-01   -0.15524E-01  4624   0.161E+00    0.199E+00
DAV:   3    -0.159279478797E+03    0.49007E-02   -0.98903E-02  4448   0.177E+00    0.172E+00
DAV:   4    -0.159271389836E+03    0.80890E-02   -0.22936E-02  4840   0.817E-01    0.289E-01
DAV:   5    -0.159271665364E+03   -0.27553E-03   -0.15979E-03  4784   0.210E-01    0.281E-01
DAV:   6    -0.159271448888E+03    0.21648E-03   -0.60596E-04  4496   0.140E-01    0.224E-01
DAV:   7    -0.159271012935E+03    0.43595E-03   -0.72978E-04  4664   0.118E-01    0.898E-02
DAV:   8    -0.159271094668E+03   -0.81733E-04   -0.16804E-04  4312   0.615E-02    0.312E-02
DAV:   9    -0.159271235858E+03   -0.14119E-03   -0.16523E-05  4296   0.171E-02    0.231E-02
DAV:  10    -0.159271426823E+03   -0.19096E-03   -0.34696E-06  2840   0.961E-03    0.152E-02
DAV:  11    -0.159271652530E+03   -0.22571E-03   -0.77564E-06  3544   0.788E-03    0.101E-02
DAV:  12    -0.159271801935E+03   -0.14941E-03   -0.25041E-06  2664   0.627E-03    0.328E-03
DAV:  13    -0.159271910025E+03   -0.10809E-03   -0.12190E-06  2240   0.309E-03    0.241E-03
DAV:  14    -0.159271989177E+03   -0.79152E-04   -0.70748E-07  2128   0.272E-03    0.176E-03
DAV:  15    -0.159272095517E+03   -0.10634E-03   -0.15280E-06  2384   0.238E-03    0.192E-03
DAV:  16    -0.159272200873E+03   -0.10536E-03   -0.14047E-06  2328   0.233E-03    0.146E-03
DAV:  17    -0.159272242398E+03   -0.41525E-04   -0.53641E-07  2136   0.194E-03    0.154E-03
DAV:  18    -0.159272297152E+03   -0.54754E-04   -0.11216E-06  2280   0.213E-03    0.779E-04
DAV:  19    -0.159272332466E+03   -0.35314E-04   -0.11193E-06  2296   0.220E-03    0.985E-04
DAV:  20    -0.159272342298E+03   -0.98325E-05   -0.47518E-07  2144   0.178E-03    0.328E-04
DAV:  21    -0.159272345413E+03   -0.31148E-05   -0.28364E-07  1944   0.140E-03    0.616E-04
DAV:  22    -0.159272346109E+03   -0.69593E-06   -0.15128E-07  1912   0.111E-03
   5 F= -.15927235E+03 E0= -.15927235E+03  d E =-.414564E-01  mag=    24.0000
       N       E                     dE             d eps       ncg     rms          rms(c)
DAV:   1    -0.159268613822E+03    0.37316E-02   -0.12066E+00  3080   0.220E+00    0.778E-01
DAV:   2    -0.159277691151E+03   -0.90773E-02   -0.93151E-02  4296   0.116E+00    0.590E-01
DAV:   3    -0.159285230140E+03   -0.75390E-02   -0.29902E-02  5008   0.970E-01    0.162E+00
DAV:   4    -0.159276637774E+03    0.85924E-02   -0.19827E-02  4680   0.711E-01    0.312E-01
DAV:   5    -0.159277025410E+03   -0.38764E-03   -0.19738E-03  4544   0.239E-01    0.206E-01
DAV:   6    -0.159276562638E+03    0.46277E-03   -0.41825E-04  4504   0.899E-02    0.143E-01
DAV:   7    -0.159276170654E+03    0.39198E-03   -0.27763E-04  4416   0.647E-02    0.863E-02
DAV:   8    -0.159276228674E+03   -0.58020E-04   -0.56418E-05  4952   0.398E-02    0.282E-02
DAV:   9    -0.159276443686E+03   -0.21501E-03   -0.25206E-05  4304   0.213E-02    0.225E-02
DAV:  10    -0.159276756978E+03   -0.31329E-03   -0.89872E-06  3504   0.153E-02    0.120E-02
DAV:  11    -0.159276967293E+03   -0.21032E-03   -0.32962E-06  2832   0.821E-03    0.617E-03
DAV:  12    -0.159277175417E+03   -0.20812E-03   -0.29623E-06  2816   0.453E-03    0.483E-03
DAV:  13    -0.159277388826E+03   -0.21341E-03   -0.17459E-06  2504   0.337E-03    0.301E-03
DAV:  14    -0.159277505205E+03   -0.11638E-03   -0.87209E-07  2296   0.266E-03    0.183E-03
DAV:  15    -0.159277671692E+03   -0.16649E-03   -0.23377E-06  2640   0.288E-03    0.183E-03
DAV:  16    -0.159277813879E+03   -0.14219E-03   -0.21472E-06  2680   0.273E-03    0.121E-03
DAV:  17    -0.159277883090E+03   -0.69211E-04   -0.11166E-06  2400   0.223E-03    0.890E-04
DAV:  18    -0.159277910771E+03   -0.27681E-04   -0.57756E-07  2248   0.200E-03    0.604E-04
DAV:  19    -0.159277924826E+03   -0.14055E-04   -0.50763E-07  2168   0.174E-03    0.655E-04
DAV:  20    -0.159277927865E+03   -0.30393E-05   -0.23934E-07  1960   0.159E-03    0.299E-04
DAV:  21    -0.159277930282E+03   -0.24164E-05   -0.21200E-07  1960   0.978E-04    0.331E-04
DAV:  22    -0.159277930646E+03   -0.36473E-06   -0.90985E-08  1912   0.107E-03
   6 F= -.15927793E+03 E0= -.15927793E+03  d E =-.558454E-02  mag=    24.0000
       N       E                     dE             d eps       ncg     rms          rms(c)
DAV:   1    -0.159275997126E+03    0.19332E-02   -0.34833E-01  3104   0.118E+00    0.422E-01
DAV:   2    -0.159278542623E+03   -0.25455E-02   -0.26736E-02  4272   0.623E-01    0.339E-01
DAV:   3    -0.159281227521E+03   -0.26849E-02   -0.10664E-02  4896   0.555E-01    0.958E-01
DAV:   4    -0.159278140194E+03    0.30873E-02   -0.67676E-03  4616   0.413E-01    0.167E-01
DAV:   5    -0.159278307996E+03   -0.16780E-03   -0.58076E-04  4544   0.126E-01    0.111E-01
DAV:   6    -0.159278136111E+03    0.17188E-03   -0.12084E-04  4488   0.483E-02    0.774E-02
DAV:   7    -0.159277958338E+03    0.17777E-03   -0.79827E-05  4376   0.353E-02    0.483E-02
DAV:   8    -0.159277968475E+03   -0.10136E-04   -0.17544E-05  4288   0.218E-02    0.148E-02
DAV:   9    -0.159278049921E+03   -0.81447E-04   -0.73808E-06  3136   0.109E-02    0.126E-02
DAV:  10    -0.159278171342E+03   -0.12142E-03   -0.28649E-06  2560   0.998E-03    0.693E-03
DAV:  11    -0.159278274708E+03   -0.10337E-03   -0.18613E-06  2376   0.599E-03    0.319E-03
DAV:  12    -0.159278339118E+03   -0.64410E-04   -0.11186E-06  2200   0.307E-03    0.241E-03
DAV:  13    -0.159278410548E+03   -0.71430E-04   -0.76080E-07  2176   0.280E-03    0.232E-03
DAV:  14    -0.159278485622E+03   -0.75073E-04   -0.99407E-07  2304   0.252E-03    0.187E-03
DAV:  15    -0.159278560427E+03   -0.74805E-04   -0.12267E-06  2392   0.285E-03    0.133E-03
DAV:  16    -0.159278578893E+03   -0.18466E-04   -0.36211E-07  2016   0.188E-03    0.790E-04
DAV:  17    -0.159278614860E+03   -0.35967E-04   -0.52631E-07  2096   0.145E-03    0.977E-04
DAV:  18    -0.159278646550E+03   -0.31690E-04   -0.54984E-07  2256   0.178E-03    0.672E-04
DAV:  19    -0.159278668570E+03   -0.22021E-04   -0.74646E-07  2248   0.176E-03    0.849E-04
DAV:  20    -0.159278671662E+03   -0.30916E-05   -0.27175E-07  2008   0.176E-03    0.366E-04
DAV:  21    -0.159278672572E+03   -0.91011E-06   -0.13692E-07  1912   0.864E-04
   7 F= -.15927867E+03 E0= -.15927867E+03  d E =-.632646E-02  mag=    24.0000
       N       E                     dE             d eps       ncg     rms          rms(c)
DAV:   1    -0.159276893749E+03    0.17779E-02   -0.51350E-01  3120   0.146E+00    0.442E-01
DAV:   2    -0.159280664625E+03   -0.37709E-02   -0.33781E-02  4232   0.686E-01    0.452E-01
DAV:   3    -0.159284865925E+03   -0.42013E-02   -0.19570E-02  4728   0.700E-01    0.123E+00
DAV:   4    -0.159280206523E+03    0.46594E-02   -0.11588E-02  4360   0.505E-01    0.149E-01
DAV:   5    -0.159280604826E+03   -0.39830E-03   -0.48802E-04  4544   0.955E-02    0.103E-01
DAV:   6    -0.159280616915E+03   -0.12089E-04   -0.91438E-05  4504   0.483E-02    0.855E-02
DAV:   7    -0.159280632164E+03   -0.15248E-04   -0.80584E-05  4216   0.255E-02    0.553E-02
DAV:   8    -0.159280645411E+03   -0.13247E-04   -0.34700E-05  4760   0.285E-02    0.145E-02
DAV:   9    -0.159280664208E+03   -0.18797E-04   -0.78596E-06  3264   0.159E-02    0.995E-03
DAV:  10    -0.159280679580E+03   -0.15373E-04   -0.13244E-06  2304   0.657E-03    0.604E-03
DAV:  11    -0.159280689532E+03   -0.99521E-05   -0.76496E-07  2104   0.521E-03    0.310E-03
DAV:  12    -0.159280696877E+03   -0.73446E-05   -0.55352E-07  2000   0.218E-03    0.227E-03
DAV:  13    -0.159280700163E+03   -0.32864E-05   -0.20107E-07  1920   0.194E-03    0.137E-03
DAV:  14    -0.159280704541E+03   -0.43777E-05   -0.14519E-07  1872   0.127E-03    0.138E-03
DAV:  15    -0.159280709997E+03   -0.54554E-05   -0.13841E-07  1968   0.139E-03    0.842E-04
DAV:  16    -0.159280713116E+03   -0.31192E-05   -0.11345E-07  1920   0.914E-04    0.502E-04
DAV:  17    -0.159280714429E+03   -0.13131E-05   -0.49559E-08  1920   0.853E-04    0.363E-04
DAV:  18    -0.159280716065E+03   -0.16363E-05   -0.40745E-08  1888   0.511E-04    0.367E-04
DAV:  19    -0.159280718455E+03   -0.23898E-05   -0.58572E-08  1928   0.572E-04    0.351E-04
DAV:  20    -0.159280720257E+03   -0.18022E-05   -0.67264E-08  1920   0.569E-04    0.269E-04
DAV:  21    -0.159280720901E+03   -0.64363E-06   -0.37784E-08  1904   0.546E-04
   8 F= -.15928072E+03 E0= -.15928072E+03  d E =-.204833E-02  mag=    24.0000
       N       E                     dE             d eps       ncg     rms          rms(c)
DAV:   1    -0.159276746814E+03    0.39734E-02   -0.63885E-01  3040   0.162E+00    0.494E-01
DAV:   2    -0.159281506218E+03   -0.47594E-02   -0.42214E-02  4216   0.767E-01    0.521E-01
DAV:   3    -0.159286879320E+03   -0.53731E-02   -0.26518E-02  4656   0.794E-01    0.142E+00
DAV:   4    -0.159280851818E+03    0.60275E-02   -0.15810E-02  4320   0.568E-01    0.170E-01
DAV:   5    -0.159281366727E+03   -0.51491E-03   -0.62550E-04  4584   0.110E-01    0.115E-01
DAV:   6    -0.159281383800E+03   -0.17073E-04   -0.11488E-04  4480   0.537E-02    0.962E-02
DAV:   7    -0.159281403235E+03   -0.19435E-04   -0.99428E-05  4208   0.280E-02    0.614E-02
DAV:   8    -0.159281420488E+03   -0.17253E-04   -0.41808E-05  4920   0.309E-02    0.156E-02
DAV:   9    -0.159281442764E+03   -0.22276E-04   -0.98728E-06  3608   0.171E-02    0.110E-02
DAV:  10    -0.159281461218E+03   -0.18454E-04   -0.13101E-06  2288   0.715E-03    0.656E-03
DAV:  11    -0.159281473462E+03   -0.12244E-04   -0.86219E-07  2184   0.556E-03    0.330E-03
DAV:  12    -0.159281482433E+03   -0.89705E-05   -0.73485E-07  2008   0.240E-03    0.256E-03
DAV:  13    -0.159281486219E+03   -0.37864E-05   -0.25101E-07  1928   0.226E-03    0.144E-03
DAV:  14    -0.159281491098E+03   -0.48788E-05   -0.16718E-07  1904   0.138E-03    0.143E-03
DAV:  15    -0.159281497216E+03   -0.61182E-05   -0.14701E-07  1968   0.148E-03    0.934E-04
DAV:  16    -0.159281501337E+03   -0.41211E-05   -0.13932E-07  1968   0.954E-04    0.559E-04
DAV:  17    -0.159281503197E+03   -0.18596E-05   -0.60594E-08  1880   0.931E-04    0.411E-04
DAV:  18    -0.159281505347E+03   -0.21504E-05   -0.54397E-08  1912   0.581E-04    0.418E-04
DAV:  19    -0.159281508074E+03   -0.27273E-05   -0.72085E-08  1952   0.653E-04    0.424E-04
DAV:  20    -0.159281510253E+03   -0.21784E-05   -0.88330E-08  1984   0.646E-04    0.302E-04
DAV:  21    -0.159281511020E+03   -0.76684E-06   -0.49525E-08  1920   0.634E-04
   9 F= -.15928151E+03 E0= -.15928151E+03  d E =-.283845E-02  mag=    24.0000
       N       E                     dE             d eps       ncg     rms          rms(c)
DAV:   1    -0.159279129033E+03    0.23812E-02   -0.84643E-01  3040   0.171E+00    0.446E-01
DAV:   2    -0.159287931656E+03   -0.88026E-02   -0.54083E-02  4680   0.936E-01    0.131E+00
DAV:   3    -0.159283222863E+03    0.47088E-02   -0.28604E-02  4584   0.889E-01    0.565E-01
DAV:   4    -0.159283024440E+03    0.19842E-03   -0.30252E-03  4808   0.272E-01    0.117E-01
DAV:   5    -0.159283041442E+03   -0.17003E-04   -0.21562E-04  4392   0.447E-02    0.124E-01
DAV:   6    -0.159282980767E+03    0.60675E-04   -0.15963E-04  4536   0.573E-02    0.495E-02
DAV:   7    -0.159282978295E+03    0.24722E-05   -0.45807E-05  4208   0.240E-02    0.202E-02
DAV:   8    -0.159282988957E+03   -0.10662E-04   -0.34318E-06  2552   0.125E-02    0.957E-03
DAV:   9    -0.159283007123E+03   -0.18166E-04   -0.23234E-06  2264   0.928E-03    0.923E-03
DAV:  10    -0.159283024316E+03   -0.17193E-04   -0.17095E-06  2192   0.896E-03    0.599E-03
DAV:  11    -0.159283044597E+03   -0.20281E-04   -0.12714E-06  2064   0.464E-03    0.305E-03
DAV:  12    -0.159283056409E+03   -0.11812E-04   -0.72028E-07  1912   0.287E-03    0.242E-03
DAV:  13    -0.159283067420E+03   -0.11011E-04   -0.28586E-07  1904   0.181E-03    0.183E-03
DAV:  14    -0.159283088656E+03   -0.21237E-04   -0.39591E-07  2088   0.195E-03    0.148E-03
DAV:  15    -0.159283100717E+03   -0.12061E-04   -0.31561E-07  2000   0.225E-03    0.112E-03
DAV:  16    -0.159283104590E+03   -0.38726E-05   -0.16726E-07  1928   0.156E-03    0.744E-04
DAV:  17    -0.159283105418E+03   -0.82827E-06   -0.87856E-08  1960   0.955E-04
  10 F= -.15928311E+03 E0= -.15928311E+03  d E =-.159440E-02  mag=    24.0000
       N       E                     dE             d eps       ncg     rms          rms(c)
DAV:   1    -0.159280528020E+03    0.25766E-02   -0.65837E-01  3040   0.151E+00    0.393E-01
DAV:   2    -0.159287280769E+03   -0.67527E-02   -0.41702E-02  4712   0.823E-01    0.115E+00
DAV:   3    -0.159283724331E+03    0.35564E-02   -0.22193E-02  4592   0.782E-01    0.501E-01
DAV:   4    -0.159283547618E+03    0.17671E-03   -0.23672E-03  4808   0.243E-01    0.103E-01
DAV:   5    -0.159283560357E+03   -0.12739E-04   -0.16934E-04  4400   0.396E-02    0.109E-01
DAV:   6    -0.159283511238E+03    0.49119E-04   -0.12828E-04  4632   0.519E-02    0.441E-02
DAV:   7    -0.159283510401E+03    0.83725E-06   -0.38806E-05  4360   0.253E-02    0.207E-02
DAV:   8    -0.159283520137E+03   -0.97362E-05   -0.10200E-05  2912   0.233E-02    0.163E-02
DAV:   9    -0.159283529725E+03   -0.95884E-05   -0.41510E-06  2464   0.143E-02    0.669E-03
DAV:  10    -0.159283552326E+03   -0.22601E-04   -0.13289E-06  2056   0.440E-03    0.547E-03
DAV:  11    -0.159283571059E+03   -0.18733E-04   -0.81998E-07  2024   0.373E-03    0.324E-03
DAV:  12    -0.159283584496E+03   -0.13436E-04   -0.44927E-07  1904   0.241E-03    0.207E-03
DAV:  13    -0.159283596926E+03   -0.12431E-04   -0.27471E-07  1968   0.215E-03    0.142E-03
DAV:  14    -0.159283614284E+03   -0.17358E-04   -0.32159E-07  2064   0.184E-03    0.125E-03
DAV:  15    -0.159283622609E+03   -0.83248E-05   -0.21630E-07  1912   0.134E-03    0.798E-04
DAV:  16    -0.159283629809E+03   -0.72007E-05   -0.17396E-07  1960   0.119E-03    0.672E-04
DAV:  17    -0.159283631620E+03   -0.18111E-05   -0.65098E-08  1944   0.886E-04    0.343E-04
DAV:  18    -0.159283635257E+03   -0.36366E-05   -0.67039E-08  1864   0.638E-04    0.456E-04
DAV:  19    -0.159283643323E+03   -0.80656E-05   -0.23130E-07  2072   0.813E-04    0.365E-04
DAV:  20    -0.159283644358E+03   -0.10350E-05   -0.57115E-08  1928   0.839E-04    0.315E-04
DAV:  21    -0.159283644977E+03   -0.61944E-06   -0.39771E-08  1896   0.410E-04
  11 F= -.15928364E+03 E0= -.15928364E+03  d E =-.213396E-02  mag=    24.0000
       N       E                     dE             d eps       ncg     rms          rms(c)
DAV:   1    -0.159281186629E+03    0.24577E-02   -0.54713E-01  3112   0.147E+00    0.411E-01
DAV:   2    -0.159285349873E+03   -0.41632E-02   -0.37053E-02  4280   0.734E-01    0.617E-01
DAV:   3    -0.159287791917E+03   -0.24420E-02   -0.23017E-02  4496   0.729E-01    0.109E+00
DAV:   4    -0.159284241628E+03    0.35503E-02   -0.96544E-03  4576   0.478E-01    0.122E-01
DAV:   5    -0.159284533104E+03   -0.29148E-03   -0.37448E-04  4384   0.553E-02    0.118E-01
DAV:   6    -0.159284459810E+03    0.73294E-04   -0.13865E-04  4576   0.576E-02    0.775E-02
DAV:   7    -0.159284395061E+03    0.64750E-04   -0.10024E-04  5064   0.581E-02    0.660E-02
DAV:   8    -0.159284373012E+03    0.22049E-04   -0.50422E-05  5200   0.399E-02    0.173E-02
DAV:   9    -0.159284396573E+03   -0.23561E-04   -0.73070E-06  3608   0.114E-02    0.881E-03
DAV:  10    -0.159284439636E+03   -0.43063E-04   -0.15546E-06  2048   0.620E-03    0.529E-03
DAV:  11    -0.159284471464E+03   -0.31828E-04   -0.69517E-07  2064   0.396E-03    0.449E-03
DAV:  12    -0.159284509645E+03   -0.38181E-04   -0.70222E-07  2144   0.251E-03    0.256E-03
DAV:  13    -0.159284537470E+03   -0.27825E-04   -0.42679E-07  2000   0.240E-03    0.145E-03
DAV:  14    -0.159284558913E+03   -0.21443E-04   -0.37654E-07  2016   0.179E-03    0.944E-04
DAV:  15    -0.159284577888E+03   -0.18974E-04   -0.25447E-07  2008   0.156E-03    0.108E-03
DAV:  16    -0.159284594860E+03   -0.16972E-04   -0.26303E-07  1976   0.133E-03    0.660E-04
DAV:  17    -0.159284611014E+03   -0.16154E-04   -0.23560E-07  2000   0.114E-03    0.640E-04
DAV:  18    -0.159284626987E+03   -0.15973E-04   -0.28247E-07  2048   0.117E-03    0.629E-04
DAV:  19    -0.159284635897E+03   -0.89094E-05   -0.19179E-07  1960   0.113E-03    0.409E-04
DAV:  20    -0.159284642732E+03   -0.68352E-05   -0.19388E-07  2008   0.965E-04    0.478E-04
DAV:  21    -0.159284645946E+03   -0.32138E-05   -0.12012E-07  1904   0.959E-04    0.276E-04
DAV:  22    -0.159284649102E+03   -0.31566E-05   -0.15600E-07  1992   0.746E-04    0.378E-04
DAV:  23    -0.159284649578E+03   -0.47541E-06   -0.67539E-08  1936   0.843E-04
  12 F= -.15928465E+03 E0= -.15928465E+03  d E =-.100460E-02  mag=    24.0000
