33
Lattice="12.092548997049326 0.0 0.0 -6.046274498524663 10.47245462795275 0.0 0.0 0.0 20.0" Properties=species:S:1:pos:R:3:momenta:R:3 pbc="T T T"
Cr      -0.03547358       3.40531886       9.98422269       0.00000000       0.00000000       0.00000000
Cr       2.96682943       1.67193841       9.98422269       0.00000000       0.00000000       0.00000000
Cr       6.13805590       3.50284686       9.98422269       0.00000000       0.00000000       0.00000000
Cr       9.06941175       1.74540910       9.91460113       0.00000000       0.00000000       0.00000000
Cr      -3.02313725       8.72704552       9.91460113       0.00000000       0.00000000       0.00000000
Cr      -0.03547358       7.06713577       9.98422269       0.00000000       0.00000000       0.00000000
Cr       2.96682943       8.80051622       9.98422269       0.00000000       0.00000000       0.00000000
Cr       6.13805590       6.96960777       9.98422269       0.00000000       0.00000000       0.00000000
Cl      -0.84552350       5.23622731       8.69245787       0.00000000       0.00000000       0.00000000
Cl       4.95746762       1.88586883       8.69245787       0.00000000       0.00000000       0.00000000
Cl       1.98419076       3.43671921       8.74026100       0.00000000       0.00000000       0.00000000
Cl       0.78193292       5.23622731      11.60615343       0.00000000       0.00000000       0.00000000
Cl      10.10286287       3.36115309      11.31549616       0.00000000       0.00000000       0.00000000
Cl       1.02545773       1.77614488      11.37093252       0.00000000       0.00000000       0.00000000
Cl       5.10103023       5.23622731       8.74026100       0.00000000       0.00000000       0.00000000
Cl      11.00233075       1.81809525       8.55029765       0.00000000       0.00000000       0.00000000
Cl       8.04000419       3.38302299       8.55029765       0.00000000       0.00000000       0.00000000
Cl       7.01849630       5.23622731      11.37093252       0.00000000       0.00000000       0.00000000
Cl       4.14373942       3.29528743      11.60615343       0.00000000       0.00000000       0.00000000
Cl       7.15341085       1.83253204      11.31549616       0.00000000       0.00000000       0.00000000
Cl      -3.92664870      10.43734556       8.55029765       0.00000000       0.00000000       0.00000000
Cl       1.98419076       7.03573542       8.74026100       0.00000000       0.00000000       0.00000000
Cl      -1.09021824       8.65435938       8.55029765       0.00000000       0.00000000       0.00000000
Cl      -2.14058747      10.42991244      11.31549616       0.00000000       0.00000000       0.00000000
Cl      -4.93913814       8.63992259      11.31549616       0.00000000       0.00000000       0.00000000
Cl      -1.98968613       7.11130154      11.31549616       0.00000000       0.00000000       0.00000000
Cl       8.16590030       0.03510907       8.55029765       0.00000000       0.00000000       0.00000000
Cl      -4.05254480       7.08943163       8.55029765       0.00000000       0.00000000       0.00000000
Cl       4.95746762       8.58658580       8.69245787       0.00000000       0.00000000       0.00000000
Cl       9.95196152       0.04254219      11.31549616       0.00000000       0.00000000       0.00000000
Cl       1.02545773       8.69630974      11.37093252       0.00000000       0.00000000       0.00000000
Cl       4.14373942       7.17716720      11.60615343       0.00000000       0.00000000       0.00000000
Fe       3.02313725       5.23622731      11.74128428       0.00000000       0.00000000       0.00000000
