Cr8Cl24                                 
   1.0000000000000000     
    12.1682323165561677    0.0016454480897831    0.0000000000000000
    -6.1314979671184711   10.5521182477466997    0.0000000000000000
     0.0000000000000000    0.0000000000000000   17.6887664794999999
  Cr              Cl              Ni            
     8    24     1
Direct
     0.1553337509885842    0.3420720851210723    0.3374869698798231
     0.1560423870584567    0.8418639792564333    0.3375044789918178
     0.6584120669809900    0.3399300259913182    0.3383811824466968
     0.6568194341992788    0.8460881120966955    0.3353744862120440
     0.8261835910092254    0.1751546144103484    0.3373296912622559
     0.8231146851003276    0.6758470324272303    0.3355688187914390
     0.3233978527826192    0.1745468475578603    0.3398476964191045
     0.3234264307047867    0.6795492643831627    0.3361996443947893
     0.1682626925634414    0.5090773219061601    0.2640156591851402
     0.1696724233238791    0.0092595850867804    0.2632432293219357
     0.6595268294272441    0.5041676715640943    0.2592556096110374
     0.6721772437706890    0.0122551623402244    0.2605410421207135
     0.3288600672482412    0.3445611585429353    0.2651539651544207
     0.3098638799341960    0.8311375447875117    0.2614254815594070
     0.8131606657192567    0.3276428671365359    0.2622410806434591
     0.8099463114066283    0.8295801760252477    0.2625252059475915
     0.9927992958371549    0.1884983331602247    0.2612094778886845
     0.9916310753924510    0.6903101843301175    0.2604738224428624
     0.4896759402522124    0.1843423628959238    0.2668971430280356
     0.4889660463369412    0.6903970072684483    0.2591229289426785
     0.9909374753973335    0.3286253434728301    0.4138441607443851
     0.9895552806124359    0.8285388852479522    0.4125626124041765
     0.4923408037115243    0.3293346937895285    0.4205392962603146
     0.4908756214245341    0.8342621247304924    0.4098407958993594
     0.3255925057761631    0.5130356317033444    0.4089702773382577
     0.3076335753372496    0.0051982752747675    0.4145690067157887
     0.8132679731754475    0.5103327360463434    0.4092234163867134
     0.8118581431612889    0.0060950711232111    0.4115255909910241
     0.1690226393823285    0.1890865011777063    0.4115664065138551
     0.1698252597077380    0.6873023162887482    0.4120706618112536
     0.6745092316092677    0.1863956180552981    0.4140070162100351
     0.6516341057776023    0.6726799212387132    0.4086614456688262
     0.5024532118904846    0.4891972585627509    0.3420617418120745

  0.00000000E+00  0.00000000E+00  0.00000000E+00
  0.00000000E+00  0.00000000E+00  0.00000000E+00
  0.00000000E+00  0.00000000E+00  0.00000000E+00
  0.00000000E+00  0.00000000E+00  0.00000000E+00
  0.00000000E+00  0.00000000E+00  0.00000000E+00
  0.00000000E+00  0.00000000E+00  0.00000000E+00
  0.00000000E+00  0.00000000E+00  0.00000000E+00
  0.00000000E+00  0.00000000E+00  0.00000000E+00
  0.00000000E+00  0.00000000E+00  0.00000000E+00
  0.00000000E+00  0.00000000E+00  0.00000000E+00
  0.00000000E+00  0.00000000E+00  0.00000000E+00
  0.00000000E+00  0.00000000E+00  0.00000000E+00
  0.00000000E+00  0.00000000E+00  0.00000000E+00
  0.00000000E+00  0.00000000E+00  0.00000000E+00
  0.00000000E+00  0.00000000E+00  0.00000000E+00
  0.00000000E+00  0.00000000E+00  0.00000000E+00
  0.00000000E+00  0.00000000E+00  0.00000000E+00
  0.00000000E+00  0.00000000E+00  0.00000000E+00
  0.00000000E+00  0.00000000E+00  0.00000000E+00
  0.00000000E+00  0.00000000E+00  0.00000000E+00
  0.00000000E+00  0.00000000E+00  0.00000000E+00
  0.00000000E+00  0.00000000E+00  0.00000000E+00
  0.00000000E+00  0.00000000E+00  0.00000000E+00
  0.00000000E+00  0.00000000E+00  0.00000000E+00
  0.00000000E+00  0.00000000E+00  0.00000000E+00
  0.00000000E+00  0.00000000E+00  0.00000000E+00
  0.00000000E+00  0.00000000E+00  0.00000000E+00
  0.00000000E+00  0.00000000E+00  0.00000000E+00
  0.00000000E+00  0.00000000E+00  0.00000000E+00
  0.00000000E+00  0.00000000E+00  0.00000000E+00
  0.00000000E+00  0.00000000E+00  0.00000000E+00
  0.00000000E+00  0.00000000E+00  0.00000000E+00
  0.00000000E+00  0.00000000E+00  0.00000000E+00
