CrCl3 2x2 + Fe | Site S2 (Threefold Surface Hollow, z=+1.77A) | U_all=3.29eV
   1.00000000000000     
    12.0925489970493256    0.0000000000000000    0.0000000000000000
    -6.0462744985246628   10.4724546279527502    0.0000000000000000
     0.0000000000000000    0.0000000000000000   20.0000000000000000
   Cr   Cl   Fe
     8    24     1
Direct
     0.1596510526618487    0.3251691202145677    0.4992111345546071
     0.3251691202145677    0.1596510526618487    0.4992111345546071
     0.6748308797854170    0.3344819324472456    0.4992111345546071
     0.8333333333333286    0.1666666666666714    0.4957300565610380
     0.1666666666666714    0.8333333333333286    0.4957300565610380
     0.3344819324472456    0.6748308797854170    0.4992111345546071
     0.6655180675527193    0.8403489473382126    0.4992111345546071
     0.8403489473382126    0.6655180675527193    0.4992111345546071
     0.1800789686993602    0.5000000000000000    0.4346228933844447
     0.5000000000000000    0.1800789686993602    0.4346228933844447
     0.3281674958047041    0.3281674958047041    0.4370130502387891
     0.3146623732252937    0.5000000000000000    0.5803076713250074
     0.9959377058621993    0.3209517926595332    0.5657748081567087
     0.1696015830289247    0.1696015830289247    0.5685466258162987
     0.6718325041952723    0.5000000000000000    0.4370130502387891
     0.9966474843733458    0.1736073649739701    0.4275148824126865
     0.8263926350260329    0.3230401193993522    0.4275148824126865
     0.8303984169710674    0.5000000000000000    0.5685466258162987
     0.5000000000000000    0.3146623732252937    0.5803076713250074
     0.6790482073404425    0.1749859132026439    0.5657748081567087
     0.1736073649739701    0.9966474843733458    0.4275148824126865
     0.5000000000000000    0.6718325041952723    0.4370130502387891
     0.3230401193993522    0.8263926350260329    0.4275148824126865
     0.3209517926595332    0.9959377058621993    0.5657748081567087
     0.0040622941378143    0.8250140867973547    0.5657748081567087
     0.1749859132026439    0.6790482073404425    0.5657748081567087
     0.6769598806006670    0.0033525156266996    0.4275148824126865
     0.0033525156266996    0.6769598806006670    0.4275148824126865
     0.8199210313006087    0.8199210313006087    0.4346228933844447
     0.8250140867973547    0.0040622941378142    0.5657748081567087
     0.5000000000000000    0.8303984169710674    0.5685466258162987
     0.6853376267747047    0.6853376267747047    0.5803076713250074
     0.5000000000000000    0.5000000000000000    0.5870642138399494
 
  0.00000000E+00  0.00000000E+00  0.00000000E+00
  0.00000000E+00  0.00000000E+00  0.00000000E+00
  0.00000000E+00  0.00000000E+00  0.00000000E+00
  0.00000000E+00  0.00000000E+00  0.00000000E+00
  0.00000000E+00  0.00000000E+00  0.00000000E+00
  0.00000000E+00  0.00000000E+00  0.00000000E+00
  0.00000000E+00  0.00000000E+00  0.00000000E+00
  0.00000000E+00  0.00000000E+00  0.00000000E+00
  0.00000000E+00  0.00000000E+00  0.00000000E+00
  0.00000000E+00  0.00000000E+00  0.00000000E+00
  0.00000000E+00  0.00000000E+00  0.00000000E+00
  0.00000000E+00  0.00000000E+00  0.00000000E+00
  0.00000000E+00  0.00000000E+00  0.00000000E+00
  0.00000000E+00  0.00000000E+00  0.00000000E+00
  0.00000000E+00  0.00000000E+00  0.00000000E+00
  0.00000000E+00  0.00000000E+00  0.00000000E+00
  0.00000000E+00  0.00000000E+00  0.00000000E+00
  0.00000000E+00  0.00000000E+00  0.00000000E+00
  0.00000000E+00  0.00000000E+00  0.00000000E+00
  0.00000000E+00  0.00000000E+00  0.00000000E+00
  0.00000000E+00  0.00000000E+00  0.00000000E+00
  0.00000000E+00  0.00000000E+00  0.00000000E+00
  0.00000000E+00  0.00000000E+00  0.00000000E+00
  0.00000000E+00  0.00000000E+00  0.00000000E+00
  0.00000000E+00  0.00000000E+00  0.00000000E+00
  0.00000000E+00  0.00000000E+00  0.00000000E+00
  0.00000000E+00  0.00000000E+00  0.00000000E+00
  0.00000000E+00  0.00000000E+00  0.00000000E+00
  0.00000000E+00  0.00000000E+00  0.00000000E+00
  0.00000000E+00  0.00000000E+00  0.00000000E+00
  0.00000000E+00  0.00000000E+00  0.00000000E+00
  0.00000000E+00  0.00000000E+00  0.00000000E+00
  0.00000000E+00  0.00000000E+00  0.00000000E+00
