Cr Cl                                   
   1.0000000000000000     
    12.0925489970493256    0.0000000000000000    0.0000000000000000
    -6.0462744985246628   10.4724546279527502    0.0000000000000000
     0.0000000000000000    0.0000000000000000   20.0000000000000000
  Cr              Cl            
     8    24
Direct
     0.1619379541662269    0.3279533121997673    0.4993976543277654
     0.3279533121997673    0.1619379541662269    0.4993976543277654
     0.6720466878002327    0.3339846419664383    0.4993976543277654
     0.8333333333333286    0.1666666666666714    0.4977587642589256
     0.1666666666666714    0.8333333333333286    0.4977587642589256
     0.3339846419664383    0.6720466878002327    0.4993976543277654
     0.6660153580335617    0.8380620458337731    0.4993976543277654
     0.8380620458337731    0.6660153580335617    0.4993976543277654
     0.1784355098768273    0.5000000000000000    0.4335176407854817
     0.5000000000000000    0.1784355098768273    0.4335176407854817
     0.3240751739232124    0.3240751739232124    0.4343528881651721
     0.3162872748415850    0.5000000000000000    0.5743672390126093
     0.9975337709065286    0.3210031561170084    0.5669358796132755
     0.1722530259688568    0.1722530259688568    0.5680443576592253
     0.6759248260767876    0.5000000000000000    0.4343528881651721
     0.9971237326507918    0.1737184725219549    0.4298524703953603
     0.8262815274780451    0.3234052601288226    0.4298524703953603
     0.8277469740311432    0.5000000000000000    0.5680443576592253
     0.5000000000000000    0.3162872748415850    0.5743672390126093
     0.6789968438829916    0.1765306147895203    0.5669358796132755
     0.1737184725219549    0.9971237326507918    0.4298524703953603
     0.5000000000000000    0.6759248260767876    0.4343528881651721
     0.3234052601288226    0.8262815274780451    0.4298524703953603
     0.3210031561170084    0.9975337709065286    0.5669358796132755
     0.0024662290934714    0.8234693852104797    0.5669358796132755
     0.1765306147895203    0.6789968438829916    0.5669358796132755
     0.6765947398711774    0.0028762673492153    0.4298524703953603
     0.0028762673492153    0.6765947398711774    0.4298524703953603
     0.8215644901231727    0.8215644901231727    0.4335176407854817
     0.8234693852104797    0.0024662290934714    0.5669358796132755
     0.5000000000000000    0.8277469740311432    0.5680443576592253
     0.6837127251584150    0.6837127251584150    0.5743672390126093

  0.00000000E+00  0.00000000E+00  0.00000000E+00
  0.00000000E+00  0.00000000E+00  0.00000000E+00
  0.00000000E+00  0.00000000E+00  0.00000000E+00
  0.00000000E+00  0.00000000E+00  0.00000000E+00
  0.00000000E+00  0.00000000E+00  0.00000000E+00
  0.00000000E+00  0.00000000E+00  0.00000000E+00
  0.00000000E+00  0.00000000E+00  0.00000000E+00
  0.00000000E+00  0.00000000E+00  0.00000000E+00
  0.00000000E+00  0.00000000E+00  0.00000000E+00
  0.00000000E+00  0.00000000E+00  0.00000000E+00
  0.00000000E+00  0.00000000E+00  0.00000000E+00
  0.00000000E+00  0.00000000E+00  0.00000000E+00
  0.00000000E+00  0.00000000E+00  0.00000000E+00
  0.00000000E+00  0.00000000E+00  0.00000000E+00
  0.00000000E+00  0.00000000E+00  0.00000000E+00
  0.00000000E+00  0.00000000E+00  0.00000000E+00
  0.00000000E+00  0.00000000E+00  0.00000000E+00
  0.00000000E+00  0.00000000E+00  0.00000000E+00
  0.00000000E+00  0.00000000E+00  0.00000000E+00
  0.00000000E+00  0.00000000E+00  0.00000000E+00
  0.00000000E+00  0.00000000E+00  0.00000000E+00
  0.00000000E+00  0.00000000E+00  0.00000000E+00
  0.00000000E+00  0.00000000E+00  0.00000000E+00
  0.00000000E+00  0.00000000E+00  0.00000000E+00
  0.00000000E+00  0.00000000E+00  0.00000000E+00
  0.00000000E+00  0.00000000E+00  0.00000000E+00
  0.00000000E+00  0.00000000E+00  0.00000000E+00
  0.00000000E+00  0.00000000E+00  0.00000000E+00
  0.00000000E+00  0.00000000E+00  0.00000000E+00
  0.00000000E+00  0.00000000E+00  0.00000000E+00
  0.00000000E+00  0.00000000E+00  0.00000000E+00
  0.00000000E+00  0.00000000E+00  0.00000000E+00
