# Monolayer CrCl3 (2x2) Substrate SCF for CDD (U_all = 3.29 eV + PBE-D3)
PREC     = Accurate
ENCUT    = 500
EDIFF    = 1E-06
NSW      = 0
IBRION   = -1
ISMEAR   = 0
SIGMA    = 0.05
ISPIN    = 2
MAGMOM   = 8*3.0 24*0.0
IVDW     = 12
LDAU     = .TRUE.
LDAUTYPE = 2
LDAUL    = 2 -1
LDAUU    = 3.29 0.00
LDAUJ    = 0.00 0.00
LREAL    = Auto
NCORE    = 8
LCHARG   = .TRUE.
LWAVE    = .FALSE.
LAECHG   = .TRUE.
LDIPOL   = .TRUE.
IDIPOL   = 3
DIPOL    = 0.5 0.5 0.5
NGX      = 180
NGY      = 180
NGZ      = 300
