error    libmamba Could not set lock (Resource temporarily unavailable)
warning  libmamba Cannot lock '/home/cr/.cache/mamba/proc'
    Waiting for other mamba process to finish
error    libmamba Could not set lock (Resource temporarily unavailable)
warning  libmamba Cannot lock '/home/cr/.cache/mamba/proc'
    Waiting for other mamba process to finish
error    libmamba Could not set lock (Resource temporarily unavailable)
warning  libmamba Cannot lock '/home/cr/.cache/mamba/proc'
    Waiting for other mamba process to finish
error    libmamba Could not set lock (Resource temporarily unavailable)
warning  libmamba Cannot lock '/home/cr/.cache/mamba/proc'
    Waiting for other mamba process to finish
error    libmamba Could not set lock (Resource temporarily unavailable)
warning  libmamba Cannot lock '/home/cr/.cache/mamba/proc'
    Waiting for other mamba process to finish
error    libmamba Could not set lock (Resource temporarily unavailable)
warning  libmamba Cannot lock '/home/cr/.cache/mamba/proc'
    Waiting for other mamba process to finish
error    libmamba Could not set lock (Resource temporarily unavailable)
warning  libmamba Cannot lock '/home/cr/.cache/mamba/proc'
    Waiting for other mamba process to finish
error    libmamba Could not set lock (Resource temporarily unavailable)
warning  libmamba Cannot lock '/home/cr/.cache/mamba/proc'
    Waiting for other mamba process to finish
error    libmamba Could not set lock (Resource temporarily unavailable)
warning  libmamba Cannot lock '/home/cr/.cache/mamba/proc'
    Waiting for other mamba process to finish
 running   16 mpi-ranks, with    1 threads/rank, on    1 nodes
 distrk:  each k-point on   16 cores,    1 groups
 distr:  one band on    8 cores,    2 groups
 vasp.6.6.1 17Jul2026 (build Sep  1 2026 13:17:54) complex                       
 POSCAR found type information on POSCAR CrCl
 POSCAR found :  2 types and      32 ions
 Reading from existing POTCAR
 scaLAPACK will be used
 Reading from existing POTCAR
 LDA part: xc-table for (Slater+PW92), standard interpolation
 POSCAR, INCAR and KPOINTS ok, starting setup
 FFT: planning ... GRIDC
 FFT: planning ... GRID_SOFT
 FFT: planning ... GRID
 WAVECAR not read
 augmentation electrons   216.06305861590710     
 soft         electrons   0.0000000000000000     
 total        electrons   216.06305861590710     
 augmentation electrons   2.0086009724684453E-003
 soft         electrons   0.0000000000000000     
 total        electrons   2.0086009724684453E-003
 augmentation electrons   407.15858069275976     
 soft         electrons   0.0000000000000000     
 total        electrons   407.15858069275976     
 augmentation electrons   379.17733349275966     
 soft         electrons   0.0000000000000000     
 total        electrons   379.17733349275966     
 entering main loop
       N       E                     dE             d eps       ncg     rms          rms(c)
DAV:   1     0.227296549709E+04    0.22730E+04   -0.67608E+04  2856   0.110E+03
DAV:   2     0.495519740730E+03   -0.17774E+04   -0.16700E+04  3580   0.251E+02
DAV:   3    -0.106156537720E+03   -0.60168E+03   -0.58513E+03  4456   0.150E+02
DAV:   4    -0.151021359457E+03   -0.44865E+02   -0.44054E+02  4168   0.515E+01
DAV:   5    -0.152093499509E+03   -0.10721E+01   -0.10497E+01  4408   0.110E+01    0.377E+01
DAV:   6    -0.142448414491E+03    0.96451E+01   -0.15057E+02  4362   0.626E+01    0.335E+01
DAV:   7    -0.139732393781E+03    0.27160E+01   -0.17585E+01  4174   0.406E+01    0.184E+01
DAV:   8    -0.140550636819E+03   -0.81824E+00   -0.47227E+00  3880   0.624E+00    0.909E+00
DAV:   9    -0.140288677016E+03    0.26196E+00   -0.11767E+00  4448   0.111E+01    0.229E+00
DAV:  10    -0.140380432748E+03   -0.91756E-01   -0.25621E-01  4054   0.261E+00    0.919E-01
DAV:  11    -0.140407429774E+03   -0.26997E-01   -0.17696E-02  3908   0.108E+00    0.494E-01
DAV:  12    -0.140440812923E+03   -0.33383E-01   -0.73908E-03  4060   0.301E-01    0.345E-01
DAV:  13    -0.140467380427E+03   -0.26568E-01   -0.11403E-03  4072   0.107E-01    0.144E-01
DAV:  14    -0.140480327884E+03   -0.12947E-01   -0.18771E-04  3920   0.639E-02    0.105E-01
DAV:  15    -0.140489126694E+03   -0.87988E-02   -0.86180E-05  4176   0.392E-02    0.681E-02
DAV:  16    -0.140506255508E+03   -0.17129E-01   -0.10994E-04  4078   0.495E-02    0.300E-02
DAV:  17    -0.140522345412E+03   -0.16090E-01   -0.91948E-05  3850   0.314E-02    0.291E-02
DAV:  18    -0.140526842882E+03   -0.44975E-02   -0.17664E-05  3606   0.134E-02    0.203E-02
DAV:  19    -0.140530330363E+03   -0.34875E-02   -0.27127E-05  3546   0.183E-02    0.106E-02
DAV:  20    -0.140531119089E+03   -0.78873E-03   -0.87956E-06  2820   0.886E-03    0.558E-03
DAV:  21    -0.140531278101E+03   -0.15901E-03   -0.46446E-06  2834   0.601E-03    0.307E-03
DAV:  22    -0.140531275996E+03    0.21049E-05   -0.78822E-07  2074   0.612E-03    0.220E-03
DAV:  23    -0.140531335482E+03   -0.59485E-04   -0.11944E-06  2156   0.297E-03    0.247E-03
DAV:  24    -0.140531374363E+03   -0.38881E-04   -0.60188E-07  1988   0.267E-03    0.158E-03
DAV:  25    -0.140531396979E+03   -0.22616E-04   -0.45787E-07  1944   0.232E-03    0.147E-03
DAV:  26    -0.140531413870E+03   -0.16891E-04   -0.27521E-07  1940   0.225E-03    0.957E-04
DAV:  27    -0.140531434668E+03   -0.20798E-04   -0.25183E-07  1906   0.166E-03    0.984E-04
DAV:  28    -0.140531440240E+03   -0.55717E-05   -0.15686E-07  1588   0.119E-03    0.543E-04
DAV:  29    -0.140531442945E+03   -0.27053E-05   -0.60011E-08  1602   0.737E-04    0.329E-04
DAV:  30    -0.140531445630E+03   -0.26851E-05   -0.46693E-08  1704   0.737E-04    0.388E-04
DAV:  31    -0.140531447393E+03   -0.17630E-05   -0.43939E-08  1594   0.641E-04    0.383E-04
DAV:  32    -0.140531447750E+03   -0.35692E-06   -0.24166E-08  1588   0.438E-04
   1 F= -.14630492E+03 E0= -.14630492E+03  d E =-.447221E-13  mag=    24.0000
 augmentation electrons  -2.1546066188381756     
 soft         electrons   218.22222084196028     
 total        electrons   216.06761422312209     
 augmentation electrons   17.515357827234130     
 soft         electrons   6.4827362621098956     
 total        electrons   23.998094089344026     
error    libmamba Could not set lock (Resource temporarily unavailable)
warning  libmamba Cannot lock '/home/cr/.cache/mamba/proc'
    Waiting for other mamba process to finish
error    libmamba Could not set lock (Resource temporarily unavailable)
warning  libmamba Cannot lock '/home/cr/.cache/mamba/proc'
    Waiting for other mamba process to finish
error    libmamba Could not set lock (Resource temporarily unavailable)
warning  libmamba Cannot lock '/home/cr/.cache/mamba/proc'
    Waiting for other mamba process to finish
error    libmamba Could not set lock (Resource temporarily unavailable)
warning  libmamba Cannot lock '/home/cr/.cache/mamba/proc'
    Waiting for other mamba process to finish
