CrCl3 3x3 + H S1 top-Cl (no_vdw, U=0) (a
   1.0000000000000000     
    18.1388234955739875    0.0000000000000000    0.0000000000000000
    -9.0694117477869938   15.7086819419291253    0.0000000000000000
     0.0000000000000000    0.0000000000000000   20.0000000000000000
   Cr   Cl   H 
    18    54     1
Direct
  0.1089911127207057  0.2233420081862013  0.4997526921470417
  0.2116307428632702  0.1060538678516722  0.4949605878832240
  0.1113663841555061  0.5563730376826923  0.5000394752887208
  0.2221478451703140  0.4453519003460183  0.5005026626202090
  0.1092529565173448  0.8872180913222177  0.4974351582984031
  0.2222822371870243  0.7783491964482431  0.4995835412941994
  0.4550359238033942  0.2277564583217307  0.4949605878832240
  0.5574137101493265  0.1112984681382159  0.4974351582984031
  0.4445188214963502  0.5565373885090401  0.5005026626202090
  0.5576755539459656  0.4476842287988312  0.4997526921470417
  0.4443844294796401  0.8894002925945473  0.4995835412941994
  0.5553002825111647  0.7783399868605220  0.5000394752887208
  0.7784636295825275  0.2223338883084637  0.4984575831447070
  0.8880128122709828  0.1109516762918644  0.4988124326545463
  0.7786538543956815  0.5562721973542101  0.4988124326545463
  0.8891927201135466  0.4446468513192026  0.4989530954852265
  0.7774739465531177  0.8887874645389841  0.4989530954852265
  0.8882030370841368  0.7772035920592715  0.4984575831447070
  0.1193635836067843  0.3354684042843591  0.4333797721203759
  0.3333333333333357  0.1270275960353458  0.4382405515314451
  0.2126250803517780  0.2162517757448747  0.4335967141125560
  0.2117479366376901  0.3334454291920332  0.5675244869146271
 -0.0023054691322759  0.2143089550878287  0.5660210427565234
  0.1143446796665103  0.1193222793433729  0.5660174226668587
  0.1200817042687587  0.6670490419503304  0.4329494105517528
  0.3333333333333357  0.4533537441580193  0.4341703968394000
  0.2143904078455681  0.5480734811623692  0.4337698627147270
  0.2135474437643406  0.6676181755263725  0.5669004078925290
 -0.0002985151471167  0.5470635629893379  0.5663247115824342
  0.1201222340572639  0.4544731013331785  0.5673743303144786
  0.1134309374285289 -0.0076885672332520  0.4265968335271361
  0.3333333333333357  0.7868175833959803  0.4329028920953788
  0.2133089919741010  0.8798288761338310  0.4320685809090983
  0.2105833399356561  0.0007459329175471  0.5644995795419316
 -0.0009082105257123  0.8797121414069281  0.5647346740130103
  0.1199248040424967  0.7871854968007915  0.5661977655406311
  0.4540415863148935  0.3369600287264326  0.4335967141125560
  0.6682913901057259  0.1180045345978634  0.4322159814067444
  0.5532357292381355  0.2122138286715549  0.4265968335271361
  0.5523219870001541  0.3383109330101985  0.5660174226668587
  0.3333333333333357  0.2260313660387685  0.6171816799740338
  0.4560833267310156  0.1234959263152267  0.5644995795419316
  0.4522762588211033  0.6670164066501368  0.4337698627147270
  0.6672783350732918  0.4550961760566148  0.4319164365613505
  0.5473030830598797  0.5494381540109027  0.4333797721203759
  0.5465444326094002  0.6676842006092429  0.5673743303144786
  0.3333333333333357  0.5470594996016214  0.5677534502716980
  0.4549187300289812  0.4550308258876786  0.5675244869146271
  0.4533576746925701 -0.0001467825069344  0.4320685809090983
  0.6657452443307140  0.7862238555945922  0.4328612715896532
  0.5465849623979058  0.8803006710149072  0.4329494105517528
  0.5467418626241678  0.0005940260916307  0.5661977655406311
  0.3333333333333357  0.8814894656746111  0.5661045211444160
  0.4531192229023308  0.7874040650953670  0.5669004078925290
  0.7874147601177572  0.3335461729395092  0.4317707251316921
 -0.0006116684066273  0.1211511743166519  0.4319164365613505
  0.8802022056620299  0.2133267097118272  0.4315313794207665
  0.8803161530976227  0.3334456952714603  0.5656955977460857
  0.6675748771923765  0.2139536852659762  0.5647346740130103
  0.7859224075140431  0.1196419598913214  0.5657417756333161
  0.7864644610046343  0.6664578373831256  0.4315313794207665
  0.0009214223359500  0.4538119445972140  0.4328612715896532
  0.8804489756898112  0.5467522678044074  0.4318965969495079
  0.8807442591526212  0.6670528857106076  0.5657417756333161
  0.6689721357989402  0.5499477575534332  0.5660210427565234
  0.7867163923043320  0.4534847516964111  0.5655307059780815
  0.7862176909768531 -0.0003633745520679  0.4318965969495079
 -0.0016247234390621  0.7830464778254658  0.4322159814067444
  0.8792519065489071  0.8794647461550812  0.4317707251316921
  0.8799502743623323  0.0001016927254072  0.5655307059780815
  0.6669651818137811  0.8806954114697896  0.5663247115824342
  0.7863505135690416  0.7864628755071668  0.5656955977460857
  0.3333333333333357  0.1614211434710831  0.6442061126192629

  0.00000000E+00  0.00000000E+00  0.00000000E+00
  0.00000000E+00  0.00000000E+00  0.00000000E+00
  0.00000000E+00  0.00000000E+00  0.00000000E+00
  0.00000000E+00  0.00000000E+00  0.00000000E+00
  0.00000000E+00  0.00000000E+00  0.00000000E+00
  0.00000000E+00  0.00000000E+00  0.00000000E+00
  0.00000000E+00  0.00000000E+00  0.00000000E+00
  0.00000000E+00  0.00000000E+00  0.00000000E+00
  0.00000000E+00  0.00000000E+00  0.00000000E+00
  0.00000000E+00  0.00000000E+00  0.00000000E+00
  0.00000000E+00  0.00000000E+00  0.00000000E+00
  0.00000000E+00  0.00000000E+00  0.00000000E+00
  0.00000000E+00  0.00000000E+00  0.00000000E+00
  0.00000000E+00  0.00000000E+00  0.00000000E+00
  0.00000000E+00  0.00000000E+00  0.00000000E+00
  0.00000000E+00  0.00000000E+00  0.00000000E+00
  0.00000000E+00  0.00000000E+00  0.00000000E+00
  0.00000000E+00  0.00000000E+00  0.00000000E+00
  0.00000000E+00  0.00000000E+00  0.00000000E+00
  0.00000000E+00  0.00000000E+00  0.00000000E+00
  0.00000000E+00  0.00000000E+00  0.00000000E+00
  0.00000000E+00  0.00000000E+00  0.00000000E+00
  0.00000000E+00  0.00000000E+00  0.00000000E+00
  0.00000000E+00  0.00000000E+00  0.00000000E+00
  0.00000000E+00  0.00000000E+00  0.00000000E+00
  0.00000000E+00  0.00000000E+00  0.00000000E+00
  0.00000000E+00  0.00000000E+00  0.00000000E+00
  0.00000000E+00  0.00000000E+00  0.00000000E+00
  0.00000000E+00  0.00000000E+00  0.00000000E+00
  0.00000000E+00  0.00000000E+00  0.00000000E+00
  0.00000000E+00  0.00000000E+00  0.00000000E+00
  0.00000000E+00  0.00000000E+00  0.00000000E+00
  0.00000000E+00  0.00000000E+00  0.00000000E+00
  0.00000000E+00  0.00000000E+00  0.00000000E+00
  0.00000000E+00  0.00000000E+00  0.00000000E+00
  0.00000000E+00  0.00000000E+00  0.00000000E+00
  0.00000000E+00  0.00000000E+00  0.00000000E+00
  0.00000000E+00  0.00000000E+00  0.00000000E+00
  0.00000000E+00  0.00000000E+00  0.00000000E+00
  0.00000000E+00  0.00000000E+00  0.00000000E+00
  0.00000000E+00  0.00000000E+00  0.00000000E+00
  0.00000000E+00  0.00000000E+00  0.00000000E+00
  0.00000000E+00  0.00000000E+00  0.00000000E+00
  0.00000000E+00  0.00000000E+00  0.00000000E+00
  0.00000000E+00  0.00000000E+00  0.00000000E+00
  0.00000000E+00  0.00000000E+00  0.00000000E+00
  0.00000000E+00  0.00000000E+00  0.00000000E+00
  0.00000000E+00  0.00000000E+00  0.00000000E+00
  0.00000000E+00  0.00000000E+00  0.00000000E+00
  0.00000000E+00  0.00000000E+00  0.00000000E+00
  0.00000000E+00  0.00000000E+00  0.00000000E+00
  0.00000000E+00  0.00000000E+00  0.00000000E+00
  0.00000000E+00  0.00000000E+00  0.00000000E+00
  0.00000000E+00  0.00000000E+00  0.00000000E+00
  0.00000000E+00  0.00000000E+00  0.00000000E+00
  0.00000000E+00  0.00000000E+00  0.00000000E+00
  0.00000000E+00  0.00000000E+00  0.00000000E+00
  0.00000000E+00  0.00000000E+00  0.00000000E+00
  0.00000000E+00  0.00000000E+00  0.00000000E+00
  0.00000000E+00  0.00000000E+00  0.00000000E+00
  0.00000000E+00  0.00000000E+00  0.00000000E+00
  0.00000000E+00  0.00000000E+00  0.00000000E+00
  0.00000000E+00  0.00000000E+00  0.00000000E+00
  0.00000000E+00  0.00000000E+00  0.00000000E+00
  0.00000000E+00  0.00000000E+00  0.00000000E+00
  0.00000000E+00  0.00000000E+00  0.00000000E+00
  0.00000000E+00  0.00000000E+00  0.00000000E+00
  0.00000000E+00  0.00000000E+00  0.00000000E+00
  0.00000000E+00  0.00000000E+00  0.00000000E+00
  0.00000000E+00  0.00000000E+00  0.00000000E+00
  0.00000000E+00  0.00000000E+00  0.00000000E+00
  0.00000000E+00  0.00000000E+00  0.00000000E+00
  0.00000000E+00  0.00000000E+00  0.00000000E+00
