CrCl3 2x2 + Ni S2 hollow (D3, U=0) (a_2x
   1.00000000000000     
    12.0925489970493256    0.0000000000000000    0.0000000000000000
    -6.0462744985246628   10.4724546279527502    0.0000000000000000
     0.0000000000000000    0.0000000000000000   20.0000000000000000
   Cr   Cl   Ni
     8    24     1
Direct
     0.1615529625571253    0.3282447531782092    0.5009253173645369
     0.3282447531782092    0.1615529625571253    0.5009253173645369
     0.6717552468217909    0.3333082093789022    0.5009253173645369
     0.8333333333333286    0.1666666666666714    0.4980221772803133
     0.1666666666666714    0.8333333333333286    0.4980221772803133
     0.3333082093789022    0.6717552468217909    0.5009253173645369
     0.6666917906210980    0.8384470374428747    0.5009253173645369
     0.8384470374428747    0.6666917906210980    0.5009253173645369
     0.1782801992679112    0.5000000000000000    0.4346786470523073
     0.5000000000000000    0.1782801992679112    0.4346786470523073
     0.3272019456654821    0.3272019456654821    0.4367768793515682
     0.3162570900097826    0.5000000000000000    0.5747894085186948
     0.9966181586898686    0.3212277723267654    0.5674712848421258
     0.1717817101545516    0.1717817101545516    0.5690332613473252
     0.6727980543345179    0.5000000000000000    0.4367768793515682
     0.9979927651952148    0.1747763152982751    0.4303139831076848
     0.8252236847017175    0.3232164498969398    0.4303139831076848
     0.8282182898454481    0.5000000000000000    0.5690332613473252
     0.5000000000000000    0.3162570900097826    0.5747894085186948
     0.6787722276732346    0.1753903863631104    0.5674712848421258
     0.1747763152982751    0.9979927651952148    0.4303139831076848
     0.5000000000000000    0.6727980543345179    0.4367768793515682
     0.3232164498969398    0.8252236847017175    0.4303139831076848
     0.3212277723267654    0.9966181586898686    0.5674712848421258
     0.0033818413101313    0.8246096136368897    0.5674712848421258
     0.1753903863631104    0.6787722276732346    0.5674712848421258
     0.6767835501030603    0.0020072348047850    0.4303139831076848
     0.0020072348047850    0.6767835501030603    0.4303139831076848
     0.8217198007320887    0.8217198007320887    0.4346786470523073
     0.8246096136368897    0.0033818413101313    0.5674712848421258
     0.5000000000000000    0.8282182898454481    0.5690332613473252
     0.6837429099902175    0.6837429099902175    0.5747894085186948
     0.5000000000000000    0.5000000000000000    0.5608575447435580
 
  0.00000000E+00  0.00000000E+00  0.00000000E+00
  0.00000000E+00  0.00000000E+00  0.00000000E+00
  0.00000000E+00  0.00000000E+00  0.00000000E+00
  0.00000000E+00  0.00000000E+00  0.00000000E+00
  0.00000000E+00  0.00000000E+00  0.00000000E+00
  0.00000000E+00  0.00000000E+00  0.00000000E+00
  0.00000000E+00  0.00000000E+00  0.00000000E+00
  0.00000000E+00  0.00000000E+00  0.00000000E+00
  0.00000000E+00  0.00000000E+00  0.00000000E+00
  0.00000000E+00  0.00000000E+00  0.00000000E+00
  0.00000000E+00  0.00000000E+00  0.00000000E+00
  0.00000000E+00  0.00000000E+00  0.00000000E+00
  0.00000000E+00  0.00000000E+00  0.00000000E+00
  0.00000000E+00  0.00000000E+00  0.00000000E+00
  0.00000000E+00  0.00000000E+00  0.00000000E+00
  0.00000000E+00  0.00000000E+00  0.00000000E+00
  0.00000000E+00  0.00000000E+00  0.00000000E+00
  0.00000000E+00  0.00000000E+00  0.00000000E+00
  0.00000000E+00  0.00000000E+00  0.00000000E+00
  0.00000000E+00  0.00000000E+00  0.00000000E+00
  0.00000000E+00  0.00000000E+00  0.00000000E+00
  0.00000000E+00  0.00000000E+00  0.00000000E+00
  0.00000000E+00  0.00000000E+00  0.00000000E+00
  0.00000000E+00  0.00000000E+00  0.00000000E+00
  0.00000000E+00  0.00000000E+00  0.00000000E+00
  0.00000000E+00  0.00000000E+00  0.00000000E+00
  0.00000000E+00  0.00000000E+00  0.00000000E+00
  0.00000000E+00  0.00000000E+00  0.00000000E+00
  0.00000000E+00  0.00000000E+00  0.00000000E+00
  0.00000000E+00  0.00000000E+00  0.00000000E+00
  0.00000000E+00  0.00000000E+00  0.00000000E+00
  0.00000000E+00  0.00000000E+00  0.00000000E+00
  0.00000000E+00  0.00000000E+00  0.00000000E+00
