CrCl3 2x2 + Ni S2 hollow (D3, U=0) (a_2x
   1.0000000000000000     
    12.0925489970493256    0.0000000000000000    0.0000000000000000
    -6.0462744985246628   10.4724546279527502    0.0000000000000000
     0.0000000000000000    0.0000000000000000   20.0000000000000000
   Cr   Cl   Ni
     8    24     1
Direct
  0.1634879614927996  0.3298104576437812  0.5000714666703961
  0.3298104576437812  0.1634879614927996  0.5000714666703961
  0.6701895423562189  0.3336775038490042  0.5000714666703961
  0.8333333333333286  0.1666666666666714  0.4988068791582436
  0.1666666666666714  0.8333333333333286  0.4988068791582436
  0.3336775038490042  0.6701895423562189  0.5000714666703961
  0.6663224961509960  0.8365120385072005  0.5000714666703961
  0.8365120385072005  0.6663224961509960  0.5000714666703961
  0.1782369868601451  0.5000000000000000  0.4339837184363970
  0.5000000000000000  0.1782369868601451  0.4339837184363970
  0.3251358903014379  0.3251358903014379  0.4343899527533386
  0.3213772777499149  0.5000000000000000  0.5742147187566718
  0.9986319918210378  0.3219339331867603  0.5677552516329172
  0.1740729086188000  0.1740729086188000  0.5684096257139680
  0.6748641096985619  0.5000000000000000  0.4343899527533386
  0.9975039166369994  0.1740237560713886  0.4310209474683184
  0.8259762439286114  0.3234801605656108  0.4310209474683184
  0.8259270913811999  0.5000000000000000  0.5684096257139680
  0.5000000000000000  0.3213772777499149  0.5742147187566718
  0.6780660668132397  0.1766980586342774  0.5677552516329172
  0.1740237560713886  0.9975039166369994  0.4310209474683184
  0.5000000000000000  0.6748641096985619  0.4343899527533386
  0.3234801605656108  0.8259762439286114  0.4310209474683184
  0.3219339331867603  0.9986319918210378  0.5677552516329172
  0.0013680081789623  0.8233019413657227  0.5677552516329172
  0.1766980586342774  0.6780660668132397  0.5677552516329172
  0.6765198394343893  0.0024960833630006  0.4310209474683184
  0.0024960833630006  0.6765198394343893  0.4310209474683184
  0.8217630131398549  0.8217630131398549  0.4339837184363970
  0.8233019413657227  0.0013680081789623  0.5677552516329172
  0.5000000000000000  0.8259270913811999  0.5684096257139680
  0.6786227222500851  0.6786227222500851  0.5742147187566718
  0.5000000000000000  0.5000000000000000  0.5713062000725869

  0.00000000E+00  0.00000000E+00  0.00000000E+00
  0.00000000E+00  0.00000000E+00  0.00000000E+00
  0.00000000E+00  0.00000000E+00  0.00000000E+00
  0.00000000E+00  0.00000000E+00  0.00000000E+00
  0.00000000E+00  0.00000000E+00  0.00000000E+00
  0.00000000E+00  0.00000000E+00  0.00000000E+00
  0.00000000E+00  0.00000000E+00  0.00000000E+00
  0.00000000E+00  0.00000000E+00  0.00000000E+00
  0.00000000E+00  0.00000000E+00  0.00000000E+00
  0.00000000E+00  0.00000000E+00  0.00000000E+00
  0.00000000E+00  0.00000000E+00  0.00000000E+00
  0.00000000E+00  0.00000000E+00  0.00000000E+00
  0.00000000E+00  0.00000000E+00  0.00000000E+00
  0.00000000E+00  0.00000000E+00  0.00000000E+00
  0.00000000E+00  0.00000000E+00  0.00000000E+00
  0.00000000E+00  0.00000000E+00  0.00000000E+00
  0.00000000E+00  0.00000000E+00  0.00000000E+00
  0.00000000E+00  0.00000000E+00  0.00000000E+00
  0.00000000E+00  0.00000000E+00  0.00000000E+00
  0.00000000E+00  0.00000000E+00  0.00000000E+00
  0.00000000E+00  0.00000000E+00  0.00000000E+00
  0.00000000E+00  0.00000000E+00  0.00000000E+00
  0.00000000E+00  0.00000000E+00  0.00000000E+00
  0.00000000E+00  0.00000000E+00  0.00000000E+00
  0.00000000E+00  0.00000000E+00  0.00000000E+00
  0.00000000E+00  0.00000000E+00  0.00000000E+00
  0.00000000E+00  0.00000000E+00  0.00000000E+00
  0.00000000E+00  0.00000000E+00  0.00000000E+00
  0.00000000E+00  0.00000000E+00  0.00000000E+00
  0.00000000E+00  0.00000000E+00  0.00000000E+00
  0.00000000E+00  0.00000000E+00  0.00000000E+00
  0.00000000E+00  0.00000000E+00  0.00000000E+00
  0.00000000E+00  0.00000000E+00  0.00000000E+00
