33
Lattice="12.092548997049326 0.0 0.0 -6.046274498524663 10.47245462795275 0.0 0.0 0.0 20.0" Properties=species:S:1:pos:R:3:momenta:R:3 pbc="T T T"
Cr       0.00054072       3.63353959      10.01123167       0.00000000       0.00000000       0.00000000
Cr       2.92674843       1.84193626      10.00080302       0.00000000       0.00000000       0.00000000
Cr       6.01087394       3.62255695      10.00080302       0.00000000       0.00000000       0.00000000
Cr       9.14703830       1.84070371      10.07007738       0.00000000       0.00000000       0.00000000
Cr      -3.14447807       8.70746625      10.07007738       0.00000000       0.00000000       0.00000000
Cr      -0.07755042       7.08695267      10.05552757       0.00000000       0.00000000       0.00000000
Cr       2.97070591       8.84686428      10.05552757       0.00000000       0.00000000       0.00000000
Cr       5.92240380       7.05252884      10.01123167       0.00000000       0.00000000       0.00000000
Cl      -0.92215804       5.37172004       8.67564891       0.00000000       0.00000000       0.00000000
Cl       5.03584176       1.75012084       8.81278365       0.00000000       0.00000000       0.00000000
Cl       1.89157261       3.60521164       8.62820492       0.00000000       0.00000000       0.00000000
Cl       0.86670462       5.37506266      11.38932273       0.00000000       0.00000000       0.00000000
Cl      -1.92631674       3.49984357      11.40269516       0.00000000       0.00000000       0.00000000
Cl       1.00592433       2.00777839      11.39810957       0.00000000       0.00000000       0.00000000
Cl       5.00142057       5.40068320       8.62820492       0.00000000       0.00000000       0.00000000
Cl      -1.05588192       1.97984903       8.66527184       0.00000000       0.00000000       0.00000000
Cl       8.03499330       3.44471119       8.73808202       0.00000000       0.00000000       0.00000000
Cl       6.82766249       5.36896048      11.39810957       0.00000000       0.00000000       0.00000000
Cl       4.26138494       3.09151941      11.63872933       0.00000000       0.00000000       0.00000000
Cl       7.38909211       1.93260045      11.72263396       0.00000000       0.00000000       0.00000000
Cl       2.06870769       0.00007459       8.73808202       0.00000000       0.00000000       0.00000000
Cl       1.85751973       7.25513608       8.70187407       0.00000000       0.00000000       0.00000000
Cl      -1.17840510       8.71145354       8.74169578       0.00000000       0.00000000       0.00000000
Cl      -2.34508989      10.27584069      11.72263396       0.00000000       0.00000000       0.00000000
Cl       7.00161668       8.65438833      11.40269516       0.00000000       0.00000000       0.00000000
Cl      -2.04678793       7.04395411      11.37538709       0.00000000       0.00000000       0.00000000
Cl       8.16054873       0.14002821       8.74169578       0.00000000       0.00000000       0.00000000
Cl       7.88275315       7.14057239       8.66527184       0.00000000       0.00000000       0.00000000
Cl       4.87844475       8.72069962       8.67564891       0.00000000       0.00000000       0.00000000
Cl      10.03883701       0.05832008      11.37538709       0.00000000       0.00000000       0.00000000
Cl       0.95651712       8.81571838      11.39827481       0.00000000       0.00000000       0.00000000
Cl       3.98111862       7.17317043      11.38932273       0.00000000       0.00000000       0.00000000
Ni       5.47371432       0.99170332      11.28467876       0.00000000       0.00000000       0.00000000
