CrCl3 3x3 no_vdw S3 (top_Cr) - OPTIMIZED
   1.0000000000000000     
    18.1388234955739875    0.0000000000000000    0.0000000000000000
    -9.0694117477869938   15.7086819419291253    0.0000000000000000
     0.0000000000000000    0.0000000000000000   20.0000000000000000
   Cr   Cl   H 
    18    54     1
Direct
  0.1092555612740546  0.2218909244692077  0.4983293683155735
  0.2199549201360368  0.1111138217285225  0.4993299735592004
  0.1111111111111143  0.5555555555555571  0.5001265652568558
  0.2219133427781399  0.4441574515404272  0.4996594330319408
  0.1117087497998549  0.8894202521773290  0.4999459082958586
  0.2225092151262372  0.7777558912377127  0.4996594330319408
  0.4444444444444429  0.2222222222222214  0.5108679735475489
  0.5555528449381492  0.1088410984075215  0.4993299735592004
  0.4443781690441454  0.5549579168668165  0.4999459082958586
  0.5578255682591499  0.4467117465306275  0.4993299735592004
  0.4447757421974566  0.8873646368048398  0.4983293683155735
  0.5556346993948883  0.7768017067553387  0.4995813958393843
  0.7772464144893353  0.2222884976225189  0.4999459082958586
  0.8878336740271149  0.1110319672717833  0.4995813958393843
  0.7793020298618245  0.5574111053926168  0.4983293683155735
  0.8889107754289516  0.4447533238885244  0.4996594330319408
  0.7777777777777786  0.8888888888888857  0.4998528583759141
  0.8898649599113256  0.7788329926395494  0.4995813958393843
  0.1190038264403641  0.3340114185152418  0.4323874050584514
  0.3353244787402253  0.1219891600662173  0.4387436064122828
  0.2107280225345574  0.2120843936762892  0.4310917754008244
  0.2121840667307316  0.3321889619757896  0.5656652670553324
 -0.0009466818005386  0.2136732132910533  0.5659785059518039
  0.1153927583394975  0.1179955118196433  0.5646763507293441
  0.1195102079329365  0.6665277095517157  0.4333338242219248
  0.3329897470337913  0.4523583168962140  0.4332736037275298
  0.2136841682854507  0.5471564587337279  0.4333338242219248
  0.2134488066253372  0.6667265488120873  0.5668748463786204
 -0.0000598821454228  0.5467222578132429  0.5668748463786204
  0.1199444088534214  0.4532178600413342  0.5668748463786204
  0.1204272073999755 -0.0006698923815999  0.4316989977426280
  0.3326552481514296  0.7849924079251223  0.4323874050584514
  0.2143083497704572  0.8806314301375771  0.4332736037275298
  0.2121082553854139  0.0010777782852480  0.5674166975699396
  0.0005554856989195  0.8809146106998496  0.5665458581727747
  0.1209683492022200  0.7875129835836756  0.5669396602839941
  0.4533313479926635  0.3313421879264461  0.4387436064122828
  0.6673365590482639  0.1210970997815753  0.4316989977426280
  0.5446775066004470  0.2133353186740080  0.4387436064122828
  0.5577720535091338  0.3410445713479097  0.5668302200955159
  0.3256220953187617  0.2167274821612311  0.5668302200955159
  0.4499391845054405  0.1088946131575307  0.5668302200955159
  0.4528357302676826  0.6657200476919585  0.4331181879772993
  0.6680230378083959  0.4559386441321141  0.4310917754008244
  0.5455695668850890  0.5462394592666889  0.4316989977426280
  0.5470257916675945  0.6661111809677448  0.5665458581727747
  0.3332113010481272  0.5456983174644443  0.5669396602839941
  0.4556361895665055  0.4545584112812575  0.5674166975699396
  0.4545822729903823 -0.0013563711417318  0.4310917754008244
  0.6670813549333915  0.7858797800632233  0.4330942369225739
  0.5466269578657644  0.8780454029887643  0.4316797051016293
  0.5486711548470212 -0.0026027534801459  0.5646763507293441
  0.3344777046908818  0.8799951047549421  0.5656652670553324
  0.4529934533756180  0.7853801049084077  0.5659785059518039
  0.7860352365290872  0.3336769196328802  0.4332736037275298
 -0.0019148882103358  0.1200397088008998  0.4316797051016293
  0.8795509840909471  0.2138309363989888  0.4331181879772993
  0.8791536830829887  0.3334553656185442  0.5669396602839941
  0.6655888883814161  0.2110304771001658  0.5674166975699396
  0.7857520559668147  0.1196408749990699  0.5665458581727747
  0.7886212636779000  0.6685815548770001  0.4316797051016293
  0.0001389571149485  0.4529824983812207  0.4333338242219248
  0.8816742587415420  0.5476628402263002  0.4323874050584514
  0.8812865617582566  0.6676133484672029  0.5659785059518039
  0.6692694201468103  0.5512739083271669  0.5646763507293441
  0.7866715619117222  0.4544825999359397  0.5656652670553324
  0.7854650917964962 -0.0004146882667272  0.4330942369225739
  0.0009466189747059  0.7871156825757172  0.4331181879772993
  0.8807868866034410  0.8812015748701681  0.4330942369225739
  0.8797760433407626  0.0002550027741486  0.5665756699032709
  0.6664116638925156  0.8795210405666144  0.5665756699032709
  0.7871456261000499  0.7868906233259017  0.5665756699032709
  0.4444444444444429  0.2222222222222214  0.5883411095765878

  0.00000000E+00  0.00000000E+00  0.00000000E+00
  0.00000000E+00  0.00000000E+00  0.00000000E+00
  0.00000000E+00  0.00000000E+00  0.00000000E+00
  0.00000000E+00  0.00000000E+00  0.00000000E+00
  0.00000000E+00  0.00000000E+00  0.00000000E+00
  0.00000000E+00  0.00000000E+00  0.00000000E+00
  0.00000000E+00  0.00000000E+00  0.00000000E+00
  0.00000000E+00  0.00000000E+00  0.00000000E+00
  0.00000000E+00  0.00000000E+00  0.00000000E+00
  0.00000000E+00  0.00000000E+00  0.00000000E+00
  0.00000000E+00  0.00000000E+00  0.00000000E+00
  0.00000000E+00  0.00000000E+00  0.00000000E+00
  0.00000000E+00  0.00000000E+00  0.00000000E+00
  0.00000000E+00  0.00000000E+00  0.00000000E+00
  0.00000000E+00  0.00000000E+00  0.00000000E+00
  0.00000000E+00  0.00000000E+00  0.00000000E+00
  0.00000000E+00  0.00000000E+00  0.00000000E+00
  0.00000000E+00  0.00000000E+00  0.00000000E+00
  0.00000000E+00  0.00000000E+00  0.00000000E+00
  0.00000000E+00  0.00000000E+00  0.00000000E+00
  0.00000000E+00  0.00000000E+00  0.00000000E+00
  0.00000000E+00  0.00000000E+00  0.00000000E+00
  0.00000000E+00  0.00000000E+00  0.00000000E+00
  0.00000000E+00  0.00000000E+00  0.00000000E+00
  0.00000000E+00  0.00000000E+00  0.00000000E+00
  0.00000000E+00  0.00000000E+00  0.00000000E+00
  0.00000000E+00  0.00000000E+00  0.00000000E+00
  0.00000000E+00  0.00000000E+00  0.00000000E+00
  0.00000000E+00  0.00000000E+00  0.00000000E+00
  0.00000000E+00  0.00000000E+00  0.00000000E+00
  0.00000000E+00  0.00000000E+00  0.00000000E+00
  0.00000000E+00  0.00000000E+00  0.00000000E+00
  0.00000000E+00  0.00000000E+00  0.00000000E+00
  0.00000000E+00  0.00000000E+00  0.00000000E+00
  0.00000000E+00  0.00000000E+00  0.00000000E+00
  0.00000000E+00  0.00000000E+00  0.00000000E+00
  0.00000000E+00  0.00000000E+00  0.00000000E+00
  0.00000000E+00  0.00000000E+00  0.00000000E+00
  0.00000000E+00  0.00000000E+00  0.00000000E+00
  0.00000000E+00  0.00000000E+00  0.00000000E+00
  0.00000000E+00  0.00000000E+00  0.00000000E+00
  0.00000000E+00  0.00000000E+00  0.00000000E+00
  0.00000000E+00  0.00000000E+00  0.00000000E+00
  0.00000000E+00  0.00000000E+00  0.00000000E+00
  0.00000000E+00  0.00000000E+00  0.00000000E+00
  0.00000000E+00  0.00000000E+00  0.00000000E+00
  0.00000000E+00  0.00000000E+00  0.00000000E+00
  0.00000000E+00  0.00000000E+00  0.00000000E+00
  0.00000000E+00  0.00000000E+00  0.00000000E+00
  0.00000000E+00  0.00000000E+00  0.00000000E+00
  0.00000000E+00  0.00000000E+00  0.00000000E+00
  0.00000000E+00  0.00000000E+00  0.00000000E+00
  0.00000000E+00  0.00000000E+00  0.00000000E+00
  0.00000000E+00  0.00000000E+00  0.00000000E+00
  0.00000000E+00  0.00000000E+00  0.00000000E+00
  0.00000000E+00  0.00000000E+00  0.00000000E+00
  0.00000000E+00  0.00000000E+00  0.00000000E+00
  0.00000000E+00  0.00000000E+00  0.00000000E+00
  0.00000000E+00  0.00000000E+00  0.00000000E+00
  0.00000000E+00  0.00000000E+00  0.00000000E+00
  0.00000000E+00  0.00000000E+00  0.00000000E+00
  0.00000000E+00  0.00000000E+00  0.00000000E+00
  0.00000000E+00  0.00000000E+00  0.00000000E+00
  0.00000000E+00  0.00000000E+00  0.00000000E+00
  0.00000000E+00  0.00000000E+00  0.00000000E+00
  0.00000000E+00  0.00000000E+00  0.00000000E+00
  0.00000000E+00  0.00000000E+00  0.00000000E+00
  0.00000000E+00  0.00000000E+00  0.00000000E+00
  0.00000000E+00  0.00000000E+00  0.00000000E+00
  0.00000000E+00  0.00000000E+00  0.00000000E+00
  0.00000000E+00  0.00000000E+00  0.00000000E+00
  0.00000000E+00  0.00000000E+00  0.00000000E+00
  0.00000000E+00  0.00000000E+00  0.00000000E+00
