CrCl3 3x3 no_vdw S2 (hollow) - OPTIMIZED
   1.0000000000000000     
    18.1388234955739875    0.0000000000000000    0.0000000000000000
    -9.0694117477869938   15.7086819419291253    0.0000000000000000
     0.0000000000000000    0.0000000000000000   20.0000000000000000
   Cr   Cl   H 
    18    54     1
Direct
  0.1109478768535560  0.2221407900000773  0.4998933985225391
  0.2221407900000773  0.1109478768535560  0.4998933985225391
  0.1111225193842128  0.5555447047266694  0.4999880257039541
  0.2221404201868073  0.4445258766665870  0.4998933985225391
  0.1111219619400020  0.8889111479908720  0.4999880257039541
  0.2222168826931811  0.7777749708081954  0.4999950156960579
  0.4445258766665870  0.2221404201868073  0.4998933985225391
  0.5555447047266694  0.1111225193842128  0.4999880257039541
  0.4445262464798570  0.5557187898131154  0.4998933985225391
  0.5557187898131154  0.4445262464798570  0.4998933985225391
  0.4444497839734832  0.8888914214483429  0.4999950156960579
  0.5555441472824586  0.7777555186757923  0.4999880257039541
  0.7777749708081954  0.2222168826931811  0.4999950156960579
  0.8889111479908720  0.1111219619400020  0.4999880257039541
  0.7777555186757923  0.5555441472824586  0.4999880257039541
  0.8888914214483429  0.4444497839734832  0.4999950156960579
  0.7777752452183214  0.8888916958584689  0.4999950156960579
  0.8888916958584689  0.7777752452183214  0.4999950156960579
  0.1198236380971164  0.3333333333333357  0.4332143751208457
  0.3333333333333357  0.1198236380971164  0.4332143751208457
  0.2136206887242718  0.2136206887242718  0.4332209566350051
  0.2135881639186579  0.3333333333333357  0.5668696855309239
  0.0000143078047329  0.2135677504307623  0.5667991307490898
  0.1197721838668121  0.1197721838668121  0.5668147864494509
  0.1197892030948752  0.6666738186453274  0.4332232503940693
  0.3333333333333357  0.4530459779423996  0.4332209566350051
  0.2135414209039309  0.5468228630207583  0.4332624452293443
  0.2135501655164180  0.6666675446114744  0.5667832619901396
 -0.0000011585812963  0.5468802450295953  0.5667792240252183
  0.1197798907073063  0.4530989162359091  0.5667991307490898
  0.1198438036459060  0.0000518912165013  0.4332624452293443
  0.3333333333333357  0.7864528859541124  0.4332204874287608
  0.2135476460867504  0.8802132059758219  0.4332218186248678
  0.2135677504307623  0.0000143078047329  0.5667991307490898
 -0.0000008779448100  0.8802159542382723  0.5667832619901396
  0.1197864216370690  0.7864519297224369  0.5667792240252183
  0.4530459779423996  0.3333333333333357  0.4332209566350051
  0.6666738186453274  0.1197892030948752  0.4332232503940693
  0.5468228630207583  0.2135414209039309  0.4332624452293443
  0.5468944827998522  0.3333333333333357  0.5668147864494509
  0.3333333333333357  0.2135881639186579  0.5668696855309239
  0.4530989162359091  0.1197798907073063  0.5667991307490898
  0.4531252457627405  0.6666147754501630  0.4332624452293443
  0.6666147754501630  0.4531252457627405  0.4332624452293443
  0.5468430285695479  0.5468430285695479  0.4332143751208457
  0.5468867759593580  0.6666523588619314  0.5667991307490898
  0.3333333333333357  0.5468944827998522  0.5668147864494509
  0.4530785027480135  0.4530785027480135  0.5668696855309239
  0.4531190205799210 -0.0000011067775928  0.4332218186248678
  0.6666677734442571  0.7864534606908424  0.4332218186248678
  0.5468774635717891  0.8802179488837879  0.4332232503940693
  0.5468802450295953 -0.0000011585812963  0.5667792240252183
  0.3333333333333357  0.8802148585263915  0.5667818466517969
  0.4531165011502534  0.7864507124283920  0.5667832619901396
  0.7864528859541124  0.3333333333333357  0.4332204874287608
  0.0000518912165013  0.1198438036459060  0.4332624452293443
  0.8802132059758219  0.2135476460867504  0.4332218186248678
  0.8802148585263915  0.3333333333333357  0.5667818466517969
  0.6666675446114744  0.2135501655164180  0.5667832619901396
  0.7864519297224369  0.1197864216370690  0.5667792240252183
  0.7864534606908424  0.6666677734442571  0.4332218186248678
 -0.0000011067775928  0.4531190205799210  0.4332218186248678
  0.8802179488837879  0.5468774635717891  0.4332232503940693
  0.8802147369442274  0.6666678252479605  0.5667792240252183
  0.6666523588619314  0.5468867759593580  0.5667991307490898
  0.7864507124283920  0.4531165011502534  0.5667832619901396
  0.7864487177828764 -0.0000071519786631  0.4332232503940693
 -0.0000071519786631  0.7864487177828764  0.4332232503940693
  0.8802137807125519  0.8802137807125519  0.4332204874287608
  0.8802159542382723 -0.0000008779448100  0.5667832619901396
  0.6666678252479605  0.8802147369442274  0.5667792240252183
  0.7864518081402728  0.7864518081402728  0.5667818466517969
  0.3333333333333357  0.3333333333333357  0.5799601609379671

  0.00000000E+00  0.00000000E+00  0.00000000E+00
  0.00000000E+00  0.00000000E+00  0.00000000E+00
  0.00000000E+00  0.00000000E+00  0.00000000E+00
  0.00000000E+00  0.00000000E+00  0.00000000E+00
  0.00000000E+00  0.00000000E+00  0.00000000E+00
  0.00000000E+00  0.00000000E+00  0.00000000E+00
  0.00000000E+00  0.00000000E+00  0.00000000E+00
  0.00000000E+00  0.00000000E+00  0.00000000E+00
  0.00000000E+00  0.00000000E+00  0.00000000E+00
  0.00000000E+00  0.00000000E+00  0.00000000E+00
  0.00000000E+00  0.00000000E+00  0.00000000E+00
  0.00000000E+00  0.00000000E+00  0.00000000E+00
  0.00000000E+00  0.00000000E+00  0.00000000E+00
  0.00000000E+00  0.00000000E+00  0.00000000E+00
  0.00000000E+00  0.00000000E+00  0.00000000E+00
  0.00000000E+00  0.00000000E+00  0.00000000E+00
  0.00000000E+00  0.00000000E+00  0.00000000E+00
  0.00000000E+00  0.00000000E+00  0.00000000E+00
  0.00000000E+00  0.00000000E+00  0.00000000E+00
  0.00000000E+00  0.00000000E+00  0.00000000E+00
  0.00000000E+00  0.00000000E+00  0.00000000E+00
  0.00000000E+00  0.00000000E+00  0.00000000E+00
  0.00000000E+00  0.00000000E+00  0.00000000E+00
  0.00000000E+00  0.00000000E+00  0.00000000E+00
  0.00000000E+00  0.00000000E+00  0.00000000E+00
  0.00000000E+00  0.00000000E+00  0.00000000E+00
  0.00000000E+00  0.00000000E+00  0.00000000E+00
  0.00000000E+00  0.00000000E+00  0.00000000E+00
  0.00000000E+00  0.00000000E+00  0.00000000E+00
  0.00000000E+00  0.00000000E+00  0.00000000E+00
  0.00000000E+00  0.00000000E+00  0.00000000E+00
  0.00000000E+00  0.00000000E+00  0.00000000E+00
  0.00000000E+00  0.00000000E+00  0.00000000E+00
  0.00000000E+00  0.00000000E+00  0.00000000E+00
  0.00000000E+00  0.00000000E+00  0.00000000E+00
  0.00000000E+00  0.00000000E+00  0.00000000E+00
  0.00000000E+00  0.00000000E+00  0.00000000E+00
  0.00000000E+00  0.00000000E+00  0.00000000E+00
  0.00000000E+00  0.00000000E+00  0.00000000E+00
  0.00000000E+00  0.00000000E+00  0.00000000E+00
  0.00000000E+00  0.00000000E+00  0.00000000E+00
  0.00000000E+00  0.00000000E+00  0.00000000E+00
  0.00000000E+00  0.00000000E+00  0.00000000E+00
  0.00000000E+00  0.00000000E+00  0.00000000E+00
  0.00000000E+00  0.00000000E+00  0.00000000E+00
  0.00000000E+00  0.00000000E+00  0.00000000E+00
  0.00000000E+00  0.00000000E+00  0.00000000E+00
  0.00000000E+00  0.00000000E+00  0.00000000E+00
  0.00000000E+00  0.00000000E+00  0.00000000E+00
  0.00000000E+00  0.00000000E+00  0.00000000E+00
  0.00000000E+00  0.00000000E+00  0.00000000E+00
  0.00000000E+00  0.00000000E+00  0.00000000E+00
  0.00000000E+00  0.00000000E+00  0.00000000E+00
  0.00000000E+00  0.00000000E+00  0.00000000E+00
  0.00000000E+00  0.00000000E+00  0.00000000E+00
  0.00000000E+00  0.00000000E+00  0.00000000E+00
  0.00000000E+00  0.00000000E+00  0.00000000E+00
  0.00000000E+00  0.00000000E+00  0.00000000E+00
  0.00000000E+00  0.00000000E+00  0.00000000E+00
  0.00000000E+00  0.00000000E+00  0.00000000E+00
  0.00000000E+00  0.00000000E+00  0.00000000E+00
  0.00000000E+00  0.00000000E+00  0.00000000E+00
  0.00000000E+00  0.00000000E+00  0.00000000E+00
  0.00000000E+00  0.00000000E+00  0.00000000E+00
  0.00000000E+00  0.00000000E+00  0.00000000E+00
  0.00000000E+00  0.00000000E+00  0.00000000E+00
  0.00000000E+00  0.00000000E+00  0.00000000E+00
  0.00000000E+00  0.00000000E+00  0.00000000E+00
  0.00000000E+00  0.00000000E+00  0.00000000E+00
  0.00000000E+00  0.00000000E+00  0.00000000E+00
  0.00000000E+00  0.00000000E+00  0.00000000E+00
  0.00000000E+00  0.00000000E+00  0.00000000E+00
  0.00000000E+00  0.00000000E+00  0.00000000E+00
