CrCl3 1x1 + H S1 top-Cl (D3, U=0) (a=6.0
   1.00000000000000     
     6.0462744985246628    0.0000000000000000    0.0000000000000000
    -3.0231372492623314    5.2362273139763751    0.0000000000000000
     0.0000000000000000    0.0000000000000000   20.0000000000000000
   Cr   Cl   H 
     2     6     1
Direct
     0.3154314117413424    0.6674329602992363    0.4928219007746275
     0.6674329602992363    0.3154314117413424    0.4928219007746275
     0.3393892832819667    0.0061995499246312    0.4283781887045567
     0.0061995499246312    0.3393892832819667    0.4283781887045567
     0.6307812952279261    0.6307812952279261    0.4356747016973906
     0.6230461696198968    0.9761397274358512    0.5649468712603030
     0.9761397274358512    0.6230461696198968    0.5649468712603030
     0.3013525912625297    0.3013525912625297    0.5996705202358098
     0.4995272080702491    0.4995272080702491    0.6241470498477520
 
  0.00000000E+00  0.00000000E+00  0.00000000E+00
  0.00000000E+00  0.00000000E+00  0.00000000E+00
  0.00000000E+00  0.00000000E+00  0.00000000E+00
  0.00000000E+00  0.00000000E+00  0.00000000E+00
  0.00000000E+00  0.00000000E+00  0.00000000E+00
  0.00000000E+00  0.00000000E+00  0.00000000E+00
  0.00000000E+00  0.00000000E+00  0.00000000E+00
  0.00000000E+00  0.00000000E+00  0.00000000E+00
  0.00000000E+00  0.00000000E+00  0.00000000E+00
