CrCl3 1x1 + H S1 top-Cl (D3, U=0) (a=6.0
    1.000000000000000     
     6.0462744985246628    0.0000000000000000    0.0000000000000000
    -3.0231372492623314    5.2362273139763751    0.0000000000000000
     0.0000000000000000    0.0000000000000000   20.0000000000000000
   Cr   Cl   H 
     2     6     1
Direct
     0.3289956567920706    0.6899418704519331    0.4952887162548167
     0.6899418704519331    0.3289956567920706    0.4952887162548167
     0.3564911397472735    0.0221126522558320    0.4283915175486460
     0.0221126522558320    0.3564911397472734    0.4283915175486460
     0.6385786888753264    0.6385786888753264    0.4353848878637895
     0.6426168703340284    0.9939347350521566    0.5695320608380882
     0.9939347350521566    0.6426168703340284    0.5695320608380882
     0.3264546591143800    0.3264546591143800    0.5728796311673425
     0.3601739242406140    0.3601739242406140    0.6370970849456935
 
  0.00000000E+00  0.00000000E+00  0.00000000E+00
  0.00000000E+00  0.00000000E+00  0.00000000E+00
  0.00000000E+00  0.00000000E+00  0.00000000E+00
  0.00000000E+00  0.00000000E+00  0.00000000E+00
  0.00000000E+00  0.00000000E+00  0.00000000E+00
  0.00000000E+00  0.00000000E+00  0.00000000E+00
  0.00000000E+00  0.00000000E+00  0.00000000E+00
  0.00000000E+00  0.00000000E+00  0.00000000E+00
  0.00000000E+00  0.00000000E+00  0.00000000E+00
