34
Lattice="12.0969953537 0.0 0.0 -6.0484976768 10.4763052858 0.0 0.0 0.0 17.6700248718" Properties=species:S:1:pos:R:3:momenta:R:3 pbc="T T T"
Cr      -3.04994894       8.70778972       5.94988702       0.00000000       0.00000000       0.00000000
Cr      -0.04419933       3.41170484       5.98039219       0.00000000       0.00000000       0.00000000
Cr       2.95412907       8.75175306       5.98883952       0.00000000       0.00000000       0.00000000
Cr       6.08253925       3.48545040       5.96787983       0.00000000       0.00000000       0.00000000
Cr       6.08151114       6.94808915       5.98101651       0.00000000       0.00000000       0.00000000
Cr       9.04599335       1.72365200       5.94931580       0.00000000       0.00000000       0.00000000
Cr      -0.04111648       7.02272729       5.98895242       0.00000000       0.00000000       0.00000000
Cr       2.95362242       1.67879905       5.96774312       0.00000000       0.00000000       0.00000000
Cl      -3.91609678      10.42308129       4.59520633       0.00000000       0.00000000       0.00000000
Cl      -0.85273538       5.22117926       4.70212440       0.00000000       0.00000000       0.00000000
Cl       2.13041475      10.47432075       4.60954327       0.00000000       0.00000000       0.00000000
Cl       5.15361689       5.22097453       4.68388619       0.00000000       0.00000000       0.00000000
Cl      -1.12203963       8.59690675       4.60994415       0.00000000       0.00000000       0.00000000
Cl       1.91524415       3.35000683       4.68282732       0.00000000       0.00000000       0.00000000
Cl       4.92064336       8.55414549       4.70262146       0.00000000       0.00000000       0.00000000
Cl       7.99233537       3.33073486       4.59454071       0.00000000       0.00000000       0.00000000
Cl       7.99024573       7.09862020       4.60316975       0.00000000       0.00000000       0.00000000
Cl      10.96730375       1.83458785       4.60210818       0.00000000       0.00000000       0.00000000
Cl       1.91945378       7.08532035       4.69525920       0.00000000       0.00000000       0.00000000
Cl       4.92004983       1.88633211       4.67912944       0.00000000       0.00000000       0.00000000
Cl       7.12680008       8.57336261       7.31179337       0.00000000       0.00000000       0.00000000
Cl      10.12204787       3.32039769       7.31056447       0.00000000       0.00000000       0.00000000
Cl       1.02119797       8.64160674       7.33703008       0.00000000       0.00000000       0.00000000
Cl       4.09491768       3.31562581       7.44639759       0.00000000       0.00000000       0.00000000
Cl      -2.20534907      10.44290881       7.30155835       0.00000000       0.00000000       0.00000000
Cl       0.81587057       5.22045737       7.46199402       0.00000000       0.00000000       0.00000000
Cl       3.83941330      10.47102683       7.31564411       0.00000000       0.00000000       0.00000000
Cl       6.94587559       5.21404606       7.32606270       0.00000000       0.00000000       0.00000000
Cl      -1.97245254       7.11482179       7.31607027       0.00000000       0.00000000       0.00000000
Cl       1.02510836       1.79615884       7.32601809       0.00000000       0.00000000       0.00000000
Cl       4.08550596       7.10709403       7.46207449       0.00000000       0.00000000       0.00000000
Cl       7.12090315       1.85814878       7.30087105       0.00000000       0.00000000       0.00000000
Fe       3.00611156       5.20100759       8.26269909       0.00000000       0.00000000       0.00000000
H        3.02635034       5.16621945       9.83421442       0.00000000       0.00000000       0.00000000
