       N       E                     dE             d eps       ncg     rms          rms(c)
DAV:   1     0.206904124878E+04    0.20690E+04   -0.61603E+04  2952   0.918E+02
DAV:   2     0.408896759128E+03   -0.16601E+04   -0.15384E+04  3480   0.248E+02
DAV:   3    -0.126626985234E+03   -0.53552E+03   -0.51905E+03  4192   0.139E+02
DAV:   4    -0.173073666903E+03   -0.46447E+02   -0.45566E+02  4560   0.572E+01
DAV:   5    -0.173914406576E+03   -0.84074E+00   -0.81214E+00  4416   0.103E+01    0.419E+01
DAV:   6    -0.168030891056E+03    0.58835E+01   -0.17990E+02  4208   0.661E+01    0.461E+01
DAV:   7    -0.156612981473E+03    0.11418E+02   -0.34005E+01  4112   0.678E+01    0.210E+01
DAV:   8    -0.157575473207E+03   -0.96249E+00   -0.13689E+01  4248   0.145E+01    0.126E+01
DAV:   9    -0.157051482716E+03    0.52399E+00   -0.28857E+00  4136   0.114E+01    0.707E+00
DAV:  10    -0.156832215192E+03    0.21927E+00   -0.91239E-01  4080   0.510E+00    0.284E+00
DAV:  11    -0.156935545931E+03   -0.10333E+00   -0.26255E-01  3816   0.186E+00    0.159E+00
DAV:  12    -0.157030474156E+03   -0.94928E-01   -0.13218E-01  4064   0.208E+00    0.838E-01
DAV:  13    -0.157072998124E+03   -0.42524E-01   -0.16908E-02  4176   0.787E-01    0.509E-01
DAV:  14    -0.157117597457E+03   -0.44599E-01   -0.10390E-02  4232   0.543E-01    0.314E-01
DAV:  15    -0.157143810613E+03   -0.26213E-01   -0.30360E-03  4112   0.279E-01    0.167E-01
DAV:  16    -0.157153003923E+03   -0.91933E-02   -0.41067E-04  4104   0.134E-01    0.123E-01
DAV:  17    -0.157168016878E+03   -0.15013E-01   -0.73947E-04  3984   0.907E-02    0.653E-02
DAV:  18    -0.157179385931E+03   -0.11369E-01   -0.35583E-04  3720   0.534E-02    0.603E-02
DAV:  19    -0.157184407093E+03   -0.50212E-02   -0.12099E-04  3592   0.233E-02    0.439E-02
DAV:  20    -0.157190549460E+03   -0.61424E-02   -0.29403E-04  3232   0.306E-02    0.248E-02
DAV:  21    -0.157193577201E+03   -0.30277E-02   -0.19863E-04  3264   0.248E-02    0.302E-02
DAV:  22    -0.157194174328E+03   -0.59713E-03   -0.45848E-05  3464   0.139E-02    0.168E-02
DAV:  23    -0.157194280824E+03   -0.10650E-03   -0.15142E-05  3680   0.941E-03    0.384E-03
DAV:  24    -0.157194335059E+03   -0.54235E-04   -0.10594E-06  2184   0.315E-03    0.223E-03
DAV:  25    -0.157194391703E+03   -0.56644E-04   -0.14663E-06  2240   0.320E-03    0.164E-03
DAV:  26    -0.157194418427E+03   -0.26725E-04   -0.47839E-07  1768   0.217E-03    0.149E-03
DAV:  27    -0.157194433319E+03   -0.14892E-04   -0.21708E-07  1632   0.146E-03    0.132E-03
DAV:  28    -0.157194456939E+03   -0.23620E-04   -0.38576E-07  1912   0.149E-03    0.994E-04
DAV:  29    -0.157194464257E+03   -0.73175E-05   -0.49583E-07  1976   0.193E-03    0.969E-04
DAV:  30    -0.157194465915E+03   -0.16578E-05   -0.26350E-07  1720   0.168E-03    0.107E-03
DAV:  31    -0.157194468707E+03   -0.27921E-05   -0.11761E-07  1648   0.102E-03    0.749E-04
DAV:  32    -0.157194472860E+03   -0.41535E-05   -0.67846E-08  1600   0.728E-04    0.322E-04
DAV:  33    -0.157194474291E+03   -0.14303E-05   -0.25717E-08  1648   0.516E-04    0.204E-04
DAV:  34    -0.157194475037E+03   -0.74647E-06   -0.12036E-08  1616   0.346E-04
   1 F= -.15719448E+03 E0= -.15719448E+03  d E =-.157194E+03  mag=    23.0000
