CrCl3 3x3 Clean Substrate (no_vdw, U=0) 
   1.0000000000000000     
    18.1388234955739875    0.0000000000000000    0.0000000000000000
    -9.0694117477869938   15.7086819419291253    0.0000000000000000
     0.0000000000000000    0.0000000000000000   20.0000000000000000
   Cr   Cl
    18    54
Direct
  0.1111111111111143  0.2222222222222214  0.5000000000000000
  0.2222222222222214  0.1111111111111143  0.5000000000000000
  0.1111111111111143  0.5555555555555571  0.5000000000000000
  0.2222222222222214  0.4444444444444429  0.5000000000000000
  0.1111111111111143  0.8888888888888857  0.5000000000000000
  0.2222222222222214  0.7777777777777786  0.5000000000000000
  0.4444444444444429  0.2222222222222214  0.5000000000000000
  0.5555555555555571  0.1111111111111143  0.5000000000000000
  0.4444444444444429  0.5555555555555571  0.5000000000000000
  0.5555555555555571  0.4444444444444429  0.5000000000000000
  0.4444444444444429  0.8888888888888857  0.5000000000000000
  0.5555555555555571  0.7777777777777786  0.5000000000000000
  0.7777777777777786  0.2222222222222214  0.5000000000000000
  0.8888888888888857  0.1111111111111143  0.5000000000000000
  0.7777777777777786  0.5555555555555571  0.5000000000000000
  0.8888888888888857  0.4444444444444429  0.5000000000000000
  0.7777777777777786  0.8888888888888857  0.5000000000000000
  0.8888888888888857  0.7777777777777786  0.5000000000000000
  0.1197667322878715  0.3333333333333357  0.4332138067400706
  0.3333333333333357  0.1197667322878715  0.4332138067400706
  0.2135666010454642  0.2135666010454642  0.4332138067400706
  0.2135666010454642  0.3333333333333357  0.5667861932599294
  0.0000000000000000  0.2135666010454642  0.5667861932599294
  0.1197667322878715  0.1197667322878715  0.5667861932599294
  0.1197667322878715  0.6666666666666643  0.4332138067400706
  0.3333333333333357  0.4531000656212072  0.4332138067400706
  0.2135666010454642  0.5468999343787928  0.4332138067400706
  0.2135666010454642  0.6666666666666643  0.5667861932599294
  0.0000000000000000  0.5468999343787928  0.5667861932599294
  0.1197667322878715  0.4531000656212072  0.5667861932599294
  0.1197667322878715  0.0000000000000000  0.4332138067400706
  0.3333333333333357  0.7864333989545358  0.4332138067400706
  0.2135666010454642  0.8802332677121285  0.4332138067400706
  0.2135666010454642  0.0000000000000000  0.5667861932599294
  0.0000000000000000  0.8802332677121285  0.5667861932599294
  0.1197667322878715  0.7864333989545358  0.5667861932599294
  0.4531000656212072  0.3333333333333357  0.4332138067400706
  0.6666666666666643  0.1197667322878715  0.4332138067400706
  0.5468999343787928  0.2135666010454642  0.4332138067400706
  0.5468999343787928  0.3333333333333357  0.5667861932599294
  0.3333333333333357  0.2135666010454642  0.5667861932599294
  0.4531000656212072  0.1197667322878715  0.5667861932599294
  0.4531000656212072  0.6666666666666643  0.4332138067400706
  0.6666666666666643  0.4531000656212072  0.4332138067400706
  0.5468999343787928  0.5468999343787928  0.4332138067400706
  0.5468999343787928  0.6666666666666643  0.5667861932599294
  0.3333333333333357  0.5468999343787928  0.5667861932599294
  0.4531000656212072  0.4531000656212072  0.5667861932599294
  0.4531000656212072  0.0000000000000000  0.4332138067400706
  0.6666666666666643  0.7864333989545358  0.4332138067400706
  0.5468999343787928  0.8802332677121285  0.4332138067400706
  0.5468999343787928  0.0000000000000000  0.5667861932599294
  0.3333333333333357  0.8802332677121285  0.5667861932599294
  0.4531000656212072  0.7864333989545358  0.5667861932599294
  0.7864333989545358  0.3333333333333357  0.4332138067400706
  0.0000000000000000  0.1197667322878715  0.4332138067400706
  0.8802332677121285  0.2135666010454642  0.4332138067400706
  0.8802332677121285  0.3333333333333357  0.5667861932599294
  0.6666666666666643  0.2135666010454642  0.5667861932599294
  0.7864333989545358  0.1197667322878715  0.5667861932599294
  0.7864333989545358  0.6666666666666643  0.4332138067400706
  0.0000000000000000  0.4531000656212072  0.4332138067400706
  0.8802332677121285  0.5468999343787928  0.4332138067400706
  0.8802332677121285  0.6666666666666643  0.5667861932599294
  0.6666666666666643  0.5468999343787928  0.5667861932599294
  0.7864333989545358  0.4531000656212072  0.5667861932599294
  0.7864333989545358  0.0000000000000000  0.4332138067400706
  0.0000000000000000  0.7864333989545358  0.4332138067400706
  0.8802332677121285  0.8802332677121285  0.4332138067400706
  0.8802332677121285  0.0000000000000000  0.5667861932599294
  0.6666666666666643  0.8802332677121285  0.5667861932599294
  0.7864333989545358  0.7864333989545358  0.5667861932599294

  0.00000000E+00  0.00000000E+00  0.00000000E+00
  0.00000000E+00  0.00000000E+00  0.00000000E+00
  0.00000000E+00  0.00000000E+00  0.00000000E+00
  0.00000000E+00  0.00000000E+00  0.00000000E+00
  0.00000000E+00  0.00000000E+00  0.00000000E+00
  0.00000000E+00  0.00000000E+00  0.00000000E+00
  0.00000000E+00  0.00000000E+00  0.00000000E+00
  0.00000000E+00  0.00000000E+00  0.00000000E+00
  0.00000000E+00  0.00000000E+00  0.00000000E+00
  0.00000000E+00  0.00000000E+00  0.00000000E+00
  0.00000000E+00  0.00000000E+00  0.00000000E+00
  0.00000000E+00  0.00000000E+00  0.00000000E+00
  0.00000000E+00  0.00000000E+00  0.00000000E+00
  0.00000000E+00  0.00000000E+00  0.00000000E+00
  0.00000000E+00  0.00000000E+00  0.00000000E+00
  0.00000000E+00  0.00000000E+00  0.00000000E+00
  0.00000000E+00  0.00000000E+00  0.00000000E+00
  0.00000000E+00  0.00000000E+00  0.00000000E+00
  0.00000000E+00  0.00000000E+00  0.00000000E+00
  0.00000000E+00  0.00000000E+00  0.00000000E+00
  0.00000000E+00  0.00000000E+00  0.00000000E+00
  0.00000000E+00  0.00000000E+00  0.00000000E+00
  0.00000000E+00  0.00000000E+00  0.00000000E+00
  0.00000000E+00  0.00000000E+00  0.00000000E+00
  0.00000000E+00  0.00000000E+00  0.00000000E+00
  0.00000000E+00  0.00000000E+00  0.00000000E+00
  0.00000000E+00  0.00000000E+00  0.00000000E+00
  0.00000000E+00  0.00000000E+00  0.00000000E+00
  0.00000000E+00  0.00000000E+00  0.00000000E+00
  0.00000000E+00  0.00000000E+00  0.00000000E+00
  0.00000000E+00  0.00000000E+00  0.00000000E+00
  0.00000000E+00  0.00000000E+00  0.00000000E+00
  0.00000000E+00  0.00000000E+00  0.00000000E+00
  0.00000000E+00  0.00000000E+00  0.00000000E+00
  0.00000000E+00  0.00000000E+00  0.00000000E+00
  0.00000000E+00  0.00000000E+00  0.00000000E+00
  0.00000000E+00  0.00000000E+00  0.00000000E+00
  0.00000000E+00  0.00000000E+00  0.00000000E+00
  0.00000000E+00  0.00000000E+00  0.00000000E+00
  0.00000000E+00  0.00000000E+00  0.00000000E+00
  0.00000000E+00  0.00000000E+00  0.00000000E+00
  0.00000000E+00  0.00000000E+00  0.00000000E+00
  0.00000000E+00  0.00000000E+00  0.00000000E+00
  0.00000000E+00  0.00000000E+00  0.00000000E+00
  0.00000000E+00  0.00000000E+00  0.00000000E+00
  0.00000000E+00  0.00000000E+00  0.00000000E+00
  0.00000000E+00  0.00000000E+00  0.00000000E+00
  0.00000000E+00  0.00000000E+00  0.00000000E+00
  0.00000000E+00  0.00000000E+00  0.00000000E+00
  0.00000000E+00  0.00000000E+00  0.00000000E+00
  0.00000000E+00  0.00000000E+00  0.00000000E+00
  0.00000000E+00  0.00000000E+00  0.00000000E+00
  0.00000000E+00  0.00000000E+00  0.00000000E+00
  0.00000000E+00  0.00000000E+00  0.00000000E+00
  0.00000000E+00  0.00000000E+00  0.00000000E+00
  0.00000000E+00  0.00000000E+00  0.00000000E+00
  0.00000000E+00  0.00000000E+00  0.00000000E+00
  0.00000000E+00  0.00000000E+00  0.00000000E+00
  0.00000000E+00  0.00000000E+00  0.00000000E+00
  0.00000000E+00  0.00000000E+00  0.00000000E+00
  0.00000000E+00  0.00000000E+00  0.00000000E+00
  0.00000000E+00  0.00000000E+00  0.00000000E+00
  0.00000000E+00  0.00000000E+00  0.00000000E+00
  0.00000000E+00  0.00000000E+00  0.00000000E+00
  0.00000000E+00  0.00000000E+00  0.00000000E+00
  0.00000000E+00  0.00000000E+00  0.00000000E+00
  0.00000000E+00  0.00000000E+00  0.00000000E+00
  0.00000000E+00  0.00000000E+00  0.00000000E+00
  0.00000000E+00  0.00000000E+00  0.00000000E+00
  0.00000000E+00  0.00000000E+00  0.00000000E+00
  0.00000000E+00  0.00000000E+00  0.00000000E+00
  0.00000000E+00  0.00000000E+00  0.00000000E+00
