Cr8Cl24
   1.0000000000000000
    12.1682319641000003    0.0000000000000000    0.0000000000000000
    -6.1300719177999996   10.5529468652999991    0.0000000000000000
     0.0000000000000000    0.0000000000000000   17.6887664794999999
   Cr   Cl   Ni   H
     8    24     1     1
Direct
     0.1541023330302027    0.3433233368345346    0.3381182296750154
     0.1556498699889060    0.8409235628839763    0.3372636422286022
     0.6582605484621883    0.3369977811528975    0.3395055621263550
     0.6575265169546436    0.8490362708890594    0.3355344172281945
     0.8259276002007513    0.1761905910951502    0.3371898702294231
     0.8272519366151291    0.6773045372694456    0.3367341844670488
     0.3220380966159276    0.1676932018464775    0.3400633696846483
     0.3217340809593841    0.6791469865285410    0.3365171946470204
     0.1683431991681954    0.5102786971233260    0.2627766905662587
     0.1701869433334275    0.0082549568344897    0.2622777979410389
     0.6663660266164182    0.5072911073853600    0.2619847330216578
     0.6743419893405078    0.0147006050789771    0.2585085092185549
     0.3202592657154407    0.3380052174894864    0.2650266581952074
     0.3096362257710826    0.8302779880976182    0.2608955307493002
     0.8123893069965036    0.3298029876861813    0.2626491765778832
     0.8101192683458057    0.8295241398436509    0.2622172414812364
     0.9932819465942136    0.1917760956564495    0.2609887492234876
     0.9919834920754845    0.6906827045510906    0.2590486991966594
     0.4910026800639916    0.1837924627065671    0.2652323752347266
     0.4888563055274028    0.6892580436861858    0.2609282678650807
     0.9890111626074194    0.3276941937653882    0.4152571028596209
     0.9902485536073230    0.8277978950931686    0.4135240356921717
     0.4892625288742088    0.3118216791495391    0.4225789426308539
     0.4894000561148562    0.8340564283577571    0.4104222802549476
     0.3142229846042934    0.5131184481794143    0.4124650062530852
     0.3046725211861320    0.9995092897818869    0.4170605349345443
     0.8107500217966379    0.5087097509007451    0.4122883188983275
     0.8119084384950761    0.0094419520801761    0.4120090225441065
     0.1701132933014352    0.1897991781756165    0.4124225678168530
     0.1676850452869459    0.6864776696284396    0.4121686800101988
     0.6742408492656551    0.1850632474812944    0.4150374968954215
     0.6670404743640905    0.6904964584133177    0.4127841329858598
     0.4992221104836011    0.4902350919759295    0.3340801011951985
     0.5128827666371001    0.4967331053775858    0.4146809524712263

  0.00000000E+00  0.00000000E+00  0.00000000E+00
  0.00000000E+00  0.00000000E+00  0.00000000E+00
  0.00000000E+00  0.00000000E+00  0.00000000E+00
  0.00000000E+00  0.00000000E+00  0.00000000E+00
  0.00000000E+00  0.00000000E+00  0.00000000E+00
  0.00000000E+00  0.00000000E+00  0.00000000E+00
  0.00000000E+00  0.00000000E+00  0.00000000E+00
  0.00000000E+00  0.00000000E+00  0.00000000E+00
  0.00000000E+00  0.00000000E+00  0.00000000E+00
  0.00000000E+00  0.00000000E+00  0.00000000E+00
  0.00000000E+00  0.00000000E+00  0.00000000E+00
  0.00000000E+00  0.00000000E+00  0.00000000E+00
  0.00000000E+00  0.00000000E+00  0.00000000E+00
  0.00000000E+00  0.00000000E+00  0.00000000E+00
  0.00000000E+00  0.00000000E+00  0.00000000E+00
  0.00000000E+00  0.00000000E+00  0.00000000E+00
  0.00000000E+00  0.00000000E+00  0.00000000E+00
  0.00000000E+00  0.00000000E+00  0.00000000E+00
  0.00000000E+00  0.00000000E+00  0.00000000E+00
  0.00000000E+00  0.00000000E+00  0.00000000E+00
  0.00000000E+00  0.00000000E+00  0.00000000E+00
  0.00000000E+00  0.00000000E+00  0.00000000E+00
  0.00000000E+00  0.00000000E+00  0.00000000E+00
  0.00000000E+00  0.00000000E+00  0.00000000E+00
  0.00000000E+00  0.00000000E+00  0.00000000E+00
  0.00000000E+00  0.00000000E+00  0.00000000E+00
  0.00000000E+00  0.00000000E+00  0.00000000E+00
  0.00000000E+00  0.00000000E+00  0.00000000E+00
  0.00000000E+00  0.00000000E+00  0.00000000E+00
  0.00000000E+00  0.00000000E+00  0.00000000E+00
  0.00000000E+00  0.00000000E+00  0.00000000E+00
  0.00000000E+00  0.00000000E+00  0.00000000E+00
  0.00000000E+00  0.00000000E+00  0.00000000E+00
  0.00000000E+00  0.00000000E+00  0.00000000E+00