CrCl3 1x1 + H S2 hollow (no_vdw, U=0) (a
    1.000000000000000     
     6.0462744985246628    0.0000000000000000    0.0000000000000000
    -3.0231372492623314    5.2362273139763751    0.0000000000000000
     0.0000000000000000    0.0000000000000000   20.0000000000000000
   Cr   Cl   H 
     2     6     1
Direct
     0.3333333333333357    0.6666666666666643    0.4996789253187953
     0.6666666666666643    0.3333333333333357    0.4996789253187953
     0.3594211355901749    0.0000000000000000    0.4332793709737597
     0.0000000000000000    0.3594211355901749    0.4332793709737597
     0.6405788644098250    0.6405788644098250    0.4332793709737597
     0.6407705877776100    0.0000000000000000    0.5669441108359101
     1.0000000000000000    0.6407705877776100    0.5669441108359101
     0.3592294122223900    0.3592294122223900    0.5669441108359101
     0.0000000000000000    0.0000000000000000    0.5799717039333981
 
  0.00000000E+00  0.00000000E+00  0.00000000E+00
  0.00000000E+00  0.00000000E+00  0.00000000E+00
  0.00000000E+00  0.00000000E+00  0.00000000E+00
  0.00000000E+00  0.00000000E+00  0.00000000E+00
  0.00000000E+00  0.00000000E+00  0.00000000E+00
  0.00000000E+00  0.00000000E+00  0.00000000E+00
  0.00000000E+00  0.00000000E+00  0.00000000E+00
  0.00000000E+00  0.00000000E+00  0.00000000E+00
  0.00000000E+00  0.00000000E+00  0.00000000E+00
