 running   16 mpi-ranks, with    1 threads/rank, on    1 nodes
 distrk:  each k-point on   16 cores,    1 groups
 distr:  one band on    4 cores,    4 groups
 vasp.6.5.1 10Mar25 (build Jan 13 2026 20:43:53) complex                         
 POSCAR found type information on POSCAR CrClH 
 POSCAR found :  3 types and       9 ions
 scaLAPACK will be used
 LDA part: xc-table for (Slater+PW92), standard interpolation
 POSCAR, INCAR and KPOINTS ok, starting setup
 FFT: planning ... GRIDC
 FFT: planning ... GRID_SOFT
 FFT: planning ... GRID
 WAVECAR not read
 entering main loop
       N       E                     dE             d eps       ncg     rms          rms(c)
DAV:   1     0.525936539515E+03    0.52594E+03   -0.15610E+04   720   0.921E+02
DAV:   2     0.869717604285E+02   -0.43896E+03   -0.41728E+03   992   0.249E+02
DAV:   3    -0.357525164797E+02   -0.12272E+03   -0.12007E+03  1044   0.132E+02
DAV:   4    -0.439194641010E+02   -0.81669E+01   -0.80043E+01  1024   0.479E+01
DAV:   5    -0.441801765764E+02   -0.26071E+00   -0.25818E+00  1036   0.815E+00    0.229E+01
DAV:   6    -0.478151941039E+02   -0.36350E+01   -0.12450E+02  1076   0.773E+01    0.311E+01
DAV:   7    -0.394458980277E+02    0.83693E+01   -0.22548E+01   968   0.997E+01    0.107E+01
DAV:   8    -0.397934961284E+02   -0.34760E+00   -0.51003E+00   944   0.106E+01    0.646E+00
DAV:   9    -0.394048215143E+02    0.38867E+00   -0.16866E+00   996   0.110E+01    0.298E+00
DAV:  10    -0.394321661768E+02   -0.27345E-01   -0.21487E-01  1080   0.355E+00    0.179E+00
DAV:  11    -0.396280363672E+02   -0.19587E+00   -0.12219E-01   868   0.174E+00    0.963E-01
DAV:  12    -0.397346187103E+02   -0.10658E+00   -0.38165E-02   944   0.113E+00    0.556E-01
DAV:  13    -0.397846626450E+02   -0.50044E-01   -0.85075E-03  1048   0.561E-01    0.357E-01
DAV:  14    -0.398389085877E+02   -0.54246E-01   -0.61189E-03   968   0.401E-01    0.198E-01
DAV:  15    -0.398665454419E+02   -0.27637E-01   -0.18793E-03  1004   0.200E-01    0.168E-01
DAV:  16    -0.398992019675E+02   -0.32657E-01   -0.19676E-03   956   0.231E-01    0.959E-02
DAV:  17    -0.399384204915E+02   -0.39219E-01   -0.33098E-03   872   0.192E-01    0.722E-02
DAV:  18    -0.399549453822E+02   -0.16525E-01   -0.10545E-03   852   0.981E-02    0.483E-02
DAV:  19    -0.399608485482E+02   -0.59032E-02   -0.38344E-04   864   0.626E-02    0.285E-02
DAV:  20    -0.399641495664E+02   -0.33010E-02   -0.24156E-04   904   0.470E-02    0.132E-02
DAV:  21    -0.399642983377E+02   -0.14877E-03   -0.99078E-06  1004   0.158E-02    0.587E-03
DAV:  22    -0.399644100023E+02   -0.11166E-03   -0.59032E-06   728   0.768E-03    0.335E-03
DAV:  23    -0.399645057100E+02   -0.95708E-04   -0.68903E-06   712   0.877E-03    0.256E-03
DAV:  24    -0.399645412649E+02   -0.35555E-04   -0.10219E-06   600   0.503E-03    0.204E-03
DAV:  25    -0.399645627785E+02   -0.21514E-04   -0.10484E-06   616   0.382E-03    0.123E-03
DAV:  26    -0.399645727514E+02   -0.99729E-05   -0.39138E-07   544   0.335E-03    0.817E-04
DAV:  27    -0.399645965762E+02   -0.23825E-04   -0.15279E-06   632   0.372E-03    0.806E-04
DAV:  28    -0.399646028208E+02   -0.62446E-05   -0.32608E-07   520   0.276E-03    0.572E-04
DAV:  29    -0.399646058044E+02   -0.29836E-05   -0.18267E-07   488   0.209E-03    0.252E-04
DAV:  30    -0.399646073238E+02   -0.15194E-05   -0.99522E-08   472   0.163E-03    0.187E-04
DAV:  31    -0.399646085274E+02   -0.12036E-05   -0.74944E-08   428   0.133E-03    0.162E-04
DAV:  32    -0.399646097134E+02   -0.11860E-05   -0.67137E-08   428   0.115E-03    0.136E-04
DAV:  33    -0.399646102518E+02   -0.53842E-06   -0.54127E-08   448   0.985E-04
   1 F= -.39964610E+02 E0= -.39963568E+02  d E =-.399646E+02  mag=     5.0370
 curvature:   0.00 expect dE= 0.000E+00 dE for cont linesearch  0.000E+00
 trial: gam= 0.00000 g(F)=  0.249E-02 g(S)=  0.000E+00 ort = 0.000E+00 (trialstep = 0.100E+01)
 search vector abs. value=  0.249E-02
 bond charge predicted
       N       E                     dE             d eps       ncg     rms          rms(c)
DAV:   1    -0.399638072994E+02    0.80241E-03   -0.23392E-01   720   0.201E+00    0.356E-01
DAV:   2    -0.399646496734E+02   -0.84237E-03   -0.87016E-03  1016   0.556E-01    0.173E-01
DAV:   3    -0.399654862486E+02   -0.83658E-03   -0.64775E-04  1032   0.203E-01    0.819E-02
DAV:   4    -0.399653129855E+02    0.17326E-03   -0.64302E-05  1116   0.800E-02    0.546E-02
DAV:   5    -0.399651385887E+02    0.17440E-03   -0.56506E-05  1100   0.650E-02    0.384E-02
DAV:   6    -0.399650342257E+02    0.10436E-03   -0.47726E-05  1048   0.500E-02    0.154E-02
DAV:   7    -0.399651048896E+02   -0.70664E-04   -0.48038E-06   808   0.165E-02    0.111E-02
DAV:   8    -0.399652877431E+02   -0.18285E-03   -0.42136E-06   772   0.910E-03    0.598E-03
DAV:   9    -0.399654050911E+02   -0.11735E-03   -0.12784E-06   648   0.742E-03    0.320E-03
DAV:  10    -0.399655299688E+02   -0.12488E-03   -0.18235E-06   704   0.668E-03    0.227E-03
DAV:  11    -0.399656198726E+02   -0.89904E-04   -0.10752E-06   600   0.541E-03    0.176E-03
DAV:  12    -0.399657368785E+02   -0.11701E-03   -0.24147E-06   752   0.500E-03    0.147E-03
DAV:  13    -0.399658367260E+02   -0.99847E-04   -0.29334E-06   776   0.467E-03    0.654E-04
DAV:  14    -0.399658644815E+02   -0.27756E-04   -0.71561E-07   640   0.261E-03    0.443E-04
DAV:  15    -0.399658690973E+02   -0.46158E-05   -0.16313E-07   496   0.223E-03    0.196E-04
DAV:  16    -0.399658709680E+02   -0.18707E-05   -0.12755E-07   496   0.145E-03    0.205E-04
DAV:  17    -0.399658714349E+02   -0.46689E-06   -0.53786E-08   480   0.140E-03
   2 F= -.39965871E+02 E0= -.39964713E+02  d E =-.126118E-02  mag=     5.0438
 trial-energy change:   -0.001261  1 .order   -0.001269   -0.002488   -0.000049
 step:   1.0206(harm=  1.0202)  dis= 0.00322  next Energy=   -39.965872 (dE=-0.126E-02)
 reached required accuracy - stopping structural energy minimisation
Warning: ieee_inexact is signaling
FORTRAN STOP
Warning: ieee_inexact is signaling
FORTRAN STOP
Warning: ieee_inexact is signaling
FORTRAN STOP
Warning: ieee_inexact is signaling
FORTRAN STOP
Warning: ieee_inexact is signaling
FORTRAN STOP
Warning: ieee_inexact is signaling
FORTRAN STOP
Warning: ieee_inexact is signaling
FORTRAN STOP
Warning: ieee_inexact is signaling
FORTRAN STOP
Warning: ieee_inexact is signaling
FORTRAN STOP
Warning: ieee_inexact is signaling
FORTRAN STOP
Warning: ieee_inexact is signaling
FORTRAN STOP
Warning: ieee_inexact is signaling
FORTRAN STOP
Warning: ieee_inexact is signaling
FORTRAN STOP
Warning: ieee_inexact is signaling
FORTRAN STOP
Warning: ieee_inexact is signaling
FORTRAN STOP
Warning: ieee_inexact is signaling
FORTRAN STOP
