CrCl3 2x2 + H S2 hollow (D3, U=0) (a_2x2
    1.000000000000000     
    12.0925489970493256    0.0000000000000000    0.0000000000000000
    -6.0462744985246628   10.4724546279527502    0.0000000000000000
     0.0000000000000000    0.0000000000000000   20.0000000000000000
   Cr   Cl   H 
     8    24     1
Direct
     0.1662530332146448    0.3331197702564409    0.4998244943588468
     0.3331197702564409    0.1662530332146448    0.4998244943588468
     0.6668802297435591    0.3331332629581898    0.4998244943588468
     0.8333333333333286    0.1666666666666714    0.5000314193200912
     0.1666666666666714    0.8333333333333286    0.5000314193200912
     0.3331332629581898    0.6668802297435591    0.4998244943588468
     0.6668667370418103    0.8337469667853552    0.4998244943588468
     0.8337469667853552    0.6668667370418103    0.4998244943588468
     0.1792774635917014    0.5000000000000000    0.4331828639007113
     0.5000000000000000    0.1792774635917014    0.4331828639007113
     0.3212522315475527    0.3212522315475527    0.4333226852660016
     0.3207735745866810    0.5000000000000000    0.5669391410916064
     0.0000197144072529    0.3209414762935512    0.5667825641615528
     0.1791746048305126    0.1791746048305126    0.5667977047930840
     0.6787477684524472    0.5000000000000000    0.4333226852660016
     0.0001862688925973    0.1793219911271361    0.4333307407103534
     0.8206780088728640    0.3208642777654612    0.4333307407103534
     0.8208253951694874    0.5000000000000000    0.5667977047930840
     0.5000000000000000    0.3207735745866810    0.5669391410916064
     0.6790585237064488    0.1790782381137017    0.5667825641615528
     0.1793219911271361    0.0001862688925973    0.4333307407103534
     0.5000000000000000    0.6787477684524472    0.4333226852660016
     0.3208642777654612    0.8206780088728640    0.4333307407103534
     0.3209414762935512    0.0000197144072529    0.5667825641615528
     0.9999802855927471    0.8209217618862983    0.5667825641615528
     0.1790782381137017    0.6790585237064488    0.5667825641615528
     0.6791357222345388    0.9998137311074027    0.4333307407103534
     0.9998137311074027    0.6791357222345388    0.4333307407103534
     0.8207225364082985    0.8207225364082985    0.4331828639007113
     0.8209217618862983    0.9999802855927471    0.5667825641615528
     0.5000000000000000    0.8208253951694874    0.5667977047930840
     0.6792264254133189    0.6792264254133189    0.5669391410916064
     0.5000000000000000    0.5000000000000000    0.5795831808210876
 
  0.00000000E+00  0.00000000E+00  0.00000000E+00
  0.00000000E+00  0.00000000E+00  0.00000000E+00
  0.00000000E+00  0.00000000E+00  0.00000000E+00
  0.00000000E+00  0.00000000E+00  0.00000000E+00
  0.00000000E+00  0.00000000E+00  0.00000000E+00
  0.00000000E+00  0.00000000E+00  0.00000000E+00
  0.00000000E+00  0.00000000E+00  0.00000000E+00
  0.00000000E+00  0.00000000E+00  0.00000000E+00
  0.00000000E+00  0.00000000E+00  0.00000000E+00
  0.00000000E+00  0.00000000E+00  0.00000000E+00
  0.00000000E+00  0.00000000E+00  0.00000000E+00
  0.00000000E+00  0.00000000E+00  0.00000000E+00
  0.00000000E+00  0.00000000E+00  0.00000000E+00
  0.00000000E+00  0.00000000E+00  0.00000000E+00
  0.00000000E+00  0.00000000E+00  0.00000000E+00
  0.00000000E+00  0.00000000E+00  0.00000000E+00
  0.00000000E+00  0.00000000E+00  0.00000000E+00
  0.00000000E+00  0.00000000E+00  0.00000000E+00
  0.00000000E+00  0.00000000E+00  0.00000000E+00
  0.00000000E+00  0.00000000E+00  0.00000000E+00
  0.00000000E+00  0.00000000E+00  0.00000000E+00
  0.00000000E+00  0.00000000E+00  0.00000000E+00
  0.00000000E+00  0.00000000E+00  0.00000000E+00
  0.00000000E+00  0.00000000E+00  0.00000000E+00
  0.00000000E+00  0.00000000E+00  0.00000000E+00
  0.00000000E+00  0.00000000E+00  0.00000000E+00
  0.00000000E+00  0.00000000E+00  0.00000000E+00
  0.00000000E+00  0.00000000E+00  0.00000000E+00
  0.00000000E+00  0.00000000E+00  0.00000000E+00
  0.00000000E+00  0.00000000E+00  0.00000000E+00
  0.00000000E+00  0.00000000E+00  0.00000000E+00
  0.00000000E+00  0.00000000E+00  0.00000000E+00
  0.00000000E+00  0.00000000E+00  0.00000000E+00
