 vasp.6.5.1 10Mar25 (build Jan 13 2026 20:43:53) complex                         
 executed on             LinuxAMD date 2026.09.09  13:02:22
 running   16 mpi-ranks, with    1 threads/rank, on    1 nodes
 distrk:  each k-point on   16 cores,    1 groups
 distr:  one band on NCORE=   4 cores,    4 groups


--------------------------------------------------------------------------------------------------------


 INCAR:
   SYSTEM = CrCl3 2x2 + H (S2 hollow) (D3, U\=0eV)
   PREC = Accurate
   ENCUT = 400.0
   ALGO = Normal
   EDIFF = 1.0E-06
   NELM = 100
   ISPIN = 2
   MAGMOM = 8*3.0 24*0.0 1*0.0
   ISMEAR = 0
   SIGMA = 0.05
   NCORE = 4
   LREAL = Auto
   IVDW = 11
   IBRION = 2
   NSW = 100
   ISIF = 2
   EDIFFG = -0.025
   LASPH = .TRUE.
   LMAXMIX = 4
   LDAU = .FALSE.
   LDIPOL = .TRUE.
   IDIPOL = 3
   DIPOL = 0.5 0.5 0.5
   LWAVE = .FALSE.
   LCHARG = .FALSE.

 POTCAR:    PAW_PBE Cr 06Sep2000                  
 POTCAR:    PAW_PBE Cl 06Sep2000                  
 POTCAR:    PAW_PBE H 15Jun2001                   
 POTCAR:    PAW_PBE Cr 06Sep2000                  
   SHA256 =  56e7271fac8042f322b235801e26979132a24da65eb043fa6a03029023cb2fcc Cr/POTCAR             
   COPYR  = (c) Copyright 06Sep2000 Georg Kresse                                                    
   COPYR  = This file is part of the software VASP. Any use, copying, and all other rights are regul
   COPYR  = If you do not have a valid VASP license, you may not use, copy or distribute this file. 
   VRHFIN =Cr : d5 s1                                                                               
   LEXCH  = PE                                                                                      
   EATOM  =   276.8859 eV,   20.3505 Ry                                                             
                                                                                                    
   TITEL  = PAW_PBE Cr 06Sep2000                                                                    
   LULTRA =        F    use ultrasoft PP ?                                                          
   IUNSCR =        1    unscreen: 0-lin 1-nonlin 2-no                                               
   RPACOR =    2.080    partial core radius                                                         
   POMASS =   51.996; ZVAL   =    6.000    mass and valenz                                          
   RCORE  =    2.500    outmost cutoff radius                                                       
   RWIGS  =    2.500; RWIGS  =    1.323    wigner-seitz radius (au A)                               
   ENMAX  =  227.080; ENMIN  =  170.310 eV                                                          
   RCLOC  =    1.721    cutoff for local pot                                                        
   LCOR   =        T    correct aug charges                                                         
   LPAW   =        T    paw PP                                                                      
   EAUG   =  402.108                                                                                
   DEXC   =    0.000                                                                                
   RMAX   =    2.552    core radius for proj-oper                                                   
   RAUG   =    1.300    factor for augmentation sphere                                              
   RDEP   =    2.609    radius for radial grids                                                     
   RDEPT  =    2.065    core radius for aug-charge                                                  
                                                                                                    
   Atomic configuration                                                                             
    9 entries                                                                                       
     n  l   j            E        occ.                                                              
     1  0  0.50     -5880.4963   2.0000                                                             
     2  0  0.50      -667.0865   2.0000                                                             
     2  1  1.50      -560.6250   6.0000                                                             
     3  0  0.50       -73.9860   2.0000                                                             
     3  1  1.50       -45.4378   6.0000                                                             
     3  2  2.50        -2.9137   5.0000                                                             
     4  0  0.50        -4.0071   1.0000                                                             
     4  1  0.50        -1.2789   0.0000                                                             
     4  3  2.50        -1.3606   0.0000                                                             
   Description                                                                                      
     l       E           TYP  RCUT    TYP  RCUT                                                     
     2     -2.9136677     23  2.500                                                                 
     2     -4.2742503     23  2.500                                                                 
     0     -4.0071322     23  2.500                                                                 
     0      9.4498801     23  2.500                                                                 
     1     -5.4423304     23  2.500                                                                 
     1     27.2116520     23  2.500                                                                 
  local pseudopotential read in
  partial core-charges read in
  partial kinetic energy density read in
  atomic valenz-charges read in
  non local Contribution for L=            2  read in
    real space projection operators read in
  non local Contribution for L=            2  read in
    real space projection operators read in
  non local Contribution for L=            0  read in
    real space projection operators read in
  non local Contribution for L=            0  read in
    real space projection operators read in
  non local Contribution for L=            1  read in
    real space projection operators read in
  non local Contribution for L=            1  read in
    real space projection operators read in
    PAW grid and wavefunctions read in
 
   number of l-projection  operators is LMAX  =            6
   number of lm-projection operators is LMMAX =           18
 
 POTCAR:    PAW_PBE Cl 06Sep2000                  
   SHA256 =  9f1b6e6ed4247ac726a768b330d26d7667cc3c95a39ff49c1d064c2d9dcce931 Cl/POTCAR             
   COPYR  = (c) Copyright 06Sep2000 Georg Kresse                                                    
   COPYR  = This file is part of the software VASP. Any use, copying, and all other rights are regul
   COPYR  = If you do not have a valid VASP license, you may not use, copy or distribute this file. 
   VRHFIN =Cl: s2p5                                                                                 
   LEXCH  = PE                                                                                      
   EATOM  =   409.7259 eV,   30.1140 Ry                                                             
                                                                                                    
   TITEL  = PAW_PBE Cl 06Sep2000                                                                    
   LULTRA =        F    use ultrasoft PP ?                                                          
   IUNSCR =        1    unscreen: 0-lin 1-nonlin 2-no                                               
   RPACOR =    1.500    partial core radius                                                         
   POMASS =   35.453; ZVAL   =    7.000    mass and valenz                                          
   RCORE  =    1.900    outmost cutoff radius                                                       
   RWIGS  =    2.100; RWIGS  =    1.111    wigner-seitz radius (au A)                               
   ENMAX  =  262.472; ENMIN  =  196.854 eV                                                          
   ICORE  =        2    local potential                                                             
   LCOR   =        T    correct aug charges                                                         
   LPAW   =        T    paw PP                                                                      
   EAUG   =  356.192                                                                                
   DEXC   =    0.000                                                                                
   RMAX   =    1.945    core radius for proj-oper                                                   
   RAUG   =    1.300    factor for augmentation sphere                                              
   RDEP   =    2.020    radius for radial grids                                                     
   RDEPT  =    1.678    core radius for aug-charge                                                  
                                                                                                    
   Atomic configuration                                                                             
    6 entries                                                                                       
     n  l   j            E        occ.                                                              
     1  0  0.50     -2751.1850   2.0000                                                             
     2  0  0.50      -252.6861   2.0000                                                             
     2  1  1.50      -191.6157   6.0000                                                             
     3  0  0.50       -20.6916   2.0000                                                             
     3  1  0.50        -8.5949   5.0000                                                             
     3  2  1.50        -8.1635   0.0000                                                             
   Description                                                                                      
     l       E           TYP  RCUT    TYP  RCUT                                                     
     0    -20.6915656     23  1.900                                                                 
     0    -22.0521482     23  1.900                                                                 
     1     -8.5948577     23  1.900                                                                 
     1     -5.3847331     23  1.900                                                                 
     2     -8.1634956     23  1.900                                                                 
  local pseudopotential read in
  partial core-charges read in
  partial kinetic energy density read in
  atomic valenz-charges read in
  non local Contribution for L=            0  read in
    real space projection operators read in
  non local Contribution for L=            0  read in
    real space projection operators read in
  non local Contribution for L=            1  read in
    real space projection operators read in
  non local Contribution for L=            1  read in
    real space projection operators read in
    PAW grid and wavefunctions read in
 
   number of l-projection  operators is LMAX  =            4
   number of lm-projection operators is LMMAX =            8
 
 POTCAR:    PAW_PBE H 15Jun2001                   
   SHA256 =  030f79b5d3ab3cf0e668861823c8fb652ff669f3e15e46930bd03bfd63a607b6 H/POTCAR              
   COPYR  = (c) Copyright 15Jun2001 Georg Kresse                                                    
   COPYR  = This file is part of the software VASP. Any use, copying, and all other rights are regul
   COPYR  = If you do not have a valid VASP license, you may not use, copy or distribute this file. 
   VRHFIN =H: ultrasoft test                                                                        
   LEXCH  = PE                                                                                      
   EATOM  =    12.4884 eV,    0.9179 Ry                                                             
                                                                                                    
   TITEL  = PAW_PBE H 15Jun2001                                                                     
   LULTRA =        F    use ultrasoft PP ?                                                          
   IUNSCR =        0    unscreen: 0-lin 1-nonlin 2-no                                               
   RPACOR =    0.000    partial core radius                                                         
   POMASS =    1.000; ZVAL   =    1.000    mass and valenz                                          
   RCORE  =    1.100    outmost cutoff radius                                                       
   RWIGS  =    0.700; RWIGS  =    0.370    wigner-seitz radius (au A)                               
   ENMAX  =  250.000; ENMIN  =  200.000 eV                                                          
   RCLOC  =    0.701    cutoff for local pot                                                        
   LCOR   =        T    correct aug charges                                                         
   LPAW   =        T    paw PP                                                                      
   EAUG   =  400.000                                                                                
   RMAX   =    1.123    core radius for proj-oper                                                   
   RAUG   =    1.200    factor for augmentation sphere                                              
   RDEP   =    1.112    radius for radial grids                                                     
   RDEPT  =    0.926    core radius for aug-charge                                                  
                                                                                                    
   Atomic configuration                                                                             
    2 entries                                                                                       
     n  l   j            E        occ.                                                              
     1  0  0.50        -6.4927   1.0000                                                             
     2  1  0.50        -3.4015   0.0000                                                             
   Description                                                                                      
     l       E           TYP  RCUT    TYP  RCUT                                                     
     0     -6.4927494     23  1.100                                                                 
     0      6.8029130     23  1.100                                                                 
     1     -4.0817478     23  1.100                                                                 
  local pseudopotential read in
  atomic valenz-charges read in
  non local Contribution for L=            0  read in
    real space projection operators read in
  non local Contribution for L=            0  read in
    real space projection operators read in
  non local Contribution for L=            1  read in
    real space projection operators read in
    PAW grid and wavefunctions read in
 
   number of l-projection  operators is LMAX  =            3
   number of lm-projection operators is LMMAX =            5
 
 Optimization of the real space projectors (new method)

 maximal supplied QI-value         = 15.12
 optimisation between [QCUT,QGAM] = [ 10.13, 20.41] = [ 28.73,116.64] Ry 
 Optimized for a Real-space Cutoff    1.55 Angstroem

   l    n(q)    QCUT    max X(q) W(low)/X(q) W(high)/X(q)  e(spline) 
   2      9    10.129    94.395    0.23E-03    0.29E-03    0.30E-06
   2      9    10.129    88.078    0.23E-03    0.29E-03    0.30E-06
   0      9    10.129    50.173    0.57E-04    0.58E-04    0.11E-06
   0      9    10.129    24.906    0.50E-04    0.51E-04    0.96E-07
   1      9    10.129    12.133    0.24E-03    0.21E-04    0.16E-06
   1      9    10.129     7.290    0.17E-03    0.12E-04    0.12E-06
 Optimization of the real space projectors (new method)

 maximal supplied QI-value         = 19.84
 optimisation between [QCUT,QGAM] = [ 10.12, 20.44] = [ 28.68,116.96] Ry 
 Optimized for a Real-space Cutoff    1.42 Angstroem

   l    n(q)    QCUT    max X(q) W(low)/X(q) W(high)/X(q)  e(spline) 
   0      9    10.119   168.010    0.50E-04    0.84E-04    0.57E-07
   0      9    10.119   164.674    0.49E-04    0.82E-04    0.55E-07
   1      8    10.119    69.222    0.16E-03    0.16E-03    0.24E-06
   1      8    10.119    56.786    0.16E-03    0.16E-03    0.23E-06
 Optimization of the real space projectors (new method)

 maximal supplied QI-value         = 34.20
 optimisation between [QCUT,QGAM] = [  9.92, 20.18] = [ 27.55,114.04] Ry 
 Optimized for a Real-space Cutoff    1.34 Angstroem

   l    n(q)    QCUT    max X(q) W(low)/X(q) W(high)/X(q)  e(spline) 
   0      8     9.919    19.460    0.16E-03    0.20E-03    0.36E-06
   0      8     9.919    12.209    0.16E-03    0.20E-03    0.35E-06
   1      8     9.919     4.655    0.19E-03    0.46E-03    0.40E-06
  PAW_PBE Cr 06Sep2000                  :
 energy of atom  1       EATOM= -276.8859
 kinetic energy error for atom=    0.0018 (will be added to EATOM!!)
  PAW_PBE Cl 06Sep2000                  :
 energy of atom  2       EATOM= -409.7259
 kinetic energy error for atom=    0.0089 (will be added to EATOM!!)
  PAW_PBE H 15Jun2001                   :
 energy of atom  3       EATOM=  -12.4884
 kinetic energy error for atom=    0.0098 (will be added to EATOM!!)
 
 
 POSCAR: CrCl3 2x2 + H S2 hollow (D3, U=0) (a_2x2
  positions in direct lattice
  No initial velocities read in
 IVDW         = 11
 VDW_S6       =    1.0000
 VDW_S8       =    0.7220
 VDW_SR       =    1.2170
 VDW_RADIUS   =   50.2022 A
 VDW_CNRADIUS =   21.1671 A


 exchange-correlation table for PE
   RHO(1)=    0.500       N(1)  =     2000
   RHO(2)=  100.500       N(2)  =     4000
 


--------------------------------------------------------------------------------------------------------


 ion  position               nearest neighbor table
   1  0.167  0.333  0.500-  11 2.36  14 2.36  12 2.36  16 2.36   9 2.36  13 2.36
   2  0.333  0.167  0.500-  11 2.36  14 2.36  19 2.36  21 2.36  24 2.36  10 2.36
   3  0.667  0.333  0.500-  17 2.36  20 2.36  18 2.36  10 2.36  15 2.36  19 2.36
   4  0.833  0.167  0.500-  17 2.36  20 2.36  13 2.36  27 2.36  30 2.36  16 2.36
   5  0.167  0.833  0.500-  23 2.36  26 2.36  24 2.36  28 2.36  21 2.36  25 2.36
   6  0.333  0.667  0.500-  23 2.36  26 2.36   9 2.36  31 2.36  12 2.36  22 2.36
   7  0.667  0.833  0.500-  29 2.36  32 2.36  30 2.36  22 2.36  27 2.36  31 2.36
   8  0.833  0.667  0.500-  29 2.36  32 2.36  15 2.36  25 2.36  18 2.36  28 2.36
   9  0.180  0.500  0.433-   6 2.36   1 2.36
  10  0.500  0.180  0.433-   3 2.36   2 2.36
  11  0.320  0.320  0.433-   1 2.36   2 2.36
  12  0.320  0.500  0.567-   1 2.36   6 2.36
  13  0.000  0.320  0.567-   4 2.36   1 2.36
  14  0.180  0.180  0.567-   1 2.36   2 2.36
  15  0.680  0.500  0.433-   8 2.36   3 2.36
  16  0.000  0.180  0.433-   1 2.36   4 2.36
  17  0.820  0.320  0.433-   3 2.36   4 2.36
  18  0.820  0.500  0.567-   3 2.36   8 2.36
  19  0.500  0.320  0.567-   2 2.36   3 2.36
  20  0.680  0.180  0.567-   3 2.36   4 2.36
  21  0.180  0.000  0.433-   2 2.36   5 2.36
  22  0.500  0.680  0.433-   7 2.36   6 2.36
  23  0.320  0.820  0.433-   5 2.36   6 2.36
  24  0.320  0.000  0.567-   5 2.36   2 2.36
  25  0.000  0.820  0.567-   8 2.36   5 2.36
  26  0.180  0.680  0.567-   5 2.36   6 2.36
  27  0.680  0.000  0.433-   4 2.36   7 2.36
  28  0.000  0.680  0.433-   5 2.36   8 2.36
  29  0.820  0.820  0.433-   7 2.36   8 2.36
  30  0.820  0.000  0.567-   7 2.36   4 2.36
  31  0.500  0.820  0.567-   6 2.36   7 2.36
  32  0.680  0.680  0.567-   7 2.36   8 2.36
  33  0.500  0.500  0.580-
 
  LATTYP: Found a hexagonal cell.
 ALAT       =    12.0925489970
 C/A-ratio  =     1.6539110162
  
  Lattice vectors:
  
 A1 = (  12.0925489970,   0.0000000000,   0.0000000000)
 A2 = (  -6.0462744985,  10.4724546280,   0.0000000000)
 A3 = (   0.0000000000,   0.0000000000,  20.0000000000)


Analysis of symmetry for initial positions (statically):
=====================================================================
 Subroutine PRICEL returns:
 Original cell was already a primitive cell.
 

 Routine SETGRP: Setting up the symmetry group for a 
 hexagonal supercell.


 Subroutine GETGRP returns: Found  6 space group operations
 (whereof  2 operations were pure point group operations)
 out of a pool of 24 trial point group operations.


The static configuration has the point symmetry C_1h.
 The point group associated with its full space group is C_3v.


Analysis of symmetry for dynamics (positions and initial velocities):
=====================================================================
 Subroutine PRICEL returns:
 Original cell was already a primitive cell.
 

 Routine SETGRP: Setting up the symmetry group for a 
 hexagonal supercell.


 Subroutine GETGRP returns: Found  6 space group operations
 (whereof  2 operations were pure point group operations)
 out of a pool of 24 trial point group operations.


The dynamic configuration has the point symmetry C_1h.
 The point group associated with its full space group is C_3v.


Analysis of structural, dynamic, and magnetic symmetry:
=====================================================================
 Subroutine PRICEL returns:
 Original cell was already a primitive cell.
 

 Routine SETGRP: Setting up the symmetry group for a 
 hexagonal supercell.


 Subroutine GETGRP returns: Found  6 space group operations
 (whereof  2 operations were pure point group operations)
 out of a pool of 24 trial point group operations.


The overall configuration has the point symmetry C_1h.
 The point group associated with its full space group is C_3v.


 Subroutine INISYM returns: Found  6 space group operations
 (whereof  2 operations are pure point group operations),
 and found     1 'primitive' translations


----------------------------------------------------------------------------------------

                                     Primitive cell                                     

  volume of cell :    2532.7734

  direct lattice vectors                    reciprocal lattice vectors
    12.092548997  0.000000000  0.000000000     0.082695551  0.047744299 -0.000000000
    -6.046274499 10.472454628  0.000000000     0.000000000  0.095488597  0.000000000
     0.000000000  0.000000000 20.000000000     0.000000000 -0.000000000  0.050000000

  length of vectors
    12.092548997 12.092548997 20.000000000     0.095488597  0.095488597  0.050000000

  position of ions in fractional coordinates (direct lattice)
     0.166666667  0.333333333  0.500000000
     0.333333333  0.166666667  0.500000000
     0.666666667  0.333333333  0.500000000
     0.833333333  0.166666667  0.500000000
     0.166666667  0.833333333  0.500000000
     0.333333333  0.666666667  0.500000000
     0.666666667  0.833333333  0.500000000
     0.833333333  0.666666667  0.500000000
     0.179650098  0.500000000  0.433213807
     0.500000000  0.179650098  0.433213807
     0.320349902  0.320349902  0.433213807
     0.320349902  0.500000000  0.566786193
     0.000000000  0.320349902  0.566786193
     0.179650098  0.179650098  0.566786193
     0.679650098  0.500000000  0.433213807
     0.000000000  0.179650098  0.433213807
     0.820349902  0.320349902  0.433213807
     0.820349902  0.500000000  0.566786193
     0.500000000  0.320349902  0.566786193
     0.679650098  0.179650098  0.566786193
     0.179650098  0.000000000  0.433213807
     0.500000000  0.679650098  0.433213807
     0.320349902  0.820349902  0.433213807
     0.320349902  0.000000000  0.566786193
     0.000000000  0.820349902  0.566786193
     0.179650098  0.679650098  0.566786193
     0.679650098  0.000000000  0.433213807
     0.000000000  0.679650098  0.433213807
     0.820349902  0.820349902  0.433213807
     0.820349902  0.000000000  0.566786193
     0.500000000  0.820349902  0.566786193
     0.679650098  0.679650098  0.566786193
     0.500000000  0.500000000  0.580000000

  ion indices of the primitive-cell ions
   primitive index   ion index
                 1           1
                 2           2
                 3           3
                 4           4
                 5           5
                 6           6
                 7           7
                 8           8
                 9           9
                10          10
                11          11
                12          12
                13          13
                14          14
                15          15
                16          16
                17          17
                18          18
                19          19
                20          20
                21          21
                22          22
                23          23
                24          24
                25          25
                26          26
                27          27
                28          28
                29          29
                30          30
                31          31
                32          32
                33          33

----------------------------------------------------------------------------------------

 
 
 KPOINTS: K-Points 5x5x1 Gamma-centered           

Automatic generation of k-mesh.
 Grid dimensions read from file:
 generate k-points for:    5    5    1

 Generating k-lattice:

  Cartesian coordinates                     Fractional coordinates (reciprocal lattice)
     0.016539110  0.009548860 -0.000000000     0.200000000 -0.000000000  0.000000000
     0.000000000  0.019097719  0.000000000     0.000000000  0.200000000  0.000000000
     0.000000000 -0.000000000  0.050000000     0.000000000  0.000000000  1.000000000

  Length of vectors
     0.019097719  0.019097719  0.050000000

  Shift w.r.t. Gamma in fractional coordinates (k-lattice)
     0.000000000  0.000000000  0.000000000

 
 Subroutine IBZKPT returns following result:
 ===========================================
 
 Found      5 irreducible k-points:
 
 Following reciprocal coordinates:
            Coordinates               Weight
  0.000000  0.000000  0.000000      1.000000
  0.200000  0.000000  0.000000      6.000000
  0.400000  0.000000  0.000000      6.000000
  0.200000  0.200000  0.000000      6.000000
  0.400000  0.200000  0.000000      6.000000
 
 Following cartesian coordinates:
            Coordinates               Weight
  0.000000  0.000000  0.000000      1.000000
  0.016539  0.009549  0.000000      6.000000
  0.033078  0.019098  0.000000      6.000000
  0.016539  0.028647  0.000000      6.000000
  0.033078  0.038195  0.000000      6.000000
 


--------------------------------------------------------------------------------------------------------




 Dimension of arrays:
   k-points           NKPTS =      5   k-points in BZ     NKDIM =      5   number of bands    NBANDS=    144
   number of dos      NEDOS =    301   number of ions     NIONS =     33
   non local maximal  LDIM  =      6   non local SUM 2l+1 LMDIM =     18
   total plane-waves  NPLWV = 896000
   max r-space proj   IRMAX =   5608   max aug-charges    IRDMAX=  18270
   dimension x,y,z NGX =    80 NGY =   80 NGZ =  140
   dimension x,y,z NGXF=   160 NGYF=  160 NGZF=  280
   support grid    NGXF=   160 NGYF=  160 NGZF=  280
   ions per type =               8  24   1
   NGX,Y,Z   is equivalent  to a cutoff of  11.00, 11.00, 11.64 a.u.
   NGXF,Y,Z  is equivalent  to a cutoff of  22.00, 22.00, 23.27 a.u.

 SYSTEM =  CrCl3 2x2 + H (S2 hollow) (D3, U=0eV)   
 POSCAR =  CrCl3 2x2 + H S2 hollow (D3, U=0) (a_2x2

 Startparameter for this run:
   NWRITE =      2    write-flag & timer
   PREC   = accura    normal or accurate (medium, high low for compatibility)
   ISTART =      0    job   : 0-new  1-cont  2-samecut
   ICHARG =      2    charge: 1-file 2-atom 10-const
   ISPIN  =      2    spin polarized calculation?
   LNONCOLLINEAR =      F non collinear calculations
   LSORBIT =      F    spin-orbit coupling
   INIWAV =      1    electr: 0-lowe 1-rand  2-diag
   LASPH  =      T    aspherical Exc in radial PAW
 Electronic Relaxation 1
   ENCUT  =  400.0 eV  29.40 Ry    5.42 a.u.  19.72 19.72 32.61*2*pi/ulx,y,z
   ENINI  =  400.0     initial cutoff
   ENAUG  =  402.1 eV  augmentation charge cutoff
   NELM   =    100;   NELMIN=  2; NELMDL= -5     # of ELM steps 
   EDIFF  = 0.1E-05   stopping-criterion for ELM
   LREAL  =      T    real-space projection
   NLSPLINE    = F    spline interpolate recip. space projectors
   LCOMPAT=      F    compatible to vasp.4.4
   GGA_COMPAT  = T    GGA compatible to vasp.4.4-vasp.4.6
   LMAXPAW     = -100 max onsite density
   LMAXMIX     =    4 max onsite mixed and CHGCAR
   VOSKOWN=      0    Vosko Wilk Nusair interpolation
   ROPT   =   -0.00025  -0.00025  -0.00025
 Ionic relaxation
   EDIFFG = -.3E-01   stopping-criterion for IOM
   NSW    =    100    number of steps for IOM
   NBLOCK =      1;   KBLOCK =    100    inner block; outer block 
   IBRION =      2    ionic relax: 0-MD 1-quasi-New 2-CG
   NFREE  =      1    steps in history (QN), initial steepest desc. (CG)
   ISIF   =      2    stress and relaxation
   IWAVPR =     11    prediction:  0-non 1-charg 2-wave 3-comb
   ISYM   =      2    0-nonsym 1-usesym 2-fastsym
   LCORR  =      T    Harris-Foulkes like correction to forces

   POTIM  = 0.5000    time-step for ionic-motion
   TEIN   =    0.0    initial temperature
   TEBEG  =    0.0;   TEEND  =   0.0 temperature during run
   SMASS  =  -3.00    Nose mass-parameter (am)
   estimated Nose-frequenzy (Omega)   =  0.10E-29 period in steps = 0.13E+47 mass=  -0.334E-26a.u.
   SCALEE = 1.0000    scale energy and forces
   NPACO  =    256;   APACO  = 10.0  distance and # of slots for P.C.
   PSTRESS=    0.0 pullay stress

  Mass of Ions in am
   POMASS =  52.00 35.45  1.00
  Ionic Valenz
   ZVAL   =   6.00  7.00  1.00
  Atomic Wigner-Seitz radii
   RWIGS  =  -1.00 -1.00 -1.00
  virtual crystal weights 
   VCA    =   1.00  1.00  1.00
   NELECT =     217.0000    total number of electrons
   NUPDOWN=      -1.0000    fix difference up-down

 DOS related values:
   EMIN   =  10.00;   EMAX   =-10.00  energy-range for DOS
   EFERMI =   0.00;   METHOD = LEGACY      
   ISMEAR =     0;   SIGMA  =   0.05  broadening in eV -4-tet -1-fermi 0-gaus
   EFERMI_NEDOS =   21; number of points for ismear=-14 and -15

 Electronic relaxation 2 (details)
   IALGO  =     38    algorithm
   LDIAG  =      T    sub-space diagonalisation (order eigenvalues)
   LSUBROT=      F    optimize rotation matrix (better conditioning)
   LROBUST=      F    robust break criterion during scf (extrapolated energy error)
   ISEARCH=      0    line search for conjugate gradient (0, 1=use gradient)
   TURBO    =      0    0=normal 1=particle mesh
   IRESTART =      0    0=no restart 2=restart with 2 vectors
   NREBOOT  =      0    no. of reboots
   NMIN     =      0    reboot dimension
   EREF     =   0.00    reference energy to select bands
   IMIX   =      4    mixing-type and parameters
     AMIX     =   0.40;   BMIX     =  1.00
     AMIX_MAG =   1.60;   BMIX_MAG =  1.00
     AMIN     =   0.10
     WC   =   100.;   INIMIX=   1;  MIXPRE=   1;  MAXMIX= -45

 Intra band minimization:
   WEIMIN = 0.0010     energy-eigenvalue tresh-hold
   EBREAK =  0.17E-08  absolut break condition
   DEPER  =   0.30     relativ break condition  

   TIME   =   0.40     timestep for ELM

  volume/ion in A,a.u.               =      76.75       517.94
  Fermi-wavevector in a.u.,A,eV,Ry     =   0.721710  1.363834  7.086800  0.520865
  Thomas-Fermi vector in A             =   1.811487
 
 Write flags
   LWAVE        =      F    write WAVECAR
   LDOWNSAMPLE  =      F    k-point downsampling of WAVECAR
   LCHARG       =      F    write CHGCAR
   LVTOT        =      F    write LOCPOT, total local potential
   LVHAR        =      F    write LOCPOT, Hartree potential only
   WRT_POTENTIAL= false  ! write potential to hdf5 file
   LELF         =      F    write electronic localiz. function (ELF)
   LORBIT       =      0    0 simple, 1 ext, 2 COOP (PROOUT), +10 PAW based schemes


 Python interface
   PLUGINS active      =      F    recompile with -DPLUGINS to activate
 
 Dipole corrections
   LMONO      =      F    monopole corrections only (constant potential shift)
   LDIPOL     =      T    correct potential (dipole corrections)
   IDIPOL     =      3    1-x, 2-y, 3-z, 4-all directions 
   EPSILON    =  1.0000000 bulk dielectric constant
   LVACPOTAV  =      F  vacuum potentials using an averaging scheme for the charge density
   VACPOTFLAT =  0.1000000 required flatness to determine vacuum potential
 
Coulomb truncation method
  LTRUNCATE          =      F  Coulomb kernel truncation to be used

 
 Exchange correlation treatment:
   GGA     = PE    functional components
   XC_C    = 1    coefficients multiplying the functional components
   LIBXC   =     F    Libxc                    
   VOSKOWN =     0    Vosko Wilk Nusair interpolation
   LHFCALC =     F    Hartree Fock is set to
   LHFONE  =     F    Hartree Fock one center treatment
   AEXX    =    0.0000 exact exchange contribution

 Parameters of functionals:
   PE:
     No parameter
 
 Van der Waals corrections
   IVDW    =    11    specifies the selected vdW correction

 Linear response parameters
   LEPSILON=     F    determine dielectric tensor
   LRPA    =     F    only Hartree local field effects (RPA)
   LNABLA  =     F    use nabla operator in PAW spheres
   LVEL    =     F    velocity operator in full k-point grid
   CSHIFT  =0.1000    complex shift for real part using Kramers Kronig
   OMEGAMAX=  -1.0    maximum frequency
   DEG_THRESHOLD= 0.2000000E-02 threshold for treating states as degnerate
   RTIME   =   -0.100 relaxation time in fs
  (WPLASMAI=    0.000 imaginary part of plasma frequency in eV, 0.658/RTIME)
   DFIELD  = 0.0000000 0.0000000 0.0000000 field for delta impulse in time
 
  Optional k-point grid parameters
   LKPOINTS_OPT  =     F    use optional k-point grid
   KPOINTS_OPT_MODE=     1    mode for optional k-point grid
 
 Orbital magnetization related:
   ORBITALMAG=     F  switch on orbital magnetization
   LCHIMAG   =     F  perturbation theory with respect to B field
   DQ        =  0.001000  dq finite difference perturbation B field
   LLRAUG    =     F  two centre corrections for induced B field
   LBONE     =     F  B-component reconstruction in AE one-centre
   LVGVCALC  =     T  calculate vGv susceptibility
   LVGVAPPL  =     F  apply vGv susceptibility instead of pGv for G=0

 Random number generation:
   RANDOM_GENERATOR = DEFAULT
   PCG_SEED         = not used


--------------------------------------------------------------------------------------------------------


 conjugate gradient relaxation of ions
 charge density and potential will be updated during run
 spin polarized calculation
 Variant of blocked Davidson
 Davidson routine will perform the subspace rotation
 perform sub-space diagonalisation
    after iterative eigenvector-optimisation
 modified Broyden-mixing scheme, WC =      100.0
 initial mixing is a Kerker type mixing with AMIX =  0.4000 and BMIX =      1.0000
 Hartree-type preconditioning will be used
 using additional bands            35
 real space projection scheme for non local part
 use partial core corrections
 calculate Harris-corrections to forces 
   (improved forces if not selfconsistent)
 use gradient corrections 
 use of overlap-Matrix (Vanderbilt PP)
 Gauss-broadening in eV      SIGMA  =   0.05


--------------------------------------------------------------------------------------------------------


  energy-cutoff  :      400.00
  volume of cell :     2532.77
      direct lattice vectors                 reciprocal lattice vectors
    12.092548997  0.000000000  0.000000000     0.082695551  0.047744299 -0.000000000
    -6.046274499 10.472454628  0.000000000     0.000000000  0.095488597  0.000000000
     0.000000000  0.000000000 20.000000000     0.000000000 -0.000000000  0.050000000

  length of vectors
    12.092548997 12.092548997 20.000000000     0.095488597  0.095488597  0.050000000


 
 k-points in units of 2pi/SCALE and weight: K-Points 5x5x1 Gamma-centered           
   0.00000000  0.00000000  0.00000000       0.040
   0.01653911  0.00954886  0.00000000       0.240
   0.03307822  0.01909772  0.00000000       0.240
   0.01653911  0.02864658  0.00000000       0.240
   0.03307822  0.03819544  0.00000000       0.240
 
 k-points in reciprocal lattice and weights: K-Points 5x5x1 Gamma-centered           
   0.00000000  0.00000000  0.00000000       0.040
   0.20000000  0.00000000  0.00000000       0.240
   0.40000000  0.00000000  0.00000000       0.240
   0.20000000  0.20000000  0.00000000       0.240
   0.40000000  0.20000000  0.00000000       0.240
 
 position of ions in fractional coordinates (direct lattice) 
   0.16666667  0.33333333  0.50000000
   0.33333333  0.16666667  0.50000000
   0.66666667  0.33333333  0.50000000
   0.83333333  0.16666667  0.50000000
   0.16666667  0.83333333  0.50000000
   0.33333333  0.66666667  0.50000000
   0.66666667  0.83333333  0.50000000
   0.83333333  0.66666667  0.50000000
   0.17965010  0.50000000  0.43321381
   0.50000000  0.17965010  0.43321381
   0.32034990  0.32034990  0.43321381
   0.32034990  0.50000000  0.56678619
   0.00000000  0.32034990  0.56678619
   0.17965010  0.17965010  0.56678619
   0.67965010  0.50000000  0.43321381
   0.00000000  0.17965010  0.43321381
   0.82034990  0.32034990  0.43321381
   0.82034990  0.50000000  0.56678619
   0.50000000  0.32034990  0.56678619
   0.67965010  0.17965010  0.56678619
   0.17965010  0.00000000  0.43321381
   0.50000000  0.67965010  0.43321381
   0.32034990  0.82034990  0.43321381
   0.32034990  0.00000000  0.56678619
   0.00000000  0.82034990  0.56678619
   0.17965010  0.67965010  0.56678619
   0.67965010  0.00000000  0.43321381
   0.00000000  0.67965010  0.43321381
   0.82034990  0.82034990  0.43321381
   0.82034990  0.00000000  0.56678619
   0.50000000  0.82034990  0.56678619
   0.67965010  0.67965010  0.56678619
   0.50000000  0.50000000  0.58000000
 
 position of ions in cartesian coordinates  (Angst):
   0.00000000  3.49081821 10.00000000
   3.02313725  1.74540910 10.00000000
   6.04627450  3.49081821 10.00000000
   9.06941175  1.74540910 10.00000000
  -3.02313725  8.72704552 10.00000000
  -0.00000000  6.98163642 10.00000000
   3.02313725  8.72704552 10.00000000
   6.04627450  6.98163642 10.00000000
  -0.85070963  5.23622731  8.66427613
   4.96006069  1.88137750  8.66427613
   1.93692344  3.35484981  8.66427613
   0.85070963  5.23622731 11.33572387
  -1.93692344  3.35484981 11.33572387
   1.08621381  1.88137750 11.33572387
   5.19556487  5.23622731  8.66427613
  -1.08621381  1.88137750  8.66427613
   7.98319794  3.35484981  8.66427613
   6.89698413  5.23622731 11.33572387
   4.10935106  3.35484981 11.33572387
   7.13248831  1.88137750 11.33572387
   2.17242762  0.00000000  8.66427613
   1.93692344  7.11760482  8.66427613
  -1.08621381  8.59107712  8.66427613
   3.87384688  0.00000000 11.33572387
  -4.96006069  8.59107712 11.33572387
  -1.93692344  7.11760482 11.33572387
   8.21870212  0.00000000  8.66427613
  -4.10935106  7.11760482  8.66427613
   4.96006069  8.59107712  8.66427613
   9.92012138  0.00000000 11.33572387
   1.08621381  8.59107712 11.33572387
   4.10935106  7.11760482 11.33572387
   3.02313725  5.23622731 11.60000000
 


--------------------------------------------------------------------------------------------------------


 k-point     1 :   0.0000 0.0000 0.0000  plane waves:   46037
 k-point     2 :   0.2000 0.0000 0.0000  plane waves:   45994
 k-point     3 :   0.4000 0.0000 0.0000  plane waves:   46016
 k-point     4 :   0.2000 0.2000 0.0000  plane waves:   46056
 k-point     5 :   0.4000 0.2000 0.0000  plane waves:   46002

 maximum and minimum number of plane-waves per node :     11533    11480

 maximum number of plane-waves:     46056
 maximum index in each direction: 
   IXMAX=   19   IYMAX=   19   IZMAX=   32
   IXMIN=  -20   IYMIN=  -19   IZMIN=  -32


 real space projection operators:
  total allocation   :      12388.30 KBytes
  max/ min on nodes  :       3120.49       3075.81


 parallel 3D FFT for wavefunctions:
    minimum data exchange during FFTs selected (reduces bandwidth)
 parallel 3D FFT for charge:
    minimum data exchange during FFTs selected (reduces bandwidth)


 total amount of memory used by VASP MPI-rank0   183568. kBytes
=======================================================================

   base                                    :      30000. kBytes
   nonlr-proj                              :       6956. kBytes
   fftplans                                :      21731. kBytes
   grid                                    :      57625. kBytes
   one-center                              :        279. kBytes
   wavefun                                 :      66977. kBytes
 
     INWAV:  cpu time      0.0001: real time      0.0240
 Broyden mixing: mesh for mixing (old mesh)
   NGX = 39   NGY = 39   NGZ = 65
  (NGX  =160   NGY  =160   NGZ  =280)
  gives a total of  98865 points

 initial charge density was supplied:
 charge density of overlapping atoms calculated
 number of electron     217.0000000 magnetization      24.0000000
 keeping initial charge density in first step


--------------------------------------------------------------------------------------------------------


 Maximum index for non-local projection operator          1364
 Maximum index for augmentation-charges          1154 (set IRDMAX)


--------------------------------------------------------------------------------------------------------


 First call to EWALD:  gamma=   0.130
 Maximum number of real-space cells   3x   3x   2
 Maximum number of reciprocal cells   3x   3x   4

    FEWALD:  cpu time      0.0437: real time      0.4839


--------------------------------------- Ionic step        1  -------------------------------------------




--------------------------------------- Iteration      1(   1)  ---------------------------------------


    POTLOK:  cpu time      0.5834: real time      6.4262
    SETDIJ:  cpu time      0.2846: real time      3.1659
     EDDAV:  cpu time    126.3207: real time   1396.6840
       DOS:  cpu time      0.2349: real time      2.5960
    --------------------------------------------
      LOOP:  cpu time    127.4236: real time   1408.8721

 eigenvalue-minimisations  :  2952
 total energy-change (2. order) : 0.2069041E+04  (-0.6160309E+04)
 number of electron     217.0000000 magnetization      24.0000000
 augmentation part      217.0000000 magnetization      24.0000000

 DIPCOR: dipole corrections for dipol
 direction  3 min pos     1,
 dipolmoment           0.000000      0.000000     -0.000005 electrons x Angstroem
 Tr[quadrupol]     -5265.092828

 energy correction for charged system         0.000000 eV
 dipol+quadrupol energy correction           -0.000000 eV
 added-field ion interaction          0.000001 eV  (added to PSCEN)


 Free energy of the ion-electron system (eV)
  ---------------------------------------------------
  alpha Z        PSCENC =       109.46236430
  Ewald energy   TEWEN  =     24522.86222164
  -Hartree energ DENC   =    -35242.62280420
  -exchange      EXHF   =         0.00000000
  -V(xc)+E(xc)   XCENC  =       332.63683125
  PAW double counting   =     10021.38580736    -9866.74876467
  entropy T*S    EENTRO =        -0.03462006
  eigenvalues    EBANDS =       131.34133637
  atomic energy  EATOM  =     12060.75887678
  Solvation  Ediel_sol  =         0.00000000
  ---------------------------------------------------
  free energy    TOTEN  =      2069.04124878 eV

  energy without entropy =     2069.07586884  energy(sigma->0) =     2069.05855881


--------------------------------------------------------------------------------------------------------




--------------------------------------- Iteration      1(   2)  ---------------------------------------


     EDDAV:  cpu time    138.9364: real time   1536.0420
       DOS:  cpu time      0.2558: real time      2.8560
    --------------------------------------------
      LOOP:  cpu time    139.1922: real time   1538.8980

 eigenvalue-minimisations  :  3480
 total energy-change (2. order) :-0.1660144E+04  (-0.1538426E+04)
 number of electron     217.0000000 magnetization      24.0000000
 augmentation part      217.0000000 magnetization      24.0000000

 DIPCOR: dipole corrections for dipol
 direction  3 min pos     1,
 dipolmoment           0.000000      0.000000     -0.000005 electrons x Angstroem
 Tr[quadrupol]     -5265.092828

 energy correction for charged system         0.000000 eV
 dipol+quadrupol energy correction           -0.000000 eV
 added-field ion interaction          0.000001 eV  (added to PSCEN)


 Free energy of the ion-electron system (eV)
  ---------------------------------------------------
  alpha Z        PSCENC =       109.46236430
  Ewald energy   TEWEN  =     24522.86222164
  -Hartree energ DENC   =    -35242.62280420
  -exchange      EXHF   =         0.00000000
  -V(xc)+E(xc)   XCENC  =       332.63683125
  PAW double counting   =     10021.38580736    -9866.74876467
  entropy T*S    EENTRO =        -0.02427851
  eigenvalues    EBANDS =     -1528.81349484
  atomic energy  EATOM  =     12060.75887678
  Solvation  Ediel_sol  =         0.00000000
  ---------------------------------------------------
  free energy    TOTEN  =       408.89675913 eV

  energy without entropy =      408.92103764  energy(sigma->0) =      408.90889838


--------------------------------------------------------------------------------------------------------




--------------------------------------- Iteration      1(   3)  ---------------------------------------


     EDDAV:  cpu time    153.3227: real time   1695.3290
       DOS:  cpu time      0.1990: real time      2.2090
    --------------------------------------------
      LOOP:  cpu time    153.5217: real time   1697.5380

 eigenvalue-minimisations  :  4192
 total energy-change (2. order) :-0.5355237E+03  (-0.5190502E+03)
 number of electron     217.0000000 magnetization      24.0000000
 augmentation part      217.0000000 magnetization      24.0000000

 DIPCOR: dipole corrections for dipol
 direction  3 min pos     1,
 dipolmoment           0.000000      0.000000     -0.000005 electrons x Angstroem
 Tr[quadrupol]     -5265.092828

 energy correction for charged system         0.000000 eV
 dipol+quadrupol energy correction           -0.000000 eV
 added-field ion interaction          0.000001 eV  (added to PSCEN)


 Free energy of the ion-electron system (eV)
  ---------------------------------------------------
  alpha Z        PSCENC =       109.46236430
  Ewald energy   TEWEN  =     24522.86222164
  -Hartree energ DENC   =    -35242.62280420
  -exchange      EXHF   =         0.00000000
  -V(xc)+E(xc)   XCENC  =       332.63683125
  PAW double counting   =     10021.38580736    -9866.74876467
  entropy T*S    EENTRO =        -0.00020830
  eigenvalues    EBANDS =     -2064.36130940
  atomic energy  EATOM  =     12060.75887678
  Solvation  Ediel_sol  =         0.00000000
  ---------------------------------------------------
  free energy    TOTEN  =      -126.62698523 eV

  energy without entropy =     -126.62677693  energy(sigma->0) =     -126.62688108


--------------------------------------------------------------------------------------------------------




--------------------------------------- Iteration      1(   4)  ---------------------------------------


     EDDAV:  cpu time    161.7563: real time   1788.2120
       DOS:  cpu time      0.1713: real time      1.8920
    --------------------------------------------
      LOOP:  cpu time    161.9276: real time   1790.1040

 eigenvalue-minimisations  :  4560
 total energy-change (2. order) :-0.4644668E+02  (-0.4556564E+02)
 number of electron     217.0000000 magnetization      24.0000000
 augmentation part      217.0000000 magnetization      24.0000000

 DIPCOR: dipole corrections for dipol
 direction  3 min pos     1,
 dipolmoment           0.000000      0.000000     -0.000005 electrons x Angstroem
 Tr[quadrupol]     -5265.092828

 energy correction for charged system         0.000000 eV
 dipol+quadrupol energy correction           -0.000000 eV
 added-field ion interaction          0.000001 eV  (added to PSCEN)


 Free energy of the ion-electron system (eV)
  ---------------------------------------------------
  alpha Z        PSCENC =       109.46236430
  Ewald energy   TEWEN  =     24522.86222164
  -Hartree energ DENC   =    -35242.62280420
  -exchange      EXHF   =         0.00000000
  -V(xc)+E(xc)   XCENC  =       332.63683125
  PAW double counting   =     10021.38580736    -9866.74876467
  entropy T*S    EENTRO =        -0.00002360
  eigenvalues    EBANDS =     -2110.80817577
  atomic energy  EATOM  =     12060.75887678
  Solvation  Ediel_sol  =         0.00000000
  ---------------------------------------------------
  free energy    TOTEN  =      -173.07366690 eV

  energy without entropy =     -173.07364330  energy(sigma->0) =     -173.07365510


--------------------------------------------------------------------------------------------------------




--------------------------------------- Iteration      1(   5)  ---------------------------------------


     EDDAV:  cpu time    156.9333: real time   1735.3040
       DOS:  cpu time      0.1832: real time      2.0240
    CHARGE:  cpu time      5.1869: real time     57.3187
    MIXING:  cpu time      0.0998: real time      1.1403
    --------------------------------------------
      LOOP:  cpu time    162.4032: real time   1795.7870

 eigenvalue-minimisations  :  4416
 total energy-change (2. order) :-0.8407397E+00  (-0.8121437E+00)
 number of electron     216.9999981 magnetization      23.8562716
 augmentation part       -8.6238522 magnetization      13.9709418

 DIPCOR: dipole corrections for dipol
 direction  3 min pos     1,
 dipolmoment           0.000000      0.000000     -0.000005 electrons x Angstroem
 Tr[quadrupol]     -5265.092828

 energy correction for charged system         0.000000 eV
 dipol+quadrupol energy correction           -0.000000 eV
 added-field ion interaction          0.000001 eV  (added to PSCEN)


 Broyden mixing:
  rms(total) = 0.41895E+01    rms(broyden)= 0.41886E+01
  rms(prec ) = 0.44364E+01
  weight for this iteration     100.00

 Free energy of the ion-electron system (eV)
  ---------------------------------------------------
  alpha Z        PSCENC =       109.46236430
  Ewald energy   TEWEN  =     24522.86222164
  -Hartree energ DENC   =    -35242.62280420
  -exchange      EXHF   =         0.00000000
  -V(xc)+E(xc)   XCENC  =       332.63683125
  PAW double counting   =     10021.38580736    -9866.74876467
  entropy T*S    EENTRO =        -0.00025713
  eigenvalues    EBANDS =     -2111.64868191
  atomic energy  EATOM  =     12060.75887678
  Solvation  Ediel_sol  =         0.00000000
  ---------------------------------------------------
  free energy    TOTEN  =      -173.91440658 eV

  energy without entropy =     -173.91414944  energy(sigma->0) =     -173.91427801


--------------------------------------------------------------------------------------------------------




--------------------------------------- Iteration      1(   6)  ---------------------------------------


    POTLOK:  cpu time      0.6349: real time      6.9969
    SETDIJ:  cpu time      0.2809: real time      3.1241
     EDDAV:  cpu time    153.4343: real time   1696.4960
       DOS:  cpu time      0.1892: real time      2.0700
    CHARGE:  cpu time      4.7140: real time     52.1165
    MIXING:  cpu time      0.1050: real time      1.1845
    --------------------------------------------
      LOOP:  cpu time    159.3583: real time   1761.9880

 eigenvalue-minimisations  :  4208
 total energy-change (2. order) : 0.5883516E+01  (-0.1798986E+02)
 number of electron     216.9999983 magnetization      23.7995052
 augmentation part        4.9404448 magnetization      15.8414254

 DIPCOR: dipole corrections for dipol
 direction  3 min pos     1,
 dipolmoment           0.000000      0.000000      0.117222 electrons x Angstroem
 Tr[quadrupol]     -5263.625636

 energy correction for charged system         0.000000 eV
 dipol+quadrupol energy correction           -0.000491 eV
 added-field ion interaction         -0.013412 eV  (added to PSCEN)


 Broyden mixing:
  rms(total) = 0.46096E+01    rms(broyden)= 0.46095E+01
  rms(prec ) = 0.48329E+01
  weight for this iteration     100.00

 eigenvalues of (default mixing * dielectric matrix)
  average eigenvalue GAMMA=   0.3100
  0.3100

 Free energy of the ion-electron system (eV)
  ---------------------------------------------------
  alpha Z        PSCENC =       109.44846071
  Ewald energy   TEWEN  =     24522.86222164
  -Hartree energ DENC   =    -35178.88956750
  -exchange      EXHF   =         0.00000000
  -V(xc)+E(xc)   XCENC  =       343.91258585
  PAW double counting   =     11449.64682707   -11276.17028720
  entropy T*S    EENTRO =        -0.00743331
  eigenvalues    EBANDS =     -2199.59257510
  atomic energy  EATOM  =     12060.75887678
  Solvation  Ediel_sol  =         0.00000000
  ---------------------------------------------------
  free energy    TOTEN  =      -168.03089106 eV

  energy without entropy =     -168.02345775  energy(sigma->0) =     -168.02717440


--------------------------------------------------------------------------------------------------------




--------------------------------------- Iteration      1(   7)  ---------------------------------------


    POTLOK:  cpu time      0.6474: real time      7.1306
    SETDIJ:  cpu time      0.2803: real time      3.1375
     EDDAV:  cpu time    152.2905: real time   1683.9320
       DOS:  cpu time      0.1831: real time      2.0250
    CHARGE:  cpu time      4.7323: real time     52.3149
    MIXING:  cpu time      0.1324: real time      1.4930
    --------------------------------------------
      LOOP:  cpu time    158.2660: real time   1750.0330

 eigenvalue-minimisations  :  4112
 total energy-change (2. order) : 0.1141791E+02  (-0.3400516E+01)
 number of electron     216.9999982 magnetization      23.8339225
 augmentation part       -2.5247919 magnetization      15.6311559

 DIPCOR: dipole corrections for dipol
 direction  3 min pos     1,
 dipolmoment           0.000000      0.000000      0.003334 electrons x Angstroem
 Tr[quadrupol]     -5265.044764

 energy correction for charged system         0.000000 eV
 dipol+quadrupol energy correction           -0.000000 eV
 added-field ion interaction         -0.000381 eV  (added to PSCEN)


 Broyden mixing:
  rms(total) = 0.21050E+01    rms(broyden)= 0.21049E+01
  rms(prec ) = 0.21289E+01
  weight for this iteration     100.00

 eigenvalues of (default mixing * dielectric matrix)
  average eigenvalue GAMMA=   0.6821
  0.9869  0.3774

 Free energy of the ion-electron system (eV)
  ---------------------------------------------------
  alpha Z        PSCENC =       109.46198184
  Ewald energy   TEWEN  =     24522.86222164
  -Hartree energ DENC   =    -35232.32166275
  -exchange      EXHF   =         0.00000000
  -V(xc)+E(xc)   XCENC  =       341.78401010
  PAW double counting   =     12148.60433189   -11990.17021405
  entropy T*S    EENTRO =        -0.02998534
  eigenvalues    EBANDS =     -2117.56254160
  atomic energy  EATOM  =     12060.75887678
  Solvation  Ediel_sol  =         0.00000000
  ---------------------------------------------------
  free energy    TOTEN  =      -156.61298147 eV

  energy without entropy =     -156.58299613  energy(sigma->0) =     -156.59798880


--------------------------------------------------------------------------------------------------------




--------------------------------------- Iteration      1(   8)  ---------------------------------------


    POTLOK:  cpu time      0.6617: real time      7.3031
    SETDIJ:  cpu time      0.2953: real time      3.2929
     EDDAV:  cpu time    154.9200: real time   1712.8670
       DOS:  cpu time      0.1095: real time      1.2300
    CHARGE:  cpu time      4.7414: real time     52.4050
    MIXING:  cpu time      0.1215: real time      1.3620
    --------------------------------------------
      LOOP:  cpu time    160.8493: real time   1778.4600

 eigenvalue-minimisations  :  4248
 total energy-change (2. order) :-0.9624917E+00  (-0.1368856E+01)
 number of electron     216.9999982 magnetization      23.7192803
 augmentation part       -3.1236314 magnetization      16.5463699

 DIPCOR: dipole corrections for dipol
 direction  3 min pos     1,
 dipolmoment           0.000000      0.000000     -0.133547 electrons x Angstroem
 Tr[quadrupol]     -5265.460883

 energy correction for charged system         0.000000 eV
 dipol+quadrupol energy correction           -0.000638 eV
 added-field ion interaction          0.015279 eV  (added to PSCEN)


 Broyden mixing:
  rms(total) = 0.12560E+01    rms(broyden)= 0.12559E+01
  rms(prec ) = 0.12983E+01
  weight for this iteration     100.00

 eigenvalues of (default mixing * dielectric matrix)
  average eigenvalue GAMMA=   0.7957
  1.4723  0.4573  0.4573

 Free energy of the ion-electron system (eV)
  ---------------------------------------------------
  alpha Z        PSCENC =       109.47700547
  Ewald energy   TEWEN  =     24522.86222164
  -Hartree energ DENC   =    -35240.53590013
  -exchange      EXHF   =         0.00000000
  -V(xc)+E(xc)   XCENC  =       345.00704541
  PAW double counting   =     13582.19798886   -13429.59150204
  entropy T*S    EENTRO =        -0.00000160
  eigenvalues    EBANDS =     -2107.75120761
  atomic energy  EATOM  =     12060.75887678
  Solvation  Ediel_sol  =         0.00000000
  ---------------------------------------------------
  free energy    TOTEN  =      -157.57547321 eV

  energy without entropy =     -157.57547161  energy(sigma->0) =     -157.57547241


--------------------------------------------------------------------------------------------------------




--------------------------------------- Iteration      1(   9)  ---------------------------------------


    POTLOK:  cpu time      0.6071: real time      6.6902
    SETDIJ:  cpu time      0.2806: real time      3.1218
     EDDAV:  cpu time    152.5208: real time   1686.4840
       DOS:  cpu time      0.0438: real time      0.4840
    CHARGE:  cpu time      4.9303: real time     54.5135
    MIXING:  cpu time      0.1616: real time      1.8024
    --------------------------------------------
      LOOP:  cpu time    158.5442: real time   1753.0960

 eigenvalue-minimisations  :  4136
 total energy-change (2. order) : 0.5239905E+00  (-0.2885713E+00)
 number of electron     216.9999982 magnetization      23.6356302
 augmentation part       -2.3504090 magnetization      16.8050421

 DIPCOR: dipole corrections for dipol
 direction  3 min pos     1,
 dipolmoment           0.000000      0.000000     -0.114617 electrons x Angstroem
 Tr[quadrupol]     -5265.741768

 energy correction for charged system         0.000000 eV
 dipol+quadrupol energy correction           -0.000470 eV
 added-field ion interaction          0.013114 eV  (added to PSCEN)


 Broyden mixing:
  rms(total) = 0.70737E+00    rms(broyden)= 0.70733E+00
  rms(prec ) = 0.72282E+00
  weight for this iteration     100.00

 eigenvalues of (default mixing * dielectric matrix)
  average eigenvalue GAMMA=   0.8953
  2.0445  0.5531  0.5531  0.4306

 Free energy of the ion-electron system (eV)
  ---------------------------------------------------
  alpha Z        PSCENC =       109.47500756
  Ewald energy   TEWEN  =     24522.86222164
  -Hartree energ DENC   =    -35245.45908371
  -exchange      EXHF   =         0.00000000
  -V(xc)+E(xc)   XCENC  =       346.23881825
  PAW double counting   =     14520.49287886   -14369.81070686
  entropy T*S    EENTRO =        -0.00000000
  eigenvalues    EBANDS =     -2101.60949524
  atomic energy  EATOM  =     12060.75887678
  Solvation  Ediel_sol  =         0.00000000
  ---------------------------------------------------
  free energy    TOTEN  =      -157.05148272 eV

  energy without entropy =     -157.05148272  energy(sigma->0) =     -157.05148272


--------------------------------------------------------------------------------------------------------




--------------------------------------- Iteration      1(  10)  ---------------------------------------


    POTLOK:  cpu time      0.6106: real time      6.7369
    SETDIJ:  cpu time      0.2768: real time      3.0891
     EDDAV:  cpu time    152.6585: real time   1687.8820
       DOS:  cpu time      0.0558: real time      0.6160
    CHARGE:  cpu time      5.2166: real time     57.6452
    MIXING:  cpu time      0.1434: real time      1.6228
    --------------------------------------------
      LOOP:  cpu time    158.9618: real time   1757.5920

 eigenvalue-minimisations  :  4080
 total energy-change (2. order) : 0.2192675E+00  (-0.9123934E-01)
 number of electron     216.9999983 magnetization      23.5538435
 augmentation part       -2.0116511 magnetization      16.7843453

 DIPCOR: dipole corrections for dipol
 direction  3 min pos     1,
 dipolmoment           0.000000      0.000000     -0.072878 electrons x Angstroem
 Tr[quadrupol]     -5265.922275

 energy correction for charged system         0.000000 eV
 dipol+quadrupol energy correction           -0.000190 eV
 added-field ion interaction          0.008338 eV  (added to PSCEN)


 Broyden mixing:
  rms(total) = 0.28384E+00    rms(broyden)= 0.28382E+00
  rms(prec ) = 0.29095E+00
  weight for this iteration     100.00

 eigenvalues of (default mixing * dielectric matrix)
  average eigenvalue GAMMA=   0.9259
  2.2833  0.7041  0.7041  0.4280  0.5099

 Free energy of the ion-electron system (eV)
  ---------------------------------------------------
  alpha Z        PSCENC =       109.47051196
  Ewald energy   TEWEN  =     24522.86222164
  -Hartree energ DENC   =    -35249.33219908
  -exchange      EXHF   =         0.00000000
  -V(xc)+E(xc)   XCENC  =       347.04583829
  PAW double counting   =     14818.84366025   -14669.10057919
  entropy T*S    EENTRO =        -0.00000000
  eigenvalues    EBANDS =     -2097.38054586
  atomic energy  EATOM  =     12060.75887678
  Solvation  Ediel_sol  =         0.00000000
  ---------------------------------------------------
  free energy    TOTEN  =      -156.83221519 eV

  energy without entropy =     -156.83221519  energy(sigma->0) =     -156.83221519


--------------------------------------------------------------------------------------------------------




--------------------------------------- Iteration      1(  11)  ---------------------------------------


    POTLOK:  cpu time      0.6668: real time      7.3501
    SETDIJ:  cpu time      0.2886: real time      3.2100
     EDDAV:  cpu time    146.0435: real time   1614.7440
       DOS:  cpu time      0.0438: real time      0.4840
    CHARGE:  cpu time      4.6079: real time     50.9459
    MIXING:  cpu time      0.1812: real time      2.0220
    --------------------------------------------
      LOOP:  cpu time    151.8319: real time   1678.7560

 eigenvalue-minimisations  :  3816
 total energy-change (2. order) :-0.1033307E+00  (-0.2625508E-01)
 number of electron     216.9999983 magnetization      23.4524598
 augmentation part       -2.0534794 magnetization      16.6428300

 DIPCOR: dipole corrections for dipol
 direction  3 min pos     1,
 dipolmoment           0.000000      0.000000     -0.049873 electrons x Angstroem
 Tr[quadrupol]     -5266.102432

 energy correction for charged system         0.000000 eV
 dipol+quadrupol energy correction           -0.000089 eV
 added-field ion interaction          0.005706 eV  (added to PSCEN)


 Broyden mixing:
  rms(total) = 0.15851E+00    rms(broyden)= 0.15850E+00
  rms(prec ) = 0.16330E+00
  weight for this iteration     100.00

 eigenvalues of (default mixing * dielectric matrix)
  average eigenvalue GAMMA=   0.9646
  2.4365  1.0455  0.7421  0.4332  0.5651  0.5651

 Free energy of the ion-electron system (eV)
  ---------------------------------------------------
  alpha Z        PSCENC =       109.46798085
  Ewald energy   TEWEN  =     24522.86222164
  -Hartree energ DENC   =    -35253.49290712
  -exchange      EXHF   =         0.00000000
  -V(xc)+E(xc)   XCENC  =       347.25278412
  PAW double counting   =     14900.82584643   -14751.72414944
  entropy T*S    EENTRO =        -0.00000000
  eigenvalues    EBANDS =     -2092.88619919
  atomic energy  EATOM  =     12060.75887678
  Solvation  Ediel_sol  =         0.00000000
  ---------------------------------------------------
  free energy    TOTEN  =      -156.93554593 eV

  energy without entropy =     -156.93554593  energy(sigma->0) =     -156.93554593


--------------------------------------------------------------------------------------------------------




--------------------------------------- Iteration      1(  12)  ---------------------------------------


    POTLOK:  cpu time      0.6228: real time      6.8653
    SETDIJ:  cpu time      0.2804: real time      3.1217
     EDDAV:  cpu time    150.5184: real time   1664.3660
       DOS:  cpu time      0.0557: real time      0.6160
    CHARGE:  cpu time      4.7152: real time     52.1094
    MIXING:  cpu time      0.1569: real time      1.7556
    --------------------------------------------
      LOOP:  cpu time    156.3495: real time   1728.8340

 eigenvalue-minimisations  :  4064
 total energy-change (2. order) :-0.9492822E-01  (-0.1321835E-01)
 number of electron     216.9999982 magnetization      23.3979626
 augmentation part       -2.1040111 magnetization      16.5412855

 DIPCOR: dipole corrections for dipol
 direction  3 min pos     1,
 dipolmoment           0.000000      0.000000     -0.049522 electrons x Angstroem
 Tr[quadrupol]     -5266.298092

 energy correction for charged system         0.000000 eV
 dipol+quadrupol energy correction           -0.000088 eV
 added-field ion interaction          0.005666 eV  (added to PSCEN)


 Broyden mixing:
  rms(total) = 0.83839E-01    rms(broyden)= 0.83826E-01
  rms(prec ) = 0.85478E-01
  weight for this iteration     100.00

 eigenvalues of (default mixing * dielectric matrix)
  average eigenvalue GAMMA=   0.9952
  2.4179  1.1922  1.0897  0.4353  0.6485  0.6485  0.5340

 Free energy of the ion-electron system (eV)
  ---------------------------------------------------
  alpha Z        PSCENC =       109.46794188
  Ewald energy   TEWEN  =     24522.86222164
  -Hartree energ DENC   =    -35257.43566584
  -exchange      EXHF   =         0.00000000
  -V(xc)+E(xc)   XCENC  =       347.01311810
  PAW double counting   =     14956.43204927   -14807.64530692
  entropy T*S    EENTRO =        -0.00000000
  eigenvalues    EBANDS =     -2088.48370908
  atomic energy  EATOM  =     12060.75887678
  Solvation  Ediel_sol  =         0.00000000
  ---------------------------------------------------
  free energy    TOTEN  =      -157.03047416 eV

  energy without entropy =     -157.03047416  energy(sigma->0) =     -157.03047416


--------------------------------------------------------------------------------------------------------




--------------------------------------- Iteration      1(  13)  ---------------------------------------


    POTLOK:  cpu time      0.6061: real time      6.6990
    SETDIJ:  cpu time      0.2762: real time      3.0811
     EDDAV:  cpu time    153.4617: real time   1696.9020
       DOS:  cpu time      0.0796: real time      0.8800
    CHARGE:  cpu time      4.8221: real time     53.3227
    MIXING:  cpu time      0.1486: real time      1.6733
    --------------------------------------------
      LOOP:  cpu time    159.3943: real time   1762.5580

 eigenvalue-minimisations  :  4176
 total energy-change (2. order) :-0.4252397E-01  (-0.1690796E-02)
 number of electron     216.9999982 magnetization      23.3229405
 augmentation part       -2.1097977 magnetization      16.4436704

 DIPCOR: dipole corrections for dipol
 direction  3 min pos     1,
 dipolmoment           0.000000      0.000000     -0.054145 electrons x Angstroem
 Tr[quadrupol]     -5266.384711

 energy correction for charged system         0.000000 eV
 dipol+quadrupol energy correction           -0.000105 eV
 added-field ion interaction          0.006195 eV  (added to PSCEN)


 Broyden mixing:
  rms(total) = 0.50947E-01    rms(broyden)= 0.50942E-01
  rms(prec ) = 0.52653E-01
  weight for this iteration     100.00

 eigenvalues of (default mixing * dielectric matrix)
  average eigenvalue GAMMA=   1.0192
  2.3692  1.3506  1.3506  0.7592  0.7592  0.4346  0.5651  0.5651

 Free energy of the ion-electron system (eV)
  ---------------------------------------------------
  alpha Z        PSCENC =       109.46845368
  Ewald energy   TEWEN  =     24522.86222164
  -Hartree energ DENC   =    -35259.36364707
  -exchange      EXHF   =         0.00000000
  -V(xc)+E(xc)   XCENC  =       346.88571913
  PAW double counting   =     14918.26640139   -14769.41633842
  entropy T*S    EENTRO =        -0.00000000
  eigenvalues    EBANDS =     -2086.53468526
  atomic energy  EATOM  =     12060.75887678
  Solvation  Ediel_sol  =         0.00000000
  ---------------------------------------------------
  free energy    TOTEN  =      -157.07299812 eV

  energy without entropy =     -157.07299812  energy(sigma->0) =     -157.07299812


--------------------------------------------------------------------------------------------------------




--------------------------------------- Iteration      1(  14)  ---------------------------------------


    POTLOK:  cpu time      0.6293: real time      6.9462
    SETDIJ:  cpu time      0.2884: real time      3.2138
     EDDAV:  cpu time    155.6938: real time   1721.5760
       DOS:  cpu time      0.0797: real time      0.8840
    CHARGE:  cpu time      4.5135: real time     49.8760
    MIXING:  cpu time      0.1652: real time      1.8450
    --------------------------------------------
      LOOP:  cpu time    161.3699: real time   1784.3410

 eigenvalue-minimisations  :  4232
 total energy-change (2. order) :-0.4459933E-01  (-0.1039002E-02)
 number of electron     216.9999982 magnetization      23.2551692
 augmentation part       -2.1101181 magnetization      16.3680044

 DIPCOR: dipole corrections for dipol
 direction  3 min pos     1,
 dipolmoment           0.000000      0.000000     -0.053827 electrons x Angstroem
 Tr[quadrupol]     -5266.507064

 energy correction for charged system         0.000000 eV
 dipol+quadrupol energy correction           -0.000104 eV
 added-field ion interaction          0.006158 eV  (added to PSCEN)


 Broyden mixing:
  rms(total) = 0.31402E-01    rms(broyden)= 0.31400E-01
  rms(prec ) = 0.32487E-01
  weight for this iteration     100.00

 eigenvalues of (default mixing * dielectric matrix)
  average eigenvalue GAMMA=   1.0524
  2.1623  2.1623  1.1093  1.1093  0.7880  0.4355  0.5423  0.5812  0.5812

 Free energy of the ion-electron system (eV)
  ---------------------------------------------------
  alpha Z        PSCENC =       109.46841851
  Ewald energy   TEWEN  =     24522.86222164
  -Hartree energ DENC   =    -35262.08524649
  -exchange      EXHF   =         0.00000000
  -V(xc)+E(xc)   XCENC  =       346.84011705
  PAW double counting   =     14879.21206152   -14730.29841767
  entropy T*S    EENTRO =        -0.00000000
  eigenvalues    EBANDS =     -2083.87562880
  atomic energy  EATOM  =     12060.75887678
  Solvation  Ediel_sol  =         0.00000000
  ---------------------------------------------------
  free energy    TOTEN  =      -157.11759746 eV

  energy without entropy =     -157.11759746  energy(sigma->0) =     -157.11759746


--------------------------------------------------------------------------------------------------------




--------------------------------------- Iteration      1(  15)  ---------------------------------------


    POTLOK:  cpu time      0.6364: real time      7.0249
    SETDIJ:  cpu time      0.2767: real time      3.0761
     EDDAV:  cpu time    152.0465: real time   1681.1540
       DOS:  cpu time      0.0836: real time      0.9240
    CHARGE:  cpu time      4.6651: real time     51.5697
    MIXING:  cpu time      0.1695: real time      1.8903
    --------------------------------------------
      LOOP:  cpu time    157.8779: real time   1745.6390

 eigenvalue-minimisations  :  4112
 total energy-change (2. order) :-0.2621316E-01  (-0.3036018E-03)
 number of electron     216.9999982 magnetization      23.2252029
 augmentation part       -2.1121407 magnetization      16.3301533

 DIPCOR: dipole corrections for dipol
 direction  3 min pos     1,
 dipolmoment           0.000000      0.000000     -0.051478 electrons x Angstroem
 Tr[quadrupol]     -5266.620801

 energy correction for charged system         0.000000 eV
 dipol+quadrupol energy correction           -0.000095 eV
 added-field ion interaction          0.005890 eV  (added to PSCEN)


 Broyden mixing:
  rms(total) = 0.16665E-01    rms(broyden)= 0.16664E-01
  rms(prec ) = 0.17650E-01
  weight for this iteration     100.00

 eigenvalues of (default mixing * dielectric matrix)
  average eigenvalue GAMMA=   1.0528
  2.3342  2.3342  1.0590  1.0590  0.9698  0.4347  0.6292  0.6292  0.5395  0.5395

 Free energy of the ion-electron system (eV)
  ---------------------------------------------------
  alpha Z        PSCENC =       109.46815870
  Ewald energy   TEWEN  =     24522.86222164
  -Hartree energ DENC   =    -35264.47254276
  -exchange      EXHF   =         0.00000000
  -V(xc)+E(xc)   XCENC  =       346.79778631
  PAW double counting   =     14861.69694768   -14712.77052680
  entropy T*S    EENTRO =        -0.00000000
  eigenvalues    EBANDS =     -2081.48473217
  atomic energy  EATOM  =     12060.75887678
  Solvation  Ediel_sol  =         0.00000000
  ---------------------------------------------------
  free energy    TOTEN  =      -157.14381061 eV

  energy without entropy =     -157.14381061  energy(sigma->0) =     -157.14381061


--------------------------------------------------------------------------------------------------------




--------------------------------------- Iteration      1(  16)  ---------------------------------------


    POTLOK:  cpu time      0.6190: real time      6.8262
    SETDIJ:  cpu time      0.2835: real time      3.1248
     EDDAV:  cpu time    151.2695: real time   1672.5910
       DOS:  cpu time      0.0757: real time      0.8361
    CHARGE:  cpu time      4.8372: real time     53.4525
    MIXING:  cpu time      0.1726: real time      1.9324
    --------------------------------------------
      LOOP:  cpu time    157.2576: real time   1738.7630

 eigenvalue-minimisations  :  4104
 total energy-change (2. order) :-0.9193310E-02  (-0.4106746E-04)
 number of electron     216.9999982 magnetization      23.1727709
 augmentation part       -2.1115114 magnetization      16.2766688

 DIPCOR: dipole corrections for dipol
 direction  3 min pos     1,
 dipolmoment           0.000000      0.000000     -0.051727 electrons x Angstroem
 Tr[quadrupol]     -5266.671774

 energy correction for charged system         0.000000 eV
 dipol+quadrupol energy correction           -0.000096 eV
 added-field ion interaction          0.005918 eV  (added to PSCEN)


 Broyden mixing:
  rms(total) = 0.12299E-01    rms(broyden)= 0.12299E-01
  rms(prec ) = 0.13180E-01
  weight for this iteration     100.00

 eigenvalues of (default mixing * dielectric matrix)
  average eigenvalue GAMMA=   1.0829
  2.3457  2.3457  1.2862  1.2862  1.1192  0.7174  0.7174  0.4353  0.5573  0.5573
  0.5445

 Free energy of the ion-electron system (eV)
  ---------------------------------------------------
  alpha Z        PSCENC =       109.46818617
  Ewald energy   TEWEN  =     24522.86222164
  -Hartree energ DENC   =    -35265.43068238
  -exchange      EXHF   =         0.00000000
  -V(xc)+E(xc)   XCENC  =       346.79043374
  PAW double counting   =     14860.76732646   -14711.83997794
  entropy T*S    EENTRO =        -0.00000000
  eigenvalues    EBANDS =     -2080.52938839
  atomic energy  EATOM  =     12060.75887678
  Solvation  Ediel_sol  =         0.00000000
  ---------------------------------------------------
  free energy    TOTEN  =      -157.15300392 eV

  energy without entropy =     -157.15300392  energy(sigma->0) =     -157.15300392


--------------------------------------------------------------------------------------------------------




--------------------------------------- Iteration      1(  17)  ---------------------------------------


    POTLOK:  cpu time      0.6299: real time      6.9410
    SETDIJ:  cpu time      0.2838: real time      3.1721
     EDDAV:  cpu time    149.6753: real time   1654.8150
       DOS:  cpu time      0.0598: real time      0.6600
    CHARGE:  cpu time      4.7098: real time     52.0348
    MIXING:  cpu time      0.1847: real time      2.0702
    --------------------------------------------
      LOOP:  cpu time    155.5432: real time   1719.6930

 eigenvalue-minimisations  :  3984
 total energy-change (2. order) :-0.1501295E-01  (-0.7394723E-04)
 number of electron     216.9999982 magnetization      23.1222927
 augmentation part       -2.1073697 magnetization      16.2283753

 DIPCOR: dipole corrections for dipol
 direction  3 min pos     1,
 dipolmoment           0.000000      0.000000     -0.052167 electrons x Angstroem
 Tr[quadrupol]     -5266.760099

 energy correction for charged system         0.000000 eV
 dipol+quadrupol energy correction           -0.000097 eV
 added-field ion interaction          0.005969 eV  (added to PSCEN)


 Broyden mixing:
  rms(total) = 0.65337E-02    rms(broyden)= 0.65335E-02
  rms(prec ) = 0.74203E-02
  weight for this iteration     100.00

 eigenvalues of (default mixing * dielectric matrix)
  average eigenvalue GAMMA=   1.1420
  2.4743  2.4743  1.9705  1.1562  1.1562  0.8946  0.8023  0.4352  0.5555  0.5555
  0.6147  0.6147

 Free energy of the ion-electron system (eV)
  ---------------------------------------------------
  alpha Z        PSCENC =       109.46823498
  Ewald energy   TEWEN  =     24522.86222164
  -Hartree energ DENC   =    -35267.02723986
  -exchange      EXHF   =         0.00000000
  -V(xc)+E(xc)   XCENC  =       346.79381700
  PAW double counting   =     14854.53210559   -14705.57637669
  entropy T*S    EENTRO =        -0.00000000
  eigenvalues    EBANDS =     -2078.97965632
  atomic energy  EATOM  =     12060.75887678
  Solvation  Ediel_sol  =         0.00000000
  ---------------------------------------------------
  free energy    TOTEN  =      -157.16801688 eV

  energy without entropy =     -157.16801688  energy(sigma->0) =     -157.16801688


--------------------------------------------------------------------------------------------------------




--------------------------------------- Iteration      1(  18)  ---------------------------------------


    POTLOK:  cpu time      0.6280: real time      6.9149
    SETDIJ:  cpu time      0.2878: real time      3.2131
     EDDAV:  cpu time    143.7979: real time   1590.0040
       DOS:  cpu time      0.0638: real time      0.7040
    CHARGE:  cpu time      4.7273: real time     52.2660
    MIXING:  cpu time      0.1851: real time      2.0660
    --------------------------------------------
      LOOP:  cpu time    149.6897: real time   1655.1680

 eigenvalue-minimisations  :  3720
 total energy-change (2. order) :-0.1136905E-01  (-0.3558324E-04)
 number of electron     216.9999982 magnetization      23.0959037
 augmentation part       -2.1034636 magnetization      16.2039332

 DIPCOR: dipole corrections for dipol
 direction  3 min pos     1,
 dipolmoment           0.000000      0.000000     -0.051250 electrons x Angstroem
 Tr[quadrupol]     -5266.847111

 energy correction for charged system         0.000000 eV
 dipol+quadrupol energy correction           -0.000094 eV
 added-field ion interaction          0.005864 eV  (added to PSCEN)


 Broyden mixing:
  rms(total) = 0.60275E-02    rms(broyden)= 0.60274E-02
  rms(prec ) = 0.65905E-02
  weight for this iteration     100.00

 eigenvalues of (default mixing * dielectric matrix)
  average eigenvalue GAMMA=   1.1165
  2.5761  2.5761  1.8418  1.0470  1.0470  1.0174  0.8233  0.8233  0.4352  0.6154
  0.6154  0.5485  0.5485

 Free energy of the ion-electron system (eV)
  ---------------------------------------------------
  alpha Z        PSCENC =       109.46813343
  Ewald energy   TEWEN  =     24522.86222164
  -Hartree energ DENC   =    -35268.57958784
  -exchange      EXHF   =         0.00000000
  -V(xc)+E(xc)   XCENC  =       346.80428505
  PAW double counting   =     14850.48037308   -14701.51596798
  entropy T*S    EENTRO =        -0.00000000
  eigenvalues    EBANDS =     -2077.45772010
  atomic energy  EATOM  =     12060.75887678
  Solvation  Ediel_sol  =         0.00000000
  ---------------------------------------------------
  free energy    TOTEN  =      -157.17938593 eV

  energy without entropy =     -157.17938593  energy(sigma->0) =     -157.17938593


--------------------------------------------------------------------------------------------------------




--------------------------------------- Iteration      1(  19)  ---------------------------------------


    POTLOK:  cpu time      0.6352: real time      7.0059
    SETDIJ:  cpu time      0.2768: real time      3.0781
     EDDAV:  cpu time    139.6723: real time   1544.2820
       DOS:  cpu time      0.0756: real time      0.8340
    CHARGE:  cpu time      4.8851: real time     53.9938
    MIXING:  cpu time      0.2317: real time      2.5638
    --------------------------------------------
      LOOP:  cpu time    145.7768: real time   1611.7577

 eigenvalue-minimisations  :  3592
 total energy-change (2. order) :-0.5021162E-02  (-0.1209892E-04)
 number of electron     216.9999982 magnetization      23.0540848
 augmentation part       -2.1035976 magnetization      16.1618318

 DIPCOR: dipole corrections for dipol
 direction  3 min pos     1,
 dipolmoment           0.000000      0.000000     -0.050687 electrons x Angstroem
 Tr[quadrupol]     -5266.896061

 energy correction for charged system         0.000000 eV
 dipol+quadrupol energy correction           -0.000092 eV
 added-field ion interaction          0.005799 eV  (added to PSCEN)


 Broyden mixing:
  rms(total) = 0.43869E-02    rms(broyden)= 0.43869E-02
  rms(prec ) = 0.48638E-02
  weight for this iteration     100.00

 eigenvalues of (default mixing * dielectric matrix)
  average eigenvalue GAMMA=   1.1821
  2.9405  2.2349  2.0842  1.3672  1.3672  1.2030  0.9693  0.9693  0.4352  0.6436
  0.6436  0.5511  0.5511  0.5890

 Free energy of the ion-electron system (eV)
  ---------------------------------------------------
  alpha Z        PSCENC =       109.46807108
  Ewald energy   TEWEN  =     24522.86222164
  -Hartree energ DENC   =    -35269.42398132
  -exchange      EXHF   =         0.00000000
  -V(xc)+E(xc)   XCENC  =       346.80552728
  PAW double counting   =     14849.42009873   -14700.45809248
  entropy T*S    EENTRO =        -0.00000000
  eigenvalues    EBANDS =     -2076.61712882
  atomic energy  EATOM  =     12060.75887678
  Solvation  Ediel_sol  =         0.00000000
  ---------------------------------------------------
  free energy    TOTEN  =      -157.18440709 eV

  energy without entropy =     -157.18440709  energy(sigma->0) =     -157.18440709


--------------------------------------------------------------------------------------------------------




--------------------------------------- Iteration      1(  20)  ---------------------------------------


    POTLOK:  cpu time      0.6401: real time      7.0859
    SETDIJ:  cpu time      0.2930: real time      3.2614
     EDDAV:  cpu time    132.2355: real time   1462.1930
       DOS:  cpu time      0.0916: real time      1.0120
    CHARGE:  cpu time      4.8769: real time     53.9359
    MIXING:  cpu time      0.2208: real time      2.4630
    --------------------------------------------
      LOOP:  cpu time    138.3580: real time   1529.9513

 eigenvalue-minimisations  :  3232
 total energy-change (2. order) :-0.6142367E-02  (-0.2940289E-04)
 number of electron     216.9999982 magnetization      23.0192164
 augmentation part       -2.1039328 magnetization      16.1267482

 DIPCOR: dipole corrections for dipol
 direction  3 min pos     1,
 dipolmoment           0.000000      0.000000     -0.050217 electrons x Angstroem
 Tr[quadrupol]     -5266.977825

 energy correction for charged system         0.000000 eV
 dipol+quadrupol energy correction           -0.000090 eV
 added-field ion interaction          0.005745 eV  (added to PSCEN)


 Broyden mixing:
  rms(total) = 0.24847E-02    rms(broyden)= 0.24846E-02
  rms(prec ) = 0.28174E-02
  weight for this iteration     100.00

 eigenvalues of (default mixing * dielectric matrix)
  average eigenvalue GAMMA=   1.2610
  3.8010  2.4626  2.4626  1.3047  1.3047  1.1442  1.1442  1.0904  0.4352  0.7318
  0.7318  0.5514  0.5514  0.5998  0.5998

 Free energy of the ion-electron system (eV)
  ---------------------------------------------------
  alpha Z        PSCENC =       109.46801891
  Ewald energy   TEWEN  =     24522.86222164
  -Hartree energ DENC   =    -35270.73942440
  -exchange      EXHF   =         0.00000000
  -V(xc)+E(xc)   XCENC  =       346.80743675
  PAW double counting   =     14849.02073009   -14700.06225344
  entropy T*S    EENTRO =        -0.00000000
  eigenvalues    EBANDS =     -2075.30615580
  atomic energy  EATOM  =     12060.75887678
  Solvation  Ediel_sol  =         0.00000000
  ---------------------------------------------------
  free energy    TOTEN  =      -157.19054946 eV

  energy without entropy =     -157.19054946  energy(sigma->0) =     -157.19054946


--------------------------------------------------------------------------------------------------------




--------------------------------------- Iteration      1(  21)  ---------------------------------------


    POTLOK:  cpu time      0.6351: real time      6.9943
    SETDIJ:  cpu time      0.2753: real time      3.0668
     EDDAV:  cpu time    133.7817: real time   1479.3360
       DOS:  cpu time      0.0599: real time      0.6612
    CHARGE:  cpu time      4.7135: real time     52.1178
    MIXING:  cpu time      0.2011: real time      2.2410
    --------------------------------------------
      LOOP:  cpu time    139.6665: real time   1544.4170

 eigenvalue-minimisations  :  3264
 total energy-change (2. order) :-0.3027741E-02  (-0.1986297E-04)
 number of electron     216.9999982 magnetization      23.0054558
 augmentation part       -2.1045456 magnetization      16.1129945

 DIPCOR: dipole corrections for dipol
 direction  3 min pos     1,
 dipolmoment           0.000000      0.000000     -0.049870 electrons x Angstroem
 Tr[quadrupol]     -5267.050625

 energy correction for charged system         0.000000 eV
 dipol+quadrupol energy correction           -0.000089 eV
 added-field ion interaction          0.005706 eV  (added to PSCEN)


 Broyden mixing:
  rms(total) = 0.30189E-02    rms(broyden)= 0.30189E-02
  rms(prec ) = 0.31346E-02
  weight for this iteration     100.00

 eigenvalues of (default mixing * dielectric matrix)
  average eigenvalue GAMMA=   1.3454
  5.3409  2.4950  2.4950  1.5332  1.2285  1.2285  1.1171  1.1171  0.4352  0.8072
  0.7754  0.5520  0.5520  0.6153  0.6153  0.6188

 Free energy of the ion-electron system (eV)
  ---------------------------------------------------
  alpha Z        PSCENC =       109.46798054
  Ewald energy   TEWEN  =     24522.86222164
  -Hartree energ DENC   =    -35271.85246500
  -exchange      EXHF   =         0.00000000
  -V(xc)+E(xc)   XCENC  =       346.80942338
  PAW double counting   =     14848.75703454   -14699.79845698
  entropy T*S    EENTRO =        -0.00000000
  eigenvalues    EBANDS =     -2074.19819210
  atomic energy  EATOM  =     12060.75887678
  Solvation  Ediel_sol  =         0.00000000
  ---------------------------------------------------
  free energy    TOTEN  =      -157.19357720 eV

  energy without entropy =     -157.19357720  energy(sigma->0) =     -157.19357720


--------------------------------------------------------------------------------------------------------




--------------------------------------- Iteration      1(  22)  ---------------------------------------


    POTLOK:  cpu time      0.6367: real time      7.0028
    SETDIJ:  cpu time      0.2829: real time      3.1642
     EDDAV:  cpu time    140.1597: real time   1549.6100
       DOS:  cpu time      0.0837: real time      0.9280
    CHARGE:  cpu time      4.7946: real time     52.9784
    MIXING:  cpu time      0.2017: real time      2.2396
    --------------------------------------------
      LOOP:  cpu time    146.1593: real time   1615.9230

 eigenvalue-minimisations  :  3464
 total energy-change (2. order) :-0.5971271E-03  (-0.4584793E-05)
 number of electron     216.9999982 magnetization      23.0012557
 augmentation part       -2.1049651 magnetization      16.1086697

 DIPCOR: dipole corrections for dipol
 direction  3 min pos     1,
 dipolmoment           0.000000      0.000000     -0.049633 electrons x Angstroem
 Tr[quadrupol]     -5267.083429

 energy correction for charged system         0.000000 eV
 dipol+quadrupol energy correction           -0.000088 eV
 added-field ion interaction          0.005679 eV  (added to PSCEN)


 Broyden mixing:
  rms(total) = 0.16811E-02    rms(broyden)= 0.16811E-02
  rms(prec ) = 0.17527E-02
  weight for this iteration     100.00

 eigenvalues of (default mixing * dielectric matrix)
  average eigenvalue GAMMA=   1.3769
  6.0933  2.4809  2.4809  1.5829  1.3739  1.3739  1.0789  1.0789  0.8735  0.8735
  0.4352  0.7450  0.5507  0.5507  0.6235  0.6235  0.5888

 Free energy of the ion-electron system (eV)
  ---------------------------------------------------
  alpha Z        PSCENC =       109.46795419
  Ewald energy   TEWEN  =     24522.86222164
  -Hartree energ DENC   =    -35272.32363925
  -exchange      EXHF   =         0.00000000
  -V(xc)+E(xc)   XCENC  =       346.81067905
  PAW double counting   =     14848.92717649   -14699.96860708
  entropy T*S    EENTRO =        -0.00000000
  eigenvalues    EBANDS =     -2073.72883615
  atomic energy  EATOM  =     12060.75887678
  Solvation  Ediel_sol  =         0.00000000
  ---------------------------------------------------
  free energy    TOTEN  =      -157.19417433 eV

  energy without entropy =     -157.19417433  energy(sigma->0) =     -157.19417433


--------------------------------------------------------------------------------------------------------




--------------------------------------- Iteration      1(  23)  ---------------------------------------


    POTLOK:  cpu time      0.6056: real time      6.6808
    SETDIJ:  cpu time      0.2770: real time      3.0772
     EDDAV:  cpu time    131.2246: real time    955.4970
       DOS:  cpu time      0.0718: real time      0.4320
    CHARGE:  cpu time      4.4049: real time     26.5137
    MIXING:  cpu time      0.1696: real time      1.0303
    --------------------------------------------
      LOOP:  cpu time    136.7535: real time    993.2310

 eigenvalue-minimisations  :  3680
 total energy-change (2. order) :-0.1064961E-03  (-0.1514241E-05)
 number of electron     216.9999982 magnetization      22.9998318
 augmentation part       -2.1048858 magnetization      16.1072208

 DIPCOR: dipole corrections for dipol
 direction  3 min pos     1,
 dipolmoment           0.000000      0.000000     -0.049530 electrons x Angstroem
 Tr[quadrupol]     -5267.098961

 energy correction for charged system         0.000000 eV
 dipol+quadrupol energy correction           -0.000088 eV
 added-field ion interaction          0.005667 eV  (added to PSCEN)


 Broyden mixing:
  rms(total) = 0.38446E-03    rms(broyden)= 0.38437E-03
  rms(prec ) = 0.49886E-03
  weight for this iteration     100.00

 eigenvalues of (default mixing * dielectric matrix)
  average eigenvalue GAMMA=   1.3855
  6.3270  2.5003  2.5003  1.7437  1.3872  1.3872  1.0830  1.0830  1.1399  0.8685
  0.8685  0.4352  0.5513  0.5513  0.6367  0.6367  0.6195  0.6195

 Free energy of the ion-electron system (eV)
  ---------------------------------------------------
  alpha Z        PSCENC =       109.46794275
  Ewald energy   TEWEN  =     24522.86222164
  -Hartree energ DENC   =    -35272.50365135
  -exchange      EXHF   =         0.00000000
  -V(xc)+E(xc)   XCENC  =       346.81039472
  PAW double counting   =     14849.20831212   -14700.24883955
  entropy T*S    EENTRO =        -0.00000000
  eigenvalues    EBANDS =     -2073.54953794
  atomic energy  EATOM  =     12060.75887678
  Solvation  Ediel_sol  =         0.00000000
  ---------------------------------------------------
  free energy    TOTEN  =      -157.19428082 eV

  energy without entropy =     -157.19428082  energy(sigma->0) =     -157.19428082


--------------------------------------------------------------------------------------------------------




--------------------------------------- Iteration      1(  24)  ---------------------------------------


    POTLOK:  cpu time      0.5883: real time      3.5298
    SETDIJ:  cpu time      0.2534: real time      1.5382
     EDDAV:  cpu time    101.4522: real time    610.8960
       DOS:  cpu time      0.0717: real time      0.4320
    CHARGE:  cpu time      4.4398: real time     26.7257
    MIXING:  cpu time      0.2216: real time      1.3424
    --------------------------------------------
      LOOP:  cpu time    107.0270: real time    644.4641

 eigenvalue-minimisations  :  2184
 total energy-change (2. order) :-0.5423502E-04  (-0.1059421E-06)
 number of electron     216.9999982 magnetization      22.9987022
 augmentation part       -2.1049280 magnetization      16.1060782

 DIPCOR: dipole corrections for dipol
 direction  3 min pos     1,
 dipolmoment           0.000000      0.000000     -0.049440 electrons x Angstroem
 Tr[quadrupol]     -5267.111344

 energy correction for charged system         0.000000 eV
 dipol+quadrupol energy correction           -0.000087 eV
 added-field ion interaction          0.005657 eV  (added to PSCEN)


 Broyden mixing:
  rms(total) = 0.22273E-03    rms(broyden)= 0.22272E-03
  rms(prec ) = 0.33030E-03
  weight for this iteration     100.00

 eigenvalues of (default mixing * dielectric matrix)
  average eigenvalue GAMMA=   1.3985
  6.5675  2.5446  2.5446  1.3772  1.3772  1.6192  1.6192  1.1343  1.1343  0.9249
  0.9249  0.4352  0.7239  0.7239  0.5510  0.5510  0.6150  0.6150  0.5875

 Free energy of the ion-electron system (eV)
  ---------------------------------------------------
  alpha Z        PSCENC =       109.46793285
  Ewald energy   TEWEN  =     24522.86222164
  -Hartree energ DENC   =    -35272.61400767
  -exchange      EXHF   =         0.00000000
  -V(xc)+E(xc)   XCENC  =       346.80998230
  PAW double counting   =     14849.41918417   -14700.45933541
  entropy T*S    EENTRO =        -0.00000000
  eigenvalues    EBANDS =     -2073.43918974
  atomic energy  EATOM  =     12060.75887678
  Solvation  Ediel_sol  =         0.00000000
  ---------------------------------------------------
  free energy    TOTEN  =      -157.19433506 eV

  energy without entropy =     -157.19433506  energy(sigma->0) =     -157.19433506


--------------------------------------------------------------------------------------------------------




--------------------------------------- Iteration      1(  25)  ---------------------------------------


    POTLOK:  cpu time      0.6115: real time      3.6780
    SETDIJ:  cpu time      0.2810: real time      1.7020
     EDDAV:  cpu time    100.9763: real time    608.0230
       DOS:  cpu time      0.0758: real time      0.4560
    CHARGE:  cpu time      4.5875: real time     27.6138
    MIXING:  cpu time      0.2204: real time      1.3402
    --------------------------------------------
      LOOP:  cpu time    106.7526: real time    642.8129

 eigenvalue-minimisations  :  2240
 total energy-change (2. order) :-0.5664382E-04  (-0.1466374E-06)
 number of electron     216.9999982 magnetization      22.9983790
 augmentation part       -2.1048660 magnetization      16.1058574

 DIPCOR: dipole corrections for dipol
 direction  3 min pos     1,
 dipolmoment           0.000000      0.000000     -0.049315 electrons x Angstroem
 Tr[quadrupol]     -5267.125433

 energy correction for charged system         0.000000 eV
 dipol+quadrupol energy correction           -0.000087 eV
 added-field ion interaction          0.005642 eV  (added to PSCEN)


 Broyden mixing:
  rms(total) = 0.16379E-03    rms(broyden)= 0.16378E-03
  rms(prec ) = 0.23799E-03
  weight for this iteration     100.00

 eigenvalues of (default mixing * dielectric matrix)
  average eigenvalue GAMMA=   1.4124
  6.8565  2.5099  2.5099  2.3711  1.3748  1.3748  1.3820  1.1857  1.0388  1.0388
  1.0247  0.4352  0.7697  0.7697  0.5514  0.5514  0.6836  0.6175  0.6175  0.5850

 Free energy of the ion-electron system (eV)
  ---------------------------------------------------
  alpha Z        PSCENC =       109.46791899
  Ewald energy   TEWEN  =     24522.86222164
  -Hartree energ DENC   =    -35272.73404604
  -exchange      EXHF   =         0.00000000
  -V(xc)+E(xc)   XCENC  =       346.81045458
  PAW double counting   =     14849.60653412   -14700.64658607
  entropy T*S    EENTRO =        -0.00000000
  eigenvalues    EBANDS =     -2073.31976572
  atomic energy  EATOM  =     12060.75887678
  Solva