 running   16 mpi-ranks, with    1 threads/rank, on    1 nodes
 distrk:  each k-point on   16 cores,    1 groups
 distr:  one band on    4 cores,    4 groups
 vasp.6.5.1 10Mar25 (build Jan 13 2026 20:43:53) complex                         
 POSCAR found type information on POSCAR CrClH 
 POSCAR found :  3 types and      33 ions
 scaLAPACK will be used
 LDA part: xc-table for (Slater+PW92), standard interpolation
 POSCAR, INCAR and KPOINTS ok, starting setup
 FFT: planning ... GRIDC
 FFT: planning ... GRID_SOFT
 FFT: planning ... GRID
 WAVECAR not read
 entering main loop
       N       E                     dE             d eps       ncg     rms          rms(c)
DAV:   1     0.206904124878E+04    0.20690E+04   -0.61603E+04  2952   0.918E+02
DAV:   2     0.408896759128E+03   -0.16601E+04   -0.15384E+04  3480   0.248E+02
DAV:   3    -0.126626985234E+03   -0.53552E+03   -0.51905E+03  4192   0.139E+02
DAV:   4    -0.173073666903E+03   -0.46447E+02   -0.45566E+02  4560   0.572E+01
DAV:   5    -0.173914406575E+03   -0.84074E+00   -0.81214E+00  4416   0.103E+01    0.419E+01
DAV:   6    -0.168030891056E+03    0.58835E+01   -0.17990E+02  4208   0.661E+01    0.461E+01
DAV:   7    -0.156612981473E+03    0.11418E+02   -0.34005E+01  4112   0.678E+01    0.210E+01
DAV:   8    -0.157575473207E+03   -0.96249E+00   -0.13689E+01  4248   0.145E+01    0.126E+01
DAV:   9    -0.157051482716E+03    0.52399E+00   -0.28857E+00  4136   0.114E+01    0.707E+00
DAV:  10    -0.156832215193E+03    0.21927E+00   -0.91239E-01  4080   0.510E+00    0.284E+00
DAV:  11    -0.156935545931E+03   -0.10333E+00   -0.26255E-01  3816   0.186E+00    0.159E+00
DAV:  12    -0.157030474155E+03   -0.94928E-01   -0.13218E-01  4064   0.208E+00    0.838E-01
DAV:  13    -0.157072998124E+03   -0.42524E-01   -0.16908E-02  4176   0.787E-01    0.509E-01
DAV:  14    -0.157117597457E+03   -0.44599E-01   -0.10390E-02  4232   0.543E-01    0.314E-01
DAV:  15    -0.157143810613E+03   -0.26213E-01   -0.30360E-03  4112   0.279E-01    0.167E-01
DAV:  16    -0.157153003923E+03   -0.91933E-02   -0.41067E-04  4104   0.134E-01    0.123E-01
DAV:  17    -0.157168016878E+03   -0.15013E-01   -0.73947E-04  3984   0.907E-02    0.653E-02
DAV:  18    -0.157179385931E+03   -0.11369E-01   -0.35583E-04  3720   0.534E-02    0.603E-02
DAV:  19    -0.157184407093E+03   -0.50212E-02   -0.12099E-04  3592   0.233E-02    0.439E-02
DAV:  20    -0.157190549460E+03   -0.61424E-02   -0.29403E-04  3232   0.306E-02    0.248E-02
DAV:  21    -0.157193577201E+03   -0.30277E-02   -0.19863E-04  3264   0.248E-02    0.302E-02
DAV:  22    -0.157194174328E+03   -0.59713E-03   -0.45848E-05  3464   0.139E-02    0.168E-02
DAV:  23    -0.157194280824E+03   -0.10650E-03   -0.15142E-05  3680   0.941E-03    0.384E-03
DAV:  24    -0.157194335059E+03   -0.54235E-04   -0.10594E-06  2184   0.315E-03    0.223E-03
DAV:  25    -0.157194391703E+03   -0.56644E-04   -0.14664E-06  2240   0.320E-03    0.164E-03
DAV:  26    -0.157194418427E+03   -0.26725E-04   -0.47840E-07  1768   0.217E-03    0.149E-03
DAV:  27    -0.157194433319E+03   -0.14892E-04   -0.21706E-07  1632   0.146E-03    0.132E-03
DAV:  28    -0.157194456939E+03   -0.23620E-04   -0.38580E-07  1912   0.149E-03    0.994E-04
DAV:  29    -0.157194464257E+03   -0.73179E-05   -0.49581E-07  1976   0.193E-03    0.969E-04
DAV:  30    -0.157194465915E+03   -0.16579E-05   -0.26351E-07  1720   0.168E-03    0.107E-03
DAV:  31    -0.157194468707E+03   -0.27917E-05   -0.11762E-07  1648   0.102E-03    0.749E-04
DAV:  32    -0.157194472861E+03   -0.41537E-05   -0.67851E-08  1600   0.728E-04    0.322E-04
DAV:  33    -0.157194474291E+03   -0.14302E-05   -0.25729E-08  1648   0.516E-04    0.204E-04
DAV:  34    -0.157194475037E+03   -0.74624E-06   -0.12042E-08  1616   0.346E-04
   1 F= -.16093723E+03 E0= -.16093723E+03  d E =-.160937E+03  mag=    23.0000
 curvature:   0.00 expect dE= 0.000E+00 dE for cont linesearch  0.000E+00
 trial: gam= 0.00000 g(F)=  0.392E-02 g(S)=  0.000E+00 ort = 0.000E+00 (trialstep = 0.100E+01)
 search vector abs. value=  0.392E-02
 bond charge predicted
       N       E                     dE             d eps       ncg     rms          rms(c)
DAV:   1    -0.157192449725E+03    0.20246E-02   -0.36039E-01  2912   0.126E+00    0.424E-01
DAV:   2    -0.157194622310E+03   -0.21726E-02   -0.21935E-02  4064   0.516E-01    0.217E-01
DAV:   3    -0.157195166469E+03   -0.54416E-03   -0.84658E-04  4184   0.148E-01    0.121E-01
DAV:   4    -0.157195044602E+03    0.12187E-03   -0.78380E-05  4312   0.473E-02    0.901E-02
DAV:   5    -0.157194868204E+03    0.17640E-03   -0.85457E-05  4000   0.285E-02    0.552E-02
DAV:   6    -0.157194754222E+03    0.11398E-03   -0.59271E-05  4000   0.228E-02    0.194E-02
DAV:   7    -0.157194798555E+03   -0.44333E-04   -0.89819E-06  3712   0.115E-02    0.127E-02
DAV:   8    -0.157194888027E+03   -0.89472E-04   -0.11851E-06  2040   0.704E-03    0.877E-03
DAV:   9    -0.157194991980E+03   -0.10395E-03   -0.40459E-06  2784   0.660E-03    0.361E-03
DAV:  10    -0.157195074353E+03   -0.82373E-04   -0.14034E-06  1992   0.397E-03    0.192E-03
DAV:  11    -0.157195111151E+03   -0.36798E-04   -0.58054E-07  1696   0.325E-03    0.172E-03
DAV:  12    -0.157195159243E+03   -0.48093E-04   -0.57113E-07  1832   0.213E-03    0.124E-03
DAV:  13    -0.157195223152E+03   -0.63909E-04   -0.77554E-07  2032   0.213E-03    0.121E-03
DAV:  14    -0.157195279642E+03   -0.56490E-04   -0.10561E-06  2096   0.206E-03    0.101E-03
DAV:  15    -0.157195307930E+03   -0.28288E-04   -0.51069E-07  1880   0.183E-03    0.923E-04
DAV:  16    -0.157195321443E+03   -0.13513E-04   -0.34874E-07  1672   0.158E-03    0.648E-04
DAV:  17    -0.157195332213E+03   -0.10770E-04   -0.36334E-07  1872   0.142E-03    0.561E-04
DAV:  18    -0.157195336070E+03   -0.38569E-05   -0.23299E-07  1696   0.144E-03    0.537E-04
DAV:  19    -0.157195337395E+03   -0.13253E-05   -0.15258E-07  1616   0.102E-03    0.220E-04
DAV:  20    -0.157195337756E+03   -0.36149E-06   -0.78757E-08  1656   0.834E-04
   2 F= -.16094009E+03 E0= -.16094009E+03  d E =-.285835E-02  mag=    23.0000
 trial-energy change:   -0.002858  1 .order   -0.002869   -0.003924   -0.001814
 step:   1.9123(harm=  1.8599)  dis= 0.00565  next Energy=  -160.940907 (dE=-0.368E-02)
 bond charge predicted
       N       E                     dE             d eps       ncg     rms          rms(c)
DAV:   1    -0.157191885998E+03    0.34514E-02   -0.29994E-01  2904   0.115E+00    0.387E-01
DAV:   2    -0.157193675329E+03   -0.17893E-02   -0.18229E-02  4008   0.469E-01    0.197E-01
DAV:   3    -0.157194139042E+03   -0.46371E-03   -0.69928E-04  4200   0.134E-01    0.110E-01
DAV:   4    -0.157194033830E+03    0.10521E-03   -0.64593E-05  4320   0.429E-02    0.819E-02
DAV:   5    -0.157193881171E+03    0.15266E-03   -0.69732E-05  4024   0.258E-02    0.504E-02
DAV:   6    -0.157193777327E+03    0.10384E-03   -0.49468E-05  3992   0.208E-02    0.178E-02
DAV:   7    -0.157193815365E+03   -0.38037E-04   -0.73491E-06  3416   0.106E-02    0.115E-02
DAV:   8    -0.157193894910E+03   -0.79545E-04   -0.11581E-06  1992   0.662E-03    0.793E-03
DAV:   9    -0.157193982123E+03   -0.87213E-04   -0.29782E-06  2440   0.595E-03    0.352E-03
DAV:  10    -0.157194058802E+03   -0.76679E-04   -0.19725E-06  2120   0.429E-03    0.186E-03
DAV:  11    -0.157194086281E+03   -0.27479E-04   -0.47133E-07  1664   0.297E-03    0.155E-03
DAV:  12    -0.157194125516E+03   -0.39235E-04   -0.40981E-07  1736   0.178E-03    0.110E-03
DAV:  13    -0.157194187826E+03   -0.62310E-04   -0.74790E-07  2024   0.198E-03    0.115E-03
DAV:  14    -0.157194230459E+03   -0.42633E-04   -0.63696E-07  1944   0.196E-03    0.971E-04
DAV:  15    -0.157194254509E+03   -0.24050E-04   -0.49389E-07  1736   0.178E-03    0.796E-04
DAV:  16    -0.157194268966E+03   -0.14457E-04   -0.40026E-07  1712   0.165E-03    0.688E-04
DAV:  17    -0.157194280264E+03   -0.11298E-04   -0.44137E-07  1896   0.151E-03    0.535E-04
DAV:  18    -0.157194283751E+03   -0.34870E-05   -0.24770E-07  1664   0.151E-03    0.528E-04
DAV:  19    -0.157194284905E+03   -0.11543E-05   -0.15216E-07  1608   0.999E-04    0.228E-04
DAV:  20    -0.157194285369E+03   -0.46454E-06   -0.83989E-08  1680   0.832E-04
   3 F= -.16094086E+03 E0= -.16094086E+03  d E =-.362707E-02  mag=    23.0000
 curvature:  -0.93 expect dE=-0.204E-02 dE for cont linesearch -0.234E-05
 trial: gam= 0.58702 g(F)=  0.220E-02 g(S)=  0.000E+00 ort =-0.995E-04 (trialstep = 0.118E+01)
 search vector abs. value=  0.344E-02
 bond charge predicted
       N       E                     dE             d eps       ncg     rms          rms(c)
DAV:   1    -0.157190874736E+03    0.34102E-02   -0.41966E-01  2928   0.131E+00    0.350E-01
DAV:   2    -0.157193182186E+03   -0.23074E-02   -0.28320E-02  4040   0.563E-01    0.190E-01
DAV:   3    -0.157193235274E+03   -0.53088E-04   -0.57519E-04  4120   0.130E-01    0.123E-01
DAV:   4    -0.157193157896E+03    0.77378E-04   -0.59236E-05  4296   0.393E-02    0.978E-02
DAV:   5    -0.157193028925E+03    0.12897E-03   -0.78646E-05  3864   0.225E-02    0.619E-02
DAV:   6    -0.157192974782E+03    0.54143E-04   -0.48991E-05  4168   0.204E-02    0.215E-02
DAV:   7    -0.157192995006E+03   -0.20224E-04   -0.45406E-06  3040   0.997E-03    0.107E-02
DAV:   8    -0.157193047286E+03   -0.52280E-04   -0.13169E-06  2040   0.735E-03    0.727E-03
DAV:   9    -0.157193107193E+03   -0.59907E-04   -0.11709E-06  1976   0.522E-03    0.441E-03
DAV:  10    -0.157193167015E+03   -0.59822E-04   -0.18489E-06  2144   0.380E-03    0.213E-03
DAV:  11    -0.157193192121E+03   -0.25105E-04   -0.56422E-07  1648   0.272E-03    0.161E-03
DAV:  12    -0.157193220651E+03   -0.28530E-04   -0.40200E-07  1712   0.217E-03    0.120E-03
DAV:  13    -0.157193262818E+03   -0.42167E-04   -0.51145E-07  1976   0.210E-03    0.982E-04
DAV:  14    -0.157193287937E+03   -0.25120E-04   -0.37927E-07  1744   0.207E-03    0.921E-04
DAV:  15    -0.157193301026E+03   -0.13089E-04   -0.28975E-07  1648   0.155E-03    0.601E-04
DAV:  16    -0.157193314870E+03   -0.13844E-04   -0.27624E-07  1832   0.125E-03    0.593E-04
DAV:  17    -0.157193328835E+03   -0.13966E-04   -0.32220E-07  1832   0.135E-03    0.671E-04
DAV:  18    -0.157193336923E+03   -0.80877E-05   -0.31102E-07  1824   0.138E-03    0.559E-04
DAV:  19    -0.157193338257E+03   -0.13343E-05   -0.15498E-07  1664   0.121E-03    0.300E-04
DAV:  20    -0.157193339009E+03   -0.75186E-06   -0.95598E-08  1616   0.743E-04
   4 F= -.16094292E+03 E0= -.16094292E+03  d E =-.206523E-02  mag=    23.0000
 trial-energy change:   -0.002065  1 .order   -0.002078   -0.002537   -0.001619
 step:   4.1332(harm=  3.2689)  dis= 0.01329  next Energy=  -160.944742 (dE=-0.389E-02)
 bond charge predicted
       N       E                     dE             d eps       ncg     rms          rms(c)
DAV:   1    -0.157171572460E+03    0.21766E-01   -0.26126E+00  2912   0.326E+00    0.866E-01
DAV:   2    -0.157186592529E+03   -0.15020E-01   -0.17755E-01  4024   0.142E+00    0.484E-01
