CrCl3 3x3 Clean Substrate (D3, U=0) (a=1
   1.00000000000000     
    18.1388234955739875    0.0000000000000000    0.0000000000000000
    -9.0694117477869938   15.7086819419291253    0.0000000000000000
     0.0000000000000000    0.0000000000000000   20.0000000000000000
   Cr   Cl
    18    54
Direct
     0.1111111111111143    0.2222222222222214    0.5000000000000000
     0.2222222222222214    0.1111111111111143    0.5000000000000000
     0.1111111111111143    0.5555555555555571    0.5000000000000000
     0.2222222222222214    0.4444444444444429    0.5000000000000000
     0.1111111111111143    0.8888888888888857    0.5000000000000000
     0.2222222222222214    0.7777777777777786    0.5000000000000000
     0.4444444444444429    0.2222222222222214    0.5000000000000000
     0.5555555555555571    0.1111111111111143    0.5000000000000000
     0.4444444444444429    0.5555555555555571    0.5000000000000000
     0.5555555555555571    0.4444444444444429    0.5000000000000000
     0.4444444444444429    0.8888888888888857    0.5000000000000000
     0.5555555555555571    0.7777777777777786    0.5000000000000000
     0.7777777777777786    0.2222222222222214    0.5000000000000000
     0.8888888888888857    0.1111111111111143    0.5000000000000000
     0.7777777777777786    0.5555555555555571    0.5000000000000000
     0.8888888888888857    0.4444444444444429    0.5000000000000000
     0.7777777777777786    0.8888888888888857    0.5000000000000000
     0.8888888888888857    0.7777777777777786    0.5000000000000000
     0.1196137215042824    0.3333333333333357    0.4336352259650463
     0.3333333333333357    0.1196137215042824    0.4336352259650463
     0.2137196118290533    0.2137196118290533    0.4336352259650463
     0.2137196118290533    0.3333333333333357    0.5663647740349538
     0.0000000000000000    0.2137196118290533    0.5663647740349538
     0.1196137215042824    0.1196137215042824    0.5663647740349538
     0.1196137215042824    0.6666666666666643    0.4336352259650463
     0.3333333333333357    0.4529470548376180    0.4336352259650463
     0.2137196118290533    0.5470529451623818    0.4336352259650463
     0.2137196118290533    0.6666666666666643    0.5663647740349538
     0.0000000000000000    0.5470529451623818    0.5663647740349538
     0.1196137215042824    0.4529470548376180    0.5663647740349538
     0.1196137215042824    0.0000000000000000    0.4336352259650463
     0.3333333333333357    0.7862803881709468    0.4336352259650463
     0.2137196118290533    0.8803862784957175    0.4336352259650463
     0.2137196118290533    0.0000000000000000    0.5663647740349538
     0.0000000000000000    0.8803862784957175    0.5663647740349538
     0.1196137215042824    0.7862803881709468    0.5663647740349538
     0.4529470548376180    0.3333333333333357    0.4336352259650463
     0.6666666666666643    0.1196137215042824    0.4336352259650463
     0.5470529451623818    0.2137196118290533    0.4336352259650463
     0.5470529451623818    0.3333333333333357    0.5663647740349538
     0.3333333333333357    0.2137196118290533    0.5663647740349538
     0.4529470548376180    0.1196137215042824    0.5663647740349538
     0.4529470548376180    0.6666666666666643    0.4336352259650463
     0.6666666666666643    0.4529470548376180    0.4336352259650463
     0.5470529451623818    0.5470529451623818    0.4336352259650463
     0.5470529451623818    0.6666666666666643    0.5663647740349538
     0.3333333333333357    0.5470529451623818    0.5663647740349538
     0.4529470548376180    0.4529470548376180    0.5663647740349538
     0.4529470548376180    0.0000000000000000    0.4336352259650463
     0.6666666666666643    0.7862803881709468    0.4336352259650463
     0.5470529451623818    0.8803862784957175    0.4336352259650463
     0.5470529451623818    0.0000000000000000    0.5663647740349538
     0.3333333333333357    0.8803862784957175    0.5663647740349538
     0.4529470548376180    0.7862803881709468    0.5663647740349538
     0.7862803881709468    0.3333333333333357    0.4336352259650463
     0.0000000000000000    0.1196137215042824    0.4336352259650463
     0.8803862784957175    0.2137196118290533    0.4336352259650463
     0.8803862784957175    0.3333333333333357    0.5663647740349538
     0.6666666666666643    0.2137196118290533    0.5663647740349538
     0.7862803881709468    0.1196137215042824    0.5663647740349538
     0.7862803881709468    0.6666666666666643    0.4336352259650463
     0.0000000000000000    0.4529470548376180    0.4336352259650463
     0.8803862784957175    0.5470529451623818    0.4336352259650463
     0.8803862784957175    0.6666666666666643    0.5663647740349538
     0.6666666666666643    0.5470529451623818    0.5663647740349538
     0.7862803881709468    0.4529470548376180    0.5663647740349538
     0.7862803881709468    0.0000000000000000    0.4336352259650463
     0.0000000000000000    0.7862803881709468    0.4336352259650463
     0.8803862784957175    0.8803862784957175    0.4336352259650463
     0.8803862784957175    1.0000000000000000    0.5663647740349538
     0.6666666666666643    0.8803862784957175    0.5663647740349538
     0.7862803881709468    0.7862803881709468    0.5663647740349538
 
  0.00000000E+00  0.00000000E+00  0.00000000E+00
  0.00000000E+00  0.00000000E+00  0.00000000E+00
  0.00000000E+00  0.00000000E+00  0.00000000E+00
  0.00000000E+00  0.00000000E+00  0.00000000E+00
  0.00000000E+00  0.00000000E+00  0.00000000E+00
  0.00000000E+00  0.00000000E+00  0.00000000E+00
  0.00000000E+00  0.00000000E+00  0.00000000E+00
  0.00000000E+00  0.00000000E+00  0.00000000E+00
  0.00000000E+00  0.00000000E+00  0.00000000E+00
  0.00000000E+00  0.00000000E+00  0.00000000E+00
  0.00000000E+00  0.00000000E+00  0.00000000E+00
  0.00000000E+00  0.00000000E+00  0.00000000E+00
  0.00000000E+00  0.00000000E+00  0.00000000E+00
  0.00000000E+00  0.00000000E+00  0.00000000E+00
  0.00000000E+00  0.00000000E+00  0.00000000E+00
  0.00000000E+00  0.00000000E+00  0.00000000E+00
  0.00000000E+00  0.00000000E+00  0.00000000E+00
  0.00000000E+00  0.00000000E+00  0.00000000E+00
  0.00000000E+00  0.00000000E+00  0.00000000E+00
  0.00000000E+00  0.00000000E+00  0.00000000E+00
  0.00000000E+00  0.00000000E+00  0.00000000E+00
  0.00000000E+00  0.00000000E+00  0.00000000E+00
  0.00000000E+00  0.00000000E+00  0.00000000E+00
  0.00000000E+00  0.00000000E+00  0.00000000E+00
  0.00000000E+00  0.00000000E+00  0.00000000E+00
  0.00000000E+00  0.00000000E+00  0.00000000E+00
  0.00000000E+00  0.00000000E+00  0.00000000E+00
  0.00000000E+00  0.00000000E+00  0.00000000E+00
  0.00000000E+00  0.00000000E+00  0.00000000E+00
  0.00000000E+00  0.00000000E+00  0.00000000E+00
  0.00000000E+00  0.00000000E+00  0.00000000E+00
  0.00000000E+00  0.00000000E+00  0.00000000E+00
  0.00000000E+00  0.00000000E+00  0.00000000E+00
  0.00000000E+00  0.00000000E+00  0.00000000E+00
  0.00000000E+00  0.00000000E+00  0.00000000E+00
  0.00000000E+00  0.00000000E+00  0.00000000E+00
  0.00000000E+00  0.00000000E+00  0.00000000E+00
  0.00000000E+00  0.00000000E+00  0.00000000E+00
  0.00000000E+00  0.00000000E+00  0.00000000E+00
  0.00000000E+00  0.00000000E+00  0.00000000E+00
  0.00000000E+00  0.00000000E+00  0.00000000E+00
  0.00000000E+00  0.00000000E+00  0.00000000E+00
  0.00000000E+00  0.00000000E+00  0.00000000E+00
  0.00000000E+00  0.00000000E+00  0.00000000E+00
  0.00000000E+00  0.00000000E+00  0.00000000E+00
  0.00000000E+00  0.00000000E+00  0.00000000E+00
  0.00000000E+00  0.00000000E+00  0.00000000E+00
  0.00000000E+00  0.00000000E+00  0.00000000E+00
  0.00000000E+00  0.00000000E+00  0.00000000E+00
  0.00000000E+00  0.00000000E+00  0.00000000E+00
  0.00000000E+00  0.00000000E+00  0.00000000E+00
  0.00000000E+00  0.00000000E+00  0.00000000E+00
  0.00000000E+00  0.00000000E+00  0.00000000E+00
  0.00000000E+00  0.00000000E+00  0.00000000E+00
  0.00000000E+00  0.00000000E+00  0.00000000E+00
  0.00000000E+00  0.00000000E+00  0.00000000E+00
  0.00000000E+00  0.00000000E+00  0.00000000E+00
  0.00000000E+00  0.00000000E+00  0.00000000E+00
  0.00000000E+00  0.00000000E+00  0.00000000E+00
  0.00000000E+00  0.00000000E+00  0.00000000E+00
  0.00000000E+00  0.00000000E+00  0.00000000E+00
  0.00000000E+00  0.00000000E+00  0.00000000E+00
  0.00000000E+00  0.00000000E+00  0.00000000E+00
  0.00000000E+00  0.00000000E+00  0.00000000E+00
  0.00000000E+00  0.00000000E+00  0.00000000E+00
  0.00000000E+00  0.00000000E+00  0.00000000E+00
  0.00000000E+00  0.00000000E+00  0.00000000E+00
  0.00000000E+00  0.00000000E+00  0.00000000E+00
  0.00000000E+00  0.00000000E+00  0.00000000E+00
  0.00000000E+00  0.00000000E+00  0.00000000E+00
  0.00000000E+00  0.00000000E+00  0.00000000E+00
  0.00000000E+00  0.00000000E+00  0.00000000E+00
