       N       E                     dE             d eps       ncg     rms          rms(c)
DAV:   1     0.207344803937E+04    0.20734E+04   -0.61385E+04  2952   0.915E+02
DAV:   2     0.407405778654E+03   -0.16660E+04   -0.15471E+04  3520   0.246E+02
DAV:   3    -0.127803507633E+03   -0.53521E+03   -0.51951E+03  4112   0.139E+02
DAV:   4    -0.172106503442E+03   -0.44303E+02   -0.43626E+02  4432   0.570E+01
DAV:   5    -0.172975832236E+03   -0.86933E+00   -0.85045E+00  4408   0.100E+01    0.408E+01
DAV:   6    -0.162500532061E+03    0.10475E+02   -0.14714E+02  4288   0.622E+01    0.419E+01
DAV:   7    -0.155983295903E+03    0.65172E+01   -0.23097E+01  4200   0.556E+01    0.199E+01
DAV:   8    -0.156470788701E+03   -0.48749E+00   -0.55312E+00  3744   0.559E+00    0.921E+00
DAV:   9    -0.156205378894E+03    0.26541E+00   -0.11208E+00  4304   0.835E+00    0.282E+00
DAV:  10    -0.156211952369E+03   -0.65735E-02   -0.24091E-01  4248   0.243E+00    0.131E+00
DAV:  11    -0.156225257290E+03   -0.13305E-01   -0.15793E-02  4112   0.834E-01    0.538E-01
DAV:  12    -0.156248009054E+03   -0.22752E-01   -0.73787E-03  4080   0.304E-01    0.285E-01
DAV:  13    -0.156260292193E+03   -0.12283E-01   -0.81358E-04  3800   0.110E-01    0.116E-01
DAV:  14    -0.156268223722E+03   -0.79315E-02   -0.24849E-04  3928   0.485E-02    0.791E-02
DAV:  15    -0.156275800907E+03   -0.75772E-02   -0.14860E-04  3272   0.265E-02    0.366E-02
DAV:  16    -0.156281121571E+03   -0.53207E-02   -0.11553E-04  4088   0.448E-02    0.319E-02
DAV:  17    -0.156282615359E+03   -0.14938E-02   -0.18387E-05  3624   0.147E-02    0.207E-02
DAV:  18    -0.156286030179E+03   -0.34148E-02   -0.10946E-04  3024   0.194E-02    0.216E-02
DAV:  19    -0.156286433793E+03   -0.40361E-03   -0.14984E-05  3456   0.116E-02    0.853E-03
DAV:  20    -0.156286498811E+03   -0.65019E-04   -0.50694E-06  2848   0.597E-03    0.454E-03
DAV:  21    -0.156286603187E+03   -0.10438E-03   -0.15615E-06  2176   0.359E-03    0.370E-03
DAV:  22    -0.156286675901E+03   -0.72714E-04   -0.13032E-06  2176   0.224E-03    0.154E-03
DAV:  23    -0.156286708824E+03   -0.32923E-04   -0.46637E-07  1944   0.168E-03    0.129E-03
DAV:  24    -0.156286744232E+03   -0.35409E-04   -0.12858E-06  2144   0.220E-03    0.195E-03
DAV:  25    -0.156286753445E+03   -0.92128E-05   -0.17685E-07  1816   0.200E-03    0.105E-03
DAV:  26    -0.156286759272E+03   -0.58272E-05   -0.85625E-08  1616   0.675E-04    0.397E-04
DAV:  27    -0.156286769211E+03   -0.99385E-05   -0.98560E-08  1696   0.714E-04    0.742E-04
DAV:  28    -0.156286775989E+03   -0.67781E-05   -0.11766E-07  1768   0.685E-04    0.545E-04
DAV:  29    -0.156286779561E+03   -0.35722E-05   -0.83389E-08  1592   0.788E-04    0.463E-04
DAV:  30    -0.156286780622E+03   -0.10611E-05   -0.53580E-08  1608   0.627E-04    0.198E-04
DAV:  31    -0.156286781151E+03   -0.52878E-06   -0.32943E-08  1568   0.504E-04
   1 F= -.15628678E+03 E0= -.15628678E+03  d E =-.156287E+03  mag=    24.0000
