CrCl3 3x3 + H S2 hollow (D3, U=0) (a=18.
   1.00000000000000     
    18.1388234955739875    0.0000000000000000    0.0000000000000000
    -9.0694117477869938   15.7086819419291253    0.0000000000000000
     0.0000000000000000    0.0000000000000000   20.0000000000000000
   Cr   Cl   H 
    18    54     1
Direct
     0.1114297392746931    0.2223439328400061    0.5007769354068224
     0.2223439328400061    0.1114297392746931    0.5007769354068224
     0.1111360545202419    0.5550718072260064    0.5001393613793533
     0.2224191397680157    0.4443227338266582    0.5007769354068224
     0.1115948594406649    0.8893975806275638    0.5001393613793533
     0.2222210706691322    0.7775815418588972    0.5000190287176297
     0.4443227338266582    0.2224191397680157    0.5007769354068224
     0.5550718072260064    0.1111360545202419    0.5001393613793533
     0.4442475268986487    0.5552369273919781    0.5007769354068224
     0.5552369273919781    0.4442475268986487    0.5007769354068224
     0.4444455959975321    0.8886938045230933    0.5000190287176297
     0.5555306121464297    0.7772690860391005    0.5001393613793533
     0.7775815418588972    0.2222210706691322    0.5000190287176297
     0.8893975806275638    0.1115948594406649    0.5001393613793533
     0.7772690860391005    0.5555306121464297    0.5001393613793533
     0.8886938045230933    0.4444455959975321    0.5000190287176297
     0.7779728621435710    0.8890851248077671    0.5000190287176297
     0.8890851248077671    0.7779728621435710    0.5000190287176297
     0.1200768828021994    0.3333333333333357    0.4343835348192664
     0.3333333333333357    0.1200768828021994    0.4343835348192664
     0.2153637365780602    0.2153637365780602    0.4351025255993034
     0.2169459846320781    0.3333333333333357    0.5664551733237144
     0.0003610558236683    0.2145537004611124    0.5668020300468949
     0.1192476465359036    0.1192476465359036    0.5672129054958630
     0.1195604927451398    0.6662598293989467    0.4337433490136647
     0.3333333333333357    0.4513029300886113    0.4351025255993034
     0.2141521921298619    0.5466026657968062    0.4342623200549389
     0.2139358360926046    0.6663929187761887    0.5663264165788713
     0.9999545589828700    0.5472192186839856    0.5661986532919299
     0.1191406886958916    0.4521129662055588    0.5668020300468949
     0.1200640008698580    0.0008828596663840    0.4342623200549389
     0.3333333333333357    0.7857614841716617    0.4337588508340592
     0.2142259247092741    0.8807409992306693    0.4338093471512524
     0.2145537004611124    0.0003610558236683    0.5668020300468949
     0.0002737478904758    0.8808762506497444    0.5663264165788713
     0.1194474479826790    0.7860686736322132    0.5661986532919299
     0.4513029300886113    0.3333333333333357    0.4351025255993034
     0.6662598293989467    0.1195604927451398    0.4337433490136647
     0.5466026657968062    0.2141521921298619    0.4342623200549389
     0.5474190201307608    0.3333333333333357    0.5672129054958630
     0.3333333333333357    0.2169459846320781    0.5664551733237144
     0.4521129662055588    0.1191406886958916    0.5668020300468949
     0.4525144745368098    0.6657838070002805    0.4342623200549389
     0.6657838070002805    0.4525144745368098    0.4342623200549389
     0.5465897838644646    0.5465897838644646    0.4343835348192664
     0.5475259779707725    0.6663056108429959    0.5668020300468949
     0.3333333333333357    0.5474190201307608    0.5672129054958630
     0.4497206820345935    0.4497206820345935    0.5664551733237144
     0.4524407419573972    0.9998484078547311    0.4338093471512524
     0.6668182588119332    0.7859256674359950    0.4338093471512524
     0.5471061739215244    0.8800326699871422    0.4337433490136647
     0.5472192186839856    0.9999545589828700    0.5661986532919299
     0.3333333333333357    0.8802871759401109    0.5663735766579590
     0.4527308305740667    0.7857904160169199    0.5663264165788713
     0.7857614841716617    0.3333333333333357    0.4337588508340592
     0.0008828596663840    0.1200640008698580    0.4342623200549389
     0.8807409992306693    0.2142259247092741    0.4338093471512524
     0.8802871759401109    0.3333333333333357    0.5663735766579590
     0.6663929187761887    0.2139358360926046    0.5663264165788713
     0.7860686736322132    0.1194474479826790    0.5661986532919299
     0.7859256674359950    0.6668182588119332    0.4338093471512524
     0.9998484078547311    0.4524407419573972    0.4338093471512524
     0.8800326699871422    0.5471061739215244    0.4337433490136647
     0.8805979930344511    0.6667121076837942    0.5661986532919299
     0.6663056108429959    0.5475259779707725    0.5668020300468949
     0.7857904160169199    0.4527308305740667    0.5663264165788713
     0.7866339966795221    0.0004068372677179    0.4337433490136647
     0.0004068372677179    0.7866339966795221    0.4337433490136647
     0.8809051824950026    0.8809051824950026    0.4337588508340592
     0.8808762506497444    0.0002737478904758    0.5663264165788713
     0.6667121076837942    0.8805979930344511    0.5661986532919299
     0.7863794907265534    0.7863794907265534    0.5663735766579590
     0.3333333333333357    0.3333333333333357    0.5576756499613574
 
  0.00000000E+00  0.00000000E+00  0.00000000E+00
  0.00000000E+00  0.00000000E+00  0.00000000E+00
  0.00000000E+00  0.00000000E+00  0.00000000E+00
  0.00000000E+00  0.00000000E+00  0.00000000E+00
  0.00000000E+00  0.00000000E+00  0.00000000E+00
  0.00000000E+00  0.00000000E+00  0.00000000E+00
  0.00000000E+00  0.00000000E+00  0.00000000E+00
  0.00000000E+00  0.00000000E+00  0.00000000E+00
  0.00000000E+00  0.00000000E+00  0.00000000E+00
  0.00000000E+00  0.00000000E+00  0.00000000E+00
  0.00000000E+00  0.00000000E+00  0.00000000E+00
  0.00000000E+00  0.00000000E+00  0.00000000E+00
  0.00000000E+00  0.00000000E+00  0.00000000E+00
  0.00000000E+00  0.00000000E+00  0.00000000E+00
  0.00000000E+00  0.00000000E+00  0.00000000E+00
  0.00000000E+00  0.00000000E+00  0.00000000E+00
  0.00000000E+00  0.00000000E+00  0.00000000E+00
  0.00000000E+00  0.00000000E+00  0.00000000E+00
  0.00000000E+00  0.00000000E+00  0.00000000E+00
  0.00000000E+00  0.00000000E+00  0.00000000E+00
  0.00000000E+00  0.00000000E+00  0.00000000E+00
  0.00000000E+00  0.00000000E+00  0.00000000E+00
  0.00000000E+00  0.00000000E+00  0.00000000E+00
  0.00000000E+00  0.00000000E+00  0.00000000E+00
  0.00000000E+00  0.00000000E+00  0.00000000E+00
  0.00000000E+00  0.00000000E+00  0.00000000E+00
  0.00000000E+00  0.00000000E+00  0.00000000E+00
  0.00000000E+00  0.00000000E+00  0.00000000E+00
  0.00000000E+00  0.00000000E+00  0.00000000E+00
  0.00000000E+00  0.00000000E+00  0.00000000E+00
  0.00000000E+00  0.00000000E+00  0.00000000E+00
  0.00000000E+00  0.00000000E+00  0.00000000E+00
  0.00000000E+00  0.00000000E+00  0.00000000E+00
  0.00000000E+00  0.00000000E+00  0.00000000E+00
  0.00000000E+00  0.00000000E+00  0.00000000E+00
  0.00000000E+00  0.00000000E+00  0.00000000E+00
  0.00000000E+00  0.00000000E+00  0.00000000E+00
  0.00000000E+00  0.00000000E+00  0.00000000E+00
  0.00000000E+00  0.00000000E+00  0.00000000E+00
  0.00000000E+00  0.00000000E+00  0.00000000E+00
  0.00000000E+00  0.00000000E+00  0.00000000E+00
  0.00000000E+00  0.00000000E+00  0.00000000E+00
  0.00000000E+00  0.00000000E+00  0.00000000E+00
  0.00000000E+00  0.00000000E+00  0.00000000E+00
  0.00000000E+00  0.00000000E+00  0.00000000E+00
  0.00000000E+00  0.00000000E+00  0.00000000E+00
  0.00000000E+00  0.00000000E+00  0.00000000E+00
  0.00000000E+00  0.00000000E+00  0.00000000E+00
  0.00000000E+00  0.00000000E+00  0.00000000E+00
  0.00000000E+00  0.00000000E+00  0.00000000E+00
  0.00000000E+00  0.00000000E+00  0.00000000E+00
  0.00000000E+00  0.00000000E+00  0.00000000E+00
  0.00000000E+00  0.00000000E+00  0.00000000E+00
  0.00000000E+00  0.00000000E+00  0.00000000E+00
  0.00000000E+00  0.00000000E+00  0.00000000E+00
  0.00000000E+00  0.00000000E+00  0.00000000E+00
  0.00000000E+00  0.00000000E+00  0.00000000E+00
  0.00000000E+00  0.00000000E+00  0.00000000E+00
  0.00000000E+00  0.00000000E+00  0.00000000E+00
  0.00000000E+00  0.00000000E+00  0.00000000E+00
  0.00000000E+00  0.00000000E+00  0.00000000E+00
  0.00000000E+00  0.00000000E+00  0.00000000E+00
  0.00000000E+00  0.00000000E+00  0.00000000E+00
  0.00000000E+00  0.00000000E+00  0.00000000E+00
  0.00000000E+00  0.00000000E+00  0.00000000E+00
  0.00000000E+00  0.00000000E+00  0.00000000E+00
  0.00000000E+00  0.00000000E+00  0.00000000E+00
  0.00000000E+00  0.00000000E+00  0.00000000E+00
  0.00000000E+00  0.00000000E+00  0.00000000E+00
  0.00000000E+00  0.00000000E+00  0.00000000E+00
  0.00000000E+00  0.00000000E+00  0.00000000E+00
  0.00000000E+00  0.00000000E+00  0.00000000E+00
  0.00000000E+00  0.00000000E+00  0.00000000E+00
