                                        
   1.00000000000000     
    12.0969953537000006    0.0000000000000000    0.0000000000000000
    -6.0484976768000003   10.4763052858000005    0.0000000000000000
     0.0000000000000000    0.0000000000000000   17.6700248717999990
   Cr   Cl   Ni   H 
     8    24     1     1
Direct
     0.1635045085120576    0.8365685615910131    0.3384585897074274
     0.1590629724549556    0.3321960032460408    0.3405462861010126
     0.6634596559463587    0.8408548245461865    0.3406720380651730
     0.6677058128123523    0.3365734215105787    0.3406137626897848
     0.8344854924623180    0.6699942366131904    0.3406645736874057
     0.8300404824793236    0.1698636691656085    0.3384302532138103
     0.3300503680046796    0.6741151791238742    0.3406038549562720
     0.3258967214823102    0.1656135856862396    0.3405927911990831
     0.1718430354549433    0.0011694733671353    0.2616371424734258
     0.1751704572209732    0.5031961560429400    0.2657080892016355
     0.6737160951338825    0.0052463335763731    0.2616536742323622
     0.6713281519770880    0.5033100342095103    0.2672428816663086
     0.3197340042566470    0.8282578109630772    0.2616063809774905
     0.3221955083403544    0.3285914109088303    0.2671402416843250
     0.8184539423559800    0.8249280733209277    0.2658384755546935
     0.8217645423587548    0.3262003305293475    0.2616312478794077
     0.9989227468465468    0.6803391498662698    0.2616390832527207
     0.9945205294318168    0.1780925951491706    0.2615675033261636
     0.4968214173722408    0.6776953272956618    0.2672560293508580
     0.4968321339500110    0.1816942358909879    0.2657207984884669
     0.9990634581790313    0.8269730381549302    0.4167217547232241
     0.9945568950978514    0.3247081109975042    0.4166263230788955
     0.4967163289033719    0.8301619386474561    0.4176729452686000
     0.4967710362269467    0.3220843527884525    0.4228475701558229
     0.3184200430113054    0.0010973845974359    0.4166412515797746
     0.3155020211678665    0.5031110517360692    0.4228506002396287
     0.8204373707351470    0.0054526837103898    0.4167114866055330
     0.8237582351643220    0.5031983287379806    0.4176596927486741
     0.1730383489349205    0.6816637204225354    0.4166587145124054
     0.1697766141946999    0.1761484990465305    0.4175873274886718
     0.6780301116322016    0.6844580890167146    0.4229640245918635
     0.6751923841628513    0.1795180255252140    0.4166462143670322
     0.4967528773673438    0.5033926532300872    0.4317155457259121
     0.4965895273685388    0.5034820747857220    0.5133688172061194
 
  0.00000000E+00  0.00000000E+00  0.00000000E+00
  0.00000000E+00  0.00000000E+00  0.00000000E+00
  0.00000000E+00  0.00000000E+00  0.00000000E+00
  0.00000000E+00  0.00000000E+00  0.00000000E+00
  0.00000000E+00  0.00000000E+00  0.00000000E+00
  0.00000000E+00  0.00000000E+00  0.00000000E+00
  0.00000000E+00  0.00000000E+00  0.00000000E+00
  0.00000000E+00  0.00000000E+00  0.00000000E+00
  0.00000000E+00  0.00000000E+00  0.00000000E+00
  0.00000000E+00  0.00000000E+00  0.00000000E+00
  0.00000000E+00  0.00000000E+00  0.00000000E+00
  0.00000000E+00  0.00000000E+00  0.00000000E+00
  0.00000000E+00  0.00000000E+00  0.00000000E+00
  0.00000000E+00  0.00000000E+00  0.00000000E+00
  0.00000000E+00  0.00000000E+00  0.00000000E+00
  0.00000000E+00  0.00000000E+00  0.00000000E+00
  0.00000000E+00  0.00000000E+00  0.00000000E+00
  0.00000000E+00  0.00000000E+00  0.00000000E+00
  0.00000000E+00  0.00000000E+00  0.00000000E+00
  0.00000000E+00  0.00000000E+00  0.00000000E+00
  0.00000000E+00  0.00000000E+00  0.00000000E+00
  0.00000000E+00  0.00000000E+00  0.00000000E+00
  0.00000000E+00  0.00000000E+00  0.00000000E+00
  0.00000000E+00  0.00000000E+00  0.00000000E+00
  0.00000000E+00  0.00000000E+00  0.00000000E+00
  0.00000000E+00  0.00000000E+00  0.00000000E+00
  0.00000000E+00  0.00000000E+00  0.00000000E+00
  0.00000000E+00  0.00000000E+00  0.00000000E+00
  0.00000000E+00  0.00000000E+00  0.00000000E+00
  0.00000000E+00  0.00000000E+00  0.00000000E+00
  0.00000000E+00  0.00000000E+00  0.00000000E+00
  0.00000000E+00  0.00000000E+00  0.00000000E+00
  0.00000000E+00  0.00000000E+00  0.00000000E+00
  0.00000000E+00  0.00000000E+00  0.00000000E+00
