                                        
   1.00000000000000     
    12.0969953537000006    0.0000000000000000    0.0000000000000000
    -6.0484976768000003   10.4763052858000005    0.0000000000000000
     0.0000000000000000    0.0000000000000000   17.6700248717999990
   Cr   Cl   Ni   H 
     8    24     1     1
Direct
     0.1635107431871913    0.8365209956411284    0.3384944166514249
     0.1592252597000326    0.3322728905188055    0.3401429039619198
     0.6634222343767117    0.8407183022449223    0.3403406516370037
     0.6675964769861317    0.3366639727596928    0.3401849050403467
     0.8343297353007153    0.6701165903090990    0.3404155615199197
     0.8300355578760115    0.1698790080505891    0.3383143268519064
     0.3299588247517644    0.6737991593504251    0.3402159412717317
     0.3261489388826740    0.1657737569542541    0.3402490907911566
     0.1715128518598189    0.0008116467303050    0.2615487066050360
     0.1747971393405756    0.5030664011003758    0.2654170686720996
     0.6736349364856551    0.0055452271684914    0.2614511328583879
     0.6716313548991618    0.5035109360832214    0.2669933397689127
     0.3196280353075530    0.8284389213384767    0.2614273044894632
     0.3219793084687200    0.3282793986877803    0.2668386451345768
     0.8189382095505859    0.8254624351888411    0.2657468076250553
     0.8221451309151611    0.3262565224772158    0.2613581412895775
     0.9991475279732732    0.6803350802431472    0.2615638702822309
     0.9941952707311232    0.1776018090534435    0.2613799356519743
     0.4968299996866615    0.6778825402052691    0.2669877406689015
     0.4968679826438875    0.1813954057001483    0.2654464273918840
     0.9990738296334529    0.8273052995734229    0.4165387316448949
     0.9946363127106955    0.3250866840777067    0.4162326397741639
     0.4965706108890997    0.8302513120436955    0.4170932710436283
     0.4968351060939940    0.3222964477409794    0.4229245753369478
     0.3189275821027933    0.0011528589856156    0.4163345700458405
     0.3155725310335095    0.5030103322729438    0.4229454698423396
     0.8206358125303987    0.0054620258085839    0.4164334150385379
     0.8239507436259625    0.5032323370638671    0.4171079020341147
     0.1726580010519597    0.6811294685223133    0.4163512294700434
     0.1696714560959894    0.1759658286851666    0.4170416193946269
     0.6779213191165958    0.6844234820103002    0.4231872582215440
     0.6748591477459338    0.1792965927644971    0.4162542650598909
     0.4967633954358707    0.5034718328654993    0.4353831821789131
     0.4965024640103431    0.5035348617797690    0.5175509187509897
 
  0.00000000E+00  0.00000000E+00  0.00000000E+00
  0.00000000E+00  0.00000000E+00  0.00000000E+00
  0.00000000E+00  0.00000000E+00  0.00000000E+00
  0.00000000E+00  0.00000000E+00  0.00000000E+00
  0.00000000E+00  0.00000000E+00  0.00000000E+00
  0.00000000E+00  0.00000000E+00  0.00000000E+00
  0.00000000E+00  0.00000000E+00  0.00000000E+00
  0.00000000E+00  0.00000000E+00  0.00000000E+00
  0.00000000E+00  0.00000000E+00  0.00000000E+00
  0.00000000E+00  0.00000000E+00  0.00000000E+00
  0.00000000E+00  0.00000000E+00  0.00000000E+00
  0.00000000E+00  0.00000000E+00  0.00000000E+00
  0.00000000E+00  0.00000000E+00  0.00000000E+00
  0.00000000E+00  0.00000000E+00  0.00000000E+00
  0.00000000E+00  0.00000000E+00  0.00000000E+00
  0.00000000E+00  0.00000000E+00  0.00000000E+00
  0.00000000E+00  0.00000000E+00  0.00000000E+00
  0.00000000E+00  0.00000000E+00  0.00000000E+00
  0.00000000E+00  0.00000000E+00  0.00000000E+00
  0.00000000E+00  0.00000000E+00  0.00000000E+00
  0.00000000E+00  0.00000000E+00  0.00000000E+00
  0.00000000E+00  0.00000000E+00  0.00000000E+00
  0.00000000E+00  0.00000000E+00  0.00000000E+00
  0.00000000E+00  0.00000000E+00  0.00000000E+00
  0.00000000E+00  0.00000000E+00  0.00000000E+00
  0.00000000E+00  0.00000000E+00  0.00000000E+00
  0.00000000E+00  0.00000000E+00  0.00000000E+00
  0.00000000E+00  0.00000000E+00  0.00000000E+00
  0.00000000E+00  0.00000000E+00  0.00000000E+00
  0.00000000E+00  0.00000000E+00  0.00000000E+00
  0.00000000E+00  0.00000000E+00  0.00000000E+00
  0.00000000E+00  0.00000000E+00  0.00000000E+00
  0.00000000E+00  0.00000000E+00  0.00000000E+00
  0.00000000E+00  0.00000000E+00  0.00000000E+00
