 running   28 mpi-ranks, with    1 threads/rank, on    1 nodes
 distrk:  each k-point on   28 cores,    1 groups
 distr:  one band on    4 cores,    7 groups
 vasp.6.5.1 10Mar25 (build Feb 13 2026 23:13:13) complex                        
  
 POSCAR found type information on POSCAR CrClNiH 
 POSCAR found :  4 types and      34 ions
 scaLAPACK will be used
 LDA part: xc-table for (Slater+PW92), standard interpolation
 POSCAR, INCAR and KPOINTS ok, starting setup
 FFT: planning ... GRIDC
 FFT: planning ... GRID_SOFT
 FFT: planning ... GRID
 WAVECAR not read
 WARNING: random wavefunctions but no delay for mixing, default for NELMDL
 entering main loop
       N       E                     dE             d eps       ncg     rms          rms(c)
DAV:   1     0.214623218232E+04    0.21462E+04   -0.66688E+04  8008   0.925E+02
DAV:   2     0.383808320695E+03   -0.17624E+04   -0.16567E+04  9702   0.242E+02
DAV:   3    -0.118922572934E+03   -0.50273E+03   -0.48769E+03 11340   0.136E+02
DAV:   4    -0.155580917373E+03   -0.36658E+02   -0.36320E+02 11298   0.540E+01
DAV:   5    -0.156440986623E+03   -0.86007E+00   -0.85907E+00 12152   0.876E+00    0.409E+01
DAV:   6    -0.150188971649E+03    0.62520E+01   -0.16123E+02 13286   0.611E+01    0.654E+01
DAV:   7    -0.150936867990E+03   -0.74790E+00   -0.11547E+02 11396   0.510E+01    0.343E+01
DAV:   8    -0.145627617618E+03    0.53093E+01   -0.21901E+01 10136   0.385E+01    0.158E+01
DAV:   9    -0.146588789880E+03   -0.96117E+00   -0.89228E+00 12754   0.160E+01    0.180E+01
DAV:  10    -0.145664981232E+03    0.92381E+00   -0.43010E+00 11298   0.123E+01    0.705E+00
DAV:  11    -0.145871318504E+03   -0.20634E+00   -0.68087E-01 10696   0.772E+00    0.367E+00
DAV:  12    -0.146036913213E+03   -0.16559E+00   -0.17342E-01 10990   0.199E+00    0.268E+00
DAV:  13    -0.146207024815E+03   -0.17011E+00   -0.50886E-02 11886   0.147E+00    0.273E+00
DAV:  14    -0.146294196399E+03   -0.87172E-01   -0.33606E-02 13384   0.151E+00    0.199E+00
DAV:  15    -0.146354997027E+03   -0.60801E-01   -0.46581E-02 12124   0.185E+00    0.836E-01
DAV:  16    -0.146383175263E+03   -0.28178E-01   -0.19130E-02 10976   0.440E-01    0.474E-01
DAV:  17    -0.146413812143E+03   -0.30637E-01   -0.27509E-03 11298   0.172E-01    0.290E-01
DAV:  18    -0.146437391907E+03   -0.23580E-01   -0.96278E-04 10682   0.957E-02    0.198E-01
DAV:  19    -0.146461756064E+03   -0.24364E-01   -0.80677E-04 11508   0.110E-01    0.830E-02
DAV:  20    -0.146475568415E+03   -0.13812E-01   -0.41075E-04 11578   0.742E-02    0.363E-02
DAV:  21    -0.146481319921E+03   -0.57515E-02   -0.12519E-04  9450   0.313E-02    0.266E-02
DAV:  22    -0.146488685207E+03   -0.73653E-02   -0.16644E-04  9324   0.227E-02    0.208E-02
DAV:  23    -0.146492222995E+03   -0.35378E-02   -0.93919E-05  9184   0.186E-02    0.141E-02
DAV:  24    -0.146493781762E+03   -0.15588E-02   -0.40867E-05  9212   0.124E-02    0.932E-03
DAV:  25    -0.146494516851E+03   -0.73509E-03   -0.25039E-05  9100   0.948E-03    0.589E-03
DAV:  26    -0.146494764860E+03   -0.24801E-03   -0.20741E-05  8834   0.786E-03    0.436E-03
DAV:  27    -0.146494746690E+03    0.18170E-04   -0.71647E-06  8442   0.581E-03    0.291E-03
DAV:  28    -0.146494737095E+03    0.95955E-05   -0.96217E-07  6944   0.299E-03    0.270E-03
DAV:  29    -0.146494749609E+03   -0.12514E-04   -0.35513E-07  6370   0.302E-03    0.134E-03
DAV:  30    -0.146494789268E+03   -0.39659E-04   -0.47139E-07  6076   0.176E-03    0.149E-03
DAV:  31    -0.146494835616E+03   -0.46348E-04   -0.86211E-07  6566   0.188E-03    0.140E-03
DAV:  32    -0.146494867212E+03   -0.31596E-04   -0.64869E-07  6636   0.248E-03    0.974E-04
DAV:  33    -0.146494881323E+03   -0.14111E-04   -0.43715E-07  6342   0.174E-03    0.794E-04
DAV:  34    -0.146494885751E+03   -0.44284E-05   -0.19526E-07  5278   0.124E-03    0.504E-04
DAV:  35    -0.146494888265E+03   -0.25139E-05   -0.13022E-07  5194   0.878E-04    0.426E-04
DAV:  36    -0.146494889437E+03   -0.11721E-05   -0.77778E-08  5362   0.752E-04    0.260E-04
DAV:  37    -0.146494889916E+03   -0.47846E-06   -0.47183E-08  5250   0.551E-04
   1 F= -.15273514E+03 E0= -.15273514E+03  d E =-.152735E+03  mag=    25.0001
 curvature:   0.00 expect dE= 0.000E+00 dE for cont linesearch  0.000E+00
 trial: gam= 0.00000 g(F)=  0.112E-02 g(S)=  0.000E+00 ort = 0.000E+00 (trialstep = 0.100E+01)
 search vector abs. value=  0.112E-02
 bond charge predicted
       N       E                     dE             d eps       ncg     rms          rms(c)
DAV:   1    -0.146494827587E+03    0.61851E-04   -0.84013E-02  8260   0.603E-01    0.203E-01
DAV:   2    -0.146495255058E+03   -0.42747E-03   -0.41419E-03 11536   0.246E-01    0.112E-01
DAV:   3    -0.146495498343E+03   -0.24328E-03   -0.46142E-04 11592   0.148E-01    0.892E-02
DAV:   4    -0.146495416620E+03    0.81722E-04   -0.14649E-04 11578   0.108E-01    0.497E-02
DAV:   5    -0.146495368420E+03    0.48200E-04   -0.22991E-05 12124   0.288E-02    0.341E-02
DAV:   6    -0.146495267500E+03    0.10092E-03   -0.31335E-05 10262   0.145E-02    0.165E-02
DAV:   7    -0.146495297515E+03   -0.30015E-04   -0.81192E-06 10766   0.937E-03    0.706E-03
DAV:   8    -0.146495360506E+03   -0.62991E-04   -0.10068E-06  6552   0.481E-03    0.490E-03
DAV:   9    -0.146495435964E+03   -0.75458E-04   -0.15134E-06  6972   0.456E-03    0.286E-03
DAV:  10    -0.146495475024E+03   -0.39060E-04   -0.84235E-07  6188   0.287E-03    0.158E-03
DAV:  11    -0.146495504132E+03   -0.29108E-04   -0.50504E-07  5950   0.261E-03    0.147E-03
DAV:  12    -0.146495530834E+03   -0.26702E-04   -0.51697E-07  6202   0.212E-03    0.942E-04
DAV:  13    -0.146495553206E+03   -0.22372E-04   -0.49013E-07  6202   0.184E-03    0.842E-04
DAV:  14    -0.146495560741E+03   -0.75350E-05   -0.24237E-07  5110   0.156E-03    0.511E-04
DAV:  15    -0.146495575533E+03   -0.14792E-04   -0.42314E-07  5810   0.123E-03    0.590E-04
DAV:  16    -0.146495582722E+03   -0.71886E-05   -0.24749E-07  6006   0.144E-03    0.421E-04
DAV:  17    -0.146495585439E+03   -0.27169E-05   -0.18410E-07  5292   0.992E-04    0.344E-04
DAV:  18    -0.146495587059E+03   -0.16203E-05   -0.13050E-07  5474   0.975E-04    0.255E-04
DAV:  19    -0.146495587583E+03   -0.52392E-06   -0.86603E-08  5040   0.747E-04
   2 F= -.15273595E+03 E0= -.15273595E+03  d E =-.815232E-03  mag=    25.0000
 trial-energy change:   -0.000815  1 .order   -0.000809   -0.001116   -0.000503
 step:   1.7455(harm=  1.8187)  dis= 0.00280  next Energy=  -152.736144 (dE=-0.100E-02)
 bond charge predicted
       N       E                     dE             d eps       ncg     rms          rms(c)
DAV:   1    -0.146495294554E+03    0.29250E-03   -0.46689E-02  8106   0.449E-01    0.151E-01
DAV:   2    -0.146495506538E+03   -0.21198E-03   -0.23145E-03 11536   0.184E-01    0.840E-02
DAV:   3    -0.146495659591E+03   -0.15305E-03   -0.24949E-04 11550   0.109E-01    0.662E-02
DAV:   4    -0.146495611090E+03    0.48501E-04   -0.80124E-05 11578   0.800E-02    0.371E-02
DAV:   5    -0.146495579594E+03    0.31496E-04   -0.12825E-05 11816   0.217E-02    0.254E-02
DAV:   6    -0.146495510312E+03    0.69283E-04   -0.17536E-05 10024   0.107E-02    0.121E-02
DAV:   7    -0.146495528781E+03   -0.18469E-04   -0.41341E-06  8778   0.688E-03    0.517E-03
DAV:   8    -0.146495570783E+03   -0.42002E-04   -0.70891E-07  6342   0.421E-03    0.383E-03
DAV:   9    -0.146495619194E+03   -0.48411E-04   -0.85842E-07  6454   0.357E-03    0.234E-03
DAV:  10    -0.146495645273E+03   -0.26079E-04   -0.60907E-07  5810   0.241E-03    0.135E-03
DAV:  11    -0.146495663211E+03   -0.17938E-04   -0.37620E-07  5614   0.216E-03    0.124E-03
DAV:  12    -0.146495679388E+03   -0.16177E-04   -0.33548E-07  5754   0.172E-03    0.785E-04
DAV:  13    -0.146495696083E+03   -0.16695E-04   -0.44143E-07  6132   0.158E-03    0.736E-04
DAV:  14    -0.146495700604E+03   -0.45207E-05   -0.17123E-07  5096   0.139E-03    0.404E-04
DAV:  15    -0.146495708309E+03   -0.77049E-05   -0.21663E-07  5796   0.883E-04    0.485E-04
DAV:  16    -0.146495712763E+03   -0.44543E-05   -0.13484E-07  5586   0.108E-03    0.289E-04
DAV:  17    -0.146495714944E+03   -0.21812E-05   -0.10895E-07  5124   0.732E-04    0.293E-04
DAV:  18    -0.146495717275E+03   -0.23301E-05   -0.12638E-07  5628   0.815E-04    0.266E-04
DAV:  19    -0.146495717615E+03   -0.34005E-06   -0.68648E-08  5096   0.763E-04
   3 F= -.15273616E+03 E0= -.15273616E+03  d E =-.102308E-02  mag=    25.0000
 curvature:  -0.90 expect dE=-0.704E-03 dE for cont linesearch -0.160E-05
 trial: gam= 0.65884 g(F)=  0.780E-03 g(S)=  0.000E+00 ort = 0.445E-04 (trialstep = 0.969E+00)
 search vector abs. value=  0.132E-02
 bond charge predicted
       N       E                     dE             d eps       ncg     rms          rms(c)
DAV:   1    -0.146495460559E+03    0.25672E-03   -0.14820E-01  8148   0.692E-01    0.171E-01
DAV:   2    -0.146495881268E+03   -0.42071E-03   -0.47147E-03 11774   0.298E-01    0.133E-01
DAV:   3    -0.146495985990E+03   -0.10472E-03   -0.10702E-03 11326   0.258E-01    0.137E-01
DAV:   4    -0.146495898323E+03    0.87667E-04   -0.25134E-04 11018   0.149E-01    0.473E-02
DAV:   5    -0.146495917483E+03   -0.19161E-04   -0.42638E-05 11298   0.211E-02    0.380E-02
DAV:   6    -0.146495949829E+03   -0.32346E-04   -0.31593E-05 11046   0.264E-02    0.142E-02
DAV:   7    -0.146495961062E+03   -0.11232E-04   -0.49512E-06  8988   0.145E-02    0.453E-03
DAV:   8    -0.146495964156E+03   -0.30944E-05   -0.10777E-06  5866   0.712E-03    0.443E-03
DAV:   9    -0.146495966466E+03   -0.23097E-05   -0.52536E-07  5320   0.478E-03    0.247E-03
DAV:  10    -0.146495968532E+03   -0.20658E-05   -0.33675E-07  5320   0.229E-03    0.167E-03
DAV:  11    -0.146495969366E+03   -0.83446E-06   -0.15518E-07  5096   0.203E-03
   4 F= -.15273684E+03 E0= -.15273684E+03  d E =-.679333E-03  mag=    25.0000
 trial-energy change:   -0.000679  1 .order   -0.000675   -0.000785   -0.000565
 step:   2.8332(harm=  3.4707)  dis= 0.00312  next Energy=  -152.737415 (dE=-0.125E-02)
 bond charge predicted
       N       E                     dE             d eps       ncg     rms          rms(c)
DAV:   1    -0.146494002739E+03    0.19658E-02   -0.54804E-01  8008   0.133E+00    0.328E-01
DAV:   2    -0.146495581704E+03   -0.15790E-02   -0.17219E-02 11592   0.567E-01    0.252E-01
DAV:   3    -0.146495949338E+03   -0.36763E-03   -0.38723E-03 11228   0.490E-01    0.261E-01
DAV:   4    -0.146495636144E+03    0.31319E-03   -0.93113E-04 10962   0.289E-01    0.906E-02
DAV:   5    -0.146495743673E+03   -0.10753E-03   -0.15880E-04 11270   0.406E-02    0.729E-02
DAV:   6    -0.146495825896E+03   -0.82222E-04   -0.11613E-04 11172   0.505E-02    0.273E-02
DAV:   7    -0.146495855089E+03   -0.29194E-04   -0.20270E-05 12404   0.278E-02    0.964E-03
DAV:   8    -0.146495863171E+03   -0.80816E-05   -0.24032E-06  7224   0.110E-02    0.831E-03
DAV:   9    -0.146495870946E+03   -0.77754E-05   -0.13611E-06  6104   0.778E-03    0.443E-03
DAV:  10    -0.146495877823E+03   -0.68766E-05   -0.13146E-06  5558   0.428E-03    0.239E-03
DAV:  11    -0.146495880215E+03   -0.23919E-05   -0.62443E-07  5096   0.414E-03    0.156E-03
DAV:  12    -0.146495881811E+03   -0.15964E-05   -0.23099E-07  5054   0.237E-03    0.842E-04
DAV:  13    -0.146495884036E+03   -0.22245E-05   -0.13643E-07  5432   0.135E-03    0.742E-04
DAV:  14    -0.146495885029E+03   -0.99311E-06   -0.66004E-08  5096   0.110E-03
   5 F= -.15273755E+03 E0= -.15273755E+03  d E =-.139036E-02  mag=    25.0000
 curvature:  -2.65 expect dE=-0.109E-02 dE for cont linesearch -0.548E-04
 ZBRENT: extrapolating
 opt :   3.5702  next Energy=  -152.737613 (dE=-0.145E-02)
 bond charge predicted
       N       E                     dE             d eps       ncg     rms          rms(c)
DAV:   1    -0.146495346569E+03    0.53747E-03   -0.85665E-02  8008   0.527E-01    0.130E-01
DAV:   2    -0.146495578506E+03   -0.23194E-03   -0.27322E-03 11424   0.228E-01    0.102E-01
DAV:   3    -0.146495643999E+03   -0.65493E-04   -0.62308E-04 11256   0.198E-01    0.104E-01
DAV:   4    -0.146495593110E+03    0.50889E-04   -0.14514E-04 11004   0.113E-01    0.360E-02
DAV:   5    -0.146495606586E+03   -0.13476E-04   -0.24694E-05 11074   0.161E-02    0.290E-02
DAV:   6    -0.146495628152E+03   -0.21566E-04   -0.18121E-05 10710   0.200E-02    0.108E-02
DAV:   7    -0.146495635515E+03   -0.73627E-05   -0.26298E-06  7322   0.110E-02    0.332E-03
DAV:   8    -0.146495638141E+03   -0.26263E-05   -0.76451E-07  5600   0.604E-03    0.345E-03
DAV:   9    -0.146495639909E+03   -0.17683E-05   -0.34071E-07  5152   0.388E-03    0.195E-03
DAV:  10    -0.146495641538E+03   -0.16287E-05   -0.20248E-07  5236   0.177E-03    0.144E-03
DAV:  11    -0.146495642296E+03   -0.75754E-06   -0.90036E-08  5096   0.150E-03
   6 F= -.15273761E+03 E0= -.15273761E+03  d E =-.145204E-02  mag=    25.0000
 curvature:  -2.95 expect dE=-0.186E-02 dE for cont linesearch -0.380E-06
 trial: gam= 0.90499 g(F)=  0.632E-03 g(S)=  0.000E+00 ort =-0.131E-04 (trialstep = 0.116E+01)
 search vector abs. value=  0.169E-02
 bond charge predicted
       N       E                     dE             d eps       ncg     rms          rms(c)
DAV:   1    -0.146495380842E+03    0.26070E-03   -0.16805E-01  8008   0.733E-01    0.169E-01
DAV:   2    -0.146495836424E+03   -0.45558E-03   -0.48921E-03 11746   0.333E-01    0.190E-01
DAV:   3    -0.146495846740E+03   -0.10315E-04   -0.15645E-03 11578   0.315E-01    0.121E-01
DAV:   4    -0.146495799510E+03    0.47230E-04   -0.26052E-04 11354   0.145E-01    0.453E-02
DAV:   5    -0.146495790048E+03    0.94619E-05   -0.55470E-05 10892   0.206E-02    0.364E-02
DAV:   6    -0.146495774674E+03    0.15374E-04   -0.35329E-05 11242   0.343E-02    0.121E-02
DAV:   7    -0.146495798057E+03   -0.23383E-04   -0.54116E-06  9464   0.137E-02    0.554E-03
DAV:   8    -0.146495825862E+03   -0.27805E-04   -0.11107E-06  6160   0.476E-03    0.421E-03
DAV:   9    -0.146495850040E+03   -0.24178E-04   -0.63107E-07  5824   0.313E-03    0.291E-03
DAV:  10    -0.146495868890E+03   -0.18850E-04   -0.48455E-07  5824   0.235E-03    0.146E-03
DAV:  11    -0.146495882667E+03   -0.13777E-04   -0.33159E-07  5796   0.219E-03    0.139E-03
DAV:  12    -0.146495894463E+03   -0.11796E-04   -0.31385E-07  5628   0.178E-03    0.842E-04
DAV:  13    -0.146495901468E+03   -0.70053E-05   -0.21988E-07  5614   0.150E-03    0.759E-04
DAV:  14    -0.146495906527E+03   -0.50588E-05   -0.15751E-07  5320   0.108E-03    0.460E-04
DAV:  15    -0.146495910683E+03   -0.41564E-05   -0.12469E-07  5628   0.987E-04    0.455E-04
DAV:  16    -0.146495914356E+03   -0.36724E-05   -0.14180E-07  5460   0.878E-04    0.339E-04
DAV:  17    -0.146495915941E+03   -0.15848E-05   -0.98745E-08  5432   0.843E-04    0.227E-04
DAV:  18    -0.146495916471E+03   -0.52988E-06   -0.58539E-08  5054   0.634E-04
   7 F= -.15273820E+03 E0= -.15273820E+03  d E =-.588268E-03  mag=    25.0000
 trial-energy change:   -0.000588  1 .order   -0.000581   -0.000722   -0.000439
 step:   2.5192(harm=  2.9740)  dis= 0.00266  next Energy=  -152.738469 (dE=-0.855E-03)
 bond charge predicted
       N       E                     dE             d eps       ncg     rms          rms(c)
DAV:   1    -0.146495171299E+03    0.74464E-03   -0.22712E-01  8008   0.853E-01    0.196E-01
DAV:   2    -0.146495782070E+03   -0.61077E-03   -0.66109E-03 11606   0.388E-01    0.221E-01
DAV:   3    -0.146495791445E+03   -0.93753E-05   -0.21209E-03 11438   0.366E-01    0.140E-01
DAV:   4    -0.146495732908E+03    0.58536E-04   -0.34948E-04 11424   0.167E-01    0.527E-02
DAV:   5    -0.146495725608E+03    0.73005E-05   -0.74360E-05 10794   0.239E-02    0.423E-02
DAV:   6    -0.146495707287E+03    0.18321E-04   -0.47995E-05 11396   0.400E-02    0.139E-02
DAV:   7    -0.146495739440E+03   -0.32153E-04   -0.76302E-06 10626   0.158E-02    0.665E-03
DAV:   8    -0.146495774363E+03   -0.34922E-04   -0.13192E-06  6706   0.515E-03    0.476E-03
DAV:   9    -0.146495808027E+03   -0.33664E-04   -0.74440E-07  6006   0.320E-03    0.317E-03
DAV:  10    -0.146495832332E+03   -0.24305E-04   -0.60808E-07  6020   0.261E-03    0.157E-03
DAV:  11    -0.146495849369E+03   -0.17037E-04   -0.41020E-07  5768   0.253E-03    0.150E-03
DAV:  12    -0.146495863846E+03   -0.14476E-04   -0.38209E-07  5964   0.201E-03    0.923E-04
DAV:  13    -0.146495871927E+03   -0.80811E-05   -0.25453E-07  5530   0.162E-03    0.846E-04
DAV:  14    -0.146495879124E+03   -0.71973E-05   -0.20435E-07  5558   0.113E-03    0.482E-04
DAV:  15    -0.146495885249E+03   -0.61256E-05   -0.17227E-07  5628   0.112E-03    0.500E-04
DAV:  16    -0.146495889623E+03   -0.43731E-05   -0.18265E-07  5586   0.102E-03    0.362E-04
DAV:  17    -0.146495891263E+03   -0.16401E-05   -0.11887E-07  5404   0.957E-04    0.243E-04
DAV:  18    -0.146495891911E+03   -0.64811E-06   -0.72349E-08  5012   0.681E-04
   8 F= -.15273852E+03 E0= -.15273852E+03  d E =-.907416E-03  mag=    25.0000
 curvature:  -3.80 expect dE=-0.239E-02 dE for cont linesearch -0.173E-04
 trial: gam= 0.81208 g(F)=  0.629E-03 g(S)=  0.000E+00 ort = 0.878E-04 (trialstep = 0.129E+01)
 search vector abs. value=  0.189E-02
 bond charge predicted
       N       E                     dE             d eps       ncg     rms          rms(c)
DAV:   1    -0.146495225618E+03    0.66564E-03   -0.38841E-01  8008   0.103E+00    0.211E-01
DAV:   2    -0.146496010055E+03   -0.78444E-03   -0.77109E-03 11732   0.407E-01    0.261E-01
DAV:   3    -0.146495836077E+03    0.17398E-03   -0.27431E-03 11396   0.406E-01    0.140E-01
DAV:   4    -0.146495893806E+03   -0.57729E-04   -0.35226E-04 11256   0.157E-01    0.577E-02
DAV:   5    -0.146496016339E+03   -0.12253E-03   -0.94233E-05 10962   0.271E-02    0.416E-02
DAV:   6    -0.146496079718E+03   -0.63379E-04   -0.44822E-05 10948   0.395E-02    0.117E-02
DAV:   7    -0.146496094077E+03   -0.14359E-04   -0.55688E-06  9436   0.132E-02    0.610E-03
DAV:   8    -0.146496099544E+03   -0.54674E-05   -0.10131E-06  6174   0.485E-03    0.465E-03
DAV:   9    -0.146496101969E+03   -0.24247E-05   -0.50483E-07  5236   0.286E-03    0.287E-03
DAV:  10    -0.146496104129E+03   -0.21601E-05   -0.34418E-07  5264   0.253E-03    0.154E-03
DAV:  11    -0.146496105574E+03   -0.14448E-05   -0.21163E-07  5236   0.228E-03    0.106E-03
DAV:  12    -0.146496107132E+03   -0.15578E-05   -0.11747E-07  5264   0.142E-03    0.659E-04
DAV:  13    -0.146496107837E+03   -0.70545E-06   -0.55818E-08  5096   0.104E-03
   9 F= -.15273926E+03 E0= -.15273925E+03  d E =-.734774E-03  mag=    25.0000
 ZBRENT: can't locate minimum, use default step
 trial-energy change:   -0.000735  1 .order   -0.000741   -0.000901   -0.000580
 step:   5.1488(harm=  3.6097)  dis= 0.00598  next Energy=  -152.740036 (dE=-0.151E-02)
 bond charge predicted
       N       E                     dE             d eps       ncg     rms          rms(c)
DAV:   1    -0.146486820331E+03    0.92868E-02   -0.35039E+00  8008   0.310E+00    0.630E-01
DAV:   2    -0.146494764719E+03   -0.79444E-02   -0.67125E-02 12110   0.117E+00    0.743E-01
DAV:   3    -0.146493723837E+03    0.10409E-02   -0.23499E-02 11732   0.116E+00    0.434E-01
DAV:   4    -0.146493604890E+03    0.11895E-03   -0.33517E-03 11410   0.500E-01    0.173E-01
DAV:   5    -0.146494202828E+03   -0.59794E-03   -0.84801E-04 10486   0.779E-02    0.123E-01
DAV:   6    -0.146494707006E+03   -0.50418E-03   -0.38500E-04 11046   0.119E-01    0.377E-02
DAV:   7    -0.146494778968E+03   -0.71962E-04   -0.54868E-05 12348   0.408E-02    0.200E-02
DAV:   8    -0.146494804857E+03   -0.25889E-04   -0.83326E-06  9842   0.109E-02    0.136E-02
DAV:   9    -0.146494817418E+03   -0.12561E-04   -0.21287E-06  7840   0.694E-03    0.772E-03
DAV:  10    -0.146494831740E+03   -0.14322E-04   -0.17227E-06  7028   0.520E-03    0.283E-03
DAV:  11    -0.146494840259E+03   -0.85183E-05   -0.96016E-07  6104   0.377E-03    0.256E-03
DAV:  12    -0.146494844979E+03   -0.47206E-05   -0.37587E-07  5096   0.275E-03    0.183E-03
DAV:  13    -0.146494848268E+03   -0.32884E-05   -0.14578E-07  5054   0.170E-03    0.143E-03
DAV:  14    -0.146494853136E+03   -0.48682E-05   -0.72066E-08  5404   0.111E-03    0.638E-04
DAV:  15    -0.146494857072E+03   -0.39365E-05   -0.54805E-08  4984   0.801E-04    0.392E-04
DAV:  16    -0.146494858999E+03   -0.19263E-05   -0.28205E-08  4998   0.647E-04    0.296E-04
DAV:  17    -0.146494860273E+03   -0.12740E-05   -0.16008E-08  4900   0.418E-04    0.193E-04
DAV:  18    -0.146494861748E+03   -0.14758E-05   -0.13642E-08  5026   0.330E-04    0.189E-04
DAV:  19    -0.146494862625E+03   -0.87696E-06   -0.93700E-09  5096   0.282E-04
  10 F= -.15273957E+03 E0= -.15273956E+03  d E =-.104650E-02  mag=    25.0000
 curvature:  -2.73 expect dE=-0.415E-02 dE for cont linesearch -0.131E-03
 ZBRENT: interpolating
 opt :   3.6032  next Energy=  -152.739800 (dE=-0.128E-02)
 bond charge predicted
       N       E                     dE             d eps       ncg     rms          rms(c)
DAV:   1    -0.146494433849E+03    0.42790E-03   -0.55989E-01  8092   0.124E+00    0.258E-01
DAV:   2    -0.146495826779E+03   -0.13929E-02   -0.12061E-02 11774   0.537E-01    0.345E-01
DAV:   3    -0.146495389988E+03    0.43679E-03   -0.43216E-03 11536   0.526E-01    0.158E-01
DAV:   4    -0.146495449308E+03   -0.59320E-04   -0.45548E-04 11648   0.168E-01    0.699E-02
DAV:   5    -0.146495558943E+03   -0.10964E-03   -0.12525E-04 11340   0.326E-02    0.509E-02
DAV:   6    -0.146495673654E+03   -0.11471E-03   -0.67319E-05 10850   0.460E-02    0.130E-02
DAV:   7    -0.146495693469E+03   -0.19815E-04   -0.84881E-06 10640   0.150E-02    0.804E-03
DAV:   8    -0.146495699842E+03   -0.63726E-05   -0.12449E-06  6664   0.578E-03    0.581E-03
DAV:   9    -0.146495703287E+03   -0.34451E-05   -0.68238E-07  5334   0.328E-03    0.332E-03
DAV:  10    -0.146495706082E+03   -0.27953E-05   -0.55640E-07  5222   0.279E-03    0.175E-03
DAV:  11    -0.146495707916E+03   -0.18336E-05   -0.30638E-07  5096   0.288E-03    0.120E-03
DAV:  12    -0.146495709392E+03   -0.14759E-05   -0.14827E-07  5096   0.174E-03    0.729E-04
DAV:  13    -0.146495710291E+03   -0.89931E-06   -0.70551E-08  5096   0.111E-03
  11 F= -.15273979E+03 E0= -.15273979E+03  d E =-.127093E-02  mag=    25.0000
 curvature:  -4.85 expect dE=-0.288E-02 dE for cont linesearch -0.447E-06
 trial: gam= 1.17578 g(F)=  0.594E-03 g(S)=  0.000E+00 ort = 0.132E-04 (trialstep = 0.102E+01)
 search vector abs. value=  0.323E-02
 bond charge predicted
       N       E                     dE             d eps       ncg     rms          rms(c)
DAV:   1    -0.146495519717E+03    0.18968E-03   -0.23231E-01  8008   0.857E-01    0.184E-01
DAV:   2    -0.146496289254E+03   -0.76954E-03   -0.75574E-03 11886   0.409E-01    0.238E-01
DAV:   3    -0.146496059429E+03    0.22983E-03   -0.19831E-03 11522   0.356E-01    0.113E-01
DAV:   4    -0.146496069580E+03   -0.10152E-04   -0.27869E-04 11466   0.135E-01    0.610E-02
DAV:   5    -0.146496102323E+03   -0.32743E-04   -0.85879E-05 11298   0.262E-02    0.493E-02
DAV:   6    -0.146496116782E+03   -0.14459E-04   -0.42663E-05 12278   0.426E-02    0.923E-03
DAV:   7    -0.146496128975E+03   -0.12193E-04   -0.66515E-06  8708   0.838E-03    0.719E-03
DAV:   8    -0.146496138384E+03   -0.94084E-05   -0.62716E-07  5446   0.379E-03    0.505E-03
DAV:   9    -0.146496147377E+03   -0.89935E-05   -0.51411E-07  5670   0.305E-03    0.354E-03
DAV:  10    -0.146496158165E+03   -0.10788E-04   -0.68434E-07  6132   0.362E-03    0.170E-03
DAV:  11    -0.146496161334E+03   -0.31688E-05   -0.33037E-07  5096   0.264E-03    0.106E-03
DAV:  12    -0.146496163713E+03   -0.23784E-05   -0.14805E-07  4956   0.149E-03    0.795E-04
DAV:  13    -0.146496166115E+03   -0.24028E-05   -0.79449E-08  5306   0.101E-03    0.610E-04
DAV:  14    -0.146496169403E+03   -0.32876E-05   -0.97595E-08  5572   0.863E-04    0.445E-04
DAV:  15    -0.146496170831E+03   -0.14278E-05   -0.64836E-08  5096   0.854E-04    0.413E-04
DAV:  16    -0.146496171394E+03   -0.56318E-06   -0.39652E-08  5054   0.504E-04
  12 F= -.15274024E+03 E0= -.15274023E+03  d E =-.445885E-03  mag=    25.0000
 trial-energy change:   -0.000446  1 .order   -0.000449   -0.000622   -0.000276
 step:   1.8378(harm=  1.8378)  dis= 0.00244  next Energy=  -152.740352 (dE=-0.560E-03)
 bond charge predicted
       N       E                     dE             d eps       ncg     rms          rms(c)
DAV:   1    -0.146495887808E+03    0.28302E-03   -0.14830E-01  8008   0.685E-01    0.147E-01
DAV:   2    -0.146496394478E+03   -0.50667E-03   -0.48510E-03 11634   0.331E-01    0.193E-01
DAV:   3    -0.146496231094E+03    0.16338E-03   -0.12829E-03 11480   0.287E-01    0.891E-02
DAV:   4    -0.146496229620E+03    0.14740E-05   -0.17490E-04 11396   0.106E-01    0.487E-02
DAV:   5    -0.146496247651E+03   -0.18031E-04   -0.54548E-05 11284   0.212E-02    0.397E-02
DAV:   6    -0.146496260934E+03   -0.13284E-04   -0.27980E-05 12110   0.347E-02    0.735E-03
DAV:   7    -0.146496269650E+03   -0.87155E-05   -0.42001E-06  7784   0.683E-03    0.548E-03
DAV:   8    -0.146496276665E+03   -0.70155E-05   -0.52327E-07  5264   0.355E-03    0.408E-03
DAV:   9    -0.146496282666E+03   -0.60003E-05   -0.37583E-07  5558   0.268E-03    0.292E-03
DAV:  10    -0.146496290916E+03   -0.82508E-05   -0.48231E-07  5684   0.293E-03    0.134E-03
DAV:  11    -0.146496293528E+03   -0.26113E-05   -0.22706E-07  5096   0.216E-03    0.872E-04
DAV:  12    -0.146496295446E+03   -0.19184E-05   -0.10926E-07  4998   0.122E-03    0.625E-04
DAV:  13    -0.146496297137E+03   -0.16906E-05   -0.58381E-08  5166   0.896E-04    0.540E-04
DAV:  14    -0.146496299612E+03   -0.24749E-05   -0.79205E-08  5782   0.709E-04    0.387E-04
DAV:  15    -0.146496300572E+03   -0.96068E-06   -0.44317E-08  5096   0.756E-04
  13 F= -.15274035E+03 E0= -.15274034E+03  d E =-.554599E-03  mag=    25.0000
 curvature:  -4.88 expect dE=-0.105E-02 dE for cont linesearch -0.359E-09
 trial: gam= 0.27673 g(F)=  0.215E-03 g(S)=  0.000E+00 ort = 0.488E-06 (trialstep = 0.118E+01)
 search vector abs. value=  0.463E-03
 reached required accuracy - stopping structural energy minimisation
