CrCl3 3x3 + H S1 top-Cl (D3, U=0) (a=18.
   1.0000000000000000     
    18.1388234955739875    0.0000000000000000    0.0000000000000000
    -9.0694117477869938   15.7086819419291253    0.0000000000000000
     0.0000000000000000    0.0000000000000000   20.0000000000000000
   Cr   Cl   H 
    18    54     1
Direct
  0.1080676529389758  0.2227094532901908  0.4999486800714538
  0.2109276792553288  0.1053920152593243  0.4962564094629837
  0.1112047704821274  0.5560305474572620  0.4998640838386922
  0.2216705104373330  0.4450219968743479  0.5003546754726410
  0.1086324591598567  0.8861239241827171  0.4982505264603796
  0.2222129408245862  0.7774436703686848  0.4994654770939244
  0.4557389874113357  0.2277976693373242  0.4962564094629837
  0.5580342075068150  0.1108247983562030  0.4982505264603796
  0.4449961562293312  0.5566848197703508  0.5003546754726410
  0.5585990137276954  0.4479751336845505  0.4999486800714538
  0.4444537258420782  0.8885640628774272  0.4994654770939244
  0.5554618961845439  0.7781591103084701  0.4998640838386922
  0.7784362333480945  0.2221917802518278  0.4998802715030785
  0.8878116805382573  0.1101347716402164  0.4994554345491365
  0.7788549861284070  0.5556564244352876  0.4994554345491365
  0.8894620177583711  0.4442556523014433  0.4994757936790969
  0.7772046489082932  0.8881269678764008  0.4994757936790969
  0.8882304333185698  0.7770888802370688  0.4998802715030785
  0.1181478211656526  0.3347041211599261  0.4339117837752873
  0.3333333333333357  0.1255338025683878  0.4400365399596070
  0.2124235986661558  0.2160593458733685  0.4345607382746883
  0.2105331605792677  0.3333256305004840  0.5673787365911775
 -0.0028208115911982  0.2139886955182115  0.5659992390748012
  0.1111024197375145  0.1169756449147132  0.5657840532066909
  0.1194106238351458  0.6663804184870248  0.4331659270421138
  0.3333333333333357  0.4518109592903027  0.4352577653266053
  0.2146876056217847  0.5481998948223531  0.4339116906365745
  0.2139706905200794  0.6667602423877670  0.5662799397981038
  0.0000448103965030  0.5476376354961516  0.5660658655634929
  0.1191296246134090  0.4535515689412989  0.5666902860422007
  0.1126623669163180 -0.0086849489502408  0.4279090287732551
  0.3333333333333357  0.7851863537821296  0.4335281288621001
  0.2133358835951766  0.8796771100170018  0.4333036480985374
  0.2099216321511063 -0.0005344100501710  0.5648905920902787
 -0.0009265771071381  0.8796798549687025  0.5657008590855830
  0.1192325990980842  0.7852937552104305  0.5661557965134507
  0.4542430680005156  0.3369690805405485  0.4345607382746883
  0.6692120931491512  0.1172920717979392  0.4337204049410391
  0.5540042997503460  0.2119860174667769  0.4279090287732551
  0.5555642469291497  0.3392065585105343  0.5657840532066909
  0.3333333333333357  0.2376219194233243  0.5916651487933103
  0.4567450345155652  0.1228772911320584  0.5648905920902787
  0.4519790610448866  0.6668456225339038  0.4339116906365745
  0.6677651932457567  0.4543875610815307  0.4323556104003276
  0.5485188455010118  0.5498896333276021  0.4339117837752873
  0.5475370420532552  0.6677552776612184  0.5666902860422007
  0.3333333333333357  0.5473451866914850  0.5667504373148030
  0.4561335060874038  0.4561258032545520  0.5673787365911775
  0.4533307830714949 -0.0003254402448391  0.4333036480985374
  0.6659781577098312  0.7854093671791545  0.4334466378188397
  0.5472560428315185  0.8803031279852146  0.4331659270421138
  0.5474340675685802 -0.0006055105543183  0.5661557965134507
  0.3333333333333357  0.8813595992262977  0.5651243140802973
  0.4526959761465922  0.7861228852010227  0.5662799397981038
  0.7871902005985906  0.3331534840710702  0.4331167673901916
 -0.0010985265790924  0.1199557011691025  0.4323556104003276
  0.8803668983516850  0.2134142643732766  0.4333931354454774
  0.8817012198316072  0.3333084411534948  0.5659580086071146
  0.6675932437738021  0.2139397654091761  0.5657008590855830
  0.7857884014517365  0.1187306155136785  0.5663523521129902
  0.7862997683149793  0.6663806993549208  0.4333931354454774
  0.0006885089568330  0.4527645428026592  0.4334466378188397
  0.8815908782228252  0.5472502572819429  0.4334582162832752
  0.8808782652149278  0.6662755473952703  0.5663523521129902
  0.6694874782578628  0.5501428404427385  0.5659992390748012
  0.7861996482702753  0.4519825538616493  0.5655598281720613
  0.7850757884438391 -0.0010072876075468  0.4334582162832752
 -0.0025454264824868  0.7814133119821166  0.4337204049410391
  0.8794764660680737  0.8792966168058078  0.4331167673901916
  0.8804670183963890 -0.0008837610752975  0.5655598281720613
  0.6666218562701616  0.8809261584329844  0.5660658655634929
  0.7849654468350571  0.7849405546552163  0.5659580086071146
  0.3333333333333357  0.1852888893622600  0.6353828631853244

  0.00000000E+00  0.00000000E+00  0.00000000E+00
  0.00000000E+00  0.00000000E+00  0.00000000E+00
  0.00000000E+00  0.00000000E+00  0.00000000E+00
  0.00000000E+00  0.00000000E+00  0.00000000E+00
  0.00000000E+00  0.00000000E+00  0.00000000E+00
  0.00000000E+00  0.00000000E+00  0.00000000E+00
  0.00000000E+00  0.00000000E+00  0.00000000E+00
  0.00000000E+00  0.00000000E+00  0.00000000E+00
  0.00000000E+00  0.00000000E+00  0.00000000E+00
  0.00000000E+00  0.00000000E+00  0.00000000E+00
  0.00000000E+00  0.00000000E+00  0.00000000E+00
  0.00000000E+00  0.00000000E+00  0.00000000E+00
  0.00000000E+00  0.00000000E+00  0.00000000E+00
  0.00000000E+00  0.00000000E+00  0.00000000E+00
  0.00000000E+00  0.00000000E+00  0.00000000E+00
  0.00000000E+00  0.00000000E+00  0.00000000E+00
  0.00000000E+00  0.00000000E+00  0.00000000E+00
  0.00000000E+00  0.00000000E+00  0.00000000E+00
  0.00000000E+00  0.00000000E+00  0.00000000E+00
  0.00000000E+00  0.00000000E+00  0.00000000E+00
  0.00000000E+00  0.00000000E+00  0.00000000E+00
  0.00000000E+00  0.00000000E+00  0.00000000E+00
  0.00000000E+00  0.00000000E+00  0.00000000E+00
  0.00000000E+00  0.00000000E+00  0.00000000E+00
  0.00000000E+00  0.00000000E+00  0.00000000E+00
  0.00000000E+00  0.00000000E+00  0.00000000E+00
  0.00000000E+00  0.00000000E+00  0.00000000E+00
  0.00000000E+00  0.00000000E+00  0.00000000E+00
  0.00000000E+00  0.00000000E+00  0.00000000E+00
  0.00000000E+00  0.00000000E+00  0.00000000E+00
  0.00000000E+00  0.00000000E+00  0.00000000E+00
  0.00000000E+00  0.00000000E+00  0.00000000E+00
  0.00000000E+00  0.00000000E+00  0.00000000E+00
  0.00000000E+00  0.00000000E+00  0.00000000E+00
  0.00000000E+00  0.00000000E+00  0.00000000E+00
  0.00000000E+00  0.00000000E+00  0.00000000E+00
  0.00000000E+00  0.00000000E+00  0.00000000E+00
  0.00000000E+00  0.00000000E+00  0.00000000E+00
  0.00000000E+00  0.00000000E+00  0.00000000E+00
  0.00000000E+00  0.00000000E+00  0.00000000E+00
  0.00000000E+00  0.00000000E+00  0.00000000E+00
  0.00000000E+00  0.00000000E+00  0.00000000E+00
  0.00000000E+00  0.00000000E+00  0.00000000E+00
  0.00000000E+00  0.00000000E+00  0.00000000E+00
  0.00000000E+00  0.00000000E+00  0.00000000E+00
  0.00000000E+00  0.00000000E+00  0.00000000E+00
  0.00000000E+00  0.00000000E+00  0.00000000E+00
  0.00000000E+00  0.00000000E+00  0.00000000E+00
  0.00000000E+00  0.00000000E+00  0.00000000E+00
  0.00000000E+00  0.00000000E+00  0.00000000E+00
  0.00000000E+00  0.00000000E+00  0.00000000E+00
  0.00000000E+00  0.00000000E+00  0.00000000E+00
  0.00000000E+00  0.00000000E+00  0.00000000E+00
  0.00000000E+00  0.00000000E+00  0.00000000E+00
  0.00000000E+00  0.00000000E+00  0.00000000E+00
  0.00000000E+00  0.00000000E+00  0.00000000E+00
  0.00000000E+00  0.00000000E+00  0.00000000E+00
  0.00000000E+00  0.00000000E+00  0.00000000E+00
  0.00000000E+00  0.00000000E+00  0.00000000E+00
  0.00000000E+00  0.00000000E+00  0.00000000E+00
  0.00000000E+00  0.00000000E+00  0.00000000E+00
  0.00000000E+00  0.00000000E+00  0.00000000E+00
  0.00000000E+00  0.00000000E+00  0.00000000E+00
  0.00000000E+00  0.00000000E+00  0.00000000E+00
  0.00000000E+00  0.00000000E+00  0.00000000E+00
  0.00000000E+00  0.00000000E+00  0.00000000E+00
  0.00000000E+00  0.00000000E+00  0.00000000E+00
  0.00000000E+00  0.00000000E+00  0.00000000E+00
  0.00000000E+00  0.00000000E+00  0.00000000E+00
  0.00000000E+00  0.00000000E+00  0.00000000E+00
  0.00000000E+00  0.00000000E+00  0.00000000E+00
  0.00000000E+00  0.00000000E+00  0.00000000E+00
  0.00000000E+00  0.00000000E+00  0.00000000E+00
