       N       E                     dE             d eps       ncg     rms          rms(c)
DAV:   1     0.464700196681E+04    0.46470E+04   -0.13906E+05 11936   0.930E+02
DAV:   2     0.935573047043E+03   -0.37114E+04   -0.34462E+04 13792   0.251E+02
DAV:   3    -0.280516659358E+03   -0.12161E+04   -0.11760E+04 16824   0.142E+02
DAV:   4    -0.387203249665E+03   -0.10669E+03   -0.10502E+03 17776   0.582E+01
DAV:   5    -0.389354730815E+03   -0.21515E+01   -0.20879E+01 18144   0.116E+01    0.614E+01
DAV:   6    -0.366411902849E+03    0.22943E+02   -0.32889E+02 16912   0.628E+01    0.619E+01
DAV:   7    -0.352467873758E+03    0.13944E+02   -0.55492E+01 16768   0.588E+01    0.321E+01
DAV:   8    -0.353519656534E+03   -0.10518E+01   -0.14496E+01 17232   0.117E+01    0.201E+01
DAV:   9    -0.353045783173E+03    0.47387E+00   -0.34038E+00 16984   0.101E+01    0.140E+01
DAV:  10    -0.352626781586E+03    0.41900E+00   -0.15618E+00 17080   0.737E+00    0.593E+00
DAV:  11    -0.352603144317E+03    0.23637E-01   -0.28901E-01 16664   0.190E+00    0.451E+00
DAV:  12    -0.352612285671E+03   -0.91414E-02   -0.53410E-02 16256   0.841E-01    0.311E+00
DAV:  13    -0.352656579813E+03   -0.44294E-01   -0.44652E-02 18528   0.125E+00    0.139E+00
DAV:  14    -0.352719230944E+03   -0.62651E-01   -0.52330E-02 16624   0.709E-01    0.897E-01
DAV:  15    -0.352749456443E+03   -0.30225E-01   -0.12353E-02 16120   0.498E-01    0.631E-01
DAV:  16    -0.352771434974E+03   -0.21979E-01   -0.31840E-03 16064   0.236E-01    0.389E-01
DAV:  17    -0.352840053188E+03   -0.68618E-01   -0.44427E-03 16272   0.159E-01    0.213E-01
DAV:  18    -0.352861790663E+03   -0.21737E-01   -0.72852E-04 17032   0.122E-01    0.968E-02
DAV:  19    -0.352887246882E+03   -0.25456E-01   -0.40706E-04 16024   0.488E-02    0.833E-02
DAV:  20    -0.352913705580E+03   -0.26459E-01   -0.43209E-04 15048   0.453E-02    0.665E-02
DAV:  21    -0.352928504155E+03   -0.14799E-01   -0.30013E-04 15264   0.363E-02    0.350E-02
DAV:  22    -0.352934754187E+03   -0.62500E-02   -0.15875E-04 13744   0.207E-02    0.279E-02
DAV:  23    -0.352937372376E+03   -0.26182E-02   -0.70530E-05 14992   0.178E-02    0.191E-02
DAV:  24    -0.352938069143E+03   -0.69677E-03   -0.17469E-05 15032   0.987E-03    0.149E-02
DAV:  25    -0.352938325293E+03   -0.25615E-03   -0.77009E-06 12744   0.736E-03    0.768E-03
DAV:  26    -0.352938642155E+03   -0.31686E-03   -0.97141E-06 12424   0.551E-03    0.481E-03
DAV:  27    -0.352938906986E+03   -0.26483E-03   -0.40472E-06 10504   0.341E-03    0.366E-03
DAV:  28    -0.352939061814E+03   -0.15483E-03   -0.14497E-06  9120   0.260E-03    0.299E-03
DAV:  29    -0.352939205493E+03   -0.14368E-03   -0.21895E-06 10016   0.242E-03    0.218E-03
DAV:  30    -0.352939307997E+03   -0.10250E-03   -0.14409E-06  9008   0.184E-03    0.185E-03
DAV:  31    -0.352939351032E+03   -0.43035E-04   -0.52665E-07  8184   0.161E-03    0.151E-03
DAV:  32    -0.352939382703E+03   -0.31671E-04   -0.77601E-07  8216   0.132E-03    0.127E-03
DAV:  33    -0.352939391987E+03   -0.92842E-05   -0.40233E-07  7808   0.138E-03    0.928E-04
DAV:  34    -0.352939402354E+03   -0.10367E-04   -0.25422E-07  6960   0.968E-04    0.853E-04
DAV:  35    -0.352939417216E+03   -0.14861E-04   -0.23295E-07  7368   0.904E-04    0.654E-04
DAV:  36    -0.352939425355E+03   -0.81393E-05   -0.19581E-07  6920   0.745E-04    0.523E-04
DAV:  37    -0.352939430363E+03   -0.50085E-05   -0.10173E-07  6616   0.665E-04    0.338E-04
DAV:  38    -0.352939436297E+03   -0.59337E-05   -0.10251E-07  6960   0.502E-04    0.363E-04
DAV:  39    -0.352939441515E+03   -0.52180E-05   -0.98943E-08  7096   0.527E-04    0.270E-04
DAV:  40    -0.352939444161E+03   -0.26463E-05   -0.69517E-08  6760   0.441E-04    0.248E-04
DAV:  41    -0.352939444600E+03   -0.43837E-06   -0.30415E-08  6616   0.387E-04
   1 F= -.36607576E+03 E0= -.36607355E+03  d E =-.366076E+03  mag=    54.9999
       N       E                     dE             d eps       ncg     rms          rms(c)
DAV:   1    -0.352813179661E+03    0.12626E+00   -0.34061E+01 11776   0.681E+00    0.454E+00
DAV:   2    -0.353151145091E+03   -0.33797E+00   -0.16053E+00 16448   0.287E+00    0.334E+00
DAV:   3    -0.353206491511E+03   -0.55346E-01   -0.70820E-02 16960   0.116E+00    0.101E+00
DAV:   4    -0.353201030962E+03    0.54605E-02   -0.10215E-02 17064   0.337E-01    0.677E-01
DAV:   5    -0.353196962898E+03    0.40681E-02   -0.78706E-03 16864   0.286E-01    0.428E-01
DAV:   6    -0.353197737806E+03   -0.77491E-03   -0.27392E-03 17088   0.233E-01    0.196E-01
DAV:   7    -0.353200366111E+03   -0.26283E-02   -0.68572E-04 16984   0.142E-01    0.114E-01
DAV:   8    -0.353202704976E+03   -0.23389E-02   -0.17923E-04 16808   0.567E-02    0.584E-02
DAV:   9    -0.353204689651E+03   -0.19847E-02   -0.60783E-05 16608   0.314E-02    0.443E-02
DAV:  10    -0.353206863161E+03   -0.21735E-02   -0.41920E-05 16256   0.166E-02    0.234E-02
DAV:  11    -0.353208525984E+03   -0.16628E-02   -0.22592E-05 16008   0.110E-02    0.132E-02
DAV:  12    -0.353209378632E+03   -0.85265E-03   -0.58678E-06 13280   0.600E-03    0.847E-03
DAV:  13    -0.353210186216E+03   -0.80758E-03   -0.59327E-06 12352   0.411E-03    0.574E-03
DAV:  14    -0.353210794328E+03   -0.60811E-03   -0.33976E-06 10984   0.257E-03    0.454E-03
DAV:  15    -0.353211635696E+03   -0.84137E-03   -0.88282E-06 11824   0.352E-03    0.283E-03
DAV:  16    -0.353212099452E+03   -0.46376E-03   -0.46515E-06 11760   0.244E-03    0.199E-03
DAV:  17    -0.353212463011E+03   -0.36356E-03   -0.49552E-06 11192   0.246E-03    0.143E-03
DAV:  18    -0.353212598166E+03   -0.13516E-03   -0.15473E-06  9552   0.160E-03    0.107E-03
DAV:  19    -0.353212678282E+03   -0.80115E-04   -0.16872E-06  9136   0.164E-03    0.881E-04
DAV:  20    -0.353212700622E+03   -0.22340E-04   -0.49790E-07  8032   0.138E-03    0.639E-04
DAV:  21    -0.353212710742E+03   -0.10121E-04   -0.33219E-07  6792   0.108E-03    0.558E-04
DAV:  22    -0.353212716118E+03   -0.53756E-05   -0.21141E-07  6560   0.969E-04    0.419E-04
DAV:  23    -0.353212720626E+03   -0.45081E-05   -0.15022E-07  6792   0.707E-04    0.321E-04
DAV:  24    -0.353212724506E+03   -0.38794E-05   -0.10051E-07  6488   0.627E-04    0.270E-04
DAV:  25    -0.353212728173E+03   -0.36678E-05   -0.96722E-08  6824   0.504E-04    0.298E-04
DAV:  26    -0.353212728876E+03   -0.70256E-06   -0.48608E-08  6536   0.492E-04
   2 F= -.36635275E+03 E0= -.36635152E+03  d E =-.276997E+00  mag=    55.0000
       N       E                     dE             d eps       ncg     rms          rms(c)
DAV:   1    -0.352871990129E+03    0.34074E+00   -0.35833E+01 12120   0.707E+00    0.458E+00
DAV:   2    -0.353226789683E+03   -0.35480E+00   -0.16672E+00 16296   0.289E+00    0.321E+00
DAV:   3    -0.353287895867E+03   -0.61106E-01   -0.73533E-02 17016   0.112E+00    0.103E+00
DAV:   4    -0.353282053454E+03    0.58424E-02   -0.97411E-03 17040   0.305E-01    0.693E-01
DAV:   5    -0.353277306805E+03    0.47466E-02   -0.87883E-03 16800   0.258E-01    0.392E-01
DAV:   6    -0.353278500608E+03   -0.11938E-02   -0.24495E-03 17064   0.191E-01    0.180E-01
DAV:   7    -0.353281098211E+03   -0.25976E-02   -0.44936E-04 16896   0.101E-01    0.100E-01
DAV:   8    -0.353283623560E+03   -0.25253E-02   -0.14175E-04 16792   0.413E-02    0.568E-02
DAV:   9    -0.353285929219E+03   -0.23057E-02   -0.56205E-05 16584   0.240E-02    0.381E-02
DAV:  10    -0.353288256781E+03   -0.23276E-02   -0.47295E-05 16432   0.154E-02    0.184E-02
DAV:  11    -0.353289687053E+03   -0.14303E-02   -0.16277E-05 15648   0.803E-03    0.115E-02
DAV:  12    -0.353290563235E+03   -0.87618E-03   -0.56002E-06 12536   0.541E-03    0.789E-03
DAV:  13    -0.353291288409E+03   -0.72517E-03   -0.49809E-06 12176   0.386E-03    0.593E-03
DAV:  14    -0.353291869222E+03   -0.58081E-03   -0.33062E-06 10896   0.258E-03    0.433E-03
DAV:  15    -0.353292722003E+03   -0.85278E-03   -0.10098E-05 11768   0.349E-03    0.248E-03
DAV:  16    -0.353293110663E+03   -0.38866E-03   -0.38908E-06 11600   0.226E-03    0.190E-03
DAV:  17    -0.353293408282E+03   -0.29762E-03   -0.36532E-06 10768   0.227E-03    0.148E-03
DAV:  18    -0.353293533395E+03   -0.12511E-03   -0.14781E-06  9432   0.173E-03    0.118E-03
DAV:  19    -0.353293604381E+03   -0.70987E-04   -0.14723E-06  9128   0.168E-03    0.111E-03
DAV:  20    -0.353293629244E+03   -0.24863E-04   -0.67254E-07  7960   0.151E-03    0.620E-04
DAV:  21    -0.353293638039E+03   -0.87943E-05   -0.36464E-07  6944   0.124E-03    0.608E-04
DAV:  22    -0.353293643939E+03   -0.59009E-05   -0.24157E-07  6576   0.970E-04    0.411E-04
DAV:  23    -0.353293649404E+03   -0.54642E-05   -0.17613E-07  6760   0.799E-04    0.382E-04
DAV:  24    -0.353293653813E+03   -0.44093E-05   -0.12240E-07  6496   0.663E-04    0.294E-04
DAV:  25    -0.353293656859E+03   -0.30461E-05   -0.10412E-07  6808   0.553E-04    0.306E-04
DAV:  26    -0.353293657431E+03   -0.57154E-06   -0.50976E-08  6576   0.495E-04
   3 F= -.36643732E+03 E0= -.36643690E+03  d E =-.361567E+00  mag=    55.0000
       N       E                     dE             d eps       ncg     rms          rms(c)
DAV:   1    -0.353106948289E+03    0.18671E+00   -0.41120E+01 11528   0.802E+00    0.448E+00
DAV:   2    -0.353448166788E+03   -0.34122E+00   -0.34655E+00 16464   0.441E+00    0.260E+00
DAV:   3    -0.353446022559E+03    0.21442E-02   -0.75473E-02 16528   0.103E+00    0.164E+00
DAV:   4    -0.353441338052E+03    0.46845E-02   -0.10869E-02 16928   0.318E-01    0.126E+00
DAV:   5    -0.353437262458E+03    0.40756E-02   -0.12337E-02 15648   0.221E-01    0.712E-01
DAV:   6    -0.353438075999E+03   -0.81354E-03   -0.57233E-03 16584   0.206E-01    0.202E-01
DAV:   7    -0.353438507769E+03   -0.43177E-03   -0.42217E-04 16976   0.882E-02    0.107E-01
DAV:   8    -0.353438812821E+03   -0.30505E-03   -0.86115E-05 16768   0.367E-02    0.879E-02
DAV:   9    -0.353439135011E+03   -0.32219E-03   -0.37746E-05 16144   0.238E-02    0.636E-02
DAV:  10    -0.353439403381E+03   -0.26837E-03   -0.49501E-05 16160   0.146E-02    0.221E-02
DAV:  11    -0.353439609312E+03   -0.20593E-03   -0.10292E-05 15224   0.751E-03    0.869E-03
DAV:  12    -0.353439672535E+03   -0.63224E-04   -0.73511E-07  7576   0.413E-03    0.487E-03
DAV:  13    -0.353439762387E+03   -0.89852E-04   -0.10548E-06  8432   0.244E-03    0.297E-03
DAV:  14    -0.353439853889E+03   -0.91502E-04   -0.12293E-06  8096   0.225E-03    0.232E-03
DAV:  15    -0.353439925743E+03   -0.71854E-04   -0.76904E-07  7760   0.193E-03    0.177E-03
DAV:  16    -0.353439981982E+03   -0.56238E-04   -0.76850E-07  7552   0.172E-03    0.160E-03
DAV:  17    -0.353440043775E+03   -0.61794E-04   -0.10782E-06  8632   0.177E-03    0.150E-03
DAV:  18    -0.353440082973E+03   -0.39198E-04   -0.71364E-07  7496   0.145E-03    0.115E-03
DAV:  19    -0.353440109752E+03   -0.26778E-04   -0.58742E-07  7632   0.145E-03    0.110E-03
DAV:  20    -0.353440122828E+03   -0.13076E-04   -0.41794E-07  7056   0.122E-03    0.640E-04
DAV:  21    -0.353440131737E+03   -0.89099E-05   -0.31995E-07  6944   0.109E-03    0.839E-04
DAV:  22    -0.353440138017E+03   -0.62796E-05   -0.27141E-07  7088   0.913E-04    0.336E-04
DAV:  23    -0.353440140966E+03   -0.29492E-05   -0.19103E-07  6744   0.828E-04    0.589E-04
DAV:  24    -0.353440142094E+03   -0.11276E-05   -0.11281E-07  6616   0.663E-04    0.191E-04
DAV:  25    -0.353440143100E+03   -0.10065E-05   -0.81588E-08  6536   0.470E-04    0.344E-04
DAV:  26    -0.353440143721E+03   -0.62082E-06   -0.47269E-08  6680   0.444E-04
   4 F= -.36658480E+03 E0= -.36658466E+03  d E =-.147480E+00  mag=    55.0000
       N       E                     dE             d eps       ncg     rms          rms(c)
DAV:   1    -0.353429920518E+03    0.10223E-01   -0.20543E+00 11536   0.179E+00    0.961E-01
DAV:   2    -0.353445306944E+03   -0.15386E-01   -0.15870E-01 16336   0.939E-01    0.493E-01
DAV:   3    -0.353445416439E+03   -0.10949E-03   -0.35560E-03 16480   0.218E-01    0.341E-01
DAV:   4    -0.353445187109E+03    0.22933E-03   -0.51452E-04 16864   0.773E-02    0.259E-01
DAV:   5    -0.353444966498E+03    0.22061E-03   -0.56704E-04 15528   0.469E-02    0.145E-01
DAV:   6    -0.353445024956E+03   -0.58458E-04   -0.24143E-04 16496   0.434E-02    0.426E-02
DAV:   7    -0.353445059546E+03   -0.34590E-04   -0.17838E-05 16784   0.179E-02    0.209E-02
DAV:   8    -0.353445096922E+03   -0.37376E-04   -0.34640E-06 10872   0.791E-03    0.179E-02
DAV:   9    -0.353445141655E+03   -0.44734E-04   -0.22045E-06  9016   0.600E-03    0.123E-02
DAV:  10    -0.353445169923E+03   -0.28268E-04   -0.36528E-06 10168   0.357E-03    0.590E-03
DAV:  11    -0.353445192242E+03   -0.22319E-04   -0.62940E-07  7312   0.216E-03    0.274E-03
DAV:  12    -0.353445210443E+03   -0.18201E-04   -0.40974E-07  6992   0.181E-03    0.171E-03
DAV:  13    -0.353445225837E+03   -0.15394E-04   -0.32625E-07  6784   0.146E-03    0.103E-03
DAV:  14    -0.353445236969E+03   -0.11132E-04   -0.22023E-07  6752   0.120E-03    0.821E-04
DAV:  15    -0.353445243201E+03   -0.62320E-05   -0.13178E-07  6528   0.817E-04    0.595E-04
DAV:  16    -0.353445251998E+03   -0.87970E-05   -0.11742E-07  6768   0.662E-04    0.570E-04
DAV:  17    -0.353445261909E+03   -0.99103E-05   -0.13883E-07  6888   0.638E-04    0.479E-04
DAV:  18    -0.353445269228E+03   -0.73192E-05   -0.13396E-07  6800   0.669E-04    0.427E-04
DAV:  19    -0.353445271767E+03   -0.25394E-05   -0.83818E-08  6560   0.572E-04    0.284E-04
DAV:  20    -0.353445274288E+03   -0.25202E-05   -0.68295E-08  6440   0.430E-04    0.293E-04
DAV:  21    -0.353445275801E+03   -0.15132E-05   -0.45454E-08  6520   0.418E-04    0.167E-04
DAV:  22    -0.353445277680E+03   -0.18790E-05   -0.55904E-08  6856   0.335E-04    0.288E-04
DAV:  23    -0.353445278236E+03   -0.55632E-06   -0.30246E-08  6568   0.382E-04
   5 F= -.36659010E+03 E0= -.36658994E+03  d E =-.152778E+00  mag=    55.0000
       N       E                     dE             d eps       ncg     rms          rms(c)
DAV:   1    -0.353366606743E+03    0.78671E-01   -0.20962E+01 11520   0.588E+00    0.290E+00
DAV:   2    -0.353518510762E+03   -0.15190E+00   -0.16375E+00 16568   0.296E+00    0.142E+00
DAV:   3    -0.353515404822E+03    0.31059E-02   -0.27284E-02 16416   0.588E-01    0.935E-01
DAV:   4    -0.353513362435E+03    0.20424E-02   -0.48405E-03 16752   0.198E-01    0.673E-01
DAV:   5    -0.353511166006E+03    0.21964E-02   -0.66934E-03 14288   0.149E-01    0.326E-01
DAV:   6    -0.353511483507E+03   -0.31750E-03   -0.25701E-03 16376   0.131E-01    0.106E-01
DAV:   7    -0.353511643048E+03   -0.15954E-03   -0.15434E-04 16592   0.547E-02    0.658E-02
DAV:   8    -0.353511816303E+03   -0.17325E-03   -0.36450E-05 16664   0.218E-02    0.426E-02
DAV:   9    -0.353512102996E+03   -0.28669E-03   -0.24084E-05 15616   0.135E-02    0.272E-02
DAV:  10    -0.353512290025E+03   -0.18703E-03   -0.10954E-05 15784   0.721E-03    0.992E-03
DAV:  11    -0.353512446187E+03   -0.15616E-03   -0.12880E-06  9168   0.331E-03    0.501E-03
DAV:  12    -0.353512556649E+03   -0.11046E-03   -0.12897E-06  8120   0.297E-03    0.348E-03
DAV:  13    -0.353512685920E+03   -0.12927E-03   -0.24966E-06  9808   0.262E-03    0.196E-03
DAV:  14    -0.353512767624E+03   -0.81704E-04   -0.76969E-07  7760   0.172E-03    0.198E-03
DAV:  15    -0.353512817435E+03   -0.49811E-04   -0.52540E-07  7344   0.157E-03    0.159E-03
DAV:  16    -0.353512903729E+03   -0.86294E-04   -0.17499E-06  9272   0.167E-03    0.144E-03
DAV:  17    -0.353512949458E+03   -0.45729E-04   -0.72790E-07  7936   0.145E-03    0.119E-03
DAV:  18    -0.353512966356E+03   -0.16898E-04   -0.40589E-07  7128   0.133E-03    0.940E-04
DAV:  19    -0.353512981734E+03   -0.15378E-04   -0.47318E-07  7432   0.110E-03    0.814E-04
DAV:  20    -0.353512990612E+03   -0.88779E-05   -0.36590E-07  7384   0.117E-03    0.626E-04
DAV:  21    -0.353512994120E+03   -0.35080E-05   -0.29261E-07  6912   0.963E-04    0.531E-04
DAV:  22    -0.353512995357E+03   -0.12371E-05   -0.15953E-07  6824   0.859E-04    0.328E-04
DAV:  23    -0.353512996231E+03   -0.87399E-06   -0.10007E-07  6600   0.544E-04
   6 F= -.36666033E+03 E0= -.36666016E+03  d E =-.702296E-01  mag=    55.0000
       N       E                     dE             d eps       ncg     rms          rms(c)
DAV:   1    -0.353512909288E+03    0.86069E-04   -0.97852E-03 11800   0.124E-01    0.711E-02
DAV:   2    -0.353512969937E+03   -0.60649E-04   -0.71313E-04 16328   0.604E-02    0.293E-02
DAV:   3    -0.353512973492E+03   -0.35553E-05   -0.13139E-05 15400   0.125E-02    0.203E-02
DAV:   4    -0.353512972383E+03    0.11097E-05   -0.13355E-06  7704   0.471E-03    0.155E-02
DAV:   5    -0.353512970384E+03    0.19988E-05   -0.67198E-06 11448   0.422E-03    0.741E-03
DAV:   6    -0.353512970298E+03    0.85780E-07   -0.10100E-06  7504   0.320E-03
   7 F= -.36666036E+03 E0= -.36666019E+03  d E =-.702564E-01  mag=    55.0000
       N       E                     dE             d eps       ncg     rms          rms(c)
DAV:   1    -0.353513476059E+03   -0.50568E-03   -0.22773E+00 11520   0.197E+00    0.954E-01
DAV:   2    -0.353529130253E+03   -0.15654E-01   -0.16366E-01 16104   0.860E-01    0.467E-01
DAV:   3    -0.353529967566E+03   -0.83731E-03   -0.29111E-03 16176   0.154E-01    0.312E-01
DAV:   4    -0.353529630852E+03    0.33671E-03   -0.41638E-04 16856   0.514E-02    0.238E-01
DAV:   5    -0.353529156997E+03    0.47385E-03   -0.47780E-04 15832   0.452E-02    0.142E-01
DAV:   6    -0.353529069178E+03    0.87819E-04   -0.25443E-04 16592   0.345E-02    0.407E-02
DAV:   7    -0.353529180092E+03   -0.11091E-03   -0.23860E-05 16640   0.173E-02    0.182E-02
DAV:   8    -0.353529347006E+03   -0.16691E-03   -0.50567E-06 12336   0.943E-03    0.115E-02
DAV:   9    -0.353529489966E+03   -0.14296E-03   -0.30966E-06 10720   0.581E-03    0.622E-03
DAV:  10    -0.353529627973E+03   -0.13801E-03   -0.32320E-06 10488   0.303E-03    0.314E-03
DAV:  11    -0.353529719609E+03   -0.91636E-04   -0.66705E-07  7456   0.206E-03    0.219E-03
DAV:  12    -0.353529809035E+03   -0.89426E-04   -0.75780E-07  8048   0.185E-03    0.183E-03
DAV:  13    -0.353529878976E+03   -0.69941E-04   -0.72390E-07  7424   0.179E-03    0.152E-03
DAV:  14    -0.353529945894E+03   -0.66918E-04   -0.81824E-07  7904   0.166E-03    0.129E-03
DAV:  15    -0.353529990982E+03   -0.45088E-04   -0.63473E-07  7160   0.147E-03    0.116E-03
DAV:  16    -0.353530041923E+03   -0.50941E-04   -0.93243E-07  8120   0.145E-03    0.115E-03
DAV:  17    -0.353530084986E+03   -0.43063E-04   -0.10058E-06  8272   0.139E-03    0.747E-04
DAV:  18    -0.353530094905E+03   -0.99199E-05   -0.31350E-07  6960   0.122E-03    0.555E-04
DAV:  19    -0.353530106818E+03   -0.11913E-04   -0.38092E-07  7312   0.815E-04    0.482E-04
DAV:  20    -0.353530110482E+03   -0.36635E-05   -0.17225E-07  6752   0.967E-04    0.353E-04
DAV:  21    -0.353530113293E+03   -0.28108E-05   -0.15438E-07  6632   0.528E-04    0.290E-04
DAV:  22    -0.353530114536E+03   -0.12434E-05   -0.80719E-08  6520   0.645E-04    0.234E-04
DAV:  23    -0.353530114918E+03   -0.38219E-06   -0.44915E-08  6608   0.338E-04
   8 F= -.36667831E+03 E0= -.36667811E+03  d E =-.179515E-01  mag=    55.0000
       N       E                     dE             d eps       ncg     rms          rms(c)
DAV:   1    -0.353404351136E+03    0.12576E+00   -0.20513E+01 11520   0.593E+00    0.290E+00
DAV:   2    -0.353549852291E+03   -0.14550E+00   -0.14901E+00 16480   0.265E+00    0.154E+00
DAV:   3    -0.353555410867E+03   -0.55586E-02   -0.26292E-02 16256   0.524E-01    0.958E-01
DAV:   4    -0.353552981618E+03    0.24292E-02   -0.39118E-03 16984   0.181E-01    0.740E-01
DAV:   5    -0.353550033728E+03    0.29479E-02   -0.43816E-03 15888   0.141E-01    0.444E-01
DAV:   6    -0.353549792740E+03    0.24099E-03   -0.25512E-03 16632   0.108E-01    0.131E-01
DAV:   7    -0.353550472718E+03   -0.67998E-03   -0.24847E-04 16576   0.553E-02    0.572E-02
DAV:   8    -0.353551354678E+03   -0.88196E-03   -0.57199E-05 16624   0.261E-02    0.332E-02
DAV:   9    -0.353552093582E+03   -0.73890E-03   -0.16429E-05 16264   0.148E-02    0.204E-02
DAV:  10    -0.353552828171E+03   -0.73459E-03   -0.14399E-05 15680   0.724E-03    0.917E-03
DAV:  11    -0.353553338744E+03   -0.51057E-03   -0.37929E-06 11360   0.408E-03    0.488E-03
DAV:  12    -0.353553753048E+03   -0.41430E-03   -0.26991E-06 10520   0.287E-03    0.357E-03
DAV:  13    -0.353554172800E+03   -0.41975E-03   -0.36761E-06 11184   0.253E-03    0.270E-03
DAV:  14    -0.353554499276E+03   -0.32648E-03   -0.24368E-06 10160   0.191E-03    0.203E-03
DAV:  15    -0.353554812061E+03   -0.31278E-03   -0.38827E-06 10848   0.216E-03    0.134E-03
DAV:  16    -0.353554994770E+03   -0.18271E-03   -0.23851E-06  9952   0.175E-03    0.874E-04
DAV:  17    -0.353555085482E+03   -0.90711E-04   -0.14023E-06  9136   0.151E-03    0.900E-04
DAV:  18    -0.353555116236E+03   -0.30754E-04   -0.59639E-07  7816   0.148E-03    0.866E-04
DAV:  19    -0.353555124190E+03   -0.79541E-05   -0.31694E-07  6920   0.119E-03    0.494E-04
DAV:  20    -0.353555133515E+03   -0.93253E-05   -0.33923E-07  7192   0.942E-04    0.613E-04
DAV:  21    -0.353555137478E+03   -0.39623E-05   -0.18234E-07  6664   0.955E-04    0.292E-04
DAV:  22    -0.353555139501E+03   -0.20232E-05   -0.11589E-07  6488   0.618E-04    0.340E-04
DAV:  23    -0.353555140618E+03   -0.11169E-05   -0.63090E-08  6496   0.555E-04    0.163E-04
DAV:  24    -0.353555141376E+03   -0.75822E-06   -0.38143E-08  6472   0.343E-04
   9 F= -.36670565E+03 E0= -.36670536E+03  d E =-.452971E-01  mag=    55.0000
       N       E                     dE             d eps       ncg     rms          rms(c)
DAV:   1    -0.353546640304E+03    0.85003E-02   -0.34889E+00 11648   0.250E+00    0.115E+00
DAV:   2    -0.353570137461E+03   -0.23497E-01   -0.23306E-01 16184   0.104E+00    0.564E-01
DAV:   3    -0.353572474059E+03   -0.23366E-02   -0.55461E-03 16352   0.231E-01    0.365E-01
DAV:   4    -0.353572038894E+03    0.43517E-03   -0.55232E-04 17080   0.723E-02    0.276E-01
DAV:   5    -0.353571453886E+03    0.58501E-03   -0.58583E-04 15824   0.497E-02    0.186E-01
DAV:   6    -0.353571252932E+03    0.20095E-03   -0.52276E-04 16392   0.461E-02    0.575E-02
DAV:   7    -0.353571438151E+03   -0.18522E-03   -0.68485E-05 16408   0.249E-02    0.277E-02
DAV:   8    -0.353571718748E+03   -0.28060E-03   -0.16279E-05 16584   0.120E-02    0.142E-02
DAV:   9    -0.353571953928E+03   -0.23518E-03   -0.43701E-06 11616   0.730E-03    0.732E-03
DAV:  10    -0.353572179165E+03   -0.22524E-03   -0.50913E-06 12504   0.438E-03    0.365E-03
DAV:  11    -0.353572331243E+03   -0.15208E-03   -0.12146E-06  8616   0.249E-03    0.285E-03
DAV:  12    -0.353572447995E+03   -0.11675E-03   -0.96338E-07  8128   0.229E-03    0.217E-03
DAV:  13    -0.353572574827E+03   -0.12683E-03   -0.19212E-06  9272   0.199E-03    0.152E-03
DAV:  14    -0.353572663352E+03   -0.88525E-04   -0.71683E-07  7896   0.159E-03    0.132E-03
DAV:  15    -0.353572724763E+03   -0.61410E-04   -0.69412E-07  7496   0.141E-03    0.118E-03
DAV:  16    -0.353572771119E+03   -0.46357E-04   -0.68312E-07  7720   0.151E-03    0.103E-03
DAV:  17    -0.353572808332E+03   -0.37212E-04   -0.81444E-07  7856   0.140E-03    0.883E-04
DAV:  18    -0.353572825202E+03   -0.16870E-04   -0.51640E-07  7160   0.142E-03    0.764E-04
DAV:  19    -0.353572833341E+03   -0.81395E-05   -0.39263E-07  6728   0.110E-03    0.607E-04
DAV:  20    -0.353572838744E+03   -0.54031E-05   -0.29483E-07  6824   0.983E-04    0.509E-04
DAV:  21    -0.353572841441E+03   -0.26964E-05   -0.19621E-07  6560   0.817E-04    0.332E-04
DAV:  22    -0.353572843238E+03   -0.17966E-05   -0.13386E-07  6432   0.662E-04    0.326E-04
DAV:  23    -0.353572844224E+03   -0.98635E-06   -0.80194E-08  6656   0.537E-04
  10 F= -.36672509E+03 E0= -.36672480E+03  d E =-.194396E-01  mag=    55.0000
       N       E                     dE             d eps       ncg     rms          rms(c)
DAV:   1    -0.353499494050E+03    0.73349E-01   -0.11164E+01 11656   0.447E+00    0.206E+00
DAV:   2    -0.353576092172E+03   -0.76598E-01   -0.74570E-01 16288   0.187E+00    0.104E+00
DAV:   3    -0.353582716397E+03   -0.66242E-02   -0.17492E-02 16360   0.418E-01    0.657E-01
DAV:   4    -0.353581465007E+03    0.12514E-02   -0.18069E-03 17024   0.135E-01    0.497E-01
DAV:   5    -0.353579963355E+03    0.15017E-02   -0.18157E-03 15984   0.900E-02    0.334E-01
DAV:   6    -0.353579524210E+03    0.43915E-03   -0.17198E-03 16360   0.833E-02    0.101E-01
DAV:   7    -0.353580001938E+03   -0.47773E-03   -0.23576E-04 16312   0.452E-02    0.493E-02
DAV:   8    -0.353580680029E+03   -0.67809E-03   -0.49416E-05 16696   0.208E-02    0.259E-02
DAV:   9    -0.353581246041E+03   -0.56601E-03   -0.15121E-05 16168   0.125E-02    0.133E-02
DAV:  10    -0.353581769660E+03   -0.52362E-03   -0.91700E-06 15000   0.648E-03    0.672E-03
DAV:  11    -0.353582127050E+03   -0.35739E-03   -0.32225E-06 10912   0.391E-03    0.429E-03
DAV:  12    -0.353582468684E+03   -0.34163E-03   -0.31012E-06 10824   0.316E-03    0.291E-03
DAV:  13    -0.353582778897E+03   -0.31021E-03   -0.32727E-06 10704   0.229E-03    0.203E-03
DAV:  14    -0.353582979096E+03   -0.20020E-03   -0.16079E-06  9272   0.176E-03    0.159E-03
DAV:  15    -0.353583128736E+03   -0.14964E-03   -0.17119E-06  9408   0.178E-03    0.145E-03
DAV:  16    -0.353583210651E+03   -0.81916E-04   -0.10259E-06  8128   0.164E-03    0.104E-03
DAV:  17    -0.353583254517E+03   -0.43866E-04   -0.83723E-07  7832   0.160E-03    0.114E-03
DAV:  18    -0.353583274272E+03   -0.19754E-04   -0.61643E-07  7240   0.155E-03    0.735E-04
DAV:  19    -0.353583289729E+03   -0.15457E-04   -0.67209E-07  7848   0.132E-03    0.863E-04
DAV:  20    -0.353583296403E+03   -0.66739E-05   -0.40919E-07  6904   0.131E-03    0.510E-04
DAV:  21    -0.353583299440E+03   -0.30373E-05   -0.24641E-07  6544   0.906E-04    0.426E-04
DAV:  22    -0.353583301979E+03   -0.25387E-05   -0.15125E-07  6552   0.750E-04    0.277E-04
DAV:  23    -0.353583303970E+03   -0.19914E-05   -0.10277E-07  6512   0.561E-04    0.232E-04
DAV:  24    -0.353583305285E+03   -0.13149E-05   -0.69523E-08  6440   0.493E-04    0.201E-04
DAV:  25    -0.353583305717E+03   -0.43247E-06   -0.42215E-08  6528   0.371E-04
  11 F= -.36673858E+03 E0= -.36673830E+03  d E =-.329242E-01  mag=    55.0000
       N       E                     dE             d eps       ncg     rms          rms(c)
DAV:   1    -0.353558900969E+03    0.24404E-01   -0.54449E+00 11672   0.308E+00    0.136E+00
DAV:   2    -0.353594066705E+03   -0.35166E-01   -0.38204E-01 16080   0.130E+00    0.678E-01
DAV:   3    -0.353595260468E+03   -0.11938E-02   -0.71918E-03 16240   0.236E-01    0.458E-01
DAV:   4    -0.353594439288E+03    0.82118E-03   -0.92734E-04 16888   0.865E-02    0.347E-01
DAV:   5    -0.353593288083E+03    0.11512E-02   -0.10871E-03 15744   0.687E-02    0.213E-01
DAV:   6    -0.353593028068E+03    0.26001E-03   -0.66492E-04 16640   0.591E-02    0.655E-02
DAV:   7    -0.353593322833E+03   -0.29477E-03   -0.73767E-05 16416   0.282E-02    0.300E-02
DAV:   8    -0.353593786881E+03   -0.46405E-03   -0.20143E-05 16600   0.143E-02    0.164E-02
DAV:   9    -0.353594160542E+03   -0.37366E-03   -0.45087E-06 11944   0.687E-03    0.751E-03
DAV:  10    -0.353594569779E+03   -0.40924E-03   -0.68580E-06 12624   0.419E-03    0.413E-03
DAV:  11    -0.353594791772E+03   -0.22199E-03   -0.96457E-07  8528   0.247E-03    0.295E-03
DAV:  12    -0.353595041675E+03   -0.24990E-03   -0.24053E-06  9824   0.234E-03    0.237E-03
DAV:  13    -0.353595270660E+03   -0.22899E-03   -0.18147E-06  9640   0.195E-03    0.197E-03
DAV:  14    -0.353595429496E+03   -0.15884E-03   -0.12117E-06  8456   0.178E-03    0.170E-03
DAV:  15    -0.353595535229E+03   -0.10573E-03   -0.10042E-06  8008   0.187E-03    0.159E-03
DAV:  16    -0.353595653850E+03   -0.11862E-03   -0.23620E-06  9864   0.192E-03    0.842E-04
DAV:  17    -0.353595732520E+03   -0.78671E-04   -0.11350E-06  8456   0.139E-03    0.977E-04
DAV:  18    -0.353595764794E+03   -0.32273E-04   -0.68156E-07  7856   0.141E-03    0.821E-04
DAV:  19    -0.353595769568E+03   -0.47742E-05   -0.28830E-07  6872   0.126E-03    0.506E-04
DAV:  20    -0.353595776872E+03   -0.73045E-05   -0.30203E-07  7048   0.773E-04    0.522E-04
DAV:  21    -0.353595780254E+03   -0.33812E-05   -0.15743E-07  6688   0.921E-04    0.306E-04
DAV:  22    -0.353595781853E+03   -0.15996E-05   -0.11630E-07  6632   0.529E-04    0.255E-04
DAV:  23    -0.353595782500E+03   -0.64667E-06   -0.56932E-08  6520   0.569E-04
  12 F= -.36675214E+03 E0= -.36675183E+03  d E =-.135604E-01  mag=    55.0000
       N       E                     dE             d eps       ncg     rms          rms(c)
DAV:   1    -0.353562124288E+03    0.33658E-01   -0.55076E+00 11688   0.310E+00    0.134E+00
DAV:   2    -0.353597511456E+03   -0.35387E-01   -0.38450E-01 15992   0.130E+00    0.676E-01
DAV:   3    -0.353598747309E+03   -0.12359E-02   -0.71938E-03 16216   0.237E-01    0.456E-01
DAV:   4    -0.353597930679E+03    0.81663E-03   -0.91786E-04 16896   0.858E-02    0.345E-01
DAV:   5    -0.353596763117E+03    0.11676E-02   -0.10995E-03 15688   0.687E-02    0.213E-01
DAV:   6    -0.353596490401E+03    0.27272E-03   -0.68749E-04 16592   0.596E-02    0.653E-02
DAV:   7    -0.353596788406E+03   -0.29800E-03   -0.77284E-05 16408   0.284E-02    0.305E-02
DAV:   8    -0.353597253393E+03   -0.46499E-03   -0.21088E-05 16592   0.145E-02    0.165E-02
DAV:   9    -0.353597630128E+03   -0.37674E-03   -0.47699E-06 12168   0.697E-03    0.745E-03
DAV:  10    -0.353598041619E+03   -0.41149E-03   -0.68478E-06 12624   0.422E-03    0.410E-03
DAV:  11    -0.353598263068E+03   -0.22145E-03   -0.97742E-07  8632   0.249E-03    0.299E-03
DAV:  12    -0.353598514832E+03   -0.25176E-03   -0.24346E-06  9840   0.237E-03    0.238E-03
DAV:  13    -0.353598748150E+03   -0.23332E-03   -0.19139E-06  9712   0.196E-03    0.190E-03
DAV:  14    -0.353598903300E+03   -0.15515E-03   -0.11144E-06  8320   0.175E-03    0.174E-03
DAV:  15    -0.353599004103E+03   -0.10080E-03   -0.94557E-07  7872   0.184E-03    0.158E-03
DAV:  16    -0.353599133129E+03   -0.12903E-03   -0.26487E-06 10008   0.191E-03    0.848E-04
DAV:  17    -0.353599202929E+03   -0.69800E-04   -0.87925E-07  8336   0.132E-03    0.102E-03
DAV:  18    -0.353599240202E+03   -0.37272E-04   -0.80676E-07  7968   0.140E-03    0.899E-04
DAV:  19    -0.353599245284E+03   -0.50817E-05   -0.29321E-07  6880   0.132E-03    0.475E-04
DAV:  20    -0.353599252035E+03   -0.67519E-05   -0.27703E-07  6976   0.747E-04    0.534E-04
DAV:  21    -0.353599256055E+03   -0.40194E-05   -0.16416E-07  6776   0.912E-04    0.328E-04
DAV:  22    -0.353599257625E+03   -0.15705E-05   -0.11801E-07  6528   0.566E-04    0.279E-04
DAV:  23    -0.353599258390E+03   -0.76429E-06   -0.62438E-08  6536   0.568E-04
  13 F= -.36675666E+03 E0= -.36675634E+03  d E =-.180850E-01  mag=    55.0000
       N       E                     dE             d eps       ncg     rms          rms(c)
DAV:   1    -0.353558005266E+03    0.41252E-01   -0.65866E+00 11568   0.338E+00    0.177E+00
DAV:   2    -0.353602062560E+03   -0.44057E-01   -0.45551E-01 16288   0.144E+00    0.827E-01
DAV:   3    -0.353603544256E+03   -0.14817E-02   -0.10349E-02 16224   0.347E-01    0.509E-01
DAV:   4    -0.353602957124E+03    0.58713E-03   -0.13792E-03 17080   0.113E-01    0.361E-01
DAV:   5    -0.353602493513E+03    0.46361E-03   -0.19208E-03 14304   0.801E-02    0.172E-01
DAV:   6    -0.353602714445E+03   -0.22093E-03   -0.76869E-04 16520   0.674E-02    0.533E-02
DAV:   7    -0.353602783734E+03   -0.69289E-04   -0.52706E-05 16840   0.306E-02    0.362E-02
DAV:   8    -0.353602851459E+03   -0.67725E-04   -0.22857E-05 16592   0.145E-02    0.182E-02
DAV:   9    -0.353602922964E+03   -0.71504E-04   -0.51153E-06 12624   0.812E-03    0.933E-03
DAV:  10    -0.353602966093E+03   -0.43130E-04   -0.34553E-06 10376   0.496E-03    0.411E-03
DAV:  11    -0.353603002230E+03   -0.36137E-04   -0.11403E-06  8448   0.254E-03    0.250E-03
DAV:  12    -0.353603027279E+03   -0.25049E-04   -0.58911E-07  7104   0.225E-03    0.175E-03
DAV:  13    -0.353603050844E+03   -0.23566E-04   -0.54381E-07  7320   0.169E-03    0.136E-03
DAV:  14    -0.353603070070E+03   -0.19226E-04   -0.44995E-07  7096   0.158E-03    0.117E-03
DAV:  15    -0.353603082255E+03   -0.12184E-04   -0.34174E-07  6984   0.121E-03    0.938E-04
DAV:  16    -0.353603093074E+03   -0.10820E-04   -0.31952E-07  7200   0.104E-03    0.812E-04
DAV:  17    -0.353603100280E+03   -0.72053E-05   -0.26956E-07  6864   0.989E-04    0.635E-04
DAV:  18    -0.353603103492E+03   -0.32119E-05   -0.18621E-07  6736   0.854E-04    0.511E-04
DAV:  19    -0.353603105009E+03   -0.15172E-05   -0.11414E-07  6544   0.689E-04    0.347E-04
DAV:  20    -0.353603106324E+03   -0.13157E-05   -0.82066E-08  6680   0.510E-04    0.303E-04
DAV:  21    -0.353603107647E+03   -0.13229E-05   -0.69087E-08  6688   0.457E-04    0.255E-04
DAV:  22    -0.353603108165E+03   -0.51725E-06   -0.41977E-08  6520   0.397E-04
  14 F= -.36676021E+03 E0= -.36675975E+03  d E =-.354232E-02  mag=    55.0000
       N       E                     dE             d eps       ncg     rms          rms(c)
DAV:   1    -0.353598689473E+03    0.44182E-02   -0.98948E-01 11584   0.131E+00    0.729E-01
DAV:   2    -0.353605135567E+03   -0.64461E-02   -0.67693E-02 16272   0.546E-01    0.305E-01
DAV:   3    -0.353605456431E+03   -0.32086E-03   -0.15264E-03 16128   0.125E-01    0.197E-01
DAV:   4    -0.353605371899E+03    0.84532E-04   -0.20667E-04 17048   0.454E-02    0.140E-01
DAV:   5    -0.353605302101E+03    0.69798E-04   -0.24916E-04 14672   0.301E-02    0.707E-02
DAV:   6    -0.353605338910E+03   -0.36809E-04   -0.11457E-04 16448   0.235E-02    0.210E-02
DAV:   7    -0.353605357085E+03   -0.18175E-04   -0.89260E-06 15648   0.119E-02    0.137E-02
DAV:   8    -0.353605374156E+03   -0.17071E-04   -0.33128E-06  9848   0.600E-03    0.729E-03
DAV:   9    -0.353605391010E+03   -0.16855E-04   -0.20228E-06  8656   0.389E-03    0.354E-03
DAV:  10    -0.353605399677E+03   -0.86666E-05   -0.90835E-07  6920   0.269E-03    0.204E-03
DAV:  11    -0.353605405974E+03   -0.62969E-05   -0.50389E-07  6896   0.193E-03    0.161E-03
DAV:  12    -0.353605412512E+03   -0.65384E-05   -0.26471E-07  6824   0.165E-03    0.810E-04
DAV:  13    -0.353605419954E+03   -0.74412E-05   -0.22231E-07  7248   0.114E-03    0.944E-04
DAV:  14    -0.353605423387E+03   -0.34336E-05   -0.13824E-07  6672   0.974E-04    0.597E-04
DAV:  15    -0.353605425993E+03   -0.26059E-05   -0.97988E-08  6592   0.607E-04    0.483E-04
DAV:  16    -0.353605427906E+03   -0.19133E-05   -0.56200E-08  6536   0.560E-04    0.418E-04
DAV:  17    -0.353605430555E+03   -0.26486E-05   -0.72286E-08  6936   0.444E-04    0.416E-04
DAV:  18    -0.353605431981E+03   -0.14262E-05   -0.50488E-08  6624   0.525E-04    0.381E-04
DAV:  19    -0.353605432440E+03   -0.45921E-06   -0.32481E-08  6584   0.346E-04
  15 F= -.36676265E+03 E0= -.36676225E+03  d E =-.598467E-02  mag=    55.0000
       N       E                     dE             d eps       ncg     rms          rms(c)
DAV:   1    -0.353579604590E+03    0.25827E-01   -0.49116E+00 11528   0.293E+00    0.143E+00
DAV:   2    -0.353613682877E+03   -0.34078E-01   -0.33568E-01 16280   0.130E+00    0.805E-01
DAV:   3    -0.353615594816E+03   -0.19119E-02   -0.89004E-03 16408   0.340E-01    0.472E-01
DAV:   4    -0.353614857053E+03    0.73776E-03   -0.99593E-04 17096   0.964E-02    0.355E-01
DAV:   5    -0.353613822728E+03    0.10343E-02   -0.13267E-03 14736   0.683E-02    0.197E-01
DAV:   6    -0.353613769238E+03    0.53490E-04   -0.71485E-04 16560   0.649E-02    0.583E-02
DAV:   7    -0.353613987483E+03   -0.21825E-03   -0.61308E-05 16696   0.300E-02    0.359E-02
DAV:   8    -0.353614283911E+03   -0.29643E-03   -0.20870E-05 16840   0.148E-02    0.198E-02
DAV:   9    -0.353614611606E+03   -0.32770E-03   -0.84790E-06 15520   0.932E-03    0.105E-02
DAV:  10    -0.353614851642E+03   -0.24004E-03   -0.28826E-06 10344   0.492E-03    0.506E-03
DAV:  11    -0.353615058919E+03   -0.20728E-03   -0.32125E-06 10304   0.348E-03    0.309E-03
DAV:  12    -0.353615209499E+03   -0.15058E-03   -0.10175E-06  8232   0.224E-03    0.242E-03
DAV:  13    -0.353615357388E+03   -0.14789E-03   -0.12400E-06  8488   0.215E-03    0.217E-03
DAV:  14    -0.353615537510E+03   -0.18012E-03   -0.27461E-06 10344   0.229E-03    0.134E-03
DAV:  15    -0.353615641732E+03   -0.10422E-03   -0.90990E-07  8184   0.143E-03    0.106E-03
DAV:  16    -0.353615698244E+03   -0.56512E-04   -0.54546E-07  7368   0.145E-03    0.100E-03
DAV:  17    -0.353615745605E+03   -0.47361E-04   -0.63705E-07  7704   0.143E-03    0.102E-03
DAV:  18    -0.353615804459E+03   -0.58854E-04   -0.16923E-06  9032   0.157E-03    0.594E-04
DAV:  19    -0.353615814204E+03   -0.97452E-05   -0.30289E-07  6720   0.120E-03    0.422E-04
DAV:  20    -0.353615822101E+03   -0.78973E-05   -0.24841E-07  6920   0.757E-04    0.441E-04
DAV:  21    -0.353615826972E+03   -0.48706E-05   -0.16526E-07  6616   0.842E-04    0.306E-04
DAV:  22    -0.353615829817E+03   -0.28445E-05   -0.14821E-07  6632   0.607E-04    0.281E-04
DAV:  23    -0.353615830953E+03   -0.11363E-05   -0.93071E-08  6616   0.634E-04    0.202E-04
DAV:  24    -0.353615831286E+03   -0.33281E-06   -0.52801E-08  6544   0.419E-04
  16 F= -.36677052E+03 E0= -.36676992E+03  d E =-.787364E-02  mag=    55.0000
       N       E                     dE             d eps       ncg     rms          rms(c)
DAV:   1    -0.353615668621E+03    0.16233E-03   -0.79849E-02 11632   0.374E-01    0.179E-01
DAV:   2    -0.353616155900E+03   -0.48728E-03   -0.53628E-03 16112   0.160E-01    0.948E-02
DAV:   3    -0.353616230313E+03   -0.74413E-04   -0.13911E-04 16208   0.399E-02    0.597E-02
DAV:   4    -0.353616210386E+03    0.19928E-04   -0.15638E-05 16456   0.122E-02    0.450E-02
DAV:   5    -0.353616168086E+03    0.42300E-04   -0.19659E-05 13896   0.832E-03    0.258E-02
DAV:   6    -0.353616151064E+03    0.17022E-04   -0.11936E-05 16064   0.749E-03    0.754E-03
DAV:   7    -0.353616159995E+03   -0.89312E-05   -0.63782E-07  6816   0.370E-03    0.480E-03
DAV:   8    -0.353616174266E+03   -0.14271E-04   -0.60713E-07  6936   0.252E-03    0.322E-03
DAV:   9    -0.353616192148E+03   -0.17882E-04   -0.64398E-07  6832   0.196E-03    0.194E-03
DAV:  10    -0.353616200281E+03   -0.81333E-05   -0.33398E-07  6544   0.173E-03    0.125E-03
DAV:  11    -0.353616208083E+03   -0.78021E-05   -0.18381E-07  6504   0.107E-03    0.103E-03
DAV:  12    -0.353616218367E+03   -0.10284E-04   -0.13764E-07  6632   0.960E-04    0.694E-04
DAV:  13    -0.353616228421E+03   -0.10054E-04   -0.15412E-07  6736   0.698E-04    0.652E-04
DAV:  14    -0.353616235418E+03   -0.69968E-05   -0.11411E-07  6624   0.675E-04    0.441E-04
DAV:  15    -0.353616237738E+03   -0.23200E-05   -0.63261E-08  6568   0.519E-04    0.327E-04
DAV:  16    -0.353616241206E+03   -0.34683E-05   -0.55271E-08  6400   0.402E-04    0.300E-04
DAV:  17    -0.353616247137E+03   -0.59303E-05   -0.89189E-08  6608   0.452E-04    0.404E-04
DAV:  18    -0.353616249179E+03   -0.20427E-05   -0.54141E-08  6520   0.497E-04    0.245E-04
DAV:  19    -0.353616250278E+03   -0.10984E-05   -0.39925E-08  6432   0.315E-04    0.247E-04
DAV:  20    -0.353616250811E+03   -0.53386E-06   -0.21203E-08  6544   0.311E-04
  17 F= -.36677062E+03 E0= -.36676999E+03  d E =-.796924E-02  mag=    55.0000
       N       E                     dE             d eps       ncg     rms          rms(c)
DAV:   1    -0.353616825101E+03   -0.57482E-03   -0.67600E-01 11520   0.111E+00    0.500E-01
DAV:   2    -0.353621322603E+03   -0.44975E-02   -0.43248E-02 15600   0.430E-01    0.250E-01
DAV:   3    -0.353622056704E+03   -0.73410E-03   -0.10470E-03 16200   0.843E-02    0.154E-01
DAV:   4    -0.353621957540E+03    0.99163E-04   -0.12147E-04 16920   0.271E-02    0.114E-01
DAV:   5    -0.353621811035E+03    0.14651E-03   -0.18564E-04 15936   0.291E-02    0.637E-02
DAV:   6    -0.353621796300E+03    0.14735E-04   -0.62796E-05 16616   0.225E-02    0.176E-02
DAV:   7    -0.353621834178E+03   -0.37878E-04   -0.65066E-06 14576   0.931E-03    0.109E-02
DAV:   8    -0.353621890908E+03   -0.56730E-04   -0.18895E-06  8400   0.546E-03    0.622E-03
DAV:   9    -0.353621946589E+03   -0.55681E-04   -0.24471E-06  9256   0.362E-03    0.288E-03
DAV:  10    -0.353621979661E+03   -0.33072E-04   -0.10975E-06  7176   0.267E-03    0.215E-03
DAV:  11    -0.353622008294E+03   -0.28632E-04   -0.62588E-07  7096   0.222E-03    0.169E-03
DAV:  12    -0.353622041979E+03   -0.33686E-04   -0.59914E-07  7432   0.180E-03    0.136E-03
DAV:  13    -0.353622064734E+03   -0.22755E-04   -0.44257E-07  7160   0.159E-03    0.114E-03
DAV:  14    -0.353622087457E+03   -0.22722E-04   -0.48383E-07  7320   0.110E-03    0.836E-04
DAV:  15    -0.353622100720E+03   -0.13263E-04   -0.27401E-07  6968   0.113E-03    0.777E-04
DAV:  16    -0.353622112551E+03   -0.11832E-04   -0.28171E-07  7064   0.854E-04    0.578E-04
DAV:  17    -0.353622124888E+03   -0.12337E-04   -0.31287E-07  7352   0.994E-04    0.809E-04
DAV:  18    -0.353622128297E+03   -0.34089E-05   -0.18800E-07  6832   0.911E-04    0.346E-04
DAV:  19    -0.353622130598E+03   -0.23003E-05   -0.13558E-07  6600   0.625E-04    0.499E-04
DAV:  20    -0.353622132266E+03   -0.16683E-05   -0.94114E-08  6720   0.597E-04    0.214E-04
DAV:  21    -0.353622133470E+03   -0.12042E-05   -0.82996E-08  6776   0.471E-04    0.389E-04
DAV:  22    -0.353622133901E+03   -0.43127E-06   -0.49173E-08  6520   0.459E-04
  18 F= -.36677474E+03 E0= -.36677405E+03  d E =-.412245E-02  mag=    55.0000
       N       E                     dE             d eps       ncg     rms          rms(c)
DAV:   1    -0.353608235726E+03    0.13898E-01   -0.26350E+00 11520   0.220E+00    0.986E-01
DAV:   2    -0.353626433520E+03   -0.18198E-01   -0.16928E-01 16008   0.855E-01    0.505E-01
DAV:   3    -0.353628800927E+03   -0.23674E-02   -0.40653E-03 16264   0.171E-01    0.305E-01
DAV:   4    -0.353628458107E+03    0.34282E-03   -0.47466E-04 17008   0.545E-02    0.225E-01
DAV:   5    -0.353628026573E+03    0.43153E-03   -0.73315E-04 15920   0.577E-02    0.124E-01
DAV:   6    -0.353628027702E+03   -0.11288E-05   -0.25272E-04 16664   0.447E-02    0.349E-02
DAV:   7    -0.353628140399E+03   -0.11270E-03   -0.27516E-05 16808   0.190E-02    0.217E-02
DAV:   8    -0.353628292813E+03   -0.15241E-03   -0.98237E-06 16128   0.100E-02    0.105E-02
DAV:   9    -0.353628431733E+03   -0.13892E-03   -0.25318E-06 10184   0.464E-03    0.493E-03
DAV:  10    -0.353628554934E+03   -0.12320E-03   -0.37166E-06 10840   0.360E-03    0.305E-03
DAV:  11    -0.353628643221E+03   -0.88287E-04   -0.77053E-07  7856   0.228E-03    0.229E-03
DAV:  12    -0.353628714406E+03   -0.71185E-04   -0.70808E-07  7720   0.193E-03    0.201E-03
DAV:  13    -0.353628796428E+03   -0.82023E-04   -0.12459E-06  8784   0.197E-03    0.162E-03
DAV:  14    -0.353628857971E+03   -0.61543E-04   -0.10321E-06  8136   0.164E-03    0.125E-03
DAV:  15    -0.353628891262E+03   -0.33291E-04   -0.57479E-07  7360   0.150E-03    0.102E-03
DAV:  16    -0.353628917572E+03   -0.26310E-04   -0.59338E-07  7688   0.134E-03    0.956E-04
DAV:  17    -0.353628938500E+03   -0.20929E-04   -0.62517E-07  7640   0.133E-03    0.788E-04
DAV:  18    -0.353628945947E+03   -0.74465E-05   -0.38269E-07  6944   0.127E-03    0.594E-04
DAV:  19    -0.353628950744E+03   -0.47973E-05   -0.31680E-07  6904   0.932E-04    0.475E-04
DAV:  20    -0.353628953286E+03   -0.25417E-05   -0.21631E-07  6888   0.911E-04    0.480E-04
DAV:  21    -0.353628954447E+03   -0.11614E-05   -0.15143E-07  6712   0.669E-04    0.234E-04
DAV:  22    -0.353628954920E+03   -0.47270E-06   -0.85637E-08  6496   0.591E-04
  19 F= -.36677807E+03 E0= -.36677725E+03  d E =-.744862E-02  mag=    55.0000
       N       E                     dE             d eps       ncg     rms          rms(c)
DAV:   1    -0.353630479385E+03   -0.15249E-02   -0.39639E-01 11520   0.837E-01    0.431E-01
DAV:   2    -0.353632731835E+03   -0.22524E-02   -0.25465E-02 16248   0.345E-01    0.188E-01
DAV:   3    -0.353632961429E+03   -0.22959E-03   -0.54559E-04 16248   0.769E-02    0.125E-01
DAV:   4    -0.353632932446E+03    0.28982E-04   -0.69410E-05 16848   0.267E-02    0.896E-02
DAV:   5    -0.353632911446E+03    0.21000E-04   -0.13636E-04 14920   0.218E-02    0.378E-02
DAV:   6    -0.353632922663E+03   -0.11217E-04   -0.35125E-05 16472   0.163E-02    0.143E-02
DAV:   7    -0.353632928945E+03   -0.62818E-05   -0.22298E-06  8904   0.754E-03    0.858E-03
DAV:   8    -0.353632936251E+03   -0.73057E-05   -0.47868E-06 10680   0.423E-03    0.455E-03
DAV:   9    -0.353632942248E+03   -0.59975E-05   -0.49467E-07  7008   0.211E-03    0.275E-03
DAV:  10    -0.353632946825E+03   -0.45769E-05   -0.24448E-07  6672   0.170E-03    0.197E-03
DAV:  11    -0.353632952966E+03   -0.61409E-05   -0.25176E-07  6808   0.125E-03    0.112E-03
DAV:  12    -0.353632957713E+03   -0.47472E-05   -0.18744E-07  6808   0.127E-03    0.906E-04
DAV:  13    -0.353632960373E+03   -0.26595E-05   -0.11944E-07  6600   0.941E-04    0.619E-04
DAV:  14    -0.353632964716E+03   -0.43429E-05   -0.14152E-07  6816   0.668E-04    0.555E-04
DAV:  15    -0.353632967454E+03   -0.27385E-05   -0.88250E-08  6768   0.616E-04    0.414E-04
DAV:  16    -0.353632968710E+03   -0.12556E-05   -0.60301E-08  6592   0.497E-04    0.299E-04
DAV:  17    -0.353632969223E+03   -0.51362E-06   -0.33054E-08  6608   0.413E-04
  20 F= -.36678085E+03 E0= -.36678004E+03  d E =-.277893E-02  mag=    55.0000
       N       E                     dE             d eps       ncg     rms          rms(c)
DAV:   1    -0.353632789808E+03    0.17890E-03   -0.35132E-01 11520   0.788E-01    0.408E-01
DAV:   2    -0.353634778568E+03   -0.19888E-02   -0.22582E-02 16176   0.325E-01    0.176E-01
DAV:   3    -0.353634986905E+03   -0.20834E-03   -0.48467E-04 16208   0.724E-02    0.117E-01
DAV:   4    -0.353634961200E+03    0.25705E-04   -0.61732E-05 16816   0.252E-02    0.839E-02
DAV:   5    -0.353634942084E+03    0.19116E-04   -0.12091E-04 14936   0.205E-02    0.355E-02
DAV:   6    -0.353634952493E+03   -0.10409E-04   -0.31001E-05 16448   0.154E-02    0.134E-02
DAV:   7    -0.353634958456E+03   -0.59628E-05   -0.18932E-06  8528   0.711E-03    0.807E-03
DAV:   8    -0.353634965500E+03   -0.70439E-05   -0.44393E-06 10344   0.407E-03    0.433E-03
DAV:   9    -0.353634971147E+03   -0.56474E-05   -0.47898E-07  6984   0.205E-03    0.265E-03
DAV:  10    -0.353634975353E+03   -0.42057E-05   -0.22772E-07  6632   0.164E-03    0.191E-03
DAV:  11    -0.353634981173E+03   -0.58204E-05   -0.22492E-07  6776   0.118E-03    0.107E-03
DAV:  12    -0.353634985948E+03   -0.47743E-05   -0.17364E-07  6824   0.121E-03    0.885E-04
DAV:  13    -0.353634988507E+03   -0.25593E-05   -0.11264E-07  6600   0.912E-04    0.592E-04
DAV:  14    -0.353634992532E+03   -0.40250E-05   -0.12829E-07  6696   0.642E-04    0.569E-04
DAV:  15    -0.353634995551E+03   -0.30195E-05   -0.99457E-08  6760   0.625E-04    0.395E-04
DAV:  16    -0.353634996588E+03   -0.10365E-05   -0.60871E-08  6624   0.526E-04    0.307E-04
DAV:  17    -0.353634997010E+03   -0.42155E-06   -0.33011E-08  6504   0.392E-04
  21 F= -.36678171E+03 E0= -.36678091E+03  d E =-.364234E-02  mag=    55.0000
       N       E                     dE             d eps       ncg     rms          rms(c)
DAV:   1    -0.353636639194E+03   -0.16426E-02   -0.14471E-01 11536   0.492E-01    0.217E-01
DAV:   2    -0.353637437129E+03   -0.79794E-03   -0.93549E-03 16048   0.202E-01    0.114E-01
DAV:   3    -0.353637567104E+03   -0.12997E-03   -0.20696E-04 16208   0.431E-02    0.764E-02
DAV:   4    -0.353637549615E+03    0.17489E-04   -0.27670E-05 16928   0.162E-02    0.568E-02
DAV:   5    -0.353637535600E+03    0.14015E-04   -0.39634E-05 15528   0.122E-02    0.284E-02
DAV:   6    -0.353637539994E+03   -0.43946E-05   -0.12263E-05 15528   0.861E-03    0.821E-03
DAV:   7    -0.353637544374E+03   -0.43799E-05   -0.66619E-07  7000   0.408E-03    0.552E-03
DAV:   8    -0.353637550103E+03   -0.57291E-05   -0.55134E-07  6736   0.255E-03    0.394E-03
DAV:   9    -0.353637558319E+03   -0.82154E-05   -0.62359E-07  7096   0.190E-03    0.226E-03
DAV:  10    -0.353637562558E+03   -0.42395E-05   -0.33897E-07  6560   0.167E-03    0.128E-03
DAV:  11    -0.353637566900E+03   -0.43412E-05   -0.20136E-07  6544   0.131E-03    0.917E-04
DAV:  12    -0.353637571529E+03   -0.46299E-05   -0.15515E-07  6608   0.106E-03    0.703E-04
DAV:  13    -0.353637574394E+03   -0.28640E-05   -0.99283E-08  6552   0.770E-04    0.472E-04
DAV:  14    -0.353637577110E+03   -0.27162E-05   -0.78070E-08  6592   0.543E-04    0.392E-04
DAV:  15    -0.353637578738E+03   -0.16282E-05   -0.45133E-08  6496   0.467E-04    0.289E-04
DAV:  16    -0.353637580708E+03   -0.19701E-05   -0.52442E-08  6552   0.370E-04    0.281E-04
DAV:  17    -0.353637582066E+03   -0.13580E-05   -0.41263E-08  6544   0.415E-04    0.288E-04
DAV:  18    -0.353637582464E+03   -0.39836E-06   -0.24564E-08  6576   0.322E-04
  22 F= -.36678354E+03 E0= -.36678276E+03  d E =-.183322E-02  mag=    55.0000
       N       E                     dE             d eps       ncg     rms          rms(c)
DAV:   1    -0.353635284963E+03    0.22971E-02   -0.13006E+00 11520   0.148E+00    0.647E-01
DAV:   2    -0.353643056804E+03   -0.77718E-02   -0.84309E-02 16272   0.606E-01    0.343E-01
DAV:   3    -0.353643735060E+03   -0.67826E-03   -0.18673E-03 16264   0.132E-01    0.229E-01
DAV:   4    -0.353643603056E+03    0.13200E-03   -0.24667E-04 16968   0.499E-02    0.171E-01
DAV:   5    -0.353643495035E+03    0.10802E-03   -0.36414E-04 15568   0.371E-02    0.853E-02
DAV:   6    -0.353643532154E+03   -0.37119E-04   -0.11642E-04 16528   0.260E-02    0.246E-02
DAV:   7    -0.353643556126E+03   -0.23972E-04   -0.99344E-06 16472   0.123E-02    0.158E-02
DAV:   8    -0.353643585576E+03   -0.29450E-04   -0.20171E-06  8760   0.633E-03    0.105E-02
DAV:   9    -0.353643627578E+03   -0.42002E-04   -0.49979E-06 11768   0.475E-03    0.505E-03
DAV:  10    -0.353643649589E+03   -0.22011E-04   -0.78145E-07  7672   0.231E-03    0.272E-03
DAV:  11    -0.353643671384E+03   -0.21795E-04   -0.48046E-07  7208   0.209E-03    0.181E-03
DAV:  12    -0.353643691123E+03   -0.19740E-04   -0.48709E-07  7320   0.155E-03    0.143E-03
DAV:  13    -0.353643709469E+03   -0.18345E-04   -0.38112E-07  7128   0.167E-03    0.112E-03
DAV:  14    -0.353643723641E+03   -0.14173E-04   -0.40784E-07  7400   0.109E-03    0.889E-04
DAV:  15    -0.353643733903E+03   -0.10261E-04   -0.26713E-07  6976   0.111E-03    0.815E-04
DAV:  16    -0.353643744731E+03   -0.10828E-04   -0.38642E-07  7080   0.934E-04    0.623E-04
DAV:  17    -0.353643748886E+03   -0.41550E-05   -0.20711E-07  6792   0.101E-03    0.529E-04
DAV:  18    -0.353643750534E+03   -0.16481E-05   -0.13306E-07  6520   0.651E-04    0.304E-04
DAV:  19    -0.353643751874E+03   -0.13404E-05   -0.86926E-08  6672   0.576E-04    0.353E-04
DAV:  20    -0.353643753063E+03   -0.11883E-05   -0.74631E-08  6648   0.442E-04    0.216E-04
DAV:  21    -0.353643753742E+03   -0.67950E-06   -0.52929E-08  6536   0.442E-04
  23 F= -.36678745E+03 E0= -.36678673E+03  d E =-.573836E-02  mag=    55.0000
       N       E                     dE             d eps       ncg     rms          rms(c)
DAV:   1    -0.353615667104E+03    0.28086E-01   -0.51887E+00 11520   0.295E+00    0.129E+00
DAV:   2    -0.353647575762E+03   -0.31909E-01   -0.33916E-01 16352   0.122E+00    0.695E-01
DAV:   3    -0.353649656229E+03   -0.20805E-02   -0.75051E-03 16368   0.274E-01    0.458E-01
DAV:   4    -0.353649164943E+03    0.49129E-03   -0.96792E-04 16992   0.103E-01    0.344E-01
DAV:   5    -0.353648755094E+03    0.40985E-03   -0.15034E-03 15560   0.757E-02    0.172E-01
DAV:   6    -0.353648901382E+03   -0.14629E-03   -0.50372E-04 16544   0.532E-02    0.498E-02
DAV:   7    -0.353648974855E+03   -0.73472E-04   -0.43155E-05 17104   0.254E-02    0.323E-02
DAV:   8    -0.353649056715E+03   -0.81861E-04   -0.12831E-05 16240   0.127E-02    0.195E-02
DAV:   9    -0.353649164309E+03   -0.10759E-03   -0.84866E-06 14912   0.763E-03    0.917E-03
DAV:  10    -0.353649242658E+03   -0.78349E-04   -0.24223E-06  9248   0.423E-03    0.478E-03
DAV:  11    -0.353649308369E+03   -0.65711E-04   -0.19118E-06  8656   0.367E-03    0.301E-03
DAV:  12    -0.353649361967E+03   -0.53598E-04   -0.15695E-06  8552   0.264E-03    0.261E-03
DAV:  13    -0.353649412380E+03   -0.50412E-04   -0.10683E-06  7848   0.230E-03    0.173E-03
DAV:  14    -0.353649455084E+03   -0.42704E-04   -0.11186E-06  8416   0.187E-03    0.160E-03
DAV:  15    -0.353649485266E+03   -0.30182E-04   -0.85655E-07  7760   0.185E-03    0.122E-03
DAV:  16    -0.353649502329E+03   -0.17064E-04   -0.66593E-07  7216   0.150E-03    0.922E-04
DAV:  17    -0.353649511534E+03   -0.92050E-05   -0.42695E-07  6888   0.133E-03    0.771E-04
DAV:  18    -0.353649518164E+03   -0.66299E-05   -0.34656E-07  7160   0.106E-03    0.614E-04
DAV:  19    -0.353649522968E+03   -0.48034E-05   -0.31241E-07  7120   0.102E-03    0.599E-04
DAV:  20    -0.353649524476E+03   -0.15087E-05   -0.17208E-07  6640   0.842E-04    0.333E-04
DAV:  21    -0.353649525220E+03   -0.74404E-06   -0.99010E-08  6520   0.585E-04
  24 F= -.36678864E+03 E0= -.36678806E+03  d E =-.693485E-02  mag=    55.0000
       N       E                     dE             d eps       ncg     rms          rms(c)
DAV:   1    -0.353644330015E+03    0.51945E-02   -0.63794E-01 11536   0.104E+00    0.447E-01
DAV:   2    -0.353648035708E+03   -0.37057E-02   -0.41188E-02 15872   0.422E-01    0.239E-01
DAV:   3    -0.353648440605E+03   -0.40490E-03   -0.87915E-04 16336   0.878E-02    0.161E-01
DAV:   4    -0.353648371259E+03    0.69346E-04   -0.11376E-04 16968   0.310E-02    0.120E-01
DAV:   5    -0.353648318460E+03    0.52799E-04   -0.17352E-04 15464   0.253E-02    0.600E-02
DAV:   6    -0.353648329232E+03   -0.10772E-04   -0.55574E-05 16640   0.187E-02    0.169E-02
DAV:   7    -0.353648341677E+03   -0.12445E-04   -0.41711E-06 12128   0.898E-03    0.113E-02
DAV:   8    -0.353648357721E+03   -0.16044E-04   -0.17421E-06  7128   0.525E-03    0.749E-03
DAV:   9    -0.353648380574E+03   -0.22853E-04   -0.28644E-06  9528   0.366E-03    0.378E-03
DAV:  10    -0.353648392270E+03   -0.11696E-04   -0.75452E-07  6880   0.234E-03    0.229E-03
DAV:  11    -0.353648404983E+03   -0.12713E-04   -0.40331E-07  6792   0.192E-03    0.155E-03
DAV:  12    -0.353648418365E+03   -0.13382E-04   -0.36624E-07  7168   0.153E-03    0.108E-03
DAV:  13    -0.353648426469E+03   -0.81042E-05   -0.22805E-07  6576   0.133E-03    0.867E-04
DAV:  14    -0.353648434945E+03   -0.84763E-05   -0.21861E-07  6840   0.814E-04    0.699E-04
DAV:  15    -0.353648439632E+03   -0.46867E-05   -0.11164E-07  6592   0.830E-04    0.553E-04
DAV:  16    -0.353648447410E+03   -0.77779E-05   -0.20385E-07  7016   0.613E-04    0.483E-04
DAV:  17    -0.353648450105E+03   -0.26947E-05   -0.87747E-08  6616   0.736E-04    0.429E-04
DAV:  18    -0.353648451334E+03   -0.12294E-05   -0.58785E-08  6472   0.396E-04    0.219E-04
DAV:  19    -0.353648452407E+03   -0.10729E-05   -0.35790E-08  6472   0.411E-04    0.264E-04
DAV:  20    -0.353648453420E+03   -0.10134E-05   -0.33890E-08  6608   0.279E-04    0.151E-04
DAV:  21    -0.353648454104E+03   -0.68417E-06   -0.23782E-08  6480   0.316E-04
  25 F= -.36678918E+03 E0= -.36678855E+03  d E =-.747425E-02  mag=    55.0000
       N       E                     dE             d eps       ncg     rms          rms(c)
DAV:   1    -0.353650144022E+03   -0.16906E-02   -0.15497E-01 11536   0.476E-01    0.285E-01
DAV:   2    -0.353650979912E+03   -0.83589E-03   -0.91404E-03 15512   0.183E-01    0.123E-01
DAV:   3    -0.353651130122E+03   -0.15021E-03   -0.28964E-04 16280   0.403E-02    0.790E-02
DAV:   4    -0.353651068042E+03    0.62081E-04   -0.36818E-05 17032   0.165E-02    0.545E-02
DAV:   5    -0.353650980211E+03    0.87831E-04   -0.41395E-05 16240   0.139E-02    0.282E-02
DAV:   6    -0.353650971894E+03    0.83168E-05   -0.10735E-05 14584   0.912E-03    0.941E-03
DAV:   7    -0.353650992430E+03   -0.20536E-04   -0.10939E-06  7096   0.413E-03    0.677E-03
DAV:   8    -0.353651031211E+03   -0.38782E-04   -0.11933E-06  8296   0.326E-03    0.513E-03
DAV:   9    -0.353651070118E+03   -0.38906E-04   -0.13648E-06  7640   0.264E-03    0.247E-03
DAV:  10    -0.353651091254E+03   -0.21136E-04   -0.65845E-07  6768   0.212E-03    0.175E-03
DAV:  11    -0.353651110252E+03   -0.18998E-04   -0.39181E-07  6792   0.160E-03    0.121E-03
DAV:  12    -0.353651138194E+03   -0.27942E-04   -0.45383E-07  7552   0.139E-03    0.116E-03
DAV:  13    -0.353651156688E+03   -0.18493E-04   -0.36913E-07  6896   0.129E-03    0.850E-04
DAV:  14    -0.353651169166E+03   -0.12479E-04   -0.29098E-07  6728   0.102E-03    0.706E-04
DAV:  15    -0.353651176422E+03   -0.72555E-05   -0.18242E-07  6608   0.895E-04    0.572E-04
DAV:  16    -0.353651189582E+03   -0.13160E-04   -0.29602E-07  7336   0.749E-04    0.656E-04
DAV:  17    -0.353651195601E+03   -0.60190E-05   -0.17984E-07  6736   0.911E-04    0.564E-04
DAV:  18    -0.353651198331E+03   -0.27300E-05   -0.13916E-07  6664   0.601E-04    0.368E-04
DAV:  19    -0.353651199817E+03   -0.14860E-05   -0.83814E-08  6536   0.593E-04    0.342E-04
DAV:  20    -0.353651201079E+03   -0.12625E-05   -0.74721E-08  6568   0.412E-04    0.208E-04
DAV:  21    -0.353651201644E+03   -0.56505E-06   -0.46749E-08  6504   0.453E-04
  26 F= -.36679158E+03 E0= -.36679096E+03  d E =-.239812E-02  mag=    55.0000
       N       E                     dE             d eps       ncg     rms          rms(c)
DAV:   1    -0.353649280690E+03    0.19204E-02   -0.70645E-01 11520   0.102E+00    0.602E-01
DAV:   2    -0.353653379684E+03   -0.40990E-02   -0.41659E-02 15616   0.391E-01    0.262E-01
DAV:   3    -0.353653859572E+03   -0.47989E-03   -0.13157E-03 16312   0.856E-02    0.168E-01
DAV:   4    -0.353653644379E+03    0.21519E-03   -0.16823E-04 17040   0.349E-02    0.116E-01
DAV:   5    -0.353653392972E+03    0.25141E-03   -0.18825E-04 16280   0.298E-02    0.596E-02
DAV:   6    -0.353653390041E+03    0.29305E-05   -0.51269E-05 16584   0.196E-02    0.203E-02
DAV:   7    -0.353653457606E+03   -0.67565E-04   -0.59270E-06 13680   0.841E-03    0.138E-02
DAV:   8    -0.353653582162E+03   -0.12456E-03   -0.34934E-06 10688   0.586E-03    0.881E-03
DAV:   9    -0.353653691310E+03   -0.10915E-03   -0.33973E-06 10560   0.399E-03    0.400E-03
DAV:  10    -0.353653770588E+03   -0.79277E-04   -0.10246E-06  7944   0.222E-03    0.217E-03
DAV:  11    -0.353653841561E+03   -0.70974E-04   -0.83727E-07  7808   0.204E-03    0.183E-03
DAV:  12    -0.353653904481E+03   -0.62920E-04   -0.78293E-07  7648   0.183E-03    0.141E-03
DAV:  13    -0.353653960603E+03   -0.56122E-04   -0.81183E-07  7888   0.179E-03    0.144E-03
DAV:  14    -0.353654008417E+03   -0.47815E-04   -0.86131E-07  7792   0.154E-03    0.109E-03
DAV:  15    -0.353654044180E+03   -0.35763E-04   -0.75925E-07  7672   0.153E-03    0.119E-03
DAV:  16    -0.353654071443E+03   -0.27263E-04   -0.86927E-07  7984   0.142E-03    0.801E-04
DAV:  17    -0.353654080893E+03   -0.94506E-05   -0.41599E-07  6944   0.129E-03    0.822E-04
DAV:  18    -0.353654084713E+03   -0.38200E-05   -0.26369E-07  6632   0.936E-04    0.375E-04
DAV:  19    -0.353654086892E+03   -0.21788E-05   -0.16294E-07  6680   0.789E-04    0.496E-04
DAV:  20    -0.353654088838E+03   -0.19458E-05   -0.14043E-07  6912   0.616E-04    0.271E-04
DAV:  21    -0.353654089531E+03   -0.69254E-06   -0.83141E-08  6600   0.595E-04
  27 F= -.36679372E+03 E0= -.36679312E+03  d E =-.453257E-02  mag=    55.0000
       N       E                     dE             d eps       ncg     rms          rms(c)
DAV:   1    -0.353655376762E+03   -0.12879E-02   -0.54071E-02 11616   0.305E-01    0.167E-01
DAV:   2    -0.353655628212E+03   -0.25145E-03   -0.29630E-03 15672   0.119E-01    0.742E-02
DAV:   3    -0.353655717936E+03   -0.89724E-04   -0.86692E-05 16392   0.265E-02    0.451E-02
DAV:   4    -0.353655699550E+03    0.18386E-04   -0.11113E-05 16264   0.102E-02    0.316E-02
DAV:   5    -0.353655660747E+03    0.38803E-04   -0.16193E-05 16056   0.878E-03    0.150E-02
DAV:   6    -0.353655653697E+03    0.70497E-05   -0.26470E-06  9032   0.616E-03    0.514E-03
DAV:   7    -0.353655665729E+03   -0.12032E-04   -0.85438E-07  6480   0.339E-03    0.372E-03
DAV:   8    -0.353655680269E+03   -0.14539E-04   -0.57367E-07  6888   0.214E-03    0.291E-03
DAV:   9    -0.353655693181E+03   -0.12912E-04   -0.38119E-07  6528   0.170E-03    0.174E-03
DAV:  10    -0.353655703788E+03   -0.10607E-04   -0.26221E-07  6704   0.132E-03    0.142E-03
DAV:  11    -0.353655716008E+03   -0.12220E-04   -0.21706E-07  6816   0.119E-03    0.856E-04
DAV:  12    -0.353655723102E+03   -0.70943E-05   -0.17412E-07  6584   0.942E-04    0.716E-04
DAV:  13    -0.353655729481E+03   -0.63784E-05   -0.14144E-07  6616   0.749E-04    0.480E-04
DAV:  14    -0.353655734537E+03   -0.50558E-05   -0.11027E-07  6600   0.616E-04    0.447E-04
DAV:  15    -0.353655739608E+03   -0.50711E-05   -0.10469E-07  6648   0.570E-04    0.367E-04
DAV:  16    -0.353655742760E+03   -0.31527E-05   -0.88102E-08  6624   0.545E-04    0.374E-04
DAV:  17    -0.353655744066E+03   -0.13054E-05   -0.57537E-08  6528   0.465E-04    0.248E-04
DAV:  18    -0.353655745026E+03   -0.96054E-06   -0.43689E-08  6400   0.356E-04
  28 F= -.36679537E+03 E0= -.36679477E+03  d E =-.165017E-02  mag=    55.0000
       N       E                     dE             d eps       ncg     rms          rms(c)
DAV:   1    -0.353655725222E+03    0.18844E-04   -0.48625E-01 11520   0.916E-01    0.508E-01
DAV:   2    -0.353658400618E+03   -0.26754E-02   -0.26704E-02 15736   0.359E-01    0.224E-01
DAV:   3    -0.353658881863E+03   -0.48124E-03   -0.78382E-04 16448   0.804E-02    0.135E-01
DAV:   4    -0.353658769940E+03    0.11192E-03   -0.10055E-04 17032   0.306E-02    0.949E-02
DAV:   5    -0.353658578488E+03    0.19145E-03   -0.14126E-04 16184   0.261E-02    0.443E-02
DAV:   6    -0.353658569348E+03    0.91401E-05   -0.33666E-05 16512   0.190E-02    0.170E-02
DAV:   7    -0.353658630416E+03   -0.61068E-04   -0.44026E-06 11152   0.806E-03    0.114E-02
DAV:   8    -0.353658704367E+03   -0.73951E-04   -0.44331E-06 10960   0.543E-03    0.697E-03
DAV:   9    -0.353658767328E+03   -0.62961E-04   -0.11934E-06  7792   0.278E-03    0.354E-03
DAV:  10    -0.353658837722E+03   -0.70394E-04   -0.14499E-06  8264   0.240E-03    0.228E-03
DAV:  11    -0.353658879994E+03   -0.42273E-04   -0.62140E-07  7008   0.221E-03    0.145E-03
DAV:  12    -0.353658912425E+03   -0.32431E-04   -0.50070E-07  6960   0.162E-03    0.135E-03
DAV:  13    -0.353658941836E+03   -0.29411E-04   -0.40592E-07  7192   0.148E-03    0.109E-03
DAV:  14    -0.353658989895E+03   -0.48058E-04   -0.92353E-07  8448   0.128E-03    0.100E-03
DAV:  15    -0.353659009118E+03   -0.19223E-04   -0.38296E-07  6936   0.138E-03    0.774E-04
DAV:  16    -0.353659024024E+03   -0.14906E-04   -0.40347E-07  7112   0.978E-04    0.612E-04
DAV:  17    -0.353659030911E+03   -0.68874E-05   -0.23530E-07  6648   0.107E-03    0.575E-04
DAV:  18    -0.353659036432E+03   -0.55213E-05   -0.21962E-07  6712   0.695E-04    0.368E-04
DAV:  19    -0.353659040871E+03   -0.44386E-05   -0.18688E-07  6888   0.807E-04    0.482E-04
DAV:  20    -0.353659042138E+03   -0.12671E-05   -0.12432E-07  6600   0.649E-04    0.244E-04
DAV:  21    -0.353659042677E+03   -0.53872E-06   -0.73852E-08  6496   0.517E-04
  29 F= -.36679864E+03 E0= -.36679804E+03  d E =-.492873E-02  mag=    55.0000
       N       E                     dE             d eps       ncg     rms          rms(c)
DAV:   1    -0.353644254443E+03    0.14788E-01   -0.19420E+00 11520   0.183E+00    0.104E+00
DAV:   2    -0.353655489054E+03   -0.11235E-01   -0.10731E-01 16064   0.721E-01    0.455E-01
DAV:   3    -0.353657070507E+03   -0.15815E-02   -0.31759E-03 16480   0.165E-01    0.272E-01
DAV:   4    -0.353656726533E+03    0.34397E-03   -0.39815E-04 17024   0.614E-02    0.190E-01
DAV:   5    -0.353656229814E+03    0.49672E-03   -0.56486E-04 16176   0.518E-02    0.892E-02
DAV:   6    -0.353656251925E+03   -0.22110E-04   -0.13946E-04 16496   0.384E-02    0.345E-02
DAV:   7    -0.353656419137E+03   -0.16721E-03   -0.23226E-05 16680   0.167E-02    0.230E-02
DAV:   8    -0.353656604112E+03   -0.18497E-03   -0.94931E-06 16000   0.846E-03    0.123E-02
DAV:   9    -0.353656805548E+03   -0.20144E-03   -0.26076E-06 10288   0.432E-03    0.622E-03
DAV:  10    -0.353657016604E+03   -0.21106E-03   -0.48292E-06 12112   0.364E-03    0.289E-03
DAV:  11    -0.353657111779E+03   -0.95175E-04   -0.62590E-07  7664   0.206E-03    0.243E-03
DAV:  12    -0.353657196068E+03   -0.84290E-04   -0.62642E-07  7888   0.199E-03    0.218E-03
DAV:  13    -0.353657292250E+03   -0.96181E-04   -0.13575E-06  8624   0.176E-03    0.175E-03
DAV:  14    -0.353657399435E+03   -0.10718E-03   -0.16328E-06  9112   0.186E-03    0.127E-03
DAV:  15    -0.353657458512E+03   -0.59077E-04   -0.85519E-07  7944   0.153E-03    0.121E-03
DAV:  16    -0.353657488452E+03   -0.29940E-04   -0.55205E-07  7224   0.161E-03    0.106E-03
DAV:  17    -0.353657508597E+03   -0.20145E-04   -0.58299E-07  7552   0.124E-03    0.777E-04
DAV:  18    -0.353657522136E+03   -0.13538E-04   -0.45238E-07  7216   0.126E-03    0.810E-04
DAV:  19    -0.353657530016E+03   -0.78804E-05   -0.42420E-07  7200   0.111E-03    0.520E-04
DAV:  20    -0.353657533019E+03   -0.30031E-05   -0.28517E-07  6800   0.105E-03    0.607E-04
DAV:  21    -0.353657533815E+03   -0.79570E-06   -0.15025E-07  6592   0.763E-04
  30 F= -.36679708E+03 E0= -.36679648E+03  d E =-.336745E-02  mag=    55.0000
       N       E                     dE             d eps       ncg     rms          rms(c)
DAV:   1    -0.353654199839E+03    0.33332E-02   -0.81704E-01 11520   0.119E+00    0.652E-01
DAV:   2    -0.353658802842E+03   -0.46030E-02   -0.44860E-02 15960   0.465E-01    0.288E-01
DAV:   3    -0.353659555866E+03   -0.75302E-03   -0.13457E-03 16440   0.104E-01    0.175E-01
DAV:   4    -0.353659383072E+03    0.17279E-03   -0.17082E-04 17016   0.397E-02    0.122E-01
DAV:   5    -0.353659121912E+03    0.26116E-03   -0.23772E-04 16280   0.341E-02    0.582E-02
DAV:   6    -0.353659112813E+03    0.90992E-05   -0.56574E-05 16496   0.245E-02    0.217E-02
DAV:   7    -0.353659202276E+03   -0.89463E-04   -0.96594E-06 16432   0.102E-02    0.149E-02
DAV:   8    -0.353659299677E+03   -0.97401E-04   -0.26329E-06  9320   0.571E-03    0.894E-03
DAV:   9    -0.353659406863E+03   -0.10719E-03   -0.41831E-06 11296   0.455E-03    0.412E-03
DAV:  10    -0.353659503494E+03   -0.96631E-04   -0.15592E-06  8808   0.234E-03    0.210E-03
DAV:  11    -0.353659555090E+03   -0.51596E-04   -0.54424E-07  6944   0.222E-03    0.191E-03
DAV:  12    -0.353659594546E+03   -0.39455E-04   -0.46383E-07  7032   0.150E-03    0.148E-03
DAV:  13    -0.353659644069E+03   -0.49523E-04   -0.52917E-07  7576   0.153E-03    0.140E-03
DAV:  14    -0.353659699867E+03   -0.55799E-04   -0.85447E-07  7992   0.142E-03    0.105E-03
DAV:  15    -0.353659740150E+03   -0.40283E-04   -0.82769E-07  7712   0.157E-03    0.129E-03
DAV:  16    -0.353659759159E+03   -0.19008E-04   -0.48974E-07  6904   0.132E-03    0.695E-04
DAV:  17    -0.353659771487E+03   -0.12328E-04   -0.39128E-07  6936   0.111E-03    0.880E-04
DAV:  18    -0.353659780994E+03   -0.95070E-05   -0.35174E-07  7208   0.104E-03    0.516E-04
DAV:  19    -0.353659785003E+03   -0.40090E-05   -0.24970E-07  6712   0.947E-04    0.557E-04
DAV:  20    -0.353659786504E+03   -0.15011E-05   -0.15913E-07  6448   0.754E-04    0.339E-04
DAV:  21    -0.353659787138E+03   -0.63427E-06   -0.94039E-08  6568   0.574E-04
  31 F= -.36679937E+03 E0= -.36679877E+03  d E =-.565693E-02  mag=    55.0000
       N       E                     dE             d eps       ncg     rms          rms(c)
DAV:   1    -0.353660947410E+03   -0.11609E-02   -0.11443E-01 11600   0.422E-01    0.193E-01
DAV:   2    -0.353661557444E+03   -0.61003E-03   -0.65109E-03 15808   0.171E-01    0.100E-01
DAV:   3    -0.353661673976E+03   -0.11653E-03   -0.15346E-04 16560   0.329E-02    0.643E-02
DAV:   4    -0.353661645620E+03    0.28357E-04   -0.21116E-05 16560   0.121E-02    0.463E-02
DAV:   5    -0.353661594341E+03    0.51279E-04   -0.30348E-05 16160   0.126E-02    0.219E-02
DAV:   6    -0.353661587989E+03    0.63517E-05   -0.57237E-06 11384   0.901E-03    0.700E-03
DAV:   7    -0.353661602127E+03   -0.14138E-04   -0.11576E-06  6528   0.410E-03    0.488E-03
DAV:   8    -0.353661619024E+03   -0.16897E-04   -0.77889E-07  7112   0.240E-03    0.396E-03
DAV:   9    -0.353661641653E+03   -0.22629E-04   -0.59780E-07  6960   0.196E-03    0.225E-03
DAV:  10    -0.353661654758E+03   -0.13106E-04   -0.37737E-07  6512   0.157E-03    0.166E-03
DAV:  11    -0.353661667773E+03   -0.13015E-04   -0.27778E-07  6632   0.137E-03    0.109E-03
DAV:  12    -0.353661681565E+03   -0.13792E-04   -0.27488E-07  6896   0.111E-03    0.889E-04
DAV:  13    -0.353661691568E+03   -0.10003E-04   -0.23285E-07  6776   0.979E-04    0.555E-04
DAV:  14    -0.353661696698E+03   -0.51305E-05   -0.13841E-07  6504   0.759E-04    0.434E-04
DAV:  15    -0.353661699294E+03   -0.25961E-05   -0.78626E-08  6504   0.576E-04    0.324E-04
DAV:  16    -0.353661704825E+03   -0.55310E-05   -0.99774E-08  6520   0.464E-04    0.349E-04
DAV:  17    -0.353661709984E+03   -0.51586E-05   -0.11474E-07  6768   0.542E-04    0.341E-04
DAV:  18    -0.353661710971E+03   -0.98652E-06   -0.57652E-08  6584   0.513E-04
  32 F= -.36680137E+03 E0= -.36680075E+03  d E =-.199499E-02  mag=    55.0000
       N       E                     dE             d eps       ncg     rms          rms(c)
DAV:   1    -0.353659538275E+03    0.21717E-02   -0.10272E+00 11520   0.127E+00    0.585E-01
DAV:   2    -0.353665521171E+03   -0.59829E-02   -0.58602E-02 15896   0.515E-01    0.304E-01
DAV:   3    -0.353666184373E+03   -0.66320E-03   -0.14022E-03 16560   0.102E-01    0.192E-01
DAV:   4    -0.353666001338E+03    0.18304E-03   -0.18656E-04 17032   0.364E-02    0.139E-01
DAV:   5    -0.353665753931E+03    0.24741E-03   -0.27703E-04 16184   0.371E-02    0.652E-02
DAV:   6    -0.353665757597E+03   -0.36656E-05   -0.65280E-05 16624   0.266E-02    0.216E-02
DAV:   7    -0.353665833051E+03   -0.75454E-04   -0.70155E-06 14816   0.106E-02    0.150E-02
DAV:   8    -0.353665923687E+03   -0.90636E-04   -0.25391E-06  9024   0.556E-03    0.987E-03
DAV:   9    -0.353666047941E+03   -0.12425E-03   -0.54663E-06 12944   0.427E-03    0.448E-03
DAV:  10    -0.353666127190E+03   -0.79248E-04   -0.84025E-07  7872   0.235E-03    0.217E-03
DAV:  11    -0.353666192396E+03   -0.65206E-04   -0.79482E-07  8248   0.209E-03    0.187E-03
DAV:  12    -0.353666230382E+03   -0.37986E-04   -0.54774E-07  6824   0.161E-03    0.134E-03
DAV:  13    -0.353666275661E+03   -0.45279E-04   -0.59038E-07  7256   0.143E-03    0.127E-03
DAV:  14    -0.353666317878E+03   -0.42217E-04   -0.60037E-07  7664   0.143E-03    0.103E-03
DAV:  15    -0.353666362959E+03   -0.45082E-04   -0.11137E-06  8392   0.151E-03    0.111E-03
DAV:  16    -0.353666379725E+03   -0.16765E-04   -0.44146E-07  6896   0.132E-03    0.592E-04
DAV:  17    -0.353666387415E+03   -0.76904E-05   -0.29087E-07  6528   0.962E-04    0.631E-04
DAV:  18    -0.353666393973E+03   -0.65584E-05   -0.22854E-07  6840   0.874E-04    0.433E-04
DAV:  19    -0.353666398484E+03   -0.45104E-05   -0.19033E-07  6648   0.751E-04    0.428E-04
DAV:  20    -0.353666400797E+03   -0.23128E-05   -0.14279E-07  6456   0.699E-04    0.340E-04
DAV:  21    -0.353666401552E+03   -0.75497E-06   -0.91339E-08  6480   0.564E-04
  33 F= -.36680626E+03 E0= -.36680560E+03  d E =-.689162E-02  mag=    55.0000
       N       E                     dE             d eps       ncg     rms          rms(c)
DAV:   1    -0.353642948020E+03    0.23453E-01   -0.40858E+00 11520   0.254E+00    0.120E+00
DAV:   2    -0.353667491344E+03   -0.24543E-01   -0.23560E-01 16096   0.104E+00    0.630E-01
DAV:   3    -0.353669724518E+03   -0.22332E-02   -0.57094E-03 16576   0.215E-01    0.386E-01
DAV:   4    -0.353669170289E+03    0.55423E-03   -0.72488E-04 17136   0.733E-02    0.282E-01
DAV:   5    -0.353668493247E+03    0.67704E-03   -0.11414E-03 16104   0.729E-02    0.130E-01
DAV:   6    -0.353668578006E+03   -0.84760E-04   -0.27489E-04 16576   0.534E-02    0.445E-02
DAV:   7    -0.353668791992E+03   -0.21399E-03   -0.31291E-05 17040   0.219E-02    0.302E-02
DAV:   8    -0.353669026114E+03   -0.23412E-03   -0.12587E-05 16336   0.104E-02    0.177E-02
DAV:   9    -0.353669350511E+03   -0.32440E-03   -0.82379E-06 14560   0.617E-03    0.801E-03
DAV:  10    -0.353669633510E+03   -0.28300E-03   -0.48862E-06 11856   0.374E-03    0.346E-03
DAV:  11    -0.353669768702E+03   -0.13519E-03   -0.93109E-07  8128   0.233E-03    0.279E-03
DAV:  12    -0.353669874032E+03   -0.10533E-03   -0.84494E-07  7976   0.209E-03    0.250E-03
DAV:  13    -0.353669992436E+03   -0.11840E-03   -0.15543E-06  8776   0.193E-03    0.181E-03
DAV:  14    -0.353670136594E+03   -0.14416E-03   -0.23965E-06 10008   0.193E-03    0.115E-03
DAV:  15    -0.353670204351E+03   -0.67757E-04   -0.68158E-07  8048   0.130E-03    0.976E-04
DAV:  16    -0.353670247561E+03   -0.43210E-04   -0.54825E-07  7424   0.134E-03    0.102E-03
DAV:  17    -0.353670276476E+03   -0.28915E-04   -0.54282E-07  7304   0.132E-03    0.832E-04
DAV:  18    -0.353670303667E+03   -0.27191E-04   -0.81918E-07  8248   0.131E-03    0.803E-04
DAV:  19    -0.353670312410E+03   -0.87430E-05   -0.37565E-07  6848   0.127E-03    0.593E-04
DAV:  20    -0.353670316621E+03   -0.42115E-05   -0.26979E-07  6560   0.897E-04    0.502E-04
DAV:  21    -0.353670318812E+03   -0.21912E-05   -0.17140E-07  6664   0.818E-04    0.357E-04
DAV:  22    -0.353670320154E+03   -0.13414E-05   -0.13509E-07  6768   0.605E-04    0.299E-04
DAV:  23    -0.353670320483E+03   -0.32951E-06   -0.73916E-08  6552   0.578E-04
  34 F= -.36681056E+03 E0= -.36680981E+03  d E =-.111886E-01  mag=    55.0000
       N       E                     dE             d eps       ncg     rms          rms(c)
DAV:   1    -0.353671505022E+03   -0.11849E-02   -0.30983E-01 11568   0.619E-01    0.366E-01
DAV:   2    -0.353673217381E+03   -0.17124E-02   -0.17580E-02 15472   0.241E-01    0.156E-01
DAV:   3    -0.353673411535E+03   -0.19415E-03   -0.46569E-04 15680   0.430E-02    0.103E-01
DAV:   4    -0.353673370725E+03    0.40810E-04   -0.70777E-05 16856   0.176E-02    0.692E-02
DAV:   5    -0.353673382431E+03   -0.11706E-04   -0.64286E-05 15896   0.170E-02    0.299E-02
DAV:   6    -0.353673397531E+03   -0.15100E-04   -0.15546E-05 15296   0.115E-02    0.113E-02
DAV:   7    -0.353673408021E+03   -0.10490E-04   -0.10348E-06  7760   0.479E-03    0.826E-03
DAV:   8    -0.353673418376E+03   -0.10355E-04   -0.10578E-06  7824   0.270E-03    0.585E-03
DAV:   9    -0.353673426006E+03   -0.76293E-05   -0.10012E-06  7440   0.221E-03    0.302E-03
DAV:  10    -0.353673429372E+03   -0.33667E-05   -0.47316E-07  6640   0.195E-03    0.159E-03
DAV:  11    -0.353673433351E+03   -0.39783E-05   -0.29958E-07  6656   0.143E-03    0.104E-03
DAV:  12    -0.353673436749E+03   -0.33980E-05   -0.20126E-07  6584   0.134E-03    0.771E-04
DAV:  13    -0.353673439045E+03   -0.22965E-05   -0.15067E-07  6576   0.804E-04    0.474E-04
DAV:  14    -0.353673440014E+03   -0.96850E-06   -0.68684E-08  6584   0.650E-04
  35 F= -.36681356E+03 E0= -.36681280E+03  d E =-.299892E-02  mag=    55.0000
       N       E                     dE             d eps       ncg     rms          rms(c)
DAV:   1    -0.353666461863E+03    0.69772E-02   -0.15799E+00 11520   0.140E+00    0.805E-01
DAV:   2    -0.353675544093E+03   -0.90822E-02   -0.89797E-02 15552   0.545E-01    0.351E-01
DAV:   3    -0.353676241610E+03   -0.69752E-03   -0.23508E-03 15616   0.978E-02    0.228E-01
DAV:   4    -0.353676062081E+03    0.17953E-03   -0.35861E-04 17048   0.397E-02    0.155E-01
DAV:   5    -0.353676109940E+03   -0.47860E-04   -0.33354E-04 16024   0.381E-02    0.668E-02
DAV:   6    -0.353676172942E+03   -0.63002E-04   -0.83042E-05 16536   0.258E-02    0.260E-02
DAV:   7    -0.353676208170E+03   -0.35228E-04   -0.56617E-06 12008   0.109E-02    0.185E-02
DAV:   8    -0.353676243137E+03   -0.34967E-04   -0.46101E-06 11944   0.590E-03    0.123E-02
DAV:   9    -0.353676269358E+03   -0.26221E-04   -0.29810E-06  9520   0.307E-03    0.609E-03
DAV:  10    -0.353676284414E+03   -0.15056E-04   -0.72870E-07  7416   0.261E-03    0.288E-03
DAV:  11    -0.353676300237E+03   -0.15822E-04   -0.82028E-07  8032   0.187E-03    0.170E-03
DAV:  12    -0.353676310021E+03   -0.97840E-05   -0.46905E-07  6904   0.201E-03    0.126E-03
DAV:  13    -0.353676316179E+03   -0.61584E-05   -0.29666E-07  6768   0.129E-03    0.849E-04
DAV:  14    -0.353676323480E+03   -0.73012E-05   -0.31184E-07  7144   0.103E-03    0.944E-04
DAV:  15    -0.353676328548E+03   -0.50671E-05   -0.24885E-07  6928   0.982E-04    0.756E-04
DAV:  16    -0.353676331036E+03   -0.24888E-05   -0.16560E-07  6656   0.798E-04    0.495E-04
DAV:  17    -0.353676332424E+03   -0.13878E-05   -0.10926E-07  6552   0.651E-04    0.377E-04
DAV:  18    -0.353676333518E+03   -0.10941E-05   -0.85179E-08  6728   0.535E-04    0.311E-04
DAV:  19    -0.353676334467E+03   -0.94888E-06   -0.75339E-08  6696   0.475E-04
  36 F= -.36681617E+03 E0= -.36681539E+03  d E =-.560938E-02  mag=    55.0000
       N       E                     dE             d eps       ncg     rms          rms(c)
DAV:   1    -0.353677292101E+03   -0.95858E-03   -0.31609E-01 11520   0.676E-01    0.303E-01
DAV:   2    -0.353678825887E+03   -0.15338E-02   -0.16940E-02 16120   0.269E-01    0.165E-01
DAV:   3    -0.353679133620E+03   -0.30773E-03   -0.48094E-04 16424   0.686E-02    0.105E-01
DAV:   4    -0.353679059342E+03    0.74277E-04   -0.58021E-05 17128   0.256E-02    0.750E-02
DAV:   5    -0.353678944983E+03    0.11436E-03   -0.85053E-05 15912   0.187E-02    0.327E-02
DAV:   6    -0.353678948238E+03   -0.32546E-05   -0.21248E-05 16536   0.128E-02    0.136E-02
DAV:   7    -0.353678979452E+03   -0.31215E-04   -0.13533E-06  8304   0.601E-03    0.930E-03
DAV:   8    -0.353679015389E+03   -0.35937E-04   -0.17043E-06  8064   0.406E-03    0.636E-03
DAV:   9    -0.353679074478E+03   -0.59088E-04   -0.28329E-06 10048   0.312E-03    0.303E-03
DAV:  10    -0.353679098975E+03   -0.24497E-04   -0.57088E-07  6976   0.213E-03    0.186E-03
DAV:  11    -0.353679126009E+03   -0.27033E-04   -0.37755E-07  6920   0.148E-03    0.139E-03
DAV:  12    -0.353679151237E+03   -0.25229E-04   -0.36008E-07  7088   0.142E-03    0.108E-03
DAV:  13    -0.353679176189E+03   -0.24951E-04   -0.41050E-07  7344   0.121E-03    0.101E-03
DAV:  14    -0.353679192860E+03   -0.16672E-04   -0.32217E-07  6816   0.113E-03    0.749E-04
DAV:  15    -0.353679204825E+03   -0.11965E-04   -0.26708E-07  6776   0.976E-04    0.768E-04
DAV:  16    -0.353679220208E+03   -0.15382E-04   -0.39711E-07  7560   0.927E-04    0.533E-04
DAV:  17    -0.353679225296E+03   -0.50886E-05   -0.20676E-07  6720   0.986E-04    0.554E-04
DAV:  18    -0.353679228374E+03   -0.30777E-05   -0.16325E-07  6608   0.642E-04    0.289E-04
DAV:  19    -0.353679229604E+03   -0.12296E-05   -0.87767E-08  6520   0.645E-04    0.354E-04
DAV:  20    -0.353679230841E+03   -0.12369E-05   -0.71688E-08  6576   0.401E-04    0.176E-04
DAV:  21    -0.353679231786E+03   -0.94594E-06   -0.54049E-08  6480   0.453E-04
  37 F= -.36681903E+03 E0= -.36681826E+03  d E =-.285788E-02  mag=    55.0000
       N       E                     dE             d eps       ncg     rms          rms(c)
DAV:   1    -0.353667989094E+03    0.11242E-01   -0.28291E+00 11520   0.203E+00    0.929E-01
DAV:   2    -0.353683042381E+03   -0.15053E-01   -0.15356E-01 16216   0.812E-01    0.504E-01
DAV:   3    -0.353684864282E+03   -0.18219E-02   -0.43733E-03 16392   0.209E-01    0.313E-01
DAV:   4    -0.353684409371E+03    0.45491E-03   -0.51836E-04 17160   0.771E-02    0.225E-01
DAV:   5    -0.353683895600E+03    0.51377E-03   -0.75933E-04 15952   0.560E-02    0.964E-02
DAV:   6    -0.353684002780E+03   -0.10718E-03   -0.19771E-04 16568   0.382E-02    0.411E-02
DAV:   7    -0.353684170313E+03   -0.16753E-03   -0.22860E-05 16800   0.180E-02    0.266E-02
DAV:   8    -0.353684346794E+03   -0.17648E-03   -0.75339E-06 13928   0.898E-03    0.169E-02
DAV:   9    -0.353684635814E+03   -0.28902E-03   -0.10091E-05 14904   0.682E-03    0.740E-03
DAV:  10    -0.353684824659E+03   -0.18884E-03   -0.25941E-06 10088   0.366E-03    0.378E-03
DAV:  11    -0.353684953362E+03   -0.12870E-03   -0.16376E-06  8632   0.304E-03    0.302E-03
DAV:  12    -0.353685046493E+03   -0.93131E-04   -0.11014E-06  7952   0.245E-03    0.258E-03
DAV:  13    -0.353685154251E+03   -0.10776E-03   -0.18680E-06  9376   0.228E-03    0.186E-03
DAV:  14    -0.353685260055E+03   -0.10580E-03   -0.16041E-06  9024   0.180E-03    0.115E-03
DAV:  15    -0.353685325579E+03   -0.65524E-04   -0.86602E-07  8032   0.157E-03    0.114E-03
DAV:  16    -0.353685369095E+03   -0.43517E-04   -0.83368E-07  7880   0.164E-03    0.104E-03
DAV:  17    -0.353685388667E+03   -0.19572E-04   -0.57604E-07  7096   0.151E-03    0.802E-04
DAV:  18    -0.353685403849E+03   -0.15182E-04   -0.56547E-07  7448   0.124E-03    0.765E-04
DAV:  19    -0.353685410706E+03   -0.68561E-05   -0.35867E-07  6832   0.124E-03    0.517E-04
DAV:  20    -0.353685415176E+03   -0.44701E-05   -0.32444E-07  7096   0.934E-04    0.533E-04
DAV:  21    -0.353685416576E+03   -0.14004E-05   -0.18123E-07  6592   0.932E-04    0.330E-04
DAV:  22    -0.353685417378E+03   -0.80232E-06   -0.13141E-07  6568   0.574E-04
  38 F= -.36682508E+03 E0= -.36682434E+03  d E =-.890962E-02  mag=    55.0000
