 vasp.6.2.0 18Jan21 (build Jul 28 2023 11:58:00) complex                         
 executed on             LinuxGNU date 2026.09.23  12:11:35
 running on   64 total cores
 distrk:  each k-point on   64 cores,    1 groups
 distr:  one band on NCORE=   8 cores,    8 groups


--------------------------------------------------------------------------------------------------------


 INCAR:
   SYSTEM = CrCl3 2x2 Clean Substrate (No vdW, U\=0eV)
   PREC = Accurate
   ENCUT = 400.0
   ALGO = Normal
   EDIFF = 1.0E-06
   NELM = 100
   ISPIN = 2
   MAGMOM = 8*3.0 24*0.0
   ISMEAR = 0
   SIGMA = 0.05
   NCORE = 8
   LREAL = Auto
   IBRION = 2
   NSW = 100
   ISIF = 2
   EDIFFG = -0.025
   LASPH = .TRUE.
   LMAXMIX = 4
   LDAU = .FALSE.
   LDIPOL = .TRUE.
   IDIPOL = 3
   DIPOL = 0.5 0.5 0.5
   LWAVE = .FALSE.
   LCHARG = .FALSE.

 POTCAR:    PAW_PBE Cr 06Sep2000                  
 POTCAR:    PAW_PBE Cl 06Sep2000                  
 POTCAR:    PAW_PBE Cr 06Sep2000                  
   SHA256 =  56e7271fac8042f322b235801e26979132a24da65eb043fa6a03029023cb2fcc Cr/POTCAR             
   COPYR  = (c) Copyright 06Sep2000 Georg Kresse                                                    
   COPYR  = This file is part of the software VASP. Any use, copying, and all other rights are regul
   COPYR  = If you do not have a valid VASP license, you may not use, copy or distribute this file. 
   VRHFIN =Cr : d5 s1                                                                               
   LEXCH  = PE                                                                                      
   EATOM  =   276.8859 eV,   20.3505 Ry                                                             
                                                                                                    
   TITEL  = PAW_PBE Cr 06Sep2000                                                                    
   LULTRA =        F    use ultrasoft PP ?                                                          
   IUNSCR =        1    unscreen: 0-lin 1-nonlin 2-no                                               
   RPACOR =    2.080    partial core radius                                                         
   POMASS =   51.996; ZVAL   =    6.000    mass and valenz                                          
   RCORE  =    2.500    outmost cutoff radius                                                       
   RWIGS  =    2.500; RWIGS  =    1.323    wigner-seitz radius (au A)                               
   ENMAX  =  227.080; ENMIN  =  170.310 eV                                                          
   RCLOC  =    1.721    cutoff for local pot                                                        
   LCOR   =        T    correct aug charges                                                         
   LPAW   =        T    paw PP                                                                      
   EAUG   =  402.108                                                                                
   DEXC   =    0.000                                                                                
   RMAX   =    2.552    core radius for proj-oper                                                   
   RAUG   =    1.300    factor for augmentation sphere                                              
   RDEP   =    2.609    radius for radial grids                                                     
   RDEPT  =    2.065    core radius for aug-charge                                                  
                                                                                                    
   Atomic configuration                                                                             
    9 entries                                                                                       
     n  l   j            E        occ.                                                              
     1  0  0.50     -5880.4963   2.0000                                                             
     2  0  0.50      -667.0865   2.0000                                                             
     2  1  1.50      -560.6250   6.0000                                                             
     3  0  0.50       -73.9860   2.0000                                                             
     3  1  1.50       -45.4378   6.0000                                                             
     3  2  2.50        -2.9137   5.0000                                                             
     4  0  0.50        -4.0071   1.0000                                                             
     4  1  0.50        -1.2789   0.0000                                                             
     4  3  2.50        -1.3606   0.0000                                                             
   Description                                                                                      
     l       E           TYP  RCUT    TYP  RCUT                                                     
     2     -2.9136677     23  2.500                                                                 
     2     -4.2742503     23  2.500                                                                 
     0     -4.0071322     23  2.500                                                                 
     0      9.4498801     23  2.500                                                                 
     1     -5.4423304     23  2.500                                                                 
     1     27.2116520     23  2.500                                                                 
  local pseudopotential read in
  partial core-charges read in
  partial kinetic energy density read in
  atomic valenz-charges read in
  non local Contribution for L=           2  read in
    real space projection operators read in
  non local Contribution for L=           2  read in
    real space projection operators read in
  non local Contribution for L=           0  read in
    real space projection operators read in
  non local Contribution for L=           0  read in
    real space projection operators read in
  non local Contribution for L=           1  read in
    real space projection operators read in
  non local Contribution for L=           1  read in
    real space projection operators read in
    PAW grid and wavefunctions read in

   number of l-projection  operators is LMAX  =           6
   number of lm-projection operators is LMMAX =          18

 POTCAR:    PAW_PBE Cl 06Sep2000                  
   SHA256 =  9f1b6e6ed4247ac726a768b330d26d7667cc3c95a39ff49c1d064c2d9dcce931 Cl/POTCAR             
   COPYR  = (c) Copyright 06Sep2000 Georg Kresse                                                    
   COPYR  = This file is part of the software VASP. Any use, copying, and all other rights are regul
   COPYR  = If you do not have a valid VASP license, you may not use, copy or distribute this file. 
   VRHFIN =Cl: s2p5                                                                                 
   LEXCH  = PE                                                                                      
   EATOM  =   409.7259 eV,   30.1140 Ry                                                             
                                                                                                    
   TITEL  = PAW_PBE Cl 06Sep2000                                                                    
   LULTRA =        F    use ultrasoft PP ?                                                          
   IUNSCR =        1    unscreen: 0-lin 1-nonlin 2-no                                               
   RPACOR =    1.500    partial core radius                                                         
   POMASS =   35.453; ZVAL   =    7.000    mass and valenz                                          
   RCORE  =    1.900    outmost cutoff radius                                                       
   RWIGS  =    2.100; RWIGS  =    1.111    wigner-seitz radius (au A)                               
   ENMAX  =  262.472; ENMIN  =  196.854 eV                                                          
   ICORE  =        2    local potential                                                             
   LCOR   =        T    correct aug charges                                                         
   LPAW   =        T    paw PP                                                                      
   EAUG   =  356.192                                                                                
   DEXC   =    0.000                                                                                
   RMAX   =    1.945    core radius for proj-oper                                                   
   RAUG   =    1.300    factor for augmentation sphere                                              
   RDEP   =    2.020    radius for radial grids                                                     
   RDEPT  =    1.678    core radius for aug-charge                                                  
                                                                                                    
   Atomic configuration                                                                             
    6 entries                                                                                       
     n  l   j            E        occ.                                                              
     1  0  0.50     -2751.1850   2.0000                                                             
     2  0  0.50      -252.6861   2.0000                                                             
     2  1  1.50      -191.6157   6.0000                                                             
     3  0  0.50       -20.6916   2.0000                                                             
     3  1  0.50        -8.5949   5.0000                                                             
     3  2  1.50        -8.1635   0.0000                                                             
   Description                                                                                      
     l       E           TYP  RCUT    TYP  RCUT                                                     
     0    -20.6915656     23  1.900                                                                 
     0    -22.0521482     23  1.900                                                                 
     1     -8.5948577     23  1.900                                                                 
     1     -5.3847331     23  1.900                                                                 
     2     -8.1634956     23  1.900                                                                 
  local pseudopotential read in
  partial core-charges read in
  partial kinetic energy density read in
  atomic valenz-charges read in
  non local Contribution for L=           0  read in
    real space projection operators read in
  non local Contribution for L=           0  read in
    real space projection operators read in
  non local Contribution for L=           1  read in
    real space projection operators read in
  non local Contribution for L=           1  read in
    real space projection operators read in
    PAW grid and wavefunctions read in

   number of l-projection  operators is LMAX  =           4
   number of lm-projection operators is LMMAX =           8

 Optimization of the real space projectors (new method)

 maximal supplied QI-value         = 15.12
 optimisation between [QCUT,QGAM] = [ 10.13, 20.41] = [ 28.73,116.64] Ry 
 Optimized for a Real-space Cutoff    1.55 Angstroem

   l    n(q)    QCUT    max X(q) W(low)/X(q) W(high)/X(q)  e(spline) 
   2      9    10.129    94.395    0.23E-03    0.29E-03    0.30E-06
   2      9    10.129    88.078    0.23E-03    0.29E-03    0.30E-06
   0      9    10.129    50.173    0.57E-04    0.58E-04    0.11E-06
   0      9    10.129    24.906    0.50E-04    0.51E-04    0.96E-07
   1      9    10.129    12.133    0.24E-03    0.21E-04    0.16E-06
   1      9    10.129     7.290    0.17E-03    0.12E-04    0.12E-06
 Optimization of the real space projectors (new method)

 maximal supplied QI-value         = 19.84
 optimisation between [QCUT,QGAM] = [ 10.12, 20.44] = [ 28.68,116.96] Ry 
 Optimized for a Real-space Cutoff    1.42 Angstroem

   l    n(q)    QCUT    max X(q) W(low)/X(q) W(high)/X(q)  e(spline) 
   0      9    10.119   168.010    0.50E-04    0.84E-04    0.57E-07
   0      9    10.119   164.674    0.49E-04    0.82E-04    0.55E-07
   1      8    10.119    69.222    0.16E-03    0.16E-03    0.24E-06
   1      8    10.119    56.786    0.16E-03    0.16E-03    0.23E-06
  PAW_PBE Cr 06Sep2000                  :
 energy of atom  1       EATOM= -276.8859
 kinetic energy error for atom=    0.0018 (will be added to EATOM!!)
  PAW_PBE Cl 06Sep2000                  :
 energy of atom  2       EATOM= -409.7259
 kinetic energy error for atom=    0.0089 (will be added to EATOM!!)


 POSCAR: CrCl3 2x2 Clean Substrate (no_vdw, U=0)
  positions in direct lattice
  No initial velocities read in
 exchange correlation table for  LEXCH =        8
   RHO(1)=    0.500       N(1)  =     2000
   RHO(2)=  100.500       N(2)  =     4000



--------------------------------------------------------------------------------------------------------


 ion  position               nearest neighbor table
   1  0.167  0.333  0.500-  11 2.36  14 2.36  12 2.36  16 2.36   9 2.36  13 2.36
   2  0.333  0.167  0.500-  11 2.36  14 2.36  19 2.36  21 2.36  10 2.36  24 2.36
   3  0.667  0.333  0.500-  17 2.36  20 2.36  18 2.36  10 2.36  19 2.36  15 2.36
   4  0.833  0.167  0.500-  17 2.36  20 2.36  13 2.36  27 2.36  16 2.36  30 2.36
   5  0.167  0.833  0.500-  23 2.36  26 2.36  24 2.36  28 2.36  21 2.36  25 2.36
   6  0.333  0.667  0.500-  23 2.36  26 2.36   9 2.36  31 2.36  22 2.36  12 2.36
   7  0.667  0.833  0.500-  29 2.36  32 2.36  30 2.36  22 2.36  31 2.36  27 2.36
   8  0.833  0.667  0.500-  29 2.36  32 2.36  15 2.36  25 2.36  18 2.36  28 2.36
   9  0.180  0.500  0.433-   6 2.36   1 2.36
  10  0.500  0.180  0.433-   3 2.36   2 2.36
  11  0.320  0.320  0.433-   1 2.36   2 2.36
  12  0.320  0.500  0.567-   1 2.36   6 2.36
  13  0.000  0.320  0.567-   4 2.36   1 2.36
  14  0.180  0.180  0.567-   1 2.36   2 2.36
  15  0.680  0.500  0.433-   8 2.36   3 2.36
  16  0.000  0.180  0.433-   1 2.36   4 2.36
  17  0.820  0.320  0.433-   3 2.36   4 2.36
  18  0.820  0.500  0.567-   3 2.36   8 2.36
  19  0.500  0.320  0.567-   2 2.36   3 2.36
  20  0.680  0.180  0.567-   3 2.36   4 2.36
  21  0.180  0.000  0.433-   2 2.36   5 2.36
  22  0.500  0.680  0.433-   7 2.36   6 2.36
  23  0.320  0.820  0.433-   5 2.36   6 2.36
  24  0.320  0.000  0.567-   5 2.36   2 2.36
  25  0.000  0.820  0.567-   8 2.36   5 2.36
  26  0.180  0.680  0.567-   5 2.36   6 2.36
  27  0.680  0.000  0.433-   4 2.36   7 2.36
  28  0.000  0.680  0.433-   5 2.36   8 2.36
  29  0.820  0.820  0.433-   7 2.36   8 2.36
  30  0.820  0.000  0.567-   7 2.36   4 2.36
  31  0.500  0.820  0.567-   6 2.36   7 2.36
  32  0.680  0.680  0.567-   7 2.36   8 2.36

  LATTYP: Found a hexagonal cell.
 ALAT       =    12.0925489970
 C/A-ratio  =     1.6539110162
  
  Lattice vectors:
  
 A1 = (  12.0925489970,   0.0000000000,   0.0000000000)
 A2 = (  -6.0462744985,  10.4724546280,   0.0000000000)
 A3 = (   0.0000000000,   0.0000000000,  20.0000000000)


Analysis of symmetry for initial positions (statically):
=====================================================================
 Subroutine PRICEL returns following result:
 
  LATTYP: Found a hexagonal cell.
 ALAT       =     6.0462744985
 C/A-ratio  =     3.3078220324
  
  Lattice vectors:
  
 A1 = (   6.0462744985,   0.0000000000,   0.0000000000)
 A2 = (  -3.0231372493,   5.2362273140,   0.0000000000)
 A3 = (   0.0000000000,   0.0000000000,  20.0000000000)
 
   4 primitive cells build up your supercell.
 

 Routine SETGRP: Setting up the symmetry group for a 
 hexagonal supercell.


 Subroutine GETGRP returns: Found 12 space group operations
 (whereof 12 operations were pure point group operations)
 out of a pool of 24 trial point group operations.


The static configuration has the point symmetry D_3d.


Analysis of symmetry for dynamics (positions and initial velocities):
=====================================================================
 Subroutine PRICEL returns following result:
 
  LATTYP: Found a hexagonal cell.
 ALAT       =     6.0462744985
 C/A-ratio  =     3.3078220324
  
  Lattice vectors:
  
 A1 = (   6.0462744985,   0.0000000000,   0.0000000000)
 A2 = (  -3.0231372493,   5.2362273140,   0.0000000000)
 A3 = (   0.0000000000,   0.0000000000,  20.0000000000)
 
   4 primitive cells build up your supercell.
 

 Routine SETGRP: Setting up the symmetry group for a 
 hexagonal supercell.


 Subroutine GETGRP returns: Found 12 space group operations
 (whereof 12 operations were pure point group operations)
 out of a pool of 24 trial point group operations.


The dynamic configuration has the point symmetry D_3d.


Analysis of structural, dynamic, and magnetic symmetry:
=====================================================================
 Subroutine PRICEL returns following result:
 
  LATTYP: Found a hexagonal cell.
 ALAT       =     6.0462744985
 C/A-ratio  =     3.3078220324
  
  Lattice vectors:
  
 A1 = (   6.0462744985,   0.0000000000,   0.0000000000)
 A2 = (  -3.0231372493,   5.2362273140,   0.0000000000)
 A3 = (   0.0000000000,   0.0000000000,  20.0000000000)
 
   4 primitive cells build up your supercell.
 

 Routine SETGRP: Setting up the symmetry group for a 
 hexagonal supercell.


 Subroutine GETGRP returns: Found 12 space group operations
 (whereof 12 operations were pure point group operations)
 out of a pool of 24 trial point group operations.


The overall configuration has the point symmetry D_3d.


 Subroutine INISYM returns: Found 12 space group operations
 (whereof 12 operations are pure point group operations),
 and found     4 'primitive' translations


----------------------------------------------------------------------------------------

                                     Primitive cell                                     

  volume of cell :     633.1934

  direct lattice vectors                    reciprocal lattice vectors
     6.046274499  0.000000000  0.000000000     0.165391102  0.095488597 -0.000000000
    -3.023137249  5.236227314  0.000000000     0.000000000  0.190977194  0.000000000
     0.000000000  0.000000000 20.000000000     0.000000000 -0.000000000  0.050000000

  length of vectors
     6.046274499  6.046274499 20.000000000     0.190977194  0.190977194  0.050000000

  position of ions in fractional coordinates (direct lattice)
     0.333333333  0.666666667  0.500000000
     0.666666667  0.333333333  0.500000000
     0.359300197  1.000000000  0.433213807
     1.000000000  0.359300197  0.433213807
     0.640699803  0.640699803  0.433213807
     0.640699803  1.000000000  0.566786193
     1.000000000  0.640699803  0.566786193
     0.359300197  0.359300197  0.566786193

  ion indices of the primitive-cell ions
   primitive index   ion index
                 1           1
                 2           2
                 3           9
                 4          16
                 5          11
                 6          12
                 7          13
                 8          14

----------------------------------------------------------------------------------------



 KPOINTS: K-Points 5x5x1 Gamma-centered (CrCl3 2x2

Automatic generation of k-mesh.
 Grid dimensions read from file:
 generate k-points for:    5    5    1

 Generating k-lattice:

  Cartesian coordinates                     Fractional coordinates (reciprocal lattice)
     0.016539110  0.009548860 -0.000000000     0.200000000 -0.000000000  0.000000000
     0.000000000  0.019097719  0.000000000     0.000000000  0.200000000  0.000000000
     0.000000000 -0.000000000  0.050000000     0.000000000  0.000000000  1.000000000

  Length of vectors
     0.019097719  0.019097719  0.050000000

  Shift w.r.t. Gamma in fractional coordinates (k-lattice)
     0.000000000  0.000000000  0.000000000

 
 Subroutine IBZKPT returns following result:
 ===========================================
 
 Found      5 irreducible k-points:
 
 Following reciprocal coordinates:
            Coordinates               Weight
  0.000000  0.000000  0.000000      1.000000
  0.200000  0.000000  0.000000      6.000000
  0.400000  0.000000  0.000000      6.000000
  0.200000  0.200000  0.000000      6.000000
  0.400000  0.200000  0.000000      6.000000
 
 Following cartesian coordinates:
            Coordinates               Weight
  0.000000  0.000000  0.000000      1.000000
  0.016539  0.009549  0.000000      6.000000
  0.033078  0.019098  0.000000      6.000000
  0.016539  0.028647  0.000000      6.000000
  0.033078  0.038195  0.000000      6.000000
 


--------------------------------------------------------------------------------------------------------




 Dimension of arrays:
   k-points           NKPTS =      5   k-points in BZ     NKDIM =      5   number of bands    NBANDS=    144
   number of dos      NEDOS =    301   number of ions     NIONS =     32
   non local maximal  LDIM  =      6   non local SUM 2l+1 LMDIM =     18
   total plane-waves  NPLWV = 896000
   max r-space proj   IRMAX =   5608   max aug-charges    IRDMAX=  18270
   dimension x,y,z NGX =    80 NGY =   80 NGZ =  140
   dimension x,y,z NGXF=   160 NGYF=  160 NGZF=  280
   support grid    NGXF=   160 NGYF=  160 NGZF=  280
   ions per type =               8  24
   NGX,Y,Z   is equivalent  to a cutoff of  11.00, 11.00, 11.64 a.u.
   NGXF,Y,Z  is equivalent  to a cutoff of  22.00, 22.00, 23.27 a.u.

 SYSTEM =  CrCl3 2x2 Clean Substrate (No vdW, U=0eV
 POSCAR =  CrCl3 2x2 Clean Substrate (no_vdw, U=0) 

 Startparameter for this run:
   NWRITE =      2    write-flag & timer
   PREC   = accura    normal or accurate (medium, high low for compatibility)
   ISTART =      0    job   : 0-new  1-cont  2-samecut
   ICHARG =      2    charge: 1-file 2-atom 10-const
   ISPIN  =      2    spin polarized calculation?
   LNONCOLLINEAR =      F non collinear calculations
   LSORBIT =      F    spin-orbit coupling
   INIWAV =      1    electr: 0-lowe 1-rand  2-diag
   LASPH  =      T    aspherical Exc in radial PAW
   METAGGA=      F    non-selfconsistent MetaGGA calc.

 Electronic Relaxation 1
   ENCUT  =  400.0 eV  29.40 Ry    5.42 a.u.  19.72 19.72 32.61*2*pi/ulx,y,z
   ENINI  =  400.0     initial cutoff
   ENAUG  =  402.1 eV  augmentation charge cutoff
   NELM   =    100;   NELMIN=  2; NELMDL= -5     # of ELM steps 
   EDIFF  = 0.1E-05   stopping-criterion for ELM
   LREAL  =      T    real-space projection
   NLSPLINE    = F    spline interpolate recip. space projectors
   LCOMPAT=      F    compatible to vasp.4.4
   GGA_COMPAT  = T    GGA compatible to vasp.4.4-vasp.4.6
   LMAXPAW     = -100 max onsite density
   LMAXMIX     =    4 max onsite mixed and CHGCAR
   VOSKOWN=      0    Vosko Wilk Nusair interpolation
   ROPT   =   -0.00025  -0.00025
 Ionic relaxation
   EDIFFG = -.3E-01   stopping-criterion for IOM
   NSW    =    100    number of steps for IOM
   NBLOCK =      1;   KBLOCK =    100    inner block; outer block 
   IBRION =      2    ionic relax: 0-MD 1-quasi-New 2-CG
   NFREE  =      1    steps in history (QN), initial steepest desc. (CG)
   ISIF   =      2    stress and relaxation
   IWAVPR =     11    prediction:  0-non 1-charg 2-wave 3-comb
   ISYM   =      2    0-nonsym 1-usesym 2-fastsym
   LCORR  =      T    Harris-Foulkes like correction to forces

   POTIM  = 0.5000    time-step for ionic-motion
   TEIN   =    0.0    initial temperature
   TEBEG  =    0.0;   TEEND  =   0.0 temperature during run
   SMASS  =  -3.00    Nose mass-parameter (am)
   estimated Nose-frequenzy (Omega)   =  0.10E-29 period in steps = 0.13E+47 mass=  -0.334E-26a.u.
   SCALEE = 1.0000    scale energy and forces
   NPACO  =    256;   APACO  = 16.0  distance and # of slots for P.C.
   PSTRESS=    0.0 pullay stress

  Mass of Ions in am
   POMASS =  52.00 35.45
  Ionic Valenz
   ZVAL   =   6.00  7.00
  Atomic Wigner-Seitz radii
   RWIGS  =  -1.00 -1.00
  virtual crystal weights 
   VCA    =   1.00  1.00
   NELECT =     216.0000    total number of electrons
   NUPDOWN=      -1.0000    fix difference up-down

 DOS related values:
   EMIN   =  10.00;   EMAX   =-10.00  energy-range for DOS
   EFERMI =   0.00
   ISMEAR =     0;   SIGMA  =   0.05  broadening in eV -4-tet -1-fermi 0-gaus

 Electronic relaxation 2 (details)
   IALGO  =     38    algorithm
   LDIAG  =      T    sub-space diagonalisation (order eigenvalues)
   LSUBROT=      F    optimize rotation matrix (better conditioning)
   TURBO    =      0    0=normal 1=particle mesh
   IRESTART =      0    0=no restart 2=restart with 2 vectors
   NREBOOT  =      0    no. of reboots
   NMIN     =      0    reboot dimension
   EREF     =   0.00    reference energy to select bands
   IMIX   =      4    mixing-type and parameters
     AMIX     =   0.40;   BMIX     =  1.00
     AMIX_MAG =   1.60;   BMIX_MAG =  1.00
     AMIN     =   0.10
     WC   =   100.;   INIMIX=   1;  MIXPRE=   1;  MAXMIX= -45

 Intra band minimization:
   WEIMIN = 0.0010     energy-eigenvalue tresh-hold
   EBREAK =  0.17E-08  absolut break condition
   DEPER  =   0.30     relativ break condition  

   TIME   =   0.40     timestep for ELM

  volume/ion in A,a.u.               =      79.15       534.12
  Fermi-wavevector in a.u.,A,eV,Ry     =   0.720600  1.361736  7.065011  0.519264
  Thomas-Fermi vector in A             =   1.810093

 Write flags
   LWAVE        =      F    write WAVECAR
   LDOWNSAMPLE  =      F    k-point downsampling of WAVECAR
   LCHARG       =      F    write CHGCAR
   LVTOT        =      F    write LOCPOT, total local potential
   LVHAR        =      F    write LOCPOT, Hartree potential only
   LELF         =      F    write electronic localiz. function (ELF)
   LORBIT       =      0    0 simple, 1 ext, 2 COOP (PROOUT), +10 PAW based schemes


 Dipole corrections
   LMONO  =      F    monopole corrections only (constant potential shift)
   LDIPOL =      T    correct potential (dipole corrections)
   IDIPOL =      3    1-x, 2-y, 3-z, 4-all directions 
   EPSILON=  1.0000000 bulk dielectric constant

 Exchange correlation treatment:
   GGA     =    --    GGA type
   LEXCH   =     8    internal setting for exchange type
   VOSKOWN=      0    Vosko Wilk Nusair interpolation
   LHFCALC =     F    Hartree Fock is set to
   LHFONE  =     F    Hartree Fock one center treatment
   AEXX    =    0.0000 exact exchange contribution

 Linear response parameters
   LEPSILON=     F    determine dielectric tensor
   LRPA    =     F    only Hartree local field effects (RPA)
   LNABLA  =     F    use nabla operator in PAW spheres
   LVEL    =     F    velocity operator in full k-point grid
   LINTERFAST=   F  fast interpolation
   KINTER  =     0    interpolate to denser k-point grid
   CSHIFT  =0.1000    complex shift for real part using Kramers Kronig
   OMEGAMAX=  -1.0    maximum frequency
   DEG_THRESHOLD= 0.2000000E-02 threshold for treating states as degnerate
   RTIME   =   -0.100 relaxation time in fs
  (WPLASMAI=    0.000 imaginary part of plasma frequency in eV, 0.658/RTIME)
   DFIELD  = 0.0000000 0.0000000 0.0000000 field for delta impulse in time

 Orbital magnetization related:
   ORBITALMAG=     F  switch on orbital magnetization
   LCHIMAG   =     F  perturbation theory with respect to B field
   DQ        =  0.001000  dq finite difference perturbation B field
   LLRAUG    =     F  two centre corrections for induced B field



--------------------------------------------------------------------------------------------------------


 conjugate gradient relaxation of ions
 charge density and potential will be updated during run
 spin polarized calculation
 Variant of blocked Davidson
 Davidson routine will perform the subspace rotation
 perform sub-space diagonalisation
    after iterative eigenvector-optimisation
 modified Broyden-mixing scheme, WC =      100.0
 initial mixing is a Kerker type mixing with AMIX =  0.4000 and BMIX =      1.0000
 Hartree-type preconditioning will be used
 using additional bands           36
 real space projection scheme for non local part
 use partial core corrections
 calculate Harris-corrections to forces   (improved forces if not selfconsistent)
 use gradient corrections 
 use of overlap-Matrix (Vanderbilt PP)
 Gauss-broadening in eV      SIGMA  =   0.05


--------------------------------------------------------------------------------------------------------


  energy-cutoff  :      400.00
  volume of cell :     2532.77
      direct lattice vectors                 reciprocal lattice vectors
    12.092548997  0.000000000  0.000000000     0.082695551  0.047744299 -0.000000000
    -6.046274499 10.472454628  0.000000000     0.000000000  0.095488597  0.000000000
     0.000000000  0.000000000 20.000000000     0.000000000 -0.000000000  0.050000000

  length of vectors
    12.092548997 12.092548997 20.000000000     0.095488597  0.095488597  0.050000000



 k-points in units of 2pi/SCALE and weight: K-Points 5x5x1 Gamma-centered (CrCl3 2x2
   0.00000000  0.00000000  0.00000000       0.040
   0.01653911  0.00954886  0.00000000       0.240
   0.03307822  0.01909772  0.00000000       0.240
   0.01653911  0.02864658  0.00000000       0.240
   0.03307822  0.03819544  0.00000000       0.240

 k-points in reciprocal lattice and weights: K-Points 5x5x1 Gamma-centered (CrCl3 2x2
   0.00000000  0.00000000  0.00000000       0.040
   0.20000000  0.00000000  0.00000000       0.240
   0.40000000  0.00000000  0.00000000       0.240
   0.20000000  0.20000000  0.00000000       0.240
   0.40000000  0.20000000  0.00000000       0.240

 position of ions in fractional coordinates (direct lattice) 
   0.16666667  0.33333333  0.50000000
   0.33333333  0.16666667  0.50000000
   0.66666667  0.33333333  0.50000000
   0.83333333  0.16666667  0.50000000
   0.16666667  0.83333333  0.50000000
   0.33333333  0.66666667  0.50000000
   0.66666667  0.83333333  0.50000000
   0.83333333  0.66666667  0.50000000
   0.17965010  0.50000000  0.43321381
   0.50000000  0.17965010  0.43321381
   0.32034990  0.32034990  0.43321381
   0.32034990  0.50000000  0.56678619
   0.00000000  0.32034990  0.56678619
   0.17965010  0.17965010  0.56678619
   0.67965010  0.50000000  0.43321381
   0.00000000  0.17965010  0.43321381
   0.82034990  0.32034990  0.43321381
   0.82034990  0.50000000  0.56678619
   0.50000000  0.32034990  0.56678619
   0.67965010  0.17965010  0.56678619
   0.17965010  0.00000000  0.43321381
   0.50000000  0.67965010  0.43321381
   0.32034990  0.82034990  0.43321381
   0.32034990  0.00000000  0.56678619
   0.00000000  0.82034990  0.56678619
   0.17965010  0.67965010  0.56678619
   0.67965010  0.00000000  0.43321381
   0.00000000  0.67965010  0.43321381
   0.82034990  0.82034990  0.43321381
   0.82034990  0.00000000  0.56678619
   0.50000000  0.82034990  0.56678619
   0.67965010  0.67965010  0.56678619

 position of ions in cartesian coordinates  (Angst):
   0.00000000  3.49081821 10.00000000
   3.02313725  1.74540910 10.00000000
   6.04627450  3.49081821 10.00000000
   9.06941175  1.74540910 10.00000000
  -3.02313725  8.72704552 10.00000000
  -0.00000000  6.98163642 10.00000000
   3.02313725  8.72704552 10.00000000
   6.04627450  6.98163642 10.00000000
  -0.85070963  5.23622731  8.66427613
   4.96006069  1.88137750  8.66427613
   1.93692344  3.35484981  8.66427613
   0.85070963  5.23622731 11.33572387
  -1.93692344  3.35484981 11.33572387
   1.08621381  1.88137750 11.33572387
   5.19556487  5.23622731  8.66427613
  -1.08621381  1.88137750  8.66427613
   7.98319794  3.35484981  8.66427613
   6.89698413  5.23622731 11.33572387
   4.10935106  3.35484981 11.33572387
   7.13248831  1.88137750 11.33572387
   2.17242762  0.00000000  8.66427613
   1.93692344  7.11760482  8.66427613
  -1.08621381  8.59107712  8.66427613
   3.87384688  0.00000000 11.33572387
  -4.96006069  8.59107712 11.33572387
  -1.93692344  7.11760482 11.33572387
   8.21870212  0.00000000  8.66427613
  -4.10935106  7.11760482  8.66427613
   4.96006069  8.59107712  8.66427613
   9.92012138  0.00000000 11.33572387
   1.08621381  8.59107712 11.33572387
   4.10935106  7.11760482 11.33572387



--------------------------------------------------------------------------------------------------------


 k-point   1 :   0.0000 0.0000 0.0000  plane waves:   46037
 k-point   2 :   0.2000 0.0000 0.0000  plane waves:   45994
 k-point   3 :   0.4000 0.0000 0.0000  plane waves:   46016
 k-point   4 :   0.2000 0.2000 0.0000  plane waves:   46056
 k-point   5 :   0.4000 0.2000 0.0000  plane waves:   46002

 maximum and minimum number of plane-waves per node :      5773     5734

 maximum number of plane-waves:     46056
 maximum index in each direction: 
   IXMAX=   19   IYMAX=   19   IZMAX=   32
   IXMIN=  -20   IYMIN=  -19   IZMIN=  -32


 real space projection operators:
  total allocation   :      12253.50 KBytes
  max/ min on nodes  :       1553.12       1517.62


 parallel 3D FFT for wavefunctions:
    minimum data exchange during FFTs selected (reduces bandwidth)
 parallel 3D FFT for charge:
    minimum data exchange during FFTs selected (reduces bandwidth)


 total amount of memory used by VASP MPI-rank0    79355. kBytes
=======================================================================

   base      :      30000. kBytes
   nonlr-proj:       4935. kBytes
   fftplans  :       7724. kBytes
   grid      :      19799. kBytes
   one-center:        124. kBytes
   wavefun   :      16773. kBytes

     INWAV:  cpu time    0.0000: real time    0.0000
 Broyden mixing: mesh for mixing (old mesh)
   NGX = 39   NGY = 39   NGZ = 65
  (NGX  =160   NGY  =160   NGZ  =280)
  gives a total of  98865 points

 initial charge density was supplied:
 charge density of overlapping atoms calculated
 number of electron     216.0000000 magnetization      24.0000000
 keeping initial charge density in first step


--------------------------------------------------------------------------------------------------------


 Maximum index for non-local projection operator          669
 Maximum index for augmentation-charges          687 (set IRDMAX)


--------------------------------------------------------------------------------------------------------


 First call to EWALD:  gamma=   0.130
 Maximum number of real-space cells 3x 3x 2
 Maximum number of reciprocal cells 2x 2x 4

    FEWALD:  cpu time    0.8110: real time    0.8147


--------------------------------------- Iteration      1(   1)  ---------------------------------------


    POTLOK:  cpu time   35.5076: real time   38.0419
    SETDIJ:  cpu time    0.9329: real time    0.9380
     EDDAV:  cpu time  383.7227: real time  403.3879
       DOS:  cpu time    1.1770: real time    1.1822
    --------------------------------------------
      LOOP:  cpu time  421.3402: real time  443.5501

 eigenvalue-minimisations  :  2952
 total energy-change (2. order) : 0.2073448E+04  (-0.6138548E+04)
 number of electron     216.0000000 magnetization      24.0000000
 augmentation part      216.0000000 magnetization      24.0000000

 DIPCOR: dipole corrections for dipol
 direction  3 min pos     1,
 dipolmoment           0.000000      0.000000      0.000000 electrons x Angstroem
 Tr[quadrupol]     -5192.239390

 energy correction for charged system         0.000000 eV
 dipol+quadrupol energy correction           -0.000000 eV
 added-field ion interaction         -0.000000 eV  (added to PSCEN)


 Free energy of the ion-electron system (eV)
  ---------------------------------------------------
  alpha Z        PSCENC =       108.75016756
  Ewald energy   TEWEN  =     24275.68319388
  -Hartree energ DENC   =    -34984.04498178
  -exchange      EXHF   =         0.00000000
  -V(xc)+E(xc)   XCENC  =       330.11137977
  PAW double counting   =     10019.25177992    -9864.60585945
  entropy T*S    EENTRO =        -0.03629649
  eigenvalues    EBANDS =       140.05841145
  atomic energy  EATOM  =     12048.28024412
  Solvation  Ediel_sol  =         0.00000000
  ---------------------------------------------------
  free energy    TOTEN  =      2073.44803899 eV

  energy without entropy =     2073.48433548  energy(sigma->0) =     2073.46618724


--------------------------------------------------------------------------------------------------------




--------------------------------------- Iteration      1(   2)  ---------------------------------------


     EDDAV:  cpu time   48.5713: real time   61.0048
       DOS:  cpu time    0.0011: real time    0.0011
    --------------------------------------------
      LOOP:  cpu time   48.5724: real time   61.0059

 eigenvalue-minimisations  :  3520
 total energy-change (2. order) :-0.1666042E+04  (-0.1547102E+04)
 number of electron     216.0000000 magnetization      24.0000000
 augmentation part      216.0000000 magnetization      24.0000000

 DIPCOR: dipole corrections for dipol
 direction  3 min pos     1,
 dipolmoment           0.000000      0.000000      0.000000 electrons x Angstroem
 Tr[quadrupol]     -5192.239390

 energy correction for charged system         0.000000 eV
 dipol+quadrupol energy correction           -0.000000 eV
 added-field ion interaction         -0.000000 eV  (added to PSCEN)


 Free energy of the ion-electron system (eV)
  ---------------------------------------------------
  alpha Z        PSCENC =       108.75016756
  Ewald energy   TEWEN  =     24275.68319388
  -Hartree energ DENC   =    -34984.04498178
  -exchange      EXHF   =         0.00000000
  -V(xc)+E(xc)   XCENC  =       330.11137977
  PAW double counting   =     10019.25177992    -9864.60585945
  entropy T*S    EENTRO =        -0.02155277
  eigenvalues    EBANDS =     -1525.99859267
  atomic energy  EATOM  =     12048.28024412
  Solvation  Ediel_sol  =         0.00000000
  ---------------------------------------------------
  free energy    TOTEN  =       407.40577859 eV

  energy without entropy =      407.42733136  energy(sigma->0) =      407.41655498


--------------------------------------------------------------------------------------------------------




--------------------------------------- Iteration      1(   3)  ---------------------------------------


     EDDAV:  cpu time    6.0329: real time    6.0796
       DOS:  cpu time    0.0007: real time    0.0007
    --------------------------------------------
      LOOP:  cpu time    6.0336: real time    6.0804

 eigenvalue-minimisations  :  4112
 total energy-change (2. order) :-0.5352093E+03  (-0.5195134E+03)
 number of electron     216.0000000 magnetization      24.0000000
 augmentation part      216.0000000 magnetization      24.0000000

 DIPCOR: dipole corrections for dipol
 direction  3 min pos     1,
 dipolmoment           0.000000      0.000000      0.000000 electrons x Angstroem
 Tr[quadrupol]     -5192.239390

 energy correction for charged system         0.000000 eV
 dipol+quadrupol energy correction           -0.000000 eV
 added-field ion interaction         -0.000000 eV  (added to PSCEN)


 Free energy of the ion-electron system (eV)
  ---------------------------------------------------
  alpha Z        PSCENC =       108.75016756
  Ewald energy   TEWEN  =     24275.68319388
  -Hartree energ DENC   =    -34984.04498178
  -exchange      EXHF   =         0.00000000
  -V(xc)+E(xc)   XCENC  =       330.11137977
  PAW double counting   =     10019.25177992    -9864.60585945
  entropy T*S    EENTRO =        -0.00000000
  eigenvalues    EBANDS =     -2061.22943174
  atomic energy  EATOM  =     12048.28024412
  Solvation  Ediel_sol  =         0.00000000
  ---------------------------------------------------
  free energy    TOTEN  =      -127.80350771 eV

  energy without entropy =     -127.80350771  energy(sigma->0) =     -127.80350771


--------------------------------------------------------------------------------------------------------




--------------------------------------- Iteration      1(   4)  ---------------------------------------


     EDDAV:  cpu time    6.2317: real time    6.3048
       DOS:  cpu time    0.0006: real time    0.0006
    --------------------------------------------
      LOOP:  cpu time    6.2324: real time    6.3054

 eigenvalue-minimisations  :  4432
 total energy-change (2. order) :-0.4430300E+02  (-0.4362592E+02)
 number of electron     216.0000000 magnetization      24.0000000
 augmentation part      216.0000000 magnetization      24.0000000

 DIPCOR: dipole corrections for dipol
 direction  3 min pos     1,
 dipolmoment           0.000000      0.000000      0.000000 electrons x Angstroem
 Tr[quadrupol]     -5192.239390

 energy correction for charged system         0.000000 eV
 dipol+quadrupol energy correction           -0.000000 eV
 added-field ion interaction         -0.000000 eV  (added to PSCEN)


 Free energy of the ion-electron system (eV)
  ---------------------------------------------------
  alpha Z        PSCENC =       108.75016756
  Ewald energy   TEWEN  =     24275.68319388
  -Hartree energ DENC   =    -34984.04498178
  -exchange      EXHF   =         0.00000000
  -V(xc)+E(xc)   XCENC  =       330.11137977
  PAW double counting   =     10019.25177992    -9864.60585945
  entropy T*S    EENTRO =        -0.00000000
  eigenvalues    EBANDS =     -2105.53242757
  atomic energy  EATOM  =     12048.28024412
  Solvation  Ediel_sol  =         0.00000000
  ---------------------------------------------------
  free energy    TOTEN  =      -172.10650354 eV

  energy without entropy =     -172.10650354  energy(sigma->0) =     -172.10650354


--------------------------------------------------------------------------------------------------------




--------------------------------------- Iteration      1(   5)  ---------------------------------------


     EDDAV:  cpu time    6.2019: real time    6.2660
       DOS:  cpu time    0.0005: real time    0.0005
    CHARGE:  cpu time    0.5466: real time    0.5496
    MIXING:  cpu time    0.0031: real time    0.0031
    --------------------------------------------
      LOOP:  cpu time    6.7521: real time    6.8192

 eigenvalue-minimisations  :  4408
 total energy-change (2. order) :-0.8693288E+00  (-0.8504477E+00)
 number of electron     215.9999982 magnetization      23.9999999
 augmentation part       -8.2949388 magnetization      13.5257612

 DIPCOR: dipole corrections for dipol
 direction  3 min pos     1,
 dipolmoment           0.000000      0.000000      0.000000 electrons x Angstroem
 Tr[quadrupol]     -5192.239390

 energy correction for charged system         0.000000 eV
 dipol+quadrupol energy correction           -0.000000 eV
 added-field ion interaction         -0.000000 eV  (added to PSCEN)


 Broyden mixing:
  rms(total) = 0.40766E+01    rms(broyden)= 0.40757E+01
  rms(prec ) = 0.43028E+01
  weight for this iteration     100.00

 Free energy of the ion-electron system (eV)
  ---------------------------------------------------
  alpha Z        PSCENC =       108.75016756
  Ewald energy   TEWEN  =     24275.68319388
  -Hartree energ DENC   =    -34984.04498178
  -exchange      EXHF   =         0.00000000
  -V(xc)+E(xc)   XCENC  =       330.11137977
  PAW double counting   =     10019.25177992    -9864.60585945
  entropy T*S    EENTRO =        -0.00000000
  eigenvalues    EBANDS =     -2106.40175636
  atomic energy  EATOM  =     12048.28024412
  Solvation  Ediel_sol  =         0.00000000
  ---------------------------------------------------
  free energy    TOTEN  =      -172.97583233 eV

  energy without entropy =     -172.97583233  energy(sigma->0) =     -172.97583233


--------------------------------------------------------------------------------------------------------




--------------------------------------- Iteration      1(   6)  ---------------------------------------


    POTLOK:  cpu time    0.1663: real time    0.1673
    SETDIJ:  cpu time    0.4759: real time    0.4782
     EDDAV:  cpu time    5.9919: real time    6.0268
       DOS:  cpu time    0.0007: real time    0.0007
    CHARGE:  cpu time    0.5498: real time    0.5525
    MIXING:  cpu time    0.0039: real time    0.0039
    --------------------------------------------
      LOOP:  cpu time    7.1885: real time    7.2294

 eigenvalue-minimisations  :  4288
 total energy-change (2. order) : 0.1047530E+02  (-0.1471394E+02)
 number of electron     215.9999984 magnetization      23.9999998
 augmentation part        3.3390524 magnetization      15.8686621

 DIPCOR: dipole corrections for dipol
 direction  3 min pos     1,
 dipolmoment           0.000000      0.000000      0.000000 electrons x Angstroem
 Tr[quadrupol]     -5190.927377

 energy correction for charged system         0.000000 eV
 dipol+quadrupol energy correction           -0.000000 eV
 added-field ion interaction         -0.000000 eV  (added to PSCEN)


 Broyden mixing:
  rms(total) = 0.41918E+01    rms(broyden)= 0.41917E+01
  rms(prec ) = 0.43339E+01
  weight for this iteration     100.00

 eigenvalues of (default mixing * dielectric matrix)
  average eigenvalue GAMMA=   0.3220
  0.3220

 Free energy of the ion-electron system (eV)
  ---------------------------------------------------
  alpha Z        PSCENC =       108.75016756
  Ewald energy   TEWEN  =     24275.68319388
  -Hartree energ DENC   =    -34930.48590642
  -exchange      EXHF   =         0.00000000
  -V(xc)+E(xc)   XCENC  =       342.29478811
  PAW double counting   =     11403.05575187   -11230.68784576
  entropy T*S    EENTRO =        -0.00000000
  eigenvalues    EBANDS =     -2179.39092551
  atomic energy  EATOM  =     12048.28024412
  Solvation  Ediel_sol  =         0.00000000
  ---------------------------------------------------
  free energy    TOTEN  =      -162.50053216 eV

  energy without entropy =     -162.50053216  energy(sigma->0) =     -162.50053216


--------------------------------------------------------------------------------------------------------




--------------------------------------- Iteration      1(   7)  ---------------------------------------


    POTLOK:  cpu time    0.1688: real time    0.1698
    SETDIJ:  cpu time    0.4803: real time    0.4826
     EDDAV:  cpu time    5.9388: real time    5.9755
       DOS:  cpu time    0.0008: real time    0.0008
    CHARGE:  cpu time    0.5461: real time    0.5484
    MIXING:  cpu time    0.0034: real time    0.0034
    --------------------------------------------
      LOOP:  cpu time    7.1381: real time    7.1807

 eigenvalue-minimisations  :  4200
 total energy-change (2. order) : 0.6517236E+01  (-0.2309702E+01)
 number of electron     215.9999983 magnetization      23.9999997
 augmentation part       -2.6588530 magnetization      15.9485650

 DIPCOR: dipole corrections for dipol
 direction  3 min pos     1,
 dipolmoment           0.000000      0.000000      0.000000 electrons x Angstroem
 Tr[quadrupol]     -5192.161208

 energy correction for charged system         0.000000 eV
 dipol+quadrupol energy correction           -0.000000 eV
 added-field ion interaction         -0.000000 eV  (added to PSCEN)


 Broyden mixing:
  rms(total) = 0.19881E+01    rms(broyden)= 0.19880E+01
  rms(prec ) = 0.19969E+01
  weight for this iteration     100.00

 eigenvalues of (default mixing * dielectric matrix)
  average eigenvalue GAMMA=   0.7288
  1.0687  0.3888

 Free energy of the ion-electron system (eV)
  ---------------------------------------------------
  alpha Z        PSCENC =       108.75016756
  Ewald energy   TEWEN  =     24275.68319388
  -Hartree energ DENC   =    -34973.86059366
  -exchange      EXHF   =         0.00000000
  -V(xc)+E(xc)   XCENC  =       340.76403762
  PAW double counting   =     12124.76054589   -11966.10909050
  entropy T*S    EENTRO =        -0.00000000
  eigenvalues    EBANDS =     -2114.25180091
  atomic energy  EATOM  =     12048.28024412
  Solvation  Ediel_sol  =         0.00000000
  ---------------------------------------------------
  free energy    TOTEN  =      -155.98329600 eV

  energy without entropy =     -155.98329600  energy(sigma->0) =     -155.98329600


--------------------------------------------------------------------------------------------------------




--------------------------------------- Iteration      1(   8)  ---------------------------------------


    POTLOK:  cpu time    0.1715: real time    0.1727
    SETDIJ:  cpu time    0.4843: real time    0.4865
     EDDAV:  cpu time    5.5297: real time    5.5639
       DOS:  cpu time    0.0007: real time    0.0007
    CHARGE:  cpu time    0.5476: real time    0.5505
    MIXING:  cpu time    0.0041: real time    0.0041
    --------------------------------------------
      LOOP:  cpu time    6.7379: real time    6.7784

 eigenvalue-minimisations  :  3744
 total energy-change (2. order) :-0.4874928E+00  (-0.5531225E+00)
 number of electron     215.9999983 magnetization      23.9999995
 augmentation part       -2.9347309 magnetization      16.1418095

 DIPCOR: dipole corrections for dipol
 direction  3 min pos     1,
 dipolmoment           0.000000      0.000000      0.000000 electrons x Angstroem
 Tr[quadrupol]     -5192.573936

 energy correction for charged system         0.000000 eV
 dipol+quadrupol energy correction           -0.000000 eV
 added-field ion interaction         -0.000000 eV  (added to PSCEN)


 Broyden mixing:
  rms(total) = 0.92083E+00    rms(broyden)= 0.92081E+00
  rms(prec ) = 0.94140E+00
  weight for this iteration     100.00

 eigenvalues of (default mixing * dielectric matrix)
  average eigenvalue GAMMA=   1.0353
  1.9826  0.6736  0.4499

 Free energy of the ion-electron system (eV)
  ---------------------------------------------------
  alpha Z        PSCENC =       108.75016756
  Ewald energy   TEWEN  =     24275.68319388
  -Hartree energ DENC   =    -34978.19869305
  -exchange      EXHF   =         0.00000000
  -V(xc)+E(xc)   XCENC  =       342.48031052
  PAW double counting   =     13587.05974477   -13434.09448670
  entropy T*S    EENTRO =        -0.00000000
  eigenvalues    EBANDS =     -2106.43126989
  atomic energy  EATOM  =     12048.28024412
  Solvation  Ediel_sol  =         0.00000000
  ---------------------------------------------------
  free energy    TOTEN  =      -156.47078880 eV

  energy without entropy =     -156.47078880  energy(sigma->0) =     -156.47078880


--------------------------------------------------------------------------------------------------------




--------------------------------------- Iteration      1(   9)  ---------------------------------------


    POTLOK:  cpu time    0.1674: real time    0.1684
    SETDIJ:  cpu time    0.4813: real time    0.4838
     EDDAV:  cpu time    6.1133: real time    6.1479
       DOS:  cpu time    0.0005: real time    0.0005
    CHARGE:  cpu time    0.5481: real time    0.5514
    MIXING:  cpu time    0.0049: real time    0.0049
    --------------------------------------------
      LOOP:  cpu time    7.3154: real time    7.3569

 eigenvalue-minimisations  :  4304
 total energy-change (2. order) : 0.2654098E+00  (-0.1120763E+00)
 number of electron     215.9999983 magnetization      23.9999995
 augmentation part       -1.8326627 magnetization      16.4331259

 DIPCOR: dipole corrections for dipol
 direction  3 min pos     1,
 dipolmoment           0.000000      0.000000      0.000000 electrons x Angstroem
 Tr[quadrupol]     -5192.962643

 energy correction for charged system         0.000000 eV
 dipol+quadrupol energy correction           -0.000000 eV
 added-field ion interaction          0.000000 eV  (added to PSCEN)


 Broyden mixing:
  rms(total) = 0.28233E+00    rms(broyden)= 0.28231E+00
  rms(prec ) = 0.28988E+00
  weight for this iteration     100.00

 eigenvalues of (default mixing * dielectric matrix)
  average eigenvalue GAMMA=   1.0554
  2.2856  0.8605  0.4615  0.6141

 Free energy of the ion-electron system (eV)
  ---------------------------------------------------
  alpha Z        PSCENC =       108.75016756
  Ewald energy   TEWEN  =     24275.68319388
  -Hartree energ DENC   =    -34987.62981629
  -exchange      EXHF   =         0.00000000
  -V(xc)+E(xc)   XCENC  =       344.52471748
  PAW double counting   =     14727.60624831   -14577.61877137
  entropy T*S    EENTRO =        -0.00000000
  eigenvalues    EBANDS =     -2095.80136268
  atomic energy  EATOM  =     12048.28024412
  Solvation  Ediel_sol  =         0.00000000
  ---------------------------------------------------
  free energy    TOTEN  =      -156.20537899 eV

  energy without entropy =     -156.20537899  energy(sigma->0) =     -156.20537899


--------------------------------------------------------------------------------------------------------




--------------------------------------- Iteration      1(  10)  ---------------------------------------


    POTLOK:  cpu time    1.1653: real time    1.1722
    SETDIJ:  cpu time    0.4841: real time    0.4880
     EDDAV:  cpu time    6.0778: real time    6.1149
       DOS:  cpu time    0.0005: real time    0.0005
    CHARGE:  cpu time    0.5434: real time    0.5459
    MIXING:  cpu time    0.0045: real time    0.0045
    --------------------------------------------
      LOOP:  cpu time    8.2756: real time    8.3260

 eigenvalue-minimisations  :  4248
 total energy-change (2. order) :-0.6573473E-02  (-0.2409093E-01)
 number of electron     215.9999983 magnetization      23.9999994
 augmentation part       -2.0272433 magnetization      16.3692597

 DIPCOR: dipole corrections for dipol
 direction  3 min pos     1,
 dipolmoment           0.000000      0.000000      0.000000 electrons x Angstroem
 Tr[quadrupol]     -5193.158526

 energy correction for charged system         0.000000 eV
 dipol+quadrupol energy correction           -0.000000 eV
 added-field ion interaction         -0.000000 eV  (added to PSCEN)


 Broyden mixing:
  rms(total) = 0.13136E+00    rms(broyden)= 0.13135E+00
  rms(prec ) = 0.13434E+00
  weight for this iteration     100.00

 eigenvalues of (default mixing * dielectric matrix)
  average eigenvalue GAMMA=   1.0855
  2.4761  1.1596  0.4565  0.6833  0.6520

 Free energy of the ion-electron system (eV)
  ---------------------------------------------------
  alpha Z        PSCENC =       108.75016756
  Ewald energy   TEWEN  =     24275.68319388
  -Hartree energ DENC   =    -34993.24929757
  -exchange      EXHF   =         0.00000000
  -V(xc)+E(xc)   XCENC  =       344.74339299
  PAW double counting   =     14762.34168618   -14613.30677299
  entropy T*S    EENTRO =        -0.00000000
  eigenvalues    EBANDS =     -2089.45456663
  atomic energy  EATOM  =     12048.28024412
  Solvation  Ediel_sol  =         0.00000000
  ---------------------------------------------------
  free energy    TOTEN  =      -156.21195246 eV

  energy without entropy =     -156.21195246  energy(sigma->0) =     -156.21195246


--------------------------------------------------------------------------------------------------------




--------------------------------------- Iteration      1(  11)  ---------------------------------------


    POTLOK:  cpu time    0.1710: real time    0.1721
    SETDIJ:  cpu time    0.4848: real time    0.4870
     EDDAV:  cpu time    5.8353: real time    5.8788
       DOS:  cpu time    0.0008: real time    0.0008
    CHARGE:  cpu time    0.5304: real time    0.5340
    MIXING:  cpu time    0.0040: real time    0.0041
    --------------------------------------------
      LOOP:  cpu time    7.0264: real time    7.0769

 eigenvalue-minimisations  :  4112
 total energy-change (2. order) :-0.1330492E-01  (-0.1579273E-02)
 number of electron     215.9999983 magnetization      23.9999993
 augmentation part       -2.1344737 magnetization      16.3412731

 DIPCOR: dipole corrections for dipol
 direction  3 min pos     1,
 dipolmoment           0.000000      0.000000      0.000000 electrons x Angstroem
 Tr[quadrupol]     -5193.316239

 energy correction for charged system         0.000000 eV
 dipol+quadrupol energy correction           -0.000000 eV
 added-field ion interaction          0.000000 eV  (added to PSCEN)


 Broyden mixing:
  rms(total) = 0.53846E-01    rms(broyden)= 0.53843E-01
  rms(prec ) = 0.54916E-01
  weight for this iteration     100.00

 eigenvalues of (default mixing * dielectric matrix)
  average eigenvalue GAMMA=   1.1597
  2.5686  1.5324  1.0970  0.4555  0.6523  0.6523

 Free energy of the ion-electron system (eV)
  ---------------------------------------------------
  alpha Z        PSCENC =       108.75016756
  Ewald energy   TEWEN  =     24275.68319388
  -Hartree energ DENC   =    -34996.47578654
  -exchange      EXHF   =         0.00000000
  -V(xc)+E(xc)   XCENC  =       344.60802977
  PAW double counting   =     14827.16427875   -14678.50765718
  entropy T*S    EENTRO =        -0.00000000
  eigenvalues    EBANDS =     -2085.72772774
  atomic energy  EATOM  =     12048.28024412
  Solvation  Ediel_sol  =         0.00000000
  ---------------------------------------------------
  free energy    TOTEN  =      -156.22525739 eV

  energy without entropy =     -156.22525739  energy(sigma->0) =     -156.22525739


--------------------------------------------------------------------------------------------------------




--------------------------------------- Iteration      1(  12)  ---------------------------------------


    POTLOK:  cpu time    0.1684: real time    0.1700
    SETDIJ:  cpu time    0.4818: real time    0.4849
     EDDAV:  cpu time    5.8790: real time    5.9514
       DOS:  cpu time    0.0005: real time    0.0005
    CHARGE:  cpu time    0.5813: real time    0.5853
    MIXING:  cpu time    0.0035: real time    0.0036
    --------------------------------------------
      LOOP:  cpu time    7.1145: real time    7.1956

 eigenvalue-minimisations  :  4080
 total energy-change (2. order) :-0.2275176E-01  (-0.7378738E-03)
 number of electron     215.9999983 magnetization      23.9999993
 augmentation part       -2.1376522 magnetization      16.3287312

 DIPCOR: dipole corrections for dipol
 direction  3 min pos     1,
 dipolmoment           0.000000      0.000000      0.000000 electrons x Angstroem
 Tr[quadrupol]     -5193.513875

 energy correction for charged system         0.000000 eV
 dipol+quadrupol energy correction           -0.000000 eV
 added-field ion interaction         -0.000000 eV  (added to PSCEN)


 Broyden mixing:
  rms(total) = 0.28517E-01    rms(broyden)= 0.28516E-01
  rms(prec ) = 0.29420E-01
  weight for this iteration     100.00

 eigenvalues of (default mixing * dielectric matrix)
  average eigenvalue GAMMA=   1.1934
  2.3116  2.3116  1.2180  0.4556  0.7485  0.6831  0.6253

 Free energy of the ion-electron system (eV)
  ---------------------------------------------------
  alpha Z        PSCENC =       108.75016756
  Ewald energy   TEWEN  =     24275.68319388
  -Hartree energ DENC   =    -35000.18354732
  -exchange      EXHF   =         0.00000000
  -V(xc)+E(xc)   XCENC  =       344.56458684
  PAW double counting   =     14827.40988168   -14678.71687227
  entropy T*S    EENTRO =        -0.00000000
  eigenvalues    EBANDS =     -2082.03566364
  atomic energy  EATOM  =     12048.28024412
  Solvation  Ediel_sol  =         0.00000000
  ---------------------------------------------------
  free energy    TOTEN  =      -156.24800915 eV

  energy without entropy =     -156.24800915  energy(sigma->0) =     -156.24800915


--------------------------------------------------------------------------------------------------------




--------------------------------------- Iteration      1(  13)  ---------------------------------------


    POTLOK:  cpu time    0.1603: real time    0.1618
    SETDIJ:  cpu time    0.4887: real time    0.4924
     EDDAV:  cpu time    5.3799: real time    5.4344
       DOS:  cpu time    0.0009: real time    0.0009
    CHARGE:  cpu time    0.5326: real time    0.5375
    MIXING:  cpu time    0.0034: real time    0.0035
    --------------------------------------------
      LOOP:  cpu time    6.5657: real time    6.6305

 eigenvalue-minimisations  :  3800
 total energy-change (2. order) :-0.1228314E-01  (-0.8135773E-04)
 number of electron     215.9999983 magnetization      23.9999992
 augmentation part       -2.1404690 magnetization      16.3304980

 DIPCOR: dipole corrections for dipol
 direction  3 min pos     1,
 dipolmoment           0.000000      0.000000      0.000000 electrons x Angstroem
 Tr[quadrupol]     -5193.604952

 energy correction for charged system         0.000000 eV
 dipol+quadrupol energy correction           -0.000000 eV
 added-field ion interaction         -0.000000 eV  (added to PSCEN)


 Broyden mixing:
  rms(total) = 0.11573E-01    rms(broyden)= 0.11573E-01
  rms(prec ) = 0.13083E-01
  weight for this iteration     100.00

 eigenvalues of (default mixing * dielectric matrix)
  average eigenvalue GAMMA=   1.1636
  2.2522  2.2522  1.1322  1.1322  0.4555  0.8173  0.6335  0.6335

 Free energy of the ion-electron system (eV)
  ---------------------------------------------------
  alpha Z        PSCENC =       108.75016756
  Ewald energy   TEWEN  =     24275.68319388
  -Hartree energ DENC   =    -35002.15755298
  -exchange      EXHF   =         0.00000000
  -V(xc)+E(xc)   XCENC  =       344.58919240
  PAW double counting   =     14798.43229533   -14649.63212755
  entropy T*S    EENTRO =        -0.00000000
  eigenvalues    EBANDS =     -2080.20570505
  atomic energy  EATOM  =     12048.28024412
  Solvation  Ediel_sol  =         0.00000000
  ---------------------------------------------------
  free energy    TOTEN  =      -156.26029229 eV

  energy without entropy =     -156.26029229  energy(sigma->0) =     -156.26029229


--------------------------------------------------------------------------------------------------------




--------------------------------------- Iteration      1(  14)  ---------------------------------------


    POTLOK:  cpu time    2.9228: real time    3.0784
    SETDIJ:  cpu time    0.4904: real time    0.4927
     EDDAV:  cpu time    5.6704: real time    5.7262
       DOS:  cpu time    0.0006: real time    0.0006
    CHARGE:  cpu time    0.5340: real time    0.5378
    MIXING:  cpu time    0.0034: real time    0.0036
    --------------------------------------------
      LOOP:  cpu time    9.6217: real time    9.8392

 eigenvalue-minimisations  :  3928
 total energy-change (2. order) :-0.7931530E-02  (-0.2484873E-04)
 number of electron     215.9999983 magnetization      23.9999992
 augmentation part       -2.1372702 magnetization      16.3326966

 DIPCOR: dipole corrections for dipol
 direction  3 min pos     1,
 dipolmoment           0.000000      0.000000      0.000000 electrons x Angstroem
 Tr[quadrupol]     -5193.664790

 energy correction for charged system         0.000000 eV
 dipol+quadrupol energy correction           -0.000000 eV
 added-field ion interaction          0.000000 eV  (added to PSCEN)


 Broyden mixing:
  rms(total) = 0.79097E-02    rms(broyden)= 0.79096E-02
  rms(prec ) = 0.93743E-02
  weight for this iteration     100.00

 eigenvalues of (default mixing * dielectric matrix)
  average eigenvalue GAMMA=   1.1788
  2.2406  1.8215  1.6049  1.6049  0.9048  0.4555  0.6673  0.6673  0.6425

 Free energy of the ion-electron system (eV)
  ---------------------------------------------------
  alpha Z        PSCENC =       108.75016756
  Ewald energy   TEWEN  =     24275.68319388
  -Hartree energ DENC   =    -35003.47386664
  -exchange      EXHF   =         0.00000000
  -V(xc)+E(xc)   XCENC  =       344.60834538
  PAW double counting   =     14790.69563790   -14641.91901809
  entropy T*S    EENTRO =        -0.00000000
  eigenvalues    EBANDS =     -2078.89292792
  atomic energy  EATOM  =     12048.28024412
  Solvation  Ediel_sol  =         0.00000000
  ---------------------------------------------------
  free energy    TOTEN  =      -156.26822382 eV

  energy without entropy =     -156.26822382  energy(sigma->0) =     -156.26822382


--------------------------------------------------------------------------------------------------------




--------------------------------------- Iteration      1(  15)  ---------------------------------------


    POTLOK:  cpu time    0.1615: real time    0.1634
    SETDIJ:  cpu time    0.4800: real time    0.4835
     EDDAV:  cpu time    5.0003: real time    5.0475
       DOS:  cpu time    0.0006: real time    0.0006
    CHARGE:  cpu time    0.5628: real time    0.5693
    MIXING:  cpu time    0.0037: real time    0.0038
    --------------------------------------------
      LOOP:  cpu time    6.2089: real time    6.2681

 eigenvalue-minimisations  :  3272
 total energy-change (2. order) :-0.7577185E-02  (-0.1485978E-04)
 number of electron     215.9999983 magnetization      23.9999991
 augmentation part       -2.1367892 magnetization      16.3321336

 DIPCOR: dipole corrections for dipol
 direction  3 min pos     1,
 dipolmoment           0.000000      0.000000      0.000000 electrons x Angstroem
 Tr[quadrupol]     -5193.761925

 energy correction for charged system         0.000000 eV
 dipol+quadrupol energy correction           -0.000000 eV
 added-field ion interaction          0.000000 eV  (added to PSCEN)


 Broyden mixing:
  rms(total) = 0.36566E-02    rms(broyden)= 0.36566E-02
  rms(prec ) = 0.53635E-02
  weight for this iteration     100.00

 eigenvalues of (default mixing * dielectric matrix)
  average eigenvalue GAMMA=   1.2417
  2.4421  2.4421  1.6288  1.6288  1.0230  0.4555  0.8398  0.7082  0.6242  0.6242

 Free energy of the ion-electron system (eV)
  ---------------------------------------------------
  alpha Z        PSCENC =       108.75016756
  Ewald energy   TEWEN  =     24275.68319388
  -Hartree energ DENC   =    -35005.41388108
  -exchange      EXHF   =         0.00000000
  -V(xc)+E(xc)   XCENC  =       344.62993553
  PAW double counting   =     14778.64932360   -14629.87277835
  entropy T*S    EENTRO =        -0.00000000
  eigenvalues    EBANDS =     -2076.98200627
  atomic energy  EATOM  =     12048.28024412
  Solvation  Ediel_sol  =         0.00000000
  ---------------------------------------------------
  free energy    TOTEN  =      -156.27580100 eV

  energy without entropy =     -156.27580100  energy(sigma->0) =     -156.27580100


--------------------------------------------------------------------------------------------------------




--------------------------------------- Iteration      1(  16)  ---------------------------------------


    POTLOK:  cpu time    0.9498: real time    0.9583
    SETDIJ:  cpu time    0.4957: real time    0.4995
     EDDAV:  cpu time    6.2426: real time    6.2948
       DOS:  cpu time    0.0006: real time    0.0006
    CHARGE:  cpu time    0.5629: real time    0.5656
    MIXING:  cpu time    0.0044: real time    0.0045
    --------------------------------------------
      LOOP:  cpu time    8.2560: real time    8.3233

 eigenvalue-minimisations  :  4088
 total energy-change (2. order) :-0.5320665E-02  (-0.1155295E-04)
 number of electron     215.9999983 magnetization      23.9999991
 augmentation part       -2.1312871 magnetization      16.3333461

 DIPCOR: dipole corrections for dipol
 direction  3 min pos     1,
 dipolmoment           0.000000      0.000000      0.000000 electrons x Angstroem
 Tr[quadrupol]     -5193.882575

 energy correction for charged system         0.000000 eV
 dipol+quadrupol energy correction           -0.000000 eV
 added-field ion interaction          0.000000 eV  (added to PSCEN)


 Broyden mixing:
  rms(total) = 0.31899E-02    rms(broyden)= 0.31898E-02
  rms(prec ) = 0.41530E-02
  weight for this iteration     100.00

 eigenvalues of (default mixing * dielectric matrix)
  average eigenvalue GAMMA=   1.2008
  2.4841  2.4841  1.5661  1.5661  1.1542  0.4555  0.7906  0.7906  0.6200  0.6200
  0.6780

 Free energy of the ion-electron system (eV)
  ---------------------------------------------------
  alpha Z        PSCENC =       108.75016756
  Ewald energy   TEWEN  =     24275.68319388
  -Hartree energ DENC   =    -35007.66055923
  -exchange      EXHF   =         0.00000000
  -V(xc)+E(xc)   XCENC  =       344.65507433
  PAW double counting   =     14771.77226620   -14622.98738785
  entropy T*S    EENTRO =        -0.00000000
  eigenvalues    EBANDS =     -2074.77412068
  atomic energy  EATOM  =     12048.28024412
  Solvation  Ediel_sol  =         0.00000000
  ---------------------------------------------------
  free energy    TOTEN  =      -156.28112167 eV

  energy without entropy =     -156.28112167  energy(sigma->0) =     -156.28112167


--------------------------------------------------------------------------------------------------------




--------------------------------------- Iteration      1(  17)  ---------------------------------------


    POTLOK:  cpu time    0.2205: real time    0.2217
    SETDIJ:  cpu time    0.4929: real time    0.4950
     EDDAV:  cpu time    5.5995: real time    5.6352
       DOS:  cpu time    0.0006: real time    0.0006
    CHARGE:  cpu time    0.5580: real time    0.5606
    MIXING:  cpu time    0.0042: real time    0.0042
    --------------------------------------------
      LOOP:  cpu time    6.8756: real time    6.9173

 eigenvalue-minimisations  :  3624
 total energy-change (2. order) :-0.1493788E-02  (-0.1838853E-05)
 number of electron     215.9999983 magnetization      23.9999991
 augmentation part       -2.1302200 magnetization      16.3343572

 DIPCOR: dipole corrections for dipol
 direction  3 min pos     1,
 dipolmoment           0.000000      0.000000      0.000000 electrons x Angstroem
 Tr[quadrupol]     -5193.936120

 energy correction for charged system         0.000000 eV
 dipol+quadrupol energy correction           -0.000000 eV
 added-field ion interaction         -0.000000 eV  (added to PSCEN)


 Broyden mixing:
  rms(total) = 0.20738E-02    rms(broyden)= 0.20738E-02
  rms(prec ) = 0.30317E-02
  weight for this iteration     100.00

 eigenvalues of (default mixing * dielectric matrix)
  average eigenvalue GAMMA=   1.3031
  2.8769  2.1081  2.1081  1.9604  1.6186  0.4555  0.9200  0.9200  0.7860  0.6268
  0.6268  0.6302

 Free energy of the ion-electron system (eV)
  ---------------------------------------------------
  alpha Z        PSCENC =       108.75016756
  Ewald energy   TEWEN  =     24275.68319388
  -Hartree energ DENC   =    -35008.49979563
  -exchange      EXHF   =         0.00000000
  -V(xc)+E(xc)   XCENC  =       344.66052032
  PAW double counting   =     14774.97010686   -14626.18219198
  entropy T*S    EENTRO =        -0.00000000
  eigenvalues    EBANDS =     -2073.94486059
  atomic energy  EATOM  =     12048.28024412
  Solvation  Ediel_sol  =         0.00000000
  ---------------------------------------------------
  free energy    TOTEN  =      -156.28261545 eV

  energy without entropy =     -156.28261545  energy(sigma->0) =     -156.28261545


--------------------------------------------------------------------------------------------------------




--------------------------------------- Iteration      1(  18)  ---------------------------------------


    POTLOK:  cpu time    0.2595: real time    0.2655
    SETDIJ:  cpu time    0.4928: real time    0.4950
     EDDAV:  cpu time    4.8832: real time    4.9419
       DOS:  cpu time    0.0005: real time    0.0005
    CHARGE:  cpu time    0.5560: real time    0.5662
    MIXING:  cpu time    0.0039: real time    0.0040
    --------------------------------------------
      LOOP:  cpu time    6.1960: real time    6.2731

 eigenvalue-minimisations  :  3024
 total energy-change (2. order) :-0.3414820E-02  (-0.1094592E-04)
 number of electron     215.9999983 magnetization      23.9999991
 augmentation part       -2.1319977 magnetization      16.3347782

 DIPCOR: dipole corrections for dipol
 direction  3 min pos     1,
 dipolmoment           0.000000      0.000000      0.000000 electrons x Angstroem
 Tr[quadrupol]     -5194.093705

 energy correction for charged system         0.000000 eV
 dipol+quadrupol energy correction           -0.000000 eV
 added-field ion interaction         -0.000000 eV  (added to PSCEN)


 Broyden mixing:
  rms(total) = 0.21642E-02    rms(broyden)= 0.21641E-02
  rms(prec ) = 0.23092E-02
  weight for this iteration     100.00

 eigenvalues of (default mixing * dielectric matrix)
  average eigenvalue GAMMA=   1.3741
  4.0924  2.3997  2.3997  1.5612  1.5612  1.1103  0.4555  0.8389  0.8389  0.7184
  0.6333  0.6333  0.6207

 Free energy of the ion-electron system (eV)
  ---------------------------------------------------
  alpha Z        PSCENC =       108.75016756
  Ewald energy   TEWEN  =     24275.68319388
  -Hartree energ DENC   =    -35010.99821448
  -exchange      EXHF   =         0.00000000
  -V(xc)+E(xc)   XCENC  =       344.67478482
  PAW double counting   =     14778.80000485   -14630.00693256
  entropy T*S    EENTRO =        -0.00000000
  eigenvalues    EBANDS =     -2071.46927846
  atomic energy  EATOM  =     12048.28024412
  Solvation  Ediel_sol  =         0.00000000
  ---------------------------------------------------
  free energy    TOTEN  =      -156.28603027 eV

  energy without entropy =     -156.28603027  energy(sigma->0) =     -156.28603027


--------------------------------------------------------------------------------------------------------




--------------------------------------- Iteration      1(  19)  ---------------------------------------


    POTLOK:  cpu time    0.1671: real time    0.1713
    SETDIJ:  cpu time    0.4873: real time    0.4964
     EDDAV:  cpu time    5.3097: real time    5.4446
       DOS:  cpu time    0.0005: real time    0.0005
    CHARGE:  cpu time    0.5523: real time    0.5564
    MIXING:  cpu time    0.0043: real time    0.0044
    --------------------------------------------
      LOOP:  cpu time    6.5213: real time    6.6737

 eigenvalue-minimisations  :  3456
 total energy-change (2. order) :-0.4036157E-03  (-0.1498590E-05)
 number of electron     215.9999983 magnetization      23.9999991
 augmentation part       -2.1328599 magnetization      16.3341262

 DIPCOR: dipole corrections for dipol
 direction  3 min pos     1,
 dipolmoment           0.000000      0.000000      0.000000 electrons x Angstroem
 Tr[quadrupol]     -5194.132272

 energy correction for charged system         0.000000 eV
 dipol+quadrupol energy correction           -0.000000 eV
 added-field ion interaction          0.000000 eV  (added to PSCEN)


 Broyden mixing:
  rms(total) = 0.85306E-03    rms(broyden)= 0.85302E-03
  rms(prec ) = 0.98954E-03
  weight for this iteration     100.00

 eigenvalues of (default mixing * dielectric matrix)
  average eigenvalue GAMMA=   1.4835
  5.6869  2.4519  2.4519  1.4997  1.4997  1.2355  1.2355  0.4555  0.8328  0.8328
  0.7009  0.6316  0.6316  0.6232

 Free energy of the ion-electron system (eV)
  ---------------------------------------------------
  alpha Z        PSCENC =       108.75016756
  Ewald energy   TEWEN  =     24275.68319388
  -Hartree energ DENC   =    -35011.62028266
  -exchange      EXHF   =         0.00000000
  -V(xc)+E(xc)   XCENC  =       344.67463749
  PAW double counting   =     14776.31490136   -14627.52237699
  entropy T*S    EENTRO =        -0.00000000
  eigenvalues    EBANDS =     -2070.84691864
  atomic energy  EATOM  =     12048.28024412
  Solvation  Ediel_sol  =         0.00000000
  ---------------------------------------------------
  free energy    TOTEN  =      -156.28643389 eV

  energy without entropy =     -156.28643389  energy(sigma->0) =     -156.28643389


--------------------------------------------------------------------------------------------------------




--------------------------------------- Iteration      1(  20)  ---------------------------------------


    POTLOK:  cpu time    0.1766: real time    0.1786
    SETDIJ:  cpu time    0.4968: real time    0.5008
     EDDAV:  cpu time    4.5571: real time    4.5849
       DOS:  cpu time    0.0007: real time    0.0007
    CHARGE:  cpu time    0.5518: real time    0.5541
    MIXING:  cpu time    0.0048: real time    0.0048
    --------------------------------------------
      LOOP:  cpu time    5.7878: real time    5.8240

 eigenvalue-minimisations  :  2848
 total energy-change (2. order) :-0.6501285E-04  (-0.5070028E-06)
 number of electron     215.9999983 magnetization      23.9999991
 augmentation part       -2.1323854 magnetization      16.3338955

 DIPCOR: dipole corrections for dipol
 direction  3 min pos     1,
 dipolmoment           0.000000      0.000000      0.000000 electrons x Angstroem
 Tr[quadrupol]     -5194.159761

 energy correction for charged system         0.000000 eV
 dipol+quadrupol energy correction           -0.000000 eV
 added-field ion interaction          0.000000 eV  (added to PSCEN)


 Broyden mixing:
  rms(total) = 0.45389E-03    rms(broyden)= 0.45387E-03
  rms(prec ) = 0.56257E-03
  weight for this iteration     100.00

 eigenvalues of (default mixing * dielectric matrix)
  average eigenvalue GAMMA=   1.5141
  6.4035  2.4955  2.4955  1.6449  1.6449  1.2640  1.1508  0.9576  0.4555  0.8198
  0.8198  0.6376  0.6376  0.6608  0.6236

 Free energy of the ion-electron system (eV)
  ---------------------------------------------------
  alpha Z        PSCENC =       108.75016756
  Ewald energy   TEWEN  =     24275.68319388
  -Hartree energ DENC   =    -35011.98982634
  -exchange      EXHF   =         0.00000000
  -V(xc)+E(xc)   XCENC  =       344.67630142
  PAW double counting   =     14774.78905121   -14625.99626375
  entropy T*S    EENTRO =        -0.00000000
  eigenvalues    EBANDS =     -2070.47936700
  atomic energy  EATOM  =     12048.28024412
  Solvation  Ediel_sol  =         0.00000000
  ---------------------------------------------------
  free energy    TOTEN  =      -156.28649890 eV

  energy without entropy =     -156.28649890  energy(sigma->0) =     -156.28649890


--------------------------------------------------------------------------------------------------------




--------------------------------------- Iteration      1(  21)  ---------------------------------------


    POTLOK:  cpu time    0.1716: real time    0.1727
    SETDIJ:  cpu time    0.4882: real time    0.4901
     EDDAV:  cpu time    3.8547: real time    3.8777
       DOS:  cpu time    0.0008: real time    0.0008
    CHARGE:  cpu time    0.5527: real time    0.5554
    MIXING:  cpu time    0.0048: real time    0.0048
    --------------------------------------------
      LOOP:  cpu time    5.0727: real time    5.1015

 eigenvalue-minimisations  :  2176
 total energy-change (2. order) :-0.1043797E-03  (-0.1562376E-06)
 number of electron     215.9999983 magnetization      23.9999991
 augmentation part       -2.1325808 magnetization      16.3338607

 DIPCOR: dipole corrections for dipol
 direction  3 min pos     1,
 dipolmoment           0.000000      0.000000      0.000000 electrons x Angstroem
 Tr[quadrupol]     -5194.179570

 energy correction for charged system         0.000000 eV
 dipol+quadrupol energy correction           -0.000000 eV
 added-field ion interaction          0.000000 eV  (added to PSCEN)


 Broyden mixing:
  rms(total) = 0.36962E-03    rms(broyden)= 0.36961E-03
  rms(prec ) = 0.43119E-03
  weight for this iteration     100.00

 eigenvalues of (default mixing * dielectric matrix)
  average eigenvalue GAMMA=   1.5533
  6.8681  2.5358  2.5358  2.2463  1.4861  1.4861  1.1563  1.1563  0.4555  0.8573
  0.8573  0.7228  0.6349  0.6349  0.6098  0.6098

 Free energy of the ion-electron system (eV)
  ---------------------------------------------------
  alpha Z        PSCENC =       108.75016756
  Ewald energy   TEWEN  =     24275.68319388
  -Hartree energ DENC   =    -35012.17119149
  -exchange      EXHF   =         0.00000000
  -V(xc)+E(xc)   XCENC  =       344.67616307
  PAW double counting   =     14775.23021779   -14626.43747705
  entropy T*S    EENTRO =        -0.00000000
  eigenvalues    EBANDS =     -2070.29792116
  atomic energy  EATOM  =     12048.28024412
  Solvation  Ediel_sol  =         0.00000000
  ---------------------------------------------------
  free energy    TOTEN  =      -156.28660328 eV

  energy without entropy =     -156.28660328  energy(sigma->0) =     -156.28660328


--------------------------------------------------------------------------------------------------------




--------------------------------------- Iteration      1(  22)  ---------------------------------------


    POTLOK:  cpu time    0.1627: real time    0.1637
    SETDIJ:  cpu time    0.4900: real time    0.4924
     EDDAV:  cpu time    3.7050: real time    3.7280
       DOS:  cpu time    0.0006: real time    0.0006
    CHARGE:  cpu time    0.5435: real time    0.5469
    MIXING:  cpu time    0.0045: real time    0.0045
    --------------------------------------------
      LOOP:  cpu time    4.9063: real time    4.9362

 eigenvalue-minimisations  :  2176
 total energy-change (2. order) :-0.7271344E-04  (-0.1303754E-06)
 number of electron     215.9999983 magnetization      23.9999991
 augmentation part       -2.1325811 magnetization      16.3338750

 DIPCOR: dipole corrections for dipol
 direction  3 min pos     1,
 dipolmoment           0.000000      0.000000      0.000000 electrons x Angstroem
 Tr[quadrupol]     -5194.193282

 energy correction for charged system         0.000000 eV
 dipol+quadrupol energy correction           -0.000000 eV
 added-field ion interaction          0.000000 eV  (added to PSCEN)


 Broyden mixing:
  rms(total) = 0.15432E-03    rms(broyden)= 0.15432E-03
  rms(prec ) = 0.21750E-03
  weight for this iteration     100.00

 eigenvalues of (default mixing * dielectric matrix)
  average eigenvalue GAMMA=   1.5527
  7.1123  2.9023  2.3647  2.3647  1.4806  1.4806  1.2354  1.2354  0.4555  0.8700
  0.8700  0.8213  0.6565  0.6565  0.6432  0.6235  0.6235

 Free energy of the ion-electron system (eV)
  ---------------------------------------------------
  alpha Z        PSCENC =       108.75016756
  Ewald energy   TEWEN  =     24275.68319388
  -Hartree energ DENC   =    -35012.26300818
  -exchange      EXHF   =         0.00000000
  -V(xc)+E(xc)   XCENC  =       344.67552905
  PAW double counting   =     14775.69468471   -14626.90177231
  entropy T*S    EENTRO =        -0.00000000
  eigenvalues    EBANDS =     -2070.20571481
  atomic energy  EATOM  =     12048.28024412
  Solvation  Ediel_sol  =         0.00000000
  ---------------------------------------------------
  free energy    TOTEN  =      -156.28667600 eV

  energy without entropy =     -156.28667600  energy(sigma->0) =     -156.28667600


--------------------------------------------------------------------------------------------------------




--------------------------------------- Iteration      1(  23)  ---------------------------------------


    POTLOK:  cpu time    0.1729: real time    0.1741
    SETDIJ:  cpu time    0.4914: real time    0.4936
     EDDAV:  cpu time    3.4727: real time    3.4948
       DOS:  cpu time    0.0005: real time    0.0005
    CHARGE:  cpu time    0.5284: real time    0.5307
    MIXING:  cpu time    0.0047: real time    0.0047
    --------------------------------------------
      LOOP:  cpu time    4.6705: real time    4.6984

 eigenvalue-minimisations  :  1944
 total energy-change (2. order) :-0.3292336E-04  (-0.4668478E-07)
 number of electron     215.9999983 magnetization      23.9999991
 augmentation part       -2.1325348 magnetization      16.3339375

 DIPCOR: dipole corrections for dipol
 direction  3 min pos     1,
 dipolmoment           0.000000      0.000000      0.000000 electrons x Angstroem
 Tr[quadrupol]     -5194.201640

 energy correction for charged system         0.000000 eV
 dipol+quadrupol energy correction           -0.000000 eV
 added-field ion interaction          0.000000 eV  (added to PSCEN)


 Broyden mixing:
  rms(total) = 0.12901E-03    rms(broyden)= 0.12901E-03
  rms(prec ) = 0.17391E-03
  weight for this iteration     100.00

 eigenvalues of (default mixing * dielectric matrix)
  average eigenvalue GAMMA=   1.5424
  7.2171  2.8828  2.4366  2.4366  1.5212  1.5212  1.4278  1.1091  1.1091  0.4555
  0.8468  0.8468  0.7468  0.6714  0.6714  0.6125  0.6256  0.6256

 Free energy of the ion-electron system (eV)
  ---------------------------------------------------
  alpha Z        PSCENC =       108.75016756
  Ewald energy   TEWEN  =     24275.68319388
  -Hartree energ DENC   =    -35012.29868914
  -exchange      EXHF   =         0.00000000
  -V(xc)+E(xc)   XCENC  =       344.67514845
  PAW double counting   =     14775.91234189   -14627.11874594
  entropy T*S    EENTRO =        -0.00000000
  eigenvalues    EBANDS =     -2070.17036974
  atomic energy  EATOM  =     12048.28024412
  Solvation  Ediel_sol  =         0.00000000
  ---------------------------------------------------
  free energy    TOTEN  =      -156.28670892 eV

  energy without entropy =     -156.28670892  energy(sigma->0) =     -156.28670892


--------------------------------------------------------------------------------------------------------




--------------------------------------- Iteration      1(  24)  ---------------------------------------


    POTLOK:  cpu time    0.1599: real time    0.1609
    SETDIJ:  cpu time    0.4867: real time    0.4886
     EDDAV:  cpu time    3.5813: real time    3.6053
       DOS:  cpu time    0.0005: real time    0.0005
    CHARGE:  cpu time    0.5362: real time    0.5387
    MIXING:  cpu time    0.0045: real time    0.0045
    --------------------------------------------
      LOOP:  cpu time    4.7691: real time    4.7985

 eigenvalue-minimisations  :  2144
 total energy-change (2. order) :-0.3540826E-04  (-0.1286664E-06)
 number of electron     215.9999983 magnetization      23.9999991
 augmentation part       -2.1323541 magnetization      16.3340098

 DIPCOR: dipole corrections for dipol
 direction  3 min pos     1,
 dipolmoment           0.000000      0.000000      0.000000 electrons x Angstroem
 Tr[quadrupol]     -5194.215399

 energy correction for charged system         0.000000 eV
 dipol+quadrupol energy correction           -0.000000 eV
 added-field ion interaction          0.000000 eV  (added to PSCEN)


 Broyden mixing:
  rms(total) = 0.19471E-03    rms(broyden)= 0.19471E-03
  rms(prec ) = 0.20824E-03
  weight for this iteration     100.00

 eigenvalues of (default mixing * dielectric matrix)
  average eigenvalue GAMMA=   1.5999
  7.4027  3.6820  2.8031  2.1707  2.1707  1.4625  1.4625  1.2091  1.2091  0.9043
  0.9043  0.4555  0.7971  0.6774  0.6774  0.6266  0.6266  0.6321  0.5239

 Free energy of the ion-electron system (eV)
  ---------------------------------------------------
  alpha Z        PSCENC =       108.75016756
  Ewald energy   TEWEN  =     24275.68319388
  -Hartree energ DENC   =    -35012.36202766
  -exchange      EXHF   =         0.00000000
  -V(xc)+E(xc)   XCENC  =       344.67547086
  PAW double counting   =     14775.98342409   -14627.19053260
  entropy T*S    EENTRO =        -0.00000000
  eigenvalues    EBANDS =     -2070.10668458
  atomic energy  EATOM  =     12048.28024412
  Solvation  Ediel_sol  =         0.00000000
  ---------------------------------------------------
  free energy    TOTEN  =      -156.28674433 eV

  energy without entropy =     -156.28674433  energy(sigma->0) =     -156.28674433


--------------------------------------------------------------------------------------------------------




--------------------------------------- Iteration      1(  25)  ---------------------------------------


    POTLOK:  cpu time    1.6629: real time    1.6711
    SETDIJ:  cpu time    0.4889: real time    0.4908
     EDDAV:  cpu time    3.4255: real time    3.4467
       DOS:  cpu time    0.0006: real time    0.0006
    CHARGE:  cpu time    0.5626: real time    0.5652
    MIXING:  cpu time    0.0052: real time    0.0053
    --------------------------------------------
      LOOP:  cpu time    6.1457: real time    6.1796

 eigenvalue-minimisations  :  1816
 total energy-change (2. order) :-0.9212979E-05  (-0.1773576E-07)
 number of electron     215.9999983 magnetization      23.9999991
 augmentation part       -2.1324805 magnetization      16.3339488

 DIPCOR: dipole corrections for dipol
 direction  3 min pos     1,
 dipolmoment           0.000000      0.000000      0.000000 electrons x Angstroem
 Tr[quadrupol]     -5194.221835

 energy correction for charged system         0.000000 eV
 dipol+quadrupol energy correction           -0.000000 eV
 added-field ion interaction          0.000000 eV  (added to PSCEN)


 Broyden mixing:
  rms(total) = 0.10489E-03    rms(broyden)= 0.10489E-03
  rms(prec ) = 0.11636E-03
  weight for this iteration     100.00

 eigenvalues of (default mixing * dielectric matrix)
  average eigenvalue GAMMA=   1.5969
  7.3963  4.3325  2.6579  2.3882  2.1701  1.4624  1.4624  1.2070  1.2070  0.9970
  0.8300  0.8300  0.4555  0.7529  0.7529  0.6313  0.6313  0.6176  0.5782  0.5782

 Free energy of the ion-electron system (eV)
  ---------------------------------------------------
  alpha Z        PSCENC =       108.75016756
  Ewald energy   TEWEN  =     24275.68319388
  -Hartree energ DENC   =    -35012.39307633
  -exchange      EXHF   =         0.00000000
  -V(xc)+E(xc)   XCENC  =       344.67538716
  PAW double counting   =     14775.84170343   -14627.04913160
  entropy T*S    EENTRO =        -0.00000000
  eigenvalues    EBANDS =     -2070.07524175
  atomic energy  EATOM  =     12048.28024412
  Solvation  Ediel_sol  =         0.00000000
  ---------------------------------------------------
  free energy    TOTEN  =      -156.28675354 eV

  energy without entropy =     -156.28675354  energy(sigma->0) =     -156.28675354


--------------------------------------------------------------------------------------------------------




--------------------------------------- Iteration      1(  26)  ---------------------------------------


    POTLOK:  cpu time    0.1683: real time    0.1693
    SETDIJ:  cpu time    0.4880: real time    0.4900
     EDDAV:  cpu time    3.0989: real time    3.1177
       DOS:  cpu time    0.0005: real time    0.0005
    CHARGE:  cpu time    0.5386: real time    0.5409
    MIXING:  cpu time    0.0051: real time    0.0051
    --------------------------------------------
      LOOP:  cpu time    4.2993: real time    4.3237

 eigenvalue-minimisations  :  1616
 total energy-change (2. order) :-0.5828402E-05  (-0.8614767E-08)
 number of electron     215.9999983 magnetization      23.9999991
 augmentation part       -2.1325169 magnetization      16.3339155

 DIPCOR: dipole corrections for dipol
 direction  3 min pos     1,
 dipolmoment           0.000000      0.000000      0.000000 electrons x Angstroem
 Tr[quadrupol]     -5194.224872

 energy correction for charged system         0.000000 eV
 dipol+quadrupol energy correction           -0.000000 eV
 added-field ion interaction         -0.000000 eV  (added to PSCEN)


 Broyden mixing:
  rms(total) = 0.39754E-04    rms(broyden)= 0.39754E-04
  rms(prec ) = 0.56270E-04
  weight for this iteration     100.00

 eigenvalues of (default mixing * dielectric matrix)
  average eigenvalue GAMMA=   1.5947
  7.4130  4.6740  2.6115  2.6115  2.1795  1.4415  1.4415  1.2293  1.2293  1.1242
  0.8769  0.8769  0.8737  0.4555  0.7187  0.7187  0.6320  0.6320  0.6047  0.6047
  0.5404

 Free energy of the ion-electron system (eV)
  ---------------------------------------------------
  alpha Z        PSCENC =       108.75016756
  Ewald energy   TEWEN  =     24275.68319388
  -Hartree energ DENC   =    -35012.40855028
  -exchange      EXHF   =         0.00000000
  -V(xc)+E(xc)   XCENC  =       344.67532910
  PAW double counting   =     14775.65212882   -14626.85922866
  entropy T*S    EENTRO =        -0.00000000
  eigenvalues    EBANDS =     -2070.06004391
  atomic energy  EATOM  =     12048.28024412
  Solvation  Ediel_sol  =         0.00000000
  ---------------------------------------------------
  free energy    TOTEN  =      -156.28675937 eV

  energy without entropy =     -156.28675937  energy(sigma->0) =     -156.28675937


--------------------------------------------------------------------------------------------------------




--------------------------------------- Iteration      1(  27)  ---------------------------------------


    POTLOK:  cpu time    0.1700: real time    0.1712
    SETDIJ:  cpu time    0.4909: real time    0.4929
     EDDAV:  cpu time    3.2332: real time    3.2538
       DOS:  cpu time    0.0005: real time    0.0005
    CHARGE:  cpu time    0.5347: real time    0.5371
    MIXING:  cpu time    0.0056: real time    0.0056
    --------------------------------------------
      LOOP:  cpu time    4.4348: real time    4.4611

 eigenvalue-minimisations  :  1696
 total energy-change (2. order) :-0.9935613E-05  (-0.9895668E-08)
 number of electron     215.9999983 magnetization      23.9999991
 augmentation part       -2.1325060 magnetization      16.3339425

 DIPCOR: dipole corrections for dipol
 direction  3 min pos     1,
 dipolmoment           0.000000      0.000000      0.000000 electrons x Angstroem
 Tr[quadrupol]     -5194.229058

 energy correction for charged system         0.000000 eV
 dipol+quadrupol energy correction           -0.000000 eV
 added-field ion interaction          0.000000 eV  (added to PSCEN)


 Broyden mixing:
  rms(total) = 0.74202E-04    rms(broyden)= 0.74202E-04
  rms(prec ) = 0.78732E-04
  weight for this iteration     100.00

 eigenvalues of (default mixing * dielectric matrix)
  average eigenvalue GAMMA=   1.6220
  7.5142  5.3452  2.7628  2.7628  2.2378  1.5269  1.5269  1.3760  1.3760  1.0203
  1.0203  0.8078  0.8078  0.4555  0.7698  0.7337  0.6355  0.6355  0.6234  0.6234
  0.5989  0.5228

 Free energy of the ion-electron system (eV)
  ---------------------------------------------------
  alpha Z        PSCENC =       108.75016756
  Ewald energy   TEWEN  =     24275.68319388
  -Hartree energ DENC   =    -35012.42435629
  -exchange      EXHF   =         0.00000000
  -V(xc)+E(xc)   XCENC  =       344.67521328
  PAW double counting   =     14775.64370620   -14626.85044719
  entropy T*S    EENTRO =        -0.00000000
  eigenvalues    EBANDS =     -2070.04449086
  atomic energy  EATOM  =     12048.28024412
  Solvation  Ediel_sol  =         0.00000000
  ---------------------------------------------------
  free energy    TOTEN  =      -156.28676930 eV

  energy without entropy =     -156.28676930  energy(sigma->0) =     -156.28676930


--------------------------------------------------------------------------------------------------------




--------------------------------------- Iteration      1(  28)  ---------------------------------------


    POTLOK:  cpu time    1.5150: real time    1.5219
    SETDIJ:  cpu time    0.4876: real time    0.4896
     EDDAV:  cpu time    3.6322: real time    3.6535
       DOS:  cpu time    0.0006: real time    0.0006
    CHARGE:  cpu time    0.5403: real time    0.5426
    MIXING:  cpu time    0.0056: real time    0.0056
    --------------------------------------------
      LOOP:  cpu time    6.1812: real time    6.2139

 eigenvalue-minimisations  :  1768
 total energy-change (2. order) :-0.6779117E-05  (-0.1181550E-07)
 number of electron     215.9999983 magnetization      23.9999991
 augmentation part       -2.1324912 magnetization      16.3339138

 DIPCOR: dipole corrections for dipol
 direction  3 min pos     1,
 dipolmoment           0.000000      0.000000      0.000000 electrons x Angstroem
 Tr[quadrupol]     -5194.232426

 energy correction for charged system         0.000000 eV
 dipol+quadrupol energy correction           -0.000000 eV
 added-field ion interaction          0.000000 eV  (added to PSCEN)


 Broyden mixing:
  rms(total) = 0.54475E-04    rms(broyden)= 0.54474E-04
  rms(prec ) = 0.56958E-04
  weight for this iteration     100.00

 eigenvalues of (default mixing * dielectric matrix)
  average eigenvalue GAMMA=   1.6394
  7.5871  5.8564  2.8186  2.7386  2.3608  1.9177  1.4780  1.4780  1.2460  1.2460
  0.9053  0.9053  0.8628  0.8628  0.4555  0.7154  0.7154  0.6277  0.6277  0.6130
  0.6130  0.5739  0.5020

 Free energy of the ion-electron system (eV)
  ---------------------------------------------------
  alpha Z        PSCENC =       108.75016756
  Ewald energy   TEWEN  =     24275.68319388
  -Hartree energ DENC   =    -35012.43919980
  -exchange      EXHF   =         0.00000000
  -V(xc)+E(xc)   XCENC  =       344.67538545
  PAW double counting   =     14775.58498372   -14626.79187181
  entropy T*S    EENTRO =        -0.00000000
  eigenvalues    EBANDS =     -2070.02967920
  atomic energy  EATOM  =     12048.28024412
  Solvation  Ediel_sol  =         0.00000000
  ---------------------------------------------------
  free energy    TOTEN  =      -156.28677608 eV

  energy without entropy =     -156.28677608  energy(sigma->0) =     -156.28677608


--------------------------------------------------------------------------------------------------------




--------------------------------------- Iteration      1(  29)  ---------------------------------------


    POTLOK:  cpu time    0.1678: real time    0.1688
    SETDIJ:  cpu time    0.4841: real time    0.4861
     EDDAV:  cpu time    3.0426: real time    3.0611
       DOS:  cpu time    0.0006: real time    0.0006
    CHARGE:  cpu time    0.5429: real time    0.5453
    MIXING:  cpu time    0.0052: real time    0.0052
    --------------------------------------------
      LOOP:  cpu time    4.2431: real time    4.2671

 eigenvalue-minimisations  :  1592
 total energy-change (2. order) :-0.3573759E-05  (-0.8392148E-08)
 number of electron     215.9999983 magnetization      23.9999991
 augmentation part       -2.1325191 magnetization      16.3339282

 DIPCOR: dipole corrections for dipol
 direction  3 min pos     1,
 dipolmoment           0.000000      0.000000      0.000000 electrons x Angstroem
 Tr[quadrupol]     -5194.234519

 energy correction for charged system         0.000000 eV
 dipol+quadrupol energy correction           -0.000000 eV
 added-field ion interaction          0.000000 eV  (added to PSCEN)


 Broyden mixing:
  rms(total) = 0.46345E-04    rms(broyden)= 0.46345E-04
  rms(prec ) = 0.47211E-04
  weight for this iteration     100.00

 eigenvalues of (default mixing * dielectric matrix)
  average eigenvalue GAMMA=   1.6659
  7.7085  6.3752  3.3607  2.5712  2.5712  2.1909  1.4966  1.4966  1.2015  1.2015
  0.9330  0.9330  0.9091  0.9091  0.8484  0.4555  0.6866  0.6866  0.6271  0.6271
  0.6143  0.5678  0.5678  0.4426

 Free energy of the ion-electron system (eV)
  ---------------------------------------------------
  alpha Z        PSCENC =       108.75016756
  Ewald energy   TEWEN  =     24275.68319388
  -Hartree energ DENC   =    -35012.44514815
  -exchange      EXHF   =         0.00000000
  -V(xc)+E(xc)   XCENC  =       344.67528803
  PAW double counting   =     14775.68793727   -14626.89480697
  entropy T*S    EENTRO =        -0.00000000
  eigenvalues    EBANDS =     -2070.02365539
  atomic energy  EATOM  =     12048.28024412
  Solvation  Ediel_sol  =         0.00000000
  ---------------------------------------------------
  free energy    TOTEN  =      -156.28677966 eV

  energy without entropy =     -156.28677966  energy(sigma->0) =     -156.28677966


--------------------------------------------------------------------------------------------------------




--------------------------------------- Iteration      1(  30)  ---------------------------------------


    POTLOK:  cpu time    1.5267: real time    1.5339
    SETDIJ:  cpu time    0.4852: real time    0.4873
     EDDAV:  cpu time    3.0581: real time    3.0801
       DOS:  cpu time    0.0006: real time    0.0006
    CHARGE:  cpu time    0.5408: real time    0.5436
    MIXING:  cpu time    0.0060: real time    0.0060
    --------------------------------------------
      LOOP:  cpu time    5.6173: real time    5.6515

 eigenvalue-minimisations  :  1608
 total energy-change (2. order) :-0.1059143E-05  (-0.5406695E-08)
 number of electron     215.9999983 magnetization      23.9999991
 augmentation part       -2.1325053 magnetization      16.3339224

 DIPCOR: dipole corrections for dipol
 direction  3 min pos     1,
 dipolmoment           0.000000      0.000000      0.000000 electrons x Angstroem
 Tr[quadrupol]     -5194.235394

 energy correction for charged system         0.000000 eV
 dipol+quadrupol energy correction           -0.000000 eV
 added-field ion interaction          0.000000 eV  (added to PSCEN)


 Broyden mixing:
  rms(total) = 0.19768E-04    rms(broyden)= 0.19767E-04
  rms(prec ) = 0.20340E-04
  weight for this iteration     100.00

 eigenvalues of (default mixing * dielectric matrix)
  average eigenvalue GAMMA=   1.7120
  7.8871  7.1790  3.7285  2.7169  2.4107  2.4107  1.4898  1.4898  1.3953  1.3953
  1.0848  1.0848  0.8445  0.8445  0.7927  0.7927  0.4555  0.7364  0.6319  0.6319
  0.6343  0.5969  0.5969  0.5316  0.4388

 Free energy of the ion-electron system (eV)
  ---------------------------------------------------
  alpha Z        PSCENC =       108.75016756
  Ewald energy   TEWEN  =     24275.68319388
  -Hartree energ DENC   =    -35012.44761734
  -exchange      EXHF   =         0.00000000
  -V(xc)+E(xc)   XCENC  =       344.67531286
  PAW double counting   =     14775.70658436   -14626.91347332
  entropy T*S    EENTRO =        -0.00000000
  eigenvalues    EBANDS =     -2070.02119283
  atomic energy  EATOM  =     12048.28024412
  Solvation  Ediel_sol  =         0.00000000
  ---------------------------------------------------
  free energy    TOTEN  =      -156.28678072 eV

  energy without entropy =     -156.28678072  energy(sigma->0) =     -156.28678072


--------------------------------------------------------------------------------------------------------




--------------------------------------- Iteration      1(  31)  ---------------------------------------


    POTLOK:  cpu time    0.1660: real time    0.1670
    SETDIJ:  cpu time    0.4783: real time    0.4806
     EDDAV:  cpu time    3.0118: real time    3.0352
       DOS:  cpu time    0.0004: real time    0.0004
    --------------------------------------------
      LOOP:  cpu time    3.6565: real time    3.6832

 eigenvalue-minimisations  :  1568
 total energy-change (2. order) :-0.5309357E-06  (-0.3342898E-08)
 number of electron     215.9999983 magnetization      23.9999991
 augmentation part       -2.1325053 magnetization      16.3339224

 DIPCOR: dipole corrections for dipol
 direction  3 min pos     1,
 dipolmoment           0.000000      0.000000      0.000000 electrons x Angstroem
 Tr[quadrupol]     -5194.235812

 energy correction for charged system         0.000000 eV
 dipol+quadrupol energy correction           -0.000000 eV
 added-field ion interaction          0.000000 eV  (added to PSCEN)


 Free energy of the ion-electron system (eV)
  ---------------------------------------------------
  alpha Z        PSCENC =       108.75016756
  Ewald energy   TEWEN  =     24275.68319388
  -Hartree energ DENC   =    -35012.44839792
  -exchange      EXHF   =         0.00000000
  -V(xc)+E(xc)   XCENC  =       344.67531180
  PAW double counting   =     14775.68860896   -14626.89554617
  entropy T*S    EENTRO =        -0.00000000
  eigenvalues    EBANDS =     -2070.02036348
  atomic energy  EATOM  =     12048.28024412
  Solvation  Ediel_sol  =         0.00000000
  ---------------------------------------------------
  free energy    TOTEN  =      -156.28678125 eV

  energy without entropy =     -156.28678125  energy(sigma->0) =     -156.28678125


--------------------------------------------------------------------------------------------------------




 average (electrostatic) potential at core
  the test charge radii are     1.1394  0.9406
  (the norm of the test charge is              1.0000)
       1 -52.8811       2 -52.8811       3 -52.8811       4 -52.8811       5 -52.8811
       6 -52.8811       7 -52.8811       8 -52.8811       9 -99.3083      10 -99.3083
      11 -99.3083      12 -99.3083      13 -99.3083      14 -99.3083      15 -99.3083
      16 -99.3083      17 -99.3083      18 -99.3083      19 -99.3083      20 -99.3083
      21 -99.3083      22 -99.3083      23 -99.3083      24 -99.3083      25 -99.3083
      26 -99.3083      27 -99.3083      28 -99.3083      29 -99.3083      30 -99.3083
      31 -99.3083      32 -99.3083



 E-fermi :  -4.1227     XC(G=0):  -2.9439     alpha+bet : -2.3820

 Fermi energy:        -4.1226837997

 spin component 1

 k-point     1 :       0.0000    0.0000    0.0000
  band No.  band energies     occupation 
      1     -19.6331      1.00000
      2     -19.2888      1.00000
      3     -19.2888      1.00000
      4     -19.2888      1.00000
      5     -19.0358      1.00000
      6     -19.0358      1.00000
      7     -19.0358      1.00000
      8     -18.8080      1.00000
      9     -18.7134      1.00000
     10     -18.7134      1.00000
     11     -18.7134      1.00000
     12     -18.6655      1.00000
     13     -18.6655      1.00000
     14     -18.6655      1.00000
     15     -18.6564      1.00000
     16     -18.6564      1.00000
     17     -18.6311      1.00000
     18     -18.6311      1.00000
     19     -18.6311      1.00000
     20     -18.5843      1.00000
     21     -18.5843      1.00000
     22     -18.5843      1.00000
     23     -18.5420      1.00000
     24     -18.5420      1.00000
     25      -9.3469      1.00000
     26      -9.3223      1.00000
     27      -9.3223      1.00000
     28      -9.3223      1.00000
     29      -8.9212      1.00000
     30      -8.7508      1.00000
     31      -8.7508      1.00000
     32      -8.7508      1.00000
     33      -8.5342      1.00000
     34      -8.5342      1.00000
     35      -8.5342      1.00000
     36      -8.4646      1.00000
     37      -8.4646      1.00000
     38      -8.4646      1.00000
     39      -8.4404      1.00000
     40      -8.4404      1.00000
     41      -8.4073      1.00000
     42      -8.4073      1.00000
     43      -8.2638      1.00000
     44      -8.2638      1.00000
     45      -8.2638      1.00000
     46      -8.2274      1.00000
     47      -8.2274      1.00000
     48      -8.2274      1.00000
     49      -8.1553      1.00000
     50      -8.1553      1.00000
     51      -8.1553      1.00000
     52      -7.9851      1.00000
     53      -7.9521      1.00000
     54      -7.9521      1.00000
     55      -7.6729      1.00000
     56      -7.6729      1.00000
     57      -7.6729      1.00000
     58      -7.5429      1.00000
     59      -7.5429      1.00000
     60      -7.5429      1.00000
     61      -7.4856      1.00000
     62      -7.4856      1.00000
     63      -7.4856      1.00000
     64      -7.2784      1.00000
     65      -7.2099      1.00000
     66      -7.2099      1.00000
     67      -7.1315      1.00000
     68      -7.1315      1.00000
     69      -7.1315      1.00000
     70      -7.0760      1.00000
     71      -7.0760      1.00000
     72      -7.0760      1.00000
     73      -6.6566      1.00000
     74      -6.6566      1.00000
     75      -6.6566      1.00000
     76      -6.4380      1.00000
     77      -6.4341      1.00000
     78      -6.4341      1.00000
     79      -6.4341      1.00000
     80      -6.1783      1.00000
     81      -6.1783      1.00000
     82      -6.1783      1.00000
     83      -6.1689      1.00000
     84      -6.1689      1.00000
     85      -6.1689      1.00000
     86      -6.1235      1.00000
     87      -6.0289      1.00000
     88      -6.0289      1.00000
     89      -5.8455      1.00000
     90      -5.8455      1.00000
     91      -5.8455      1.00000
     92      -5.7322      1.00000
     93      -5.7322      1.00000
     94      -5.7322      1.00000
     95      -5.6872      1.00000
     96      -5.6872      1.00000
     97      -5.2218      1.00000
     98      -5.2218      1.00000
     99      -5.2218      1.00000
    100      -5.2001      1.00000
    101      -4.8876      1.00000
    102      -4.8876      1.00000
    103      -4.8876      1.00000
    104      -4.8727      1.00000
    105      -4.8727      1.00000
    106      -4.8727      1.00000
    107      -4.8595      1.00000
    108      -4.8595      1.00000
    109      -4.7583      1.00000
    110      -4.6253      1.00000
    111      -4.6253      1.00000
    112      -4.6253      1.00000
    113      -4.5988      1.00000
    114      -4.5988      1.00000
    115      -4.5769      1.00000
    116      -4.5769      1.00000
    117      -4.5769      1.00000
    118      -4.3849      1.00000
    119      -4.3849      1.00000
    120      -4.3849      1.00000
    121      -2.6228      0.00000
    122      -2.6228      0.00000
    123      -2.6228      0.00000
    124      -2.5848      0.00000
    125      -2.5848      0.00000
    126      -2.5439      0.00000
    127      -2.5439      0.00000
    128      -2.5439      0.00000
    129      -2.4841      0.00000
    130      -2.4841      0.00000
    131      -2.4841      0.00000
    132      -2.4655      0.00000
    133      -2.4655      0.00000
    134      -2.4655      0.00000
    135      -2.3380      0.00000
    136      -2.3380      0.00000
    137       1.3598      0.00000
    138       1.9650      0.00000
    139       2.4692      0.00000
    140       2.9038      0.00000
    141       2.9038      0.00000
    142       2.9044      0.00000
    143       2.9849      0.00000
    144       2.9854      0.00000

 k-point     2 :       0.2000    0.0000    0.0000
  band No.  band energies     occupation 
      1     -19.6125      1.00000
      2     -19.3537      1.00000
      3     -19.2949      1.00000
      4     -19.2949      1.00000
      5     -19.0209      1.00000
      6     -19.0209      1.00000
      7     -18.9677      1.00000
      8     -18.8000      1.00000
      9     -18.7256      1.00000
     10     -18.7256      1.00000
     11     -18.7144      1.00000
     12     -18.6902      1.00000
     13     -18.6805      1.00000
     14     -18.6726      1.00000
     15     -18.6726      1.00000
     16     -18.6620      1.00000
     17     -18.6210      1.00000
     18     -18.6210      1.00000
     19     -18.6050      1.00000
     20     -18.5841      1.00000
     21     -18.5841      1.00000
     22     -18.5803      1.00000
     23     -18.5459      1.00000
     24     -18.5447      1.00000
     25      -9.3466      1.00000
     26      -9.3201      1.00000
     27      -9.2751      1.00000
     28      -9.2751      1.00000
     29      -8.9099      1.00000
     30      -8.7856      1.00000
     31      -8.7731      1.00000
     32      -8.7731      1.00000
     33      -8.5366      1.00000
     34      -8.5366      1.00000
     35      -8.5265      1.00000
     36      -8.4810      1.00000
     37      -8.4810      1.00000
     38      -8.4631      1.00000
     39      -8.4511      1.00000
     40      -8.4389      1.00000
     41      -8.4080      1.00000
     42      -8.3820      1.00000
     43      -8.3103      1.00000
     44      -8.3096      1.00000
     45      -8.3096      1.00000
     46      -8.2308      1.00000
     47      -8.2040      1.00000
     48      -8.2040      1.00000
     49      -8.1385      1.00000
     50      -8.1385      1.00000
     51      -8.1315      1.00000
     52      -8.0033      1.00000
     53      -7.9627      1.00000
     54      -7.9448      1.00000
     55      -7.8249      1.00000
     56      -7.8249      1.00000
     57      -7.7824      1.00000
     58      -7.6172      1.00000
     59      -7.6172      1.00000
     60      -7.6142      1.00000
     61      -7.3879      1.00000
     62      -7.2966      1.00000
     63      -7.2966      1.00000
     64      -7.2455      1.00000
     65      -7.1712      1.00000
     66      -7.1712      1.00000
     67      -7.1638      1.00000
     68      -7.1355      1.00000
     69      -7.0485      1.00000
     70      -6.9278      1.00000
     71      -6.8909      1.00000
     72      -6.8909      1.00000
     73      -6.6803      1.00000
     74      -6.6765      1.00000
     75      -6.6765      1.00000
     76      -6.4758      1.00000
     77      -6.4688      1.00000
     78      -6.4688      1.00000
     79      -6.4420      1.00000
     80      -6.2366      1.00000
     81      -6.2018      1.00000
     82      -6.1937      1.00000
     83      -6.1923      1.00000
     84      -6.1923      1.00000
     85      -6.1507      1.00000
     86      -6.1507      1.00000
     87      -6.0828      1.00000
     88      -5.9530      1.00000
     89      -5.8685      1.00000
     90      -5.8685      1.00000
     91      -5.8376      1.00000
     92      -5.8376      1.00000
     93      -5.8265      1.00000
     94      -5.8204      1.00000
     95      -5.7443      1.00000
     96      -5.7232      1.00000
     97      -5.1925      1.00000
     98      -5.1710      1.00000
     99      -5.1698      1.00000
    100      -5.1698      1.00000
    101      -4.8808      1.00000
    102      -4.8792      1.00000
    103      -4.8745      1.00000
    104      -4.8745      1.00000
    105      -4.8667      1.00000
    106      -4.8488      1.00000
    107      -4.8481      1.00000
    108      -4.8481      1.00000
    109      -4.7310      1.00000
    110      -4.6273      1.00000
    111      -4.6203      1.00000
    112      -4.6203      1.00000
    113      -4.5899      1.00000
    114      -4.5788      1.00000
    115      -4.5788      1.00000
    116      -4.5751      1.00000
    117      -4.5731      1.00000
    118      -4.4077      1.00000
    119      -4.4077      1.00000
    120      -4.3984      1.00000
    121      -2.6175      0.00000
    122      -2.6175      0.00000
    123      -2.6073      0.00000
    124      -2.5846      0.00000
    125      -2.5798      0.00000
    126      -2.5592      0.00000
    127      -2.5512      0.00000
    128      -2.5512      0.00000
    129      -2.5154      0.00000
    130      -2.5154      0.00000
    131      -2.4855      0.00000
    132      -2.4557      0.00000
    133      -2.4151      0.00000
    134      -2.4151      0.00000
    135      -2.3802      0.00000
    136      -2.3450      0.00000
    137       1.4515      0.00000
    138       2.0204      0.00000
    139       2.5008      0.00000
    140       2.5350      0.00000
    141       2.7175      0.00000
    142       2.7545      0.00000
    143       2.7545      0.00000
    144       2.9166      0.00000

 k-point     3 :       0.4000    0.0000    0.0000
  band No.  band energies     occupation 
      1     -19.5529      1.00000
      2     -19.4610      1.00000
      3     -19.3039      1.00000
      4     -19.3039      1.00000
      5     -18.9957      1.00000
      6     -18.9957      1.00000
      7     -18.8516      1.00000
      8     -18.7771      1.00000
      9     -18.7491      1.00000
     10     -18.7467      1.00000
     11     -18.7467      1.00000
     12     -18.7433      1.00000
     13     -18.6905      1.00000
     14     -18.6812      1.00000
     15     -18.6812      1.00000
     16     -18.6757      1.00000
     17     -18.6042      1.00000
     18     -18.6042      1.00000
     19     -18.5879      1.00000
     20     -18.5879      1.00000
     21     -18.5749      1.00000
     22     -18.5695      1.00000
     23     -18.5563      1.00000
     24     -18.5548      1.00000
     25      -9.3377      1.00000
     26      -9.3233      1.00000
     27      -9.1684      1.00000
     28      -9.1684      1.00000
     29      -8.8839      1.00000
     30      -8.8457      1.00000
     31      -8.8457      1.00000
     32      -8.8454      1.00000
     33      -8.5636      1.00000
     34      -8.5636      1.00000
     35      -8.5054      1.00000
     36      -8.4768      1.00000
     37      -8.4753      1.00000
     38      -8.4753      1.00000
     39      -8.4687      1.00000
     40      -8.4487      1.00000
     41      -8.4228      1.00000
     42      -8.4228      1.00000
     43      -8.3652      1.00000
     44      -8.3652      1.00000
     45      -8.2529      1.00000
     46      -8.1876      1.00000
     47      -8.1876      1.00000
     48      -8.1534      1.00000
     49      -8.1480      1.00000
     50      -8.1152      1.00000
     51      -8.1152      1.00000
     52      -8.0664      1.00000
     53      -7.9883      1.00000
     54      -7.9883      1.00000
     55      -7.9277      1.00000
     56      -7.9265      1.00000
     57      -7.8814      1.00000
     58      -7.8001      1.00000
     59      -7.5962      1.00000
     60      -7.5962      1.00000
     61      -7.2812      1.00000
     62      -7.2472      1.00000
     63      -7.2159      1.00000
     64      -7.2159      1.00000
     65      -7.1602      1.00000
     66      -7.1602      1.00000
     67      -6.9847      1.00000
     68      -6.9651      1.00000
     69      -6.8679      1.00000
     70      -6.7965      1.00000
     71      -6.7288      1.00000
     72      -6.7288      1.00000
     73      -6.6727      1.00000
     74      -6.5873      1.00000
     75      -6.5873      1.00000
     76      -6.5022      1.00000
     77      -6.4977      1.00000
     78      -6.4832      1.00000
     79      -6.4832      1.00000
     80      -6.3049      1.00000
     81      -6.2939      1.00000
     82      -6.2426      1.00000
     83      -6.2282      1.00000
     84      -6.2282      1.00000
     85      -6.2028      1.00000
     86      -6.1989      1.00000
     87      -6.1989      1.00000
     88      -6.0995      1.00000
     89      -6.0066      1.00000
     90      -6.0066      1.00000
     91      -5.8898      1.00000
     92      -5.8898      1.00000
     93      -5.8546      1.00000
     94      -5.8034      1.00000
     95      -5.7800      1.00000
     96      -5.7796      1.00000
     97      -5.1347      1.00000
     98      -5.1228      1.00000
     99      -5.1076      1.00000
    100      -5.1076      1.00000
    101      -4.8974      1.00000
    102      -4.8951      1.00000
    103      -4.8610      1.00000
    104      -4.8574      1.00000
    105      -4.8574      1.00000
    106      -4.8439      1.00000
    107      -4.8044      1.00000
    108      -4.8044      1.00000
    109      -4.6799      1.00000
    110      -4.6439      1.00000
    111      -4.6175      1.00000
    112      -4.6175      1.00000
    113      -4.5738      1.00000
    114      -4.5694      1.00000
    115      -4.5545      1.00000
    116      -4.5545      1.00000
    117      -4.5080      1.00000
    118      -4.4666      1.00000
    119      -4.4666      1.00000
    120      -4.4407      1.00000
    121      -2.6098      0.00000
    122      -2.6098      0.00000
    123      -2.5827      0.00000
    124      -2.5755      0.00000
    125      -2.5659      0.00000
    126      -2.5659      0.00000
    127      -2.5645      0.00000
    128      -2.5639      0.00000
    129      -2.5290      0.00000
    130      -2.5290      0.00000
    131      -2.5212      0.00000
    132      -2.4706      0.00000
    133      -2.4082      0.00000
    134      -2.3682      0.00000
    135      -2.3671      0.00000
    136      -2.3671      0.00000
    137       1.7019      0.00000
    138       2.0627      0.00000
    139       2.1758      0.00000
    140       2.4139      0.00000
    141       2.6137      0.00000
    142       2.6137      0.00000
    143       2.7283      0.00000
    144       2.8351      0.00000

 k-point     4 :       0.2000    0.2000    0.0000
  band No.  band energies     occupation 
      1     -19.5724      1.00000
      2     -19.3943      1.00000
      3     -19.3943      1.00000
      4     -19.2341      1.00000
      5     -19.0649      1.00000
      6     -18.9168      1.00000
      7     -18.9168      1.00000
      8     -18.7845      1.00000
      9     -18.7543      1.00000
     10     -18.7258      1.00000
     11     -18.7258      1.00000
     12     -18.7250      1.00000
     13     -18.7021      1.00000
     14     -18.7021      1.00000
     15     -18.6738      1.00000
     16     -18.6528      1.00000
     17     -18.6281      1.00000
     18     -18.5918      1.00000
     19     -18.5894      1.00000
     20     -18.5894      1.00000
     21     -18.5766      1.00000
     22     -18.5766      1.00000
     23     -18.5528      1.00000
     24     -18.5510      1.00000
     25      -9.3388      1.00000
     26      -9.2838      1.00000
     27      -9.2838      1.00000
     28      -9.1438      1.00000
     29      -8.8931      1.00000
     30      -8.8322      1.00000
     31      -8.8322      1.00000
     32      -8.8035      1.00000
     33      -8.5833      1.00000
     34      -8.5277      1.00000
     35      -8.5277      1.00000
     36      -8.4956      1.00000
     37      -8.4802      1.00000
     38      -8.4682      1.00000
     39      -8.4682      1.00000
     40      -8.4416      1.00000
     41      -8.4190      1.00000
     42      -8.3763      1.00000
     43      -8.3763      1.00000
     44      -8.3639      1.00000
     45      -8.2879      1.00000
     46      -8.1871      1.00000
     47      -8.1871      1.00000
     48      -8.1462      1.00000
     49      -8.1446      1.00000
     50      -8.1185      1.00000
     51      -8.1185      1.00000
     52      -8.0170      1.00000
     53      -8.0114      1.00000
     54      -7.9411      1.00000
     55      -7.9384      1.00000
     56      -7.9384      1.00000
     57      -7.8931      1.00000
     58      -7.7723      1.00000
     59      -7.5736      1.00000
     60      -7.5736      1.00000
     61      -7.3379      1.00000
     62      -7.3379      1.00000
     63      -7.2431      1.00000
     64      -7.1835      1.00000
     65      -7.0586      1.00000
     66      -7.0586      1.00000
     67      -7.0377      1.00000
     68      -7.0183      1.00000
     69      -6.9858      1.00000
     70      -6.7678      1.00000
     71      -6.7518      1.00000
     72      -6.7518      1.00000
     73      -6.6842      1.00000
     74      -6.6608      1.00000
     75      -6.6608      1.00000
     76      -6.5289      1.00000
     77      -6.4872      1.00000
     78      -6.4872      1.00000
     79      -6.4821      1.00000
     80      -6.2839      1.00000
     81      -6.2821      1.00000
     82      -6.2821      1.00000
     83      -6.2019      1.00000
     84      -6.1836      1.00000
     85      -6.1836      1.00000
     86      -6.1549      1.00000
     87      -6.1253      1.00000
     88      -6.0172      1.00000
     89      -6.0138      1.00000
     90      -5.9244      1.00000
     91      -5.8824      1.00000
     92      -5.8824      1.00000
     93      -5.8745      1.00000
     94      -5.8081      1.00000
     95      -5.8055      1.00000
     96      -5.8055      1.00000
     97      -5.1268      1.00000
     98      -5.1257      1.00000
     99      -5.1257      1.00000
    100      -5.1255      1.00000
    101      -4.8958      1.00000
    102      -4.8958      1.00000
    103      -4.8692      1.00000
    104      -4.8615      1.00000
    105      -4.8476      1.00000
    106      -4.8476      1.00000
    107      -4.8142      1.00000
    108      -4.8049      1.00000
    109      -4.6932      1.00000
    110      -4.6300      1.00000
    111      -4.6300      1.00000
    112      -4.6057      1.00000
    113      -4.5852      1.00000
    114      -4.5663      1.00000
    115      -4.5627      1.00000
    116      -4.5627      1.00000
    117      -4.5378      1.00000
    118      -4.4607      1.00000
    119      -4.4325      1.00000
    120      -4.4325      1.00000
    121      -2.6181      0.00000
    122      -2.5912      0.00000
    123      -2.5912      0.00000
    124      -2.5846      0.00000
    125      -2.5717      0.00000
    126      -2.5717      0.00000
    127      -2.5689      0.00000
    128      -2.5456      0.00000
    129      -2.5442      0.00000
    130      -2.5179      0.00000
    131      -2.5179      0.00000
    132      -2.4485      0.00000
    133      -2.4063      0.00000
    134      -2.4063      0.00000
    135      -2.3575      0.00000
    136      -2.3563      0.00000
    137       1.6216      0.00000
    138       2.1253      0.00000
    139       2.3107      0.00000
    140       2.3107      0.00000
    141       2.5897      0.00000
    142       2.5897      0.00000
    143       2.6644      0.00000
    144       2.9038      0.00000

 k-point     5 :       0.4000    0.2000    0.0000
  band No.  band energies     occupation 
      1     -19.4963      1.00000
      2     -19.4963      1.00000
      3     -19.4088      1.00000
      4     -19.2031      1.00000
      5     -19.0862      1.00000
      6     -18.8928      1.00000
      7     -18.8076      1.00000
      8     -18.8076      1.00000
      9     -18.7692      1.00000
     10     -18.7563      1.00000
     11     -18.7563      1.00000
     12     -18.7334      1.00000
     13     -18.7102      1.00000
     14     -18.6923      1.00000
     15     -18.6923      1.00000
     16     -18.6490      1.00000
     17     -18.6199      1.00000
     18     -18.6012      1.00000
     19     -18.5804      1.00000
     20     -18.5772      1.00000
     21     -18.5656      1.00000
     22     -18.5656      1.00000
     23     -18.5643      1.00000
     24     -18.5643      1.00000
     25      -9.3118      1.00000
     26      -9.3118      1.00000
     27      -9.2423      1.00000
     28      -9.0159      1.00000
     29      -8.8773      1.00000
     30      -8.8730      1.00000
     31      -8.8726      1.00000
     32      -8.8726      1.00000
     33      -8.6197      1.00000
     34      -8.5439      1.00000
     35      -8.5206      1.00000
     36      -8.5206      1.00000
     37      -8.4618      1.00000
     38      -8.4574      1.00000
     39      -8.4431      1.00000
     40      -8.4431      1.00000
     41      -8.4374      1.00000
     42      -8.4374      1.00000
     43      -8.4052      1.00000
     44      -8.4050      1.00000
     45      -8.1723      1.00000
     46      -8.1723      1.00000
     47      -8.1514      1.00000
     48      -8.1485      1.00000
     49      -8.1290      1.00000
     50      -8.1137      1.00000
     51      -8.0988      1.00000
     52      -8.0988      1.00000
     53      -8.0277      1.00000
     54      -8.0026      1.00000
     55      -7.9986      1.00000
     56      -7.9986      1.00000
     57      -7.8125      1.00000
     58      -7.7656      1.00000
     59      -7.7656      1.00000
     60      -7.5114      1.00000
     61      -7.3404      1.00000
     62      -7.2622      1.00000
     63      -7.2622      1.00000
     64      -7.1673      1.00000
     65      -7.0710      1.00000
     66      -6.8990      1.00000
     67      -6.8990      1.00000
     68      -6.8773      1.00000
     69      -6.8633      1.00000
     70      -6.8633      1.00000
     71      -6.7847      1.00000
     72      -6.6789      1.00000
     73      -6.6398      1.00000
     74      -6.6398      1.00000
     75      -6.6095      1.00000
     76      -6.5952      1.00000
     77      -6.5150      1.00000
     78      -6.4369      1.00000
     79      -6.3306      1.00000
     80      -6.3306      1.00000
     81      -6.3023      1.00000
     82      -6.2871      1.00000
     83      -6.2871      1.00000
     84      -6.2751      1.00000
     85      -6.2524      1.00000
     86      -6.1732      1.00000
     87      -6.1732      1.00000
     88      -6.1187      1.00000
     89      -6.0154      1.00000
     90      -5.9922      1.00000
     91      -5.9869      1.00000
     92      -5.8841      1.00000
     93      -5.8841      1.00000
     94      -5.8242      1.00000
     95      -5.8145      1.00000
     96      -5.8145      1.00000
     97      -5.1124      1.00000
     98      -5.0928      1.00000
     99      -5.0928      1.00000
    100      -5.0787      1.00000
    101      -4.9004      1.00000
    102      -4.8992      1.00000
    103      -4.8992      1.00000
    104      -4.8544      1.00000
    105      -4.8544      1.00000
    106      -4.8317      1.00000
    107      -4.7870      1.00000
    108      -4.7715      1.00000
    109      -4.6560      1.00000
    110      -4.6560      1.00000
    111      -4.6344      1.00000
    112      -4.5999      1.00000
    113      -4.5561      1.00000
    114      -4.5503      1.00000
    115      -4.5503      1.00000
    116      -4.5283      1.00000
    117      -4.5253      1.00000
    118      -4.4820      1.00000
    119      -4.4820      1.00000
    120      -4.4772      1.00000
    121      -2.6173      0.00000
    122      -2.5844      0.00000
    123      -2.5824      0.00000
    124      -2.5824      0.00000
    125      -2.5784      0.00000
    126      -2.5548      0.00000
    127      -2.5503      0.00000
    128      -2.5503      0.00000
    129      -2.5423      0.00000
    130      -2.5309      0.00000
    131      -2.5288      0.00000
    132      -2.5288      0.00000
    133      -2.3788      0.00000
    134      -2.3788      0.00000
    135      -2.3788      0.00000
    136      -2.3315      0.00000
    137       1.9219      0.00000
    138       1.9219      0.00000
    139       2.2406      0.00000
    140       2.3203      0.00000
    141       2.3203      0.00000
    142       2.5446      0.00000
    143       2.8419      0.00000
    144       2.9143      0.00000
 Fermi energy:        -4.1226837997

 spin component 2

 k-point     1 :       0.0000    0.0000    0.0000
  band No.  band energies     occupation 
      1     -19.6091      1.00000
      2     -19.2746      1.00000
      3     -19.2746      1.00000
      4     -19.2746      1.00000
      5     -19.0344      1.00000
      6     -19.0344      1.00000
      7     -19.0344      1.00000
      8     -18.8213      1.00000
      9     -18.7259      1.00000
     10     -18.7259      1.00000
     11     -18.7259      1.00000
     12     -18.6785      1.00000
     13     -18.6785      1.00000
     14     -18.6785      1.00000
     15     -18.6691      1.00000
     16     -18.6691      1.00000
     17     -18.6418      1.00000
     18     -18.6418      1.00000
     19     -18.6418      1.00000
     20     -18.5923      1.00000
     21     -18.5923      1.00000
     22     -18.5923      1.00000
     23     -18.5518      1.00000
     24     -18.5518      1.00000
     25      -9.0973      1.00000
     26      -9.0629      1.00000
     27      -9.0629      1.00000
     28      -9.0629      1.00000
     29      -8.6273      1.00000
     30      -8.4959      1.00000
     31      -8.4959      1.00000
     32      -8.4959      1.00000
     33      -8.3822      1.00000
     34      -8.3822      1.00000
     35      -8.3822      1.00000
     36      -8.2242      1.00000
     37      -8.2242      1.00000
     38      -8.1668      1.00000
     39      -8.1668      1.00000
     40      -8.1668      1.00000
     41      -8.0971      1.00000
     42      -8.0971      1.00000
     43      -8.0089      1.00000
     44      -8.0089      1.00000
     45      -8.0089      1.00000
     46      -7.9334      1.00000
     47      -7.8908      1.00000
     48      -7.8908      1.00000
     49      -7.8908      1.00000
     50      -7.8205      1.00000
     51      -7.8205      1.00000
     52      -7.8205      1.00000
     53      -7.5278      1.00000
     54      -7.5278      1.00000
     55      -7.3021      1.00000
     56      -7.3021      1.00000
     57      -7.3021      1.00000
     58      -7.3002      1.00000
     59      -7.3002      1.00000
     60      -7.3002      1.00000
     61      -7.1904      1.00000
     62      -7.1904      1.00000
     63      -7.1904      1.00000
     64      -7.0327      1.00000
     65      -6.8910      1.00000
     66      -6.8910      1.00000
     67      -6.8910      1.00000
     68      -6.8675      1.00000
     69      -6.8675      1.00000
     70      -6.6140      1.00000
     71      -6.6140      1.00000
     72      -6.6140      1.00000
     73      -6.5681      1.00000
     74      -6.5681      1.00000
     75      -6.5681      1.00000
     76      -6.3905      1.00000
     77      -6.2107      1.00000
     78      -6.2107      1.00000
     79      -6.2107      1.00000
     80      -6.1538      1.00000
     81      -6.1538      1.00000
     82      -6.1538      1.00000
     83      -6.1048      1.00000
     84      -5.9627      1.00000
     85      -5.9627      1.00000
     86      -5.9627      1.00000
     87      -5.8168      1.00000
     88      -5.8168      1.00000
     89      -5.7637      1.00000
     90      -5.7637      1.00000
     91      -5.7637      1.00000
     92      -5.5964      1.00000
     93      -5.5964      1.00000
     94      -5.5879      1.00000
     95      -5.5879      1.00000
     96      -5.5879      1.00000
     97      -2.2541      0.00000
     98      -2.2541      0.00000
     99      -2.2541      0.00000
    100      -2.2289      0.00000
    101      -2.2289      0.00000
    102      -2.2289      0.00000
    103      -2.0584      0.00000
    104      -2.0584      0.00000
    105      -2.0220      0.00000
    106      -1.9732      0.00000
    107      -1.9732      0.00000
    108      -1.9732      0.00000
    109      -1.9443      0.00000
    110      -1.8231      0.00000
    111      -1.8231      0.00000
    112      -1.8231      0.00000
    113      -1.7628      0.00000
    114      -1.7628      0.00000
    115      -1.6814      0.00000
    116      -1.6814      0.00000
    117      -1.6814      0.00000
    118      -1.6712      0.00000
    119      -1.6712      0.00000
    120      -1.6712      0.00000
    121      -1.2932      0.00000
    122      -1.2932      0.00000
    123      -1.2932      0.00000
    124      -1.2182      0.00000
    125      -1.2182      0.00000
    126      -1.2182      0.00000
    127      -1.2115      0.00000
    128      -1.2115      0.00000
    129      -1.1443      0.00000
    130      -1.1443      0.00000
    131      -1.1443      0.00000
    132      -1.1188      0.00000
    133      -1.1188      0.00000
    134      -1.1188      0.00000
    135      -1.0673      0.00000
    136      -1.0673      0.00000
    137       1.4914      0.00000
    138       2.0030      0.00000
    139       2.5906      0.00000
    140       3.0566      0.00000
    141       3.0567      0.00000
    142       3.0572      0.00000
    143       3.0574      0.00000
    144       3.0575      0.00000

 k-point     2 :       0.2000    0.0000    0.0000
  band No.  band energies     occupation 
      1     -19.5891      1.00000
      2     -19.3379      1.00000
      3     -19.2808      1.00000
      4     -19.2808      1.00000
      5     -19.0193      1.00000
      6     -19.0193      1.00000
      7     -18.9682      1.00000
      8     -18.8132      1.00000
      9     -18.7381      1.00000
     10     -18.7381      1.00000
     11     -18.7262      1.00000
     12     -18.7039      1.00000
     13     -18.6922      1.00000
     14     -18.6854      1.00000
     15     -18.6854      1.00000
     16     -18.6748      1.00000
     17     -18.6316      1.00000
     18     -18.6316      1.00000
     19     -18.6157      1.00000
     20     -18.5924      1.00000
     21     -18.5924      1.00000
     22     -18.5883      1.00000
     23     -18.5554      1.00000
     24     -18.5545      1.00000
     25      -9.0991      1.00000
     26      -9.0645      1.00000
     27      -9.0186      1.00000
     28      -9.0186      1.00000
     29      -8.6189      1.00000
     30      -8.5244      1.00000
     31      -8.5178      1.00000
     32      -8.5178      1.00000
     33      -8.3681      1.00000
     34      -8.3665      1.00000
     35      -8.3665      1.00000
     36      -8.2335      1.00000
     37      -8.2038      1.00000
     38      -8.1992      1.00000
     39      -8.1992      1.00000
     40      -8.1625      1.00000
     41      -8.1618      1.00000
     42      -8.1209      1.00000
     43      -8.0220      1.00000
     44      -8.0220      1.00000
     45      -7.9797      1.00000
     46      -7.9375      1.00000
     47      -7.9099      1.00000
     48      -7.9099      1.00000
     49      -7.8488      1.00000
     50      -7.8023      1.00000
     51      -7.8023      1.00000
     52      -7.8017      1.00000
     53      -7.5601      1.00000
     54      -7.5302      1.00000
     55      -7.4880      1.00000
     56      -7.4880      1.00000
     57      -7.4637      1.00000
     58      -7.2914      1.00000
     59      -7.2863      1.00000
     60      -7.2863      1.00000
     61      -7.0860      1.00000
     62      -7.0476      1.00000
     63      -7.0476      1.00000
     64      -6.9658      1.00000
     65      -6.9093      1.00000
     66      -6.9093      1.00000
     67      -6.8608      1.00000
     68      -6.8278      1.00000
     69      -6.7927      1.00000
     70      -6.6102      1.00000
     71      -6.5920      1.00000
     72      -6.5920      1.00000
     73      -6.4783      1.00000
     74      -6.4494      1.00000
     75      -6.4494      1.00000
     76      -6.3791      1.00000
     77      -6.2905      1.00000
     78      -6.2773      1.00000
     79      -6.2773      1.00000
     80      -6.1918      1.00000
     81      -6.1268      1.00000
     82      -6.1268      1.00000
     83      -6.1089      1.00000
     84      -5.9569      1.00000
     85      -5.9569      1.00000
     86      -5.9463      1.00000
     87      -5.8408      1.00000
     88      -5.8051      1.00000
     89      -5.7636      1.00000
     90      -5.7636      1.00000
     91      -5.7495      1.00000
     92      -5.7125      1.00000
     93      -5.6391      1.00000
     94      -5.6391      1.00000
     95      -5.6221      1.00000
     96      -5.6182      1.00000
     97      -2.2355      0.00000
     98      -2.2355      0.00000
     99      -2.2300      0.00000
    100      -2.2258      0.00000
    101      -2.2258      0.00000
    102      -2.2060      0.00000
    103      -2.1109      0.00000
    104      -2.0400      0.00000
    105      -1.9696      0.00000
    106      -1.9662      0.00000
    107      -1.9662      0.00000
    108      -1.9642      0.00000
    109      -1.9344      0.00000
    110      -1.8579      0.00000
    111      -1.8579      0.00000
    112      -1.8294      0.00000
    113      -1.7754      0.00000
    114      -1.7595      0.00000
    115      -1.6953      0.00000
    116      -1.6853      0.00000
    117      -1.6853      0.00000
    118      -1.6830      0.00000
    119      -1.6744      0.00000
    120      -1.6744      0.00000
    121      -1.2829      0.00000
    122      -1.2782      0.00000
    123      -1.2782      0.00000
    124      -1.2157      0.00000
    125      -1.2112      0.00000
    126      -1.2094      0.00000
    127      -1.2088      0.00000
    128      -1.2088      0.00000
    129      -1.1570      0.00000
    130      -1.1341      0.00000
    131      -1.1341      0.00000
    132      -1.1245      0.00000
    133      -1.1245      0.00000
    134      -1.1170      0.00000
    135      -1.1020      0.00000
    136      -1.0740      0.00000
    137       1.5761      0.00000
    138       2.0595      0.00000
    139       2.5757      0.00000
    140       2.6557      0.00000
    141       2.7750      0.00000
    142       2.8276      0.00000
    143       2.8276      0.00000
    144       2.9841      0.00000

 k-point     3 :       0.4000    0.0000    0.0000
  band No.  band energies     occupation 
      1     -19.5312      1.00000
      2     -19.4421      1.00000
      3     -19.2899      1.00000
      4     -19.2899      1.00000
      5     -18.9938      1.00000
      6     -18.9938      1.00000
      7     -18.8564      1.00000
      8     -18.7900      1.00000
      9     -18.7591      1.00000
     10     -18.7591      1.00000
     11     -18.7579      1.00000
     12     -18.7556      1.00000
     13     -18.7040      1.00000
     14     -18.6938      1.00000
     15     -18.6938      1.00000
     16     -18.6888      1.00000
     17     -18.6150      1.00000
     18     -18.6150      1.00000
     19     -18.5963      1.00000
     20     -18.5963      1.00000
     21     -18.5852      1.00000
     22     -18.5781      1.00000
     23     -18.5654      1.00000
     24     -18.5647      1.00000
     25      -9.0927      1.00000
     26      -9.0752      1.00000
     27      -8.9226      1.00000
     28      -8.9226      1.00000
     29      -8.6004      1.00000
     30      -8.5797      1.00000
     31      -8.5797      1.00000
     32      -8.5720      1.00000
     33      -8.3269      1.00000
     34      -8.3263      1.00000
     35      -8.3263      1.00000
     36      -8.2673      1.00000
     37      -8.2673      1.00000
     38      -8.2654      1.00000
     39      -8.2383      1.00000
     40      -8.2346      1.00000
     41      -8.1438      1.00000
     42      -8.0945      1.00000
     43      -8.0478      1.00000
     44      -8.0478      1.00000
     45      -8.0100      1.00000
     46      -7.9335      1.00000
     47      -7.9335      1.00000
     48      -7.8596      1.00000
     49      -7.8115      1.00000
     50      -7.8022      1.00000
     51      -7.8022      1.00000
     52      -7.7333      1.00000
     53      -7.6128      1.00000
     54      -7.5803      1.00000
     55      -7.5803      1.00000
     56      -7.5378      1.00000
     57      -7.5334      1.00000
     58      -7.4773      1.00000
     59      -7.2961      1.00000
     60      -7.2961      1.00000
     61      -6.9800      1.00000
     62      -6.9620      1.00000
     63      -6.9620      1.00000
     64      -6.9348      1.00000
     65      -6.9257      1.00000
     66      -6.9257      1.00000
     67      -6.7336      1.00000
     68      -6.7188      1.00000
     69      -6.6464      1.00000
     70      -6.5507      1.00000
     71      -6.5507      1.00000
     72      -6.5005      1.00000
     73      -6.4404      1.00000
     74      -6.3756      1.00000
     75      -6.3756      1.00000
     76      -6.3571      1.00000
     77      -6.3490      1.00000
     78      -6.2169      1.00000
     79      -6.1990      1.00000
     80      -6.1990      1.00000
     81      -6.1370      1.00000
     82      -6.1243      1.00000
     83      -6.1243      1.00000
     84      -6.0549      1.00000
     85      -5.9562      1.00000
     86      -5.9562      1.00000
     87      -5.9105      1.00000
     88      -5.8594      1.00000
     89      -5.7785      1.00000
     90      -5.7744      1.00000
     91      -5.7744      1.00000
     92      -5.7490      1.00000
     93      -5.7490      1.00000
     94      -5.7436      1.00000
     95      -5.6718      1.00000
     96      -5.6670      1.00000
     97      -2.2212      0.00000
     98      -2.2212      0.00000
     99      -2.1984      0.00000
    100      -2.1984      0.00000
    101      -2.1961      0.00000
    102      -2.1578      0.00000
    103      -2.1246      0.00000
    104      -2.0308      0.00000
    105      -1.9949      0.00000
    106      -1.9589      0.00000
    107      -1.9506      0.00000
    108      -1.9506      0.00000
    109      -1.9192      0.00000
    110      -1.9192      0.00000
    111      -1.8342      0.00000
    112      -1.8265      0.00000
    113      -1.8077      0.00000
    114      -1.7445      0.00000
    115      -1.7351      0.00000
    116      -1.7197      0.00000
    117      -1.7043      0.00000
    118      -1.7043      0.00000
    119      -1.6722      0.00000
    120      -1.6722      0.00000
    121      -1.2578      0.00000
    122      -1.2578      0.00000
    123      -1.2503      0.00000
    124      -1.2113      0.00000
    125      -1.2102      0.00000
    126      -1.2100      0.00000
    127      -1.1844      0.00000
    128      -1.1844      0.00000
    129      -1.1775      0.00000
    130      -1.1685      0.00000
    131      -1.1423      0.00000
    132      -1.1423      0.00000
    133      -1.1146      0.00000
    134      -1.1146      0.00000
    135      -1.1083      0.00000
    136      -1.0910      0.00000
    137       1.8105      0.00000
    138       2.1538      0.00000
    139       2.2185      0.00000
    140       2.4627      0.00000
    141       2.6926      0.00000
    142       2.6926      0.00000
    143       2.8470      0.00000
    144       2.9071      0.00000

 k-point     4 :       0.2000    0.2000    0.0000
  band No.  band energies     occupation 
      1     -19.5501      1.00000
      2     -19.3775      1.00000
      3     -19.3775      1.00000
      4     -19.2221      1.00000
      5     -19.0607      1.00000
      6     -18.9187      1.00000
      7     -18.9187      1.00000
      8     -18.7975      1.00000
      9     -18.7668      1.00000
     10     -18.7373      1.00000
     11     -18.7373      1.00000
     12     -18.7348      1.00000
     13     -18.7160      1.00000
     14     -18.7160      1.00000
     15     -18.6868      1.00000
     16     -18.6654      1.00000
     17     -18.6386      1.00000
     18     -18.6003      1.00000
     19     -18.5998      1.00000
     20     -18.5998      1.00000
     21     -18.5852      1.00000
     22     -18.5852      1.00000
     23     -18.5621      1.00000
     24     -18.5609      1.00000
     25      -9.0938      1.00000
     26      -9.0346      1.00000
     27      -9.0346      1.00000
     28      -8.8921      1.00000
     29      -8.6071      1.00000
     30      -8.5627      1.00000
     31      -8.5627      1.00000
     32      -8.5572      1.00000
     33      -8.3417      1.00000
     34      -8.3417      1.00000
     35      -8.3350      1.00000
     36      -8.2496      1.00000
     37      -8.2452      1.00000
     38      -8.2452      1.00000
     39      -8.2275      1.00000
     40      -8.2268      1.00000
     41      -8.1464      1.00000
     42      -8.1217      1.00000
     43      -8.0528      1.00000
     44      -8.0475      1.00000
     45      -8.0475      1.00000
     46      -7.8878      1.00000
     47      -7.8878      1.00000
     48      -7.8628      1.00000
     49      -7.8101      1.00000
     50      -7.8101      1.00000
     51      -7.8088      1.00000
     52      -7.7448      1.00000
     53      -7.6262      1.00000
     54      -7.5727      1.00000
     55      -7.5727      1.00000
     56      -7.5469      1.00000
     57      -7.5215      1.00000
     58      -7.4751      1.00000
     59      -7.2674      1.00000
     60      -7.2674      1.00000
     61      -7.0481      1.00000
     62      -7.0481      1.00000
     63      -6.9584      1.00000
     64      -6.9319      1.00000
     65      -6.8181      1.00000
     66      -6.7750      1.00000
     67      -6.7596      1.00000
     68      -6.7544      1.00000
     69      -6.7544      1.00000
     70      -6.6059      1.00000
     71      -6.6059      1.00000
     72      -6.5457      1.00000
     73      -6.3861      1.00000
     74      -6.3861      1.00000
     75      -6.3662      1.00000
     76      -6.3466      1.00000
     77      -6.3106      1.00000
     78      -6.2879      1.00000
     79      -6.2879      1.00000
     80      -6.1971      1.00000
     81      -6.1971      1.00000
     82      -6.1443      1.00000
     83      -6.0635      1.00000
     84      -5.9743      1.00000
     85      -5.9232      1.00000
     86      -5.9232      1.00000
     87      -5.9019      1.00000
     88      -5.8738      1.00000
     89      -5.7754      1.00000
     90      -5.7739      1.00000
     91      -5.7514      1.00000
     92      -5.7514      1.00000
     93      -5.7316      1.00000
     94      -5.6927      1.00000
     95      -5.6927      1.00000
     96      -5.6728      1.00000
     97      -2.2283      0.00000
     98      -2.2197      0.00000
     99      -2.2038      0.00000
    100      -2.2038      0.00000
    101      -2.1799      0.00000
    102      -2.1799      0.00000
    103      -2.1387      0.00000
    104      -2.0533      0.00000
    105      -1.9616      0.00000
    106      -1.9571      0.00000
    107      -1.9501      0.00000
    108      -1.9501      0.00000
    109      -1.9213      0.00000
    110      -1.8797      0.00000
    111      -1.8648      0.00000
    112      -1.8648      0.00000
    113      -1.7862      0.00000
    114      -1.7530      0.00000
    115      -1.7095      0.00000
    116      -1.7095      0.00000
    117      -1.6936      0.00000
    118      -1.6936      0.00000
    119      -1.6898      0.00000
    120      -1.6752      0.00000
    121      -1.2703      0.00000
    122      -1.2703      0.00000
    123      -1.2491      0.00000
    124      -1.2186      0.00000
    125      -1.2013      0.00000
    126      -1.1996      0.00000
    127      -1.1996      0.00000
    128      -1.1910      0.00000
    129      -1.1571      0.00000
    130      -1.1571      0.00000
    131      -1.1480      0.00000
    132      -1.1414      0.00000
    133      -1.1211      0.00000
    134      -1.1211      0.00000
    135      -1.0989      0.00000
    136      -1.0877      0.00000
    137       1.7349      0.00000
    138       2.1668      0.00000
    139       2.3930      0.00000
    140       2.3930      0.00000
    141       2.6450      0.00000
    142       2.6450      0.00000
    143       2.7838      0.00000
    144       3.0143      0.00000

 k-point     5 :       0.4000    0.2000    0.0000
  band No.  band energies     occupation 
      1     -19.4763      1.00000
      2     -19.4763      1.00000
      3     -19.3915      1.00000
      4     -19.1925      1.00000
      5     -19.0803      1.00000
      6     -18.8952      1.00000
      7     -18.8139      1.00000
      8     -18.8139      1.00000
      9     -18.7818      1.00000
     10     -18.7688      1.00000
     11     -18.7688      1.00000
     12     -18.7450      1.00000
     13     -18.7240      1.00000
     14     -18.7055      1.00000
     15     -18.7055      1.00000
     16     -18.6612      1.00000
     17     -18.6316      1.00000
     18     -18.6090      1.00000
     19     -18.5910      1.00000
     20     -18.5857      1.00000
     21     -18.5754      1.00000
     22     -18.5754      1.00000
     23     -18.5734      1.00000
     24     -18.5734      1.00000
     25      -9.0678      1.00000
     26      -9.0678      1.00000
     27      -9.0002      1.00000
     28      -8.7749      1.00000
     29      -8.6274      1.00000
     30      -8.5943      1.00000
     31      -8.5929      1.00000
     32      -8.5929      1.00000
     33      -8.3098      1.00000
     34      -8.2948      1.00000
     35      -8.2948      1.00000
     36      -8.2923      1.00000
     37      -8.2865      1.00000
     38      -8.2722      1.00000
     39      -8.2604      1.00000
     40      -8.2604      1.00000
     41      -8.1689      1.00000
     42      -8.1322      1.00000
     43      -8.1322      1.00000
     44      -8.0823      1.00000
     45      -7.9083      1.00000
     46      -7.9083      1.00000
     47      -7.8634      1.00000
     48      -7.8529      1.00000
     49      -7.8258      1.00000
     50      -7.8156      1.00000
     51      -7.7507      1.00000
     52      -7.7507      1.00000
     53      -7.6263      1.00000
     54      -7.6263      1.00000
     55      -7.6148      1.00000
     56      -7.5682      1.00000
     57      -7.5412      1.00000
     58      -7.4497      1.00000
     59      -7.4497      1.00000
     60      -7.2222      1.00000
     61      -7.0572      1.00000
     62      -6.9714      1.00000
     63      -6.9661      1.00000
     64      -6.9661      1.00000
     65      -6.7624      1.00000
     66      -6.7279      1.00000
     67      -6.6663      1.00000
     68      -6.6663      1.00000
     69      -6.5939      1.00000
     70      -6.5756      1.00000
     71      -6.5756      1.00000
     72      -6.4903      1.00000
     73      -6.4365      1.00000
     74      -6.4365      1.00000
     75      -6.4336      1.00000
     76      -6.4178      1.00000
     77      -6.2968      1.00000
     78      -6.2968      1.00000
     79      -6.2610      1.00000
     80      -6.1624      1.00000
     81      -6.1030      1.00000
     82      -6.0520      1.00000
     83      -6.0520      1.00000
     84      -6.0100      1.00000
     85      -5.9809      1.00000
     86      -5.9683      1.00000
     87      -5.9015      1.00000
     88      -5.9015      1.00000
     89      -5.7887      1.00000
     90      -5.7836      1.00000
     91      -5.7755      1.00000
     92      -5.7626      1.00000
     93      -5.7626      1.00000
     94      -5.7613      1.00000
     95      -5.7199      1.00000
     96      -5.7199      1.00000
     97      -2.2251      0.00000
     98      -2.2060      0.00000
     99      -2.1782      0.00000
    100      -2.1761      0.00000
    101      -2.1693      0.00000
    102      -2.1693      0.00000
    103      -2.1066      0.00000
    104      -2.1066      0.00000
    105      -1.9581      0.00000
    106      -1.9570      0.00000
    107      -1.9456      0.00000
    108      -1.9456      0.00000
    109      -1.9246      0.00000
    110      -1.9103      0.00000
    111      -1.8602      0.00000
    112      -1.8602      0.00000
    113      -1.7489      0.00000
    114      -1.7489      0.00000
    115      -1.7344      0.00000
    116      -1.7344      0.00000
    117      -1.7224      0.00000
    118      -1.6950      0.00000
    119      -1.6934      0.00000
    120      -1.6781      0.00000
    121      -1.2671      0.00000
    122      -1.2472      0.00000
    123      -1.2472      0.00000
    124      -1.2319      0.00000
    125      -1.1875      0.00000
    126      -1.1875      0.00000
    127      -1.1775      0.00000
    128      -1.1775      0.00000
    129      -1.1774      0.00000
    130      -1.1736      0.00000
    131      -1.1589      0.00000
    132      -1.1527      0.00000
    133      -1.1301      0.00000
    134      -1.1081      0.00000
    135      -1.1081      0.00000
    136      -1.0814      0.00000
    137       2.0194      0.00000
    138       2.0194      0.00000
    139       2.3261      0.00000
    140       2.3672      0.00000
    141       2.3672      0.00000
    142       2.6000      0.00000
    143       3.0313      0.00000
    144       3.0313      0.00000


--------------------------------------------------------------------------------------------------------


 soft charge-density along one line, spin component           1
         0         1         2         3         4         5         6         7         8         9
 total charge-density along one line

 soft charge-density along one line, spin component           2
         0         1         2         3         4         5         6         7         8         9
 total charge-density along one line

 pseudopotential strength for first ion, spin component:           1
 -9.737   0.199  -0.000   0.000   0.000 -10.061   0.192  -0.000
  0.199  -9.598  -0.000   0.000  -0.000   0.192  -9.927  -0.000
 -0.000  -0.000  -9.884  -0.000   0.000  -0.000  -0.000 -10.203
  0.000   0.000  -0.000  -9.598  -0.199   0.000   0.000  -0.000
  0.000  -0.000   0.000  -0.199  -9.737   0.000  -0.000   0.000
-10.061   0.192  -0.000   0.000   0.000 -10.349   0.185  -0.000
  0.192  -9.927  -0.000   0.000  -0.000   0.185 -10.219  -0.000
 -0.000  -0.000 -10.203  -0.000   0.000  -0.000  -0.000 -10.486
  0.000   0.000  -0.000  -9.927  -0.192   0.000   0.000  -0.000
  0.000  -0.000   0.000  -0.192 -10.061   0.000  -0.000   0.000
 -0.000  -0.000   0.000  -0.000   0.000  -0.000  -0.000   0.000
 -0.000  -0.000   0.001  -0.000   0.000  -0.000  -0.000   0.001
 -0.000  -0.000  -0.000   0.000  -0.002  -0.000  -0.000  -0.000
  0.000   0.000  -0.000  -0.000   0.000   0.000   0.000  -0.000
 -0.002   0.000   0.000   0.000  -0.000  -0.002   0.000   0.000
 -0.000  -0.000  -0.000   0.000  -0.003  -0.000  -0.000  -0.000
  0.000   0.000  -0.000  -0.000   0.000   0.000   0.000  -0.000
 -0.003   0.000   0.000   0.000  -0.000  -0.003   0.000   0.000
 pseudopotential strength for first ion, spin component:           2
 -8.059  -0.261   0.000   0.000   0.000  -8.439  -0.252   0.000
 -0.261  -8.249  -0.000  -0.000  -0.000  -0.252  -8.623  -0.000
  0.000  -0.000  -7.879  -0.000  -0.000   0.000  -0.000  -8.266
  0.000  -0.000  -0.000  -8.249   0.261   0.000  -0.000  -0.000
  0.000  -0.000  -0.000   0.261  -8.059   0.000  -0.000  -0.000
 -8.439  -0.252   0.000   0.000   0.000  -8.782  -0.243   0.000
 -0.252  -8.623  -0.000  -0.000  -0.000  -0.243  -8.959  -0.000
  0.000  -0.000  -8.266  -0.000  -0.000   0.000  -0.000  -8.614
  0.000  -0.000  -0.000  -8.623   0.252   0.000  -0.000  -0.000
  0.000  -0.000  -0.000   0.252  -8.439   0.000  -0.000  -0.000
  0.000  -0.000   0.000  -0.000  -0.000   0.000  -0.000  -0.000
  0.000  -0.000  -0.000  -0.000  -0.000   0.000  -0.000  -0.000
  0.000  -0.000   0.000   0.000  -0.000   0.000  -0.000   0.000
  0.000   0.000  -0.000  -0.000   0.000   0.000   0.000  -0.000
 -0.000   0.000  -0.000   0.000   0.000  -0.001   0.000  -0.000
  0.000  -0.000   0.000   0.000   0.000   0.000  -0.000   0.000
  0.000  -0.000  -0.000   0.000   0.000   0.000  -0.000  -0.000
  0.000   0.000  -0.000   0.000   0.000  -0.000   0.000  -0.000
 total augmentation occupancy for first ion, spin component:           1
  3.853  -1.325   0.000   0.000   0.000  -2.860   0.135  -0.000  -0.000   0.000   0.000  -0.000   0.000  -0.000   0.100  -0.000
 -1.325   2.815  -0.000  -0.000   0.000   0.134  -2.653   0.000   0.000  -0.000  -0.000   0.000  -0.000  -0.000  -0.035   0.000
  0.000  -0.000   4.636  -0.000  -0.000  -0.000   0.000  -2.793   0.000   0.000   0.065  -0.010  -0.000  -0.000   0.000   0.000
  0.000  -0.000  -0.000   2.815   1.325  -0.000   0.000   0.000  -2.653  -0.134  -0.000   0.000   0.035   0.000   0.000  -0.000
  0.000   0.000  -0.000   1.325   3.853  -0.000  -0.000   0.000  -0.135  -2.860  -0.000   0.000   0.100   0.000  -0.000  -0.004
 -2.860   0.134  -0.000  -0.000  -0.000   2.820   0.797   0.000  -0.000   0.000  -0.000   0.000  -0.000   0.000  -0.109   0.000
  0.135  -2.653   0.000   0.000  -0.000   0.797   3.262   0.000  -0.000  -0.000   0.000   0.000  -0.000   0.000   0.030   0.000
 -0.000   0.000  -2.793   0.000   0.000   0.000   0.000   2.079   0.000  -0.000  -0.072   0.012   0.000   0.000  -0.000  -0.000
 -0.000   0.000   0.000  -2.653  -0.135  -0.000  -0.000   0.000   3.262  -0.797  -0.000  -0.000  -0.030  -0.000   0.000   0.000
 -0.000  -0.000   0.000  -0.134  -2.860   0.000  -0.000  -0.000  -0.797   2.820   0.000  -0.000  -0.109  -0.000   0.000   0.004
  0.000   0.000   0.065  -0.000  -0.000  -0.000  -0.000  -0.072  -0.000   0.000   1.837  -0.220   0.000  -0.000   0.000   0.000
 -0.000  -0.000  -0.010   0.000   0.000   0.000  -0.000   0.012  -0.000  -0.000  -0.220   0.034   0.000   0.000  -0.000  -0.000
  0.000  -0.000  -0.000   0.035   0.100  -0.000   0.000   0.000  -0.030  -0.109   0.000  -0.000   0.283  -0.000  -0.000  -0.008
 -0.000  -0.000  -0.000  -0.000   0.000   0.000   0.000   0.000   0.000   0.000  -0.000   0.000  -0.000   0.276  -0.000  -0.000
  0.100  -0.035   0.000   0.000  -0.000  -0.109   0.030  -0.000   0.000   0.000   0.000  -0.000  -0.000  -0.000   0.283   0.000
 -0.000   0.000   0.000  -0.000  -0.004   0.000  -0.000  -0.000   0.000   0.004  -0.000  -0.000  -0.008  -0.000   0.000   0.000
  0.000  -0.000  -0.000   0.000  -0.000  -0.000   0.000  -0.000   0.000  -0.000   0.000  -0.000  -0.000  -0.008   0.000   0.000
 -0.004   0.000  -0.000  -0.000   0.000   0.004  -0.000   0.000  -0.000  -0.000   0.000  -0.000   0.000  -0.000  -0.008  -0.000
 total augmentation occupancy for first ion, spin component:           2
  2.617  -2.172   0.000   0.000  -0.000  -1.169   1.277  -0.000  -0.000  -0.000  -0.000   0.000   0.000  -0.000   0.015   0.000
 -2.172   1.076  -0.000  -0.000   0.000   1.276  -0.269   0.000   0.000  -0.000   0.000  -0.000  -0.000  -0.000  -0.027  -0.000
  0.000  -0.000   4.081  -0.000  -0.000  -0.000   0.000  -2.019   0.000   0.000  -0.006   0.003  -0.000  -0.000   0.000  -0.000
  0.000  -0.000  -0.000   1.076   2.172  -0.000   0.000   0.000  -0.269  -1.276   0.000   0.000   0.027   0.000   0.000   0.000
  0.000   0.000  -0.000   2.172   2.617  -0.000  -0.000   0.000  -1.277  -1.169   0.000  -0.000   0.015   0.000  -0.000   0.000
 -1.169   1.276  -0.000  -0.000   0.000   0.459  -0.797   0.000   0.000   0.000   0.000  -0.000  -0.000   0.000  -0.005  -0.000
  1.277  -0.269   0.000   0.000  -0.000  -0.797  -0.097  -0.000   0.000   0.000   0.000  -0.000   0.000  -0.000   0.013   0.000
 -0.000   0.000  -2.019   0.000   0.000   0.000  -0.000   0.993  -0.000  -0.000   0.010  -0.002   0.000   0.000  -0.000   0.000
 -0.000   0.000   0.000  -0.269  -1.277   0.000   0.000  -0.000  -0.097   0.797  -0.000  -0.000  -0.013   0.000   0.000   0.000
 -0.000  -0.000   0.000  -1.276  -1.169   0.000   0.000  -0.000   0.797   0.459  -0.000   0.000  -0.005   0.000   0.000  -0.001
 -0.000   0.000  -0.006   0.000   0.000   0.000  -0.000   0.010  -0.000  -0.000  -0.043   0.049   0.000  -0.000  -0.000   0.000
  0.000  -0.000   0.003   0.000  -0.000  -0.000  -0.000  -0.002  -0.000   0.000   0.049  -0.009  -0.000   0.000  -0.000   0.000
  0.000  -0.000  -0.000   0.027   0.015  -0.000  -0.000   0.000  -0.013  -0.005  -0.000   0.000   0.017   0.000  -0.000   0.002
 -0.000  -0.000  -0.000   0.000   0.000   0.000   0.000   0.000  -0.000   0.000  -0.000   0.000  -0.000   0.014  -0.000   0.000
  0.015  -0.027   0.000  -0.000  -0.000  -0.005   0.013  -0.000  -0.000   0.000  -0.000   0.000  -0.000   0.000   0.017  -0.000
  0.000   0.000  -0.000   0.000   0.000  -0.000   0.000   0.000   0.000  -0.001   0.000   0.000   0.002   0.000  -0.000  -0.000
 -0.000   0.000  -0.000   0.000   0.000   0.000   0.000   0.000  -0.000  -0.000   0.000  -0.000   0.000   0.001   0.000  -0.000
  0.000  -0.000   0.000  -0.000  -0.000  -0.001  -0.000  -0.000  -0.000   0.000   0.000  -0.000  -0.000   0.000   0.002   0.000


------------------------ aborting loop because EDIFF is reached ----------------------------------------


    CHARGE:  cpu time    0.5455: real time    0.5486
    FORLOC:  cpu time    0.0076: real time    0.0076
    FORNL :  cpu time    0.9461: real time    0.9517
    STRESS:  cpu time    2.8572: real time    2.8742
    FORCOR:  cpu time    0.1636: real time    0.1643
    FORHAR:  cpu time    0.0237: real time    0.0238
    MIXING:  cpu time    0.0060: real time    0.0060
    OFIELD:  cpu time    0.0000: real time    0.0000

  FORCE on cell =-STRESS in cart. coord.  units (eV):
  Direction    XX          YY          ZZ          XY          YZ          ZX
  --------------------------------------------------------------------------------------
  Alpha Z   108.75017   108.75017   108.75017
  Ewald   31002.13287 31002.13287-37728.60686    -0.00000     0.00000     0.00000
  Hartree 33471.10499 33471.10499-31929.76103    -0.00000     0.00000     0.00000
  E(xc)    -837.40172  -837.40173  -838.57412    -0.00001    -0.00000    -0.00000
  Local  -68580.99870-68580.99830 65537.03366     0.00035     0.00001     0.00000
  n-local  1909.80605  1909.87267  1906.27084    -0.11365     0.07524    -0.02304
  augment  -235.36301  -235.36334  -236.25095    -0.00029     0.00000     0.00000
  Kinetic  3161.90172  3161.99033  3180.66285    -0.16054     0.10109    -0.03042
  Fock        0.00000     0.00000     0.00000     0.00000     0.00000     0.00000
  -------------------------------------------------------------------------------------
  Total       0.01001     0.01001    -0.47544     0.00000    -0.00000     0.00000
  in kB       0.00633     0.00633    -0.30075     0.00000    -0.00000     0.00000
  external pressure =       -0.10 kB  Pullay stress =        0.00 kB


 VOLUME and BASIS-vectors are now :
 -----------------------------------------------------------------------------
  energy-cutoff  :      400.00
  volume of cell :     2532.77
      direct lattice vectors                 reciprocal lattice vectors
    12.092548997  0.000000000  0.000000000     0.082695551  0.047744299 -0.000000000
    -6.046274499 10.472454628  0.000000000     0.000000000  0.095488597  0.000000000
     0.000000000  0.000000000 20.000000000     0.000000000 -0.000000000  0.050000000

  length of vectors
    12.092548997 12.092548997 20.000000000     0.095488597  0.095488597  0.050000000


 FORCES acting on ions
    electron-ion (+dipol)            ewald-force                    non-local-force                 convergence-correction
 -----------------------------------------------------------------------------------------------
   0.412E-06 -.238E-06 0.101E-10   -.126E-10 0.710E-11 -.533E-14   0.137E-18 0.116E-18 0.305E-23   -.823E-11 0.475E-11 0.280E-13
   -.412E-06 0.238E-06 0.120E-10   0.125E-10 -.713E-11 -.293E-13   -.184E-18 0.404E-19 0.109E-23   0.823E-11 -.474E-11 0.358E-13
   0.412E-06 -.238E-06 -.174E-10   -.126E-10 0.709E-11 -.195E-13   -.566E-20 0.148E-18 0.105E-23   -.823E-11 0.475E-11 0.299E-13
   -.412E-06 0.238E-06 0.218E-10   0.125E-10 -.713E-11 -.231E-13   -.139E-19 0.626E-19 0.281E-23   0.822E-11 -.476E-11 0.375E-13
   0.412E-06 -.238E-06 0.101E-10   -.126E-10 0.709E-11 -.355E-13   -.267E-21 0.104E-18 0.486E-23   -.823E-11 0.475E-11 0.539E-13
   -.412E-06 0.238E-06 0.118E-10   0.125E-10 -.715E-11 -.213E-13   -.322E-19 0.450E-19 0.290E-23   0.824E-11 -.473E-11 0.376E-13
   0.412E-06 -.238E-06 -.174E-10   -.126E-10 0.705E-11 -.213E-13   0.108E-20 0.565E-19 0.217E-23   -.824E-11 0.475E-11 0.466E-13
   -.412E-06 0.238E-06 0.210E-10   0.125E-10 -.715E-11 -.142E-13   -.210E-19 -.660E-19 -.137E-23   0.821E-11 -.475E-11 0.373E-13
   0.716E+02 0.890E-06 0.481E+03   -.735E+02 -.669E-11 -.484E+03   0.199E+01 0.859E-21 0.297E+01   -.365E-05 -.536E-09 -.147E-04
   -.358E+02 0.620E+02 0.481E+03   0.368E+02 -.637E+02 -.484E+03   -.997E+00 0.173E+01 0.297E+01   0.182E-05 -.316E-05 -.147E-04
   -.358E+02 -.620E+02 0.481E+03   0.368E+02 0.637E+02 -.484E+03   -.997E+00 -.173E+01 0.297E+01   0.182E-05 0.316E-05 -.147E-04
   -.716E+02 -.890E-06 -.481E+03   0.735E+02 0.676E-11 0.484E+03   -.199E+01 0.508E-19 -.297E+01   0.365E-05 0.536E-09 0.147E-04
   0.358E+02 -.620E+02 -.481E+03   -.368E+02 0.637E+02 0.484E+03   0.997E+00 -.173E+01 -.297E+01   -.182E-05 0.316E-05 0.147E-04
   0.358E+02 0.620E+02 -.481E+03   -.368E+02 -.637E+02 0.484E+03   0.997E+00 0.173E+01 -.297E+01   -.182E-05 -.316E-05 0.147E-04
   0.716E+02 0.890E-06 0.481E+03   -.735E+02 -.671E-11 -.484E+03   0.199E+01 -.876E-22 0.297E+01   -.365E-05 -.536E-09 -.147E-04
   -.358E+02 0.620E+02 0.481E+03   0.368E+02 -.637E+02 -.484E+03   -.997E+00 0.173E+01 0.297E+01   0.182E-05 -.316E-05 -.147E-04
   -.358E+02 -.620E+02 0.481E+03   0.368E+02 0.637E+02 -.484E+03   -.997E+00 -.173E+01 0.297E+01   0.182E-05 0.316E-05 -.147E-04
   -.716E+02 -.890E-06 -.481E+03   0.735E+02 0.674E-11 0.484E+03   -.199E+01 0.479E-19 -.297E+01   0.365E-05 0.536E-09 0.147E-04
   0.358E+02 -.620E+02 -.481E+03   -.368E+02 0.637E+02 0.484E+03   0.997E+00 -.173E+01 -.297E+01   -.182E-05 0.316E-05 0.147E-04
   0.358E+02 0.620E+02 -.481E+03   -.368E+02 -.637E+02 0.484E+03   0.997E+00 0.173E+01 -.297E+01   -.182E-05 -.316E-05 0.147E-04
   0.716E+02 0.890E-06 0.481E+03   -.735E+02 -.670E-11 -.484E+03   0.199E+01 -.185E-20 0.297E+01   -.365E-05 -.536E-09 -.147E-04
   -.358E+02 0.620E+02 0.481E+03   0.368E+02 -.637E+02 -.484E+03   -.997E+00 0.173E+01 0.297E+01   0.182E-05 -.316E-05 -.147E-04
   -.358E+02 -.620E+02 0.481E+03   0.368E+02 0.637E+02 -.484E+03   -.997E+00 -.173E+01 0.297E+01   0.182E-05 0.316E-05 -.147E-04
   -.716E+02 -.890E-06 -.481E+03   0.735E+02 0.679E-11 0.484E+03   -.199E+01 0.888E-19 -.297E+01   0.365E-05 0.536E-09 0.147E-04
   0.358E+02 -.620E+02 -.481E+03   -.368E+02 0.637E+02 0.484E+03   0.997E+00 -.173E+01 -.297E+01   -.182E-05 0.316E-05 0.147E-04
   0.358E+02 0.620E+02 -.481E+03   -.368E+02 -.637E+02 0.484E+03   0.997E+00 0.173E+01 -.297E+01   -.182E-05 -.316E-05 0.147E-04
   0.716E+02 0.890E-06 0.481E+03   -.735E+02 -.671E-11 -.484E+03   0.199E+01 0.280E-19 0.297E+01   -.365E-05 -.536E-09 -.147E-04
   -.358E+02 0.620E+02 0.481E+03   0.368E+02 -.637E+02 -.484E+03   -.997E+00 0.173E+01 0.297E+01   0.182E-05 -.316E-05 -.147E-04
   -.358E+02 -.620E+02 0.481E+03   0.368E+02 0.637E+02 -.484E+03   -.997E+00 -.173E+01 0.297E+01   0.182E-05 0.316E-05 -.147E-04
   -.716E+02 -.890E-06 -.481E+03   0.735E+02 0.677E-11 0.484E+03   -.199E+01 0.588E-19 -.297E+01   0.365E-05 0.536E-09 0.147E-04
   0.358E+02 -.620E+02 -.481E+03   -.368E+02 0.637E+02 0.484E+03   0.997E+00 -.173E+01 -.297E+01   -.182E-05 0.316E-05 0.147E-04
   0.358E+02 0.620E+02 -.481E+03   -.368E+02 -.637E+02 0.484E+03   0.997E+00 0.173E+01 -.297E+01   -.182E-05 -.316E-05 0.147E-04
 -----------------------------------------------------------------------------------------------
   0.812E-11 0.392E-11 0.268E-10   0.000E+00 0.163E-12 0.568E-12   0.555E-15 0.355E-14 0.000E+00   -.475E-13 -.521E-13 0.102E-11


 POSITION                                       TOTAL-FORCE (eV/Angst)
 -----------------------------------------------------------------------------------
      0.00000      3.49082     10.00000        -0.000000      0.000000     -0.000000
      3.02314      1.74541     10.00000        -0.000000      0.000000     -0.000000
      6.04627      3.49082     10.00000        -0.000000      0.000000     -0.000000
      9.06941      1.74541     10.00000        -0.000000      0.000000     -0.000000
     -3.02314      8.72705     10.00000        -0.000000      0.000000     -0.000000
     -0.00000      6.98164     10.00000        -0.000000      0.000000     -0.000000
      3.02314      8.72705     10.00000        -0.000000      0.000000     -0.000000
      6.04627      6.98164     10.00000        -0.000000      0.000000     -0.000000
     -0.85071      5.23623      8.66428         0.007569      0.000000      0.002835
      4.96006      1.88138      8.66428        -0.003785      0.006555      0.002835
      1.93692      3.35485      8.66428        -0.003785     -0.006555      0.002835
      0.85071      5.23623     11.33572        -0.007569      0.000000     -0.002835
     -1.93692      3.35485     11.33572         0.003785     -0.006555     -0.002835
      1.08621      1.88138     11.33572         0.003785      0.006555     -0.002835
      5.19556      5.23623      8.66428         0.007569      0.000000      0.002835
     -1.08621      1.88138      8.66428        -0.003785      0.006555      0.002835
      7.98320      3.35485      8.66428        -0.003785     -0.006555      0.002835
      6.89698      5.23623     11.33572        -0.007569      0.000000     -0.002835
      4.10935      3.35485     11.33572         0.003785     -0.006555     -0.002835
      7.13249      1.88138     11.33572         0.003785      0.006555     -0.002835
      2.17243      0.00000      8.66428         0.007569      0.000000      0.002835
      1.93692      7.11760      8.66428        -0.003785      0.006555      0.002835
     -1.08621      8.59108      8.66428        -0.003785     -0.006555      0.002835
      3.87385      0.00000     11.33572        -0.007569      0.000000     -0.002835
     -4.96006      8.59108     11.33572         0.003785     -0.006555     -0.002835
     -1.93692      7.11760     11.33572         0.003785      0.006555     -0.002835
      8.21870      0.00000      8.66428         0.007569      0.000000      0.002835
     -4.10935      7.11760      8.66428        -0.003785      0.006555      0.002835
      4.96006      8.59108      8.66428        -0.003785     -0.006555      0.002835
      9.92012      0.00000     11.33572        -0.007569      0.000000     -0.002835
      1.08621      8.59108     11.33572         0.003785     -0.006555     -0.002835
      4.10935      7.11760     11.33572         0.003785      0.006555     -0.002835
 -----------------------------------------------------------------------------------
    total drift:                                0.000000      0.000000      0.000000


--------------------------------------------------------------------------------------------------------



  FREE ENERGIE OF THE ION-ELECTRON SYSTEM (eV)
  ---------------------------------------------------
  free  energy   TOTEN  =      -156.28678125 eV

  energy  without entropy=     -156.28678125  energy(sigma->0) =     -156.28678125



--------------------------------------------------------------------------------------------------------


    POTLOK:  cpu time    0.6533: real time    0.6564


--------------------------------------------------------------------------------------------------------




--------------------------------------------------------------------------------------------------------


  
 reached required accuracy - stopping structural energy minimisation
     LOOP+:  cpu time  655.4806: real time  691.7283
    4ORBIT:  cpu time    0.0000: real time    0.0000

 total amount of memory used by VASP MPI-rank0    79355. kBytes
=======================================================================

   base      :      30000. kBytes
   nonlr-proj:       4935. kBytes
   fftplans  :       7724. kBytes
   grid      :      19799. kBytes
   one-center:        124. kBytes
   wavefun   :      16773. kBytes

  
  
 General timing and accounting informations for this job:
 ========================================================
  
                  Total CPU time used (sec):     1048.634
                            User time (sec):     1031.224
                          System time (sec):       17.410
                         Elapsed time (sec):     1100.721
  
                   Maximum memory used (kb):      128184.
                   Average memory used (kb):          N/A
  
                          Minor page faults:       358894
                          Major page faults:          137
                 Voluntary context switches:         2098
