CrCl3 2x2 + Ni | LOBSTER COHP U_all | Site S2 (Threefold Surface Hollow, z=+1.43A)
 1.0000000000000000
    12.0925489970493256    0.0000000000000000    0.0000000000000000
    -6.0462744985246628   10.4724546279527502    0.0000000000000000
     0.0000000000000000    0.0000000000000000   20.0000000000000000
 Cr  Cl  Ni 
   8  24   1
Direct
  0.1634163359131710  0.3298200770038721  0.5001197048455189
  0.3298200770038721  0.1634163359131710  0.5001197048455189
  0.6701799229961284  0.3335962589092847  0.5001197048455189
  0.8333333333333286  0.1666666666666714  0.4988589465181290
  0.1666666666666714  0.8333333333333286  0.4988589465181290
  0.3335962589092847  0.6701799229961284  0.5001197048455189
  0.6664037410907154  0.8365836640868292  0.5001197048455189
  0.8365836640868292  0.6664037410907152  0.5001197048455189
  0.1782708299385841  0.5000000000000000  0.4339936549095067
  0.5000000000000000  0.1782708299385841  0.4339936549095067
  0.3250888522055493  0.3250888522055493  0.4343893153584832
  0.3215182563686192  0.5000000000000000  0.5741575619981624
  0.9986752766416029  0.3219436937360571  0.5677481252121465
  0.1740648990714018  0.1740648990714018  0.5684107573914444
  0.6749111477944508  0.5000000000000000  0.4343893153584832
  0.9976325124551945  0.1740722027821696  0.4310188818036033
  0.8259277972178304  0.3235603096730250  0.4310188818036033
  0.8259351009285981  0.5000000000000000  0.5684107573914444
  0.5000000000000000  0.3215182563686192  0.5741575619981624
  0.6780563062639429  0.1767315829055458  0.5677481252121465
  0.1740722027821696  0.9976325124551946  0.4310188818036033
  0.5000000000000000  0.6749111477944507  0.4343893153584832
  0.3235603096730250  0.8259277972178305  0.4310188818036033
  0.3219436937360571  0.9986752766416030  0.5677481252121465
  0.0013247233583971  0.8232684170944540  0.5677481252121465
  0.1767315829055458  0.6780563062639429  0.5677481252121465
  0.6764396903269752  0.0023674875448055  0.4310188818036033
  0.0023674875448055  0.6764396903269752  0.4310188818036033
  0.8217291700614159  0.8217291700614159  0.4339936549095067
  0.8232684170944541  0.0013247233583971  0.5677481252121465
  0.5000000000000000  0.8259351009285981  0.5684107573914444
  0.6784817436313806  0.6784817436313806  0.5741575619981624
  0.5000000000000000  0.5000000000000000  0.5711079668233388
Cartesian
  0.0000000000000000  0.0000000000000000  0.0000000000000000
  0.0000000000000000  0.0000000000000000  0.0000000000000000
  0.0000000000000000  0.0000000000000000  0.0000000000000000
  0.0000000000000000  0.0000000000000000  0.0000000000000000
  0.0000000000000000  0.0000000000000000  0.0000000000000000
  0.0000000000000000  0.0000000000000000  0.0000000000000000
  0.0000000000000000  0.0000000000000000  0.0000000000000000
  0.0000000000000000  0.0000000000000000  0.0000000000000000
  0.0000000000000000  0.0000000000000000  0.0000000000000000
  0.0000000000000000  0.0000000000000000  0.0000000000000000
  0.0000000000000000  0.0000000000000000  0.0000000000000000
  0.0000000000000000  0.0000000000000000  0.0000000000000000
  0.0000000000000000  0.0000000000000000  0.0000000000000000
  0.0000000000000000  0.0000000000000000  0.0000000000000000
  0.0000000000000000  0.0000000000000000  0.0000000000000000
  0.0000000000000000  0.0000000000000000  0.0000000000000000
  0.0000000000000000  0.0000000000000000  0.0000000000000000
  0.0000000000000000  0.0000000000000000  0.0000000000000000
  0.0000000000000000  0.0000000000000000  0.0000000000000000
  0.0000000000000000  0.0000000000000000  0.0000000000000000
  0.0000000000000000  0.0000000000000000  0.0000000000000000
  0.0000000000000000  0.0000000000000000  0.0000000000000000
  0.0000000000000000  0.0000000000000000  0.0000000000000000
  0.0000000000000000  0.0000000000000000  0.0000000000000000
  0.0000000000000000  0.0000000000000000  0.0000000000000000
  0.0000000000000000  0.0000000000000000  0.0000000000000000
  0.0000000000000000  0.0000000000000000  0.0000000000000000
  0.0000000000000000  0.0000000000000000  0.0000000000000000
  0.0000000000000000  0.0000000000000000  0.0000000000000000
  0.0000000000000000  0.0000000000000000  0.0000000000000000
  0.0000000000000000  0.0000000000000000  0.0000000000000000
  0.0000000000000000  0.0000000000000000  0.0000000000000000
  0.0000000000000000  0.0000000000000000  0.0000000000000000
