CrCl3 3x3 + H S3 top-Cr (D3, U=0) (a=18.
   1.00000000000000     
    18.1388234955739875    0.0000000000000000    0.0000000000000000
    -9.0694117477869938   15.7086819419291253    0.0000000000000000
     0.0000000000000000    0.0000000000000000   20.0000000000000000
   Cr   Cl   H 
    18    54     1
Direct
     0.1090802056488856    0.2218619272741673    0.4983814904281140
     0.2200964564841558    0.1113149227769356    0.4996022154968517
     0.1111111111111143    0.5555555555555571    0.5000504223674856
     0.2218234533278922    0.4440970902937213    0.4996410688733822
     0.1118457220991111    0.8894623314192345    0.4999542439287429
     0.2225695763729431    0.7777263630341708    0.4996410688733822
     0.4444444444444429    0.2222222222222214    0.5109885440342512
     0.5553517438897357    0.1087815337072273    0.4996022154968517
     0.4442832759867947    0.5548209445675604    0.4999542439287429
     0.5578851329594439    0.4465702101825085    0.4996022154968517
     0.4448047393924972    0.8872182783747115    0.4983814904281140
     0.5556845693683959    0.7765644057389485    0.4993018012689409
     0.7772043352474298    0.2223833906798697    0.4999542439287429
     0.8875465030372166    0.1109820972982753    0.4993018012689409
     0.7794483882919528    0.5575864610177859    0.4983814904281140
     0.8889403036324935    0.4448432133387721    0.4996410688733822
     0.7777777777777786    0.8888888888888857    0.4996228301060928
     0.8901022609277158    0.7791201636294477    0.4993018012689409
     0.1185388690583852    0.3339701053647962    0.4327979000016693
     0.3355271514475816    0.1214022711124597    0.4396052387009663
     0.2113118287207782    0.2127581508960259    0.4317623576796012
     0.2124271187878935    0.3320193627624387    0.5652312964356803
     0.9987345937744172    0.2143985688608148    0.5651234006389746
     0.1146000593365552    0.1172743206969923    0.5640576604337971
     0.1188775107554777    0.6665915576339172    0.4338867388728966
     0.3329979587463699    0.4515279041735294    0.4339975159516796
     0.2143807135451112    0.5477891559111867    0.4338867388728966
     0.2140365407798282    0.6667182075539759    0.5662555001198156
     0.9999484591126884    0.5473183332258451    0.5662555001198156
     0.1193483334408193    0.4526301258868433    0.5662555001198156
     0.1199169810620146    0.9995277173215327    0.4325683679884701
     0.3326965613018752    0.7845687636935890    0.4327979000016693
     0.2151387624931420    0.8814700545728406    0.4339975159516796
     0.2126998669417504    0.0011059208077436    0.5670589438403308
     0.0006343036013027    0.8815698775929587    0.5659291343507566
     0.1205263241701523    0.7869362630558567    0.5664621827433611
     0.4525417863315495    0.3311395152190898    0.4396052387009663
     0.6671389493451316    0.1203892637404819    0.4325683679884701
     0.5452643955542047    0.2141248803351219    0.4396052387009663
     0.5583903893948362    0.3410054094717743    0.5665181001792118
     0.3256612571948971    0.2173849799230690    0.5665181001792118
     0.4492816867436025    0.1082762772718280    0.5665181001792118
     0.4522592231933809    0.6654303698227032    0.4333922509700115
     0.6681129888419118    0.4553548379458933    0.4317623576796012
     0.5462774029261827    0.5467496856046499    0.4325683679884701
     0.5476022406583207    0.6660323630653617    0.5659291343507566
     0.3330766055523757    0.5461403424965120    0.5664621827433611
     0.4550727205326646    0.4539667997249207    0.5670589438403308
     0.4539085157706454    0.9985536778247525    0.4317623576796012
     0.6672204687561528    0.7850175285158281    0.4335020447570465
     0.5470755343258918    0.8783183462371122    0.4319933443757759
     0.5493923459696718    0.9973257386395629    0.5640576604337971
     0.3346473039042328    0.8804077560254550    0.5652312964356803
     0.4522680978058568    0.7843360249136024    0.5651234006389746
     0.7851966120938237    0.3336687079203015    0.4339975159516796
     0.9979094785778844    0.1195911323407722    0.4319933443757759
     0.8798378132959935    0.2144074434732905    0.4333922509700115
     0.8797304036108076    0.3335900611142957    0.5664621827433611
     0.6655607458589207    0.2115939461340068    0.5670589438403308
     0.7850967890737056    0.1190644260083436    0.5659291343507566
     0.7883483204295521    0.6687571880887799    0.4319933443757759
     0.0000751090327467    0.4522859531215601    0.4338867388728966
     0.8820979029730753    0.5481277976082792    0.4327979000016693
     0.8823306417530619    0.6679320728922471    0.5651234006389746
     0.6693409280271014    0.5520666073301088    0.5640576604337971
     0.7862589106412093    0.4542395478787778    0.5652312964356803
     0.7844637264263395    0.9994461979105114    0.4335020447570465
     0.0012362968439612    0.7868288533706708    0.4333922509700115
     0.8816491381508362    0.8822029402403248    0.4335020447570465
     0.8801670822928774    0.0004144855403526    0.5658276678528492
     0.6662521811263118    0.8797525967525247    0.5658276678528492
     0.7869140699141396    0.7864995843737869    0.5658276678528492
     0.4444444444444429    0.2222222222222214    0.5882868058253927
 
  0.00000000E+00  0.00000000E+00  0.00000000E+00
  0.00000000E+00  0.00000000E+00  0.00000000E+00
  0.00000000E+00  0.00000000E+00  0.00000000E+00
  0.00000000E+00  0.00000000E+00  0.00000000E+00
  0.00000000E+00  0.00000000E+00  0.00000000E+00
  0.00000000E+00  0.00000000E+00  0.00000000E+00
  0.00000000E+00  0.00000000E+00  0.00000000E+00
  0.00000000E+00  0.00000000E+00  0.00000000E+00
  0.00000000E+00  0.00000000E+00  0.00000000E+00
  0.00000000E+00  0.00000000E+00  0.00000000E+00
  0.00000000E+00  0.00000000E+00  0.00000000E+00
  0.00000000E+00  0.00000000E+00  0.00000000E+00
  0.00000000E+00  0.00000000E+00  0.00000000E+00
  0.00000000E+00  0.00000000E+00  0.00000000E+00
  0.00000000E+00  0.00000000E+00  0.00000000E+00
  0.00000000E+00  0.00000000E+00  0.00000000E+00
  0.00000000E+00  0.00000000E+00  0.00000000E+00
  0.00000000E+00  0.00000000E+00  0.00000000E+00
  0.00000000E+00  0.00000000E+00  0.00000000E+00
  0.00000000E+00  0.00000000E+00  0.00000000E+00
  0.00000000E+00  0.00000000E+00  0.00000000E+00
  0.00000000E+00  0.00000000E+00  0.00000000E+00
  0.00000000E+00  0.00000000E+00  0.00000000E+00
  0.00000000E+00  0.00000000E+00  0.00000000E+00
  0.00000000E+00  0.00000000E+00  0.00000000E+00
  0.00000000E+00  0.00000000E+00  0.00000000E+00
  0.00000000E+00  0.00000000E+00  0.00000000E+00
  0.00000000E+00  0.00000000E+00  0.00000000E+00
  0.00000000E+00  0.00000000E+00  0.00000000E+00
  0.00000000E+00  0.00000000E+00  0.00000000E+00
  0.00000000E+00  0.00000000E+00  0.00000000E+00
  0.00000000E+00  0.00000000E+00  0.00000000E+00
  0.00000000E+00  0.00000000E+00  0.00000000E+00
  0.00000000E+00  0.00000000E+00  0.00000000E+00
  0.00000000E+00  0.00000000E+00  0.00000000E+00
  0.00000000E+00  0.00000000E+00  0.00000000E+00
  0.00000000E+00  0.00000000E+00  0.00000000E+00
  0.00000000E+00  0.00000000E+00  0.00000000E+00
  0.00000000E+00  0.00000000E+00  0.00000000E+00
  0.00000000E+00  0.00000000E+00  0.00000000E+00
  0.00000000E+00  0.00000000E+00  0.00000000E+00
  0.00000000E+00  0.00000000E+00  0.00000000E+00
  0.00000000E+00  0.00000000E+00  0.00000000E+00
  0.00000000E+00  0.00000000E+00  0.00000000E+00
  0.00000000E+00  0.00000000E+00  0.00000000E+00
  0.00000000E+00  0.00000000E+00  0.00000000E+00
  0.00000000E+00  0.00000000E+00  0.00000000E+00
  0.00000000E+00  0.00000000E+00  0.00000000E+00
  0.00000000E+00  0.00000000E+00  0.00000000E+00
  0.00000000E+00  0.00000000E+00  0.00000000E+00
  0.00000000E+00  0.00000000E+00  0.00000000E+00
  0.00000000E+00  0.00000000E+00  0.00000000E+00
  0.00000000E+00  0.00000000E+00  0.00000000E+00
  0.00000000E+00  0.00000000E+00  0.00000000E+00
  0.00000000E+00  0.00000000E+00  0.00000000E+00
  0.00000000E+00  0.00000000E+00  0.00000000E+00
  0.00000000E+00  0.00000000E+00  0.00000000E+00
  0.00000000E+00  0.00000000E+00  0.00000000E+00
  0.00000000E+00  0.00000000E+00  0.00000000E+00
  0.00000000E+00  0.00000000E+00  0.00000000E+00
  0.00000000E+00  0.00000000E+00  0.00000000E+00
  0.00000000E+00  0.00000000E+00  0.00000000E+00
  0.00000000E+00  0.00000000E+00  0.00000000E+00
  0.00000000E+00  0.00000000E+00  0.00000000E+00
  0.00000000E+00  0.00000000E+00  0.00000000E+00
  0.00000000E+00  0.00000000E+00  0.00000000E+00
  0.00000000E+00  0.00000000E+00  0.00000000E+00
  0.00000000E+00  0.00000000E+00  0.00000000E+00
  0.00000000E+00  0.00000000E+00  0.00000000E+00
  0.00000000E+00  0.00000000E+00  0.00000000E+00
  0.00000000E+00  0.00000000E+00  0.00000000E+00
  0.00000000E+00  0.00000000E+00  0.00000000E+00
  0.00000000E+00  0.00000000E+00  0.00000000E+00
