 running   24 mpi-ranks, with    1 threads/rank, on    1 nodes
 distrk:  each k-point on   24 cores,    1 groups
 distr:  one band on    4 cores,    6 groups
 vasp.6.5.1 10Mar25 (build Feb 13 2026 23:13:13) complex                        
  
 POSCAR found type information on POSCAR CrClH 
 POSCAR found :  3 types and      73 ions
 scaLAPACK will be used
 LDA part: xc-table for (Slater+PW92), standard interpolation
 POSCAR, INCAR and KPOINTS ok, starting setup
 FFT: planning ... GRIDC
 FFT: planning ... GRID_SOFT
 FFT: planning ... GRID
 WAVECAR not read
 entering main loop
       N       E                     dE             d eps       ncg     rms          rms(c)
DAV:   1     0.466079333374E+04    0.46608E+04   -0.13872E+05  6636   0.918E+02
DAV:   2     0.918871450175E+03   -0.37419E+04   -0.34751E+04  7788   0.247E+02
DAV:   3    -0.286058689737E+03   -0.12049E+04   -0.11658E+04  9492   0.139E+02
DAV:   4    -0.389036778529E+03   -0.10298E+03   -0.10154E+03 10044   0.577E+01
DAV:   5    -0.390813526008E+03   -0.17767E+01   -0.17430E+01 10104   0.104E+01    0.622E+01
DAV:   6    -0.368893747654E+03    0.21920E+02   -0.33271E+02  9612   0.636E+01    0.637E+01
DAV:   7    -0.352639371543E+03    0.16254E+02   -0.59549E+01  9372   0.615E+01    0.304E+01
DAV:   8    -0.353695747771E+03   -0.10564E+01   -0.15328E+01  9672   0.889E+00    0.145E+01
DAV:   9    -0.353365582454E+03    0.33017E+00   -0.45787E+00 10044   0.141E+01    0.101E+01
DAV:  10    -0.352962866614E+03    0.40272E+00   -0.32205E+00  9528   0.709E+00    0.406E+00
DAV:  11    -0.352960450375E+03    0.24162E-02   -0.28592E-01  9552   0.328E+00    0.153E+00
DAV:  12    -0.353047853935E+03   -0.87404E-01   -0.55779E-02  9336   0.767E-01    0.741E-01
DAV:  13    -0.353112663901E+03   -0.64810E-01   -0.14600E-02  9300   0.412E-01    0.445E-01
DAV:  14    -0.353143970500E+03   -0.31307E-01   -0.27025E-03  9468   0.212E-01    0.192E-01
DAV:  15    -0.353156573123E+03   -0.12603E-01   -0.73657E-04  9372   0.105E-01    0.127E-01
DAV:  16    -0.353164926816E+03   -0.83537E-02   -0.30461E-04  9396   0.573E-02    0.698E-02
DAV:  17    -0.353172582558E+03   -0.76557E-02   -0.18532E-04  8820   0.307E-02    0.402E-02
DAV:  18    -0.353177420384E+03   -0.48378E-02   -0.15204E-04  8952   0.279E-02    0.317E-02
DAV:  19    -0.353180648442E+03   -0.32281E-02   -0.13141E-04  8376   0.223E-02    0.249E-02
DAV:  20    -0.353182374596E+03   -0.17262E-02   -0.77242E-05  8544   0.150E-02    0.156E-02
DAV:  21    -0.353183093027E+03   -0.71843E-03   -0.34582E-05  7416   0.829E-03    0.980E-03
DAV:  22    -0.353183491270E+03   -0.39824E-03   -0.20111E-05  7056   0.700E-03    0.548E-03
DAV:  23    -0.353183725907E+03   -0.23464E-03   -0.68390E-06  6660   0.384E-03    0.338E-03
DAV:  24    -0.353183919598E+03   -0.19369E-03   -0.22234E-06  5784   0.263E-03    0.263E-03
DAV:  25    -0.353184076472E+03   -0.15687E-03   -0.21774E-06  5820   0.235E-03    0.190E-03
DAV:  26    -0.353184156522E+03   -0.80049E-04   -0.22115E-06  5436   0.195E-03    0.131E-03
DAV:  27    -0.353184193799E+03   -0.37277E-04   -0.95382E-07  4980   0.140E-03    0.106E-03
DAV:  28    -0.353184221951E+03   -0.28152E-04   -0.11832E-06  5004   0.133E-03    0.763E-04
DAV:  29    -0.353184241164E+03   -0.19214E-04   -0.51125E-07  4512   0.117E-03    0.772E-04
DAV:  30    -0.353184249956E+03   -0.87914E-05   -0.23237E-07  3780   0.101E-03    0.678E-04
DAV:  31    -0.353184258246E+03   -0.82905E-05   -0.14226E-07  3792   0.750E-04    0.548E-04
DAV:  32    -0.353184273477E+03   -0.15230E-04   -0.22142E-07  3984   0.678E-04    0.524E-04
DAV:  33    -0.353184284475E+03   -0.10999E-04   -0.17855E-07  4080   0.659E-04    0.461E-04
DAV:  34    -0.353184290989E+03   -0.65131E-05   -0.15457E-07  3936   0.634E-04    0.438E-04
DAV:  35    -0.353184292769E+03   -0.17805E-05   -0.71432E-08  3852   0.561E-04    0.267E-04
DAV:  36    -0.353184293890E+03   -0.11209E-05   -0.40850E-08  3780   0.352E-04    0.203E-04
DAV:  37    -0.353184294611E+03   -0.72089E-06   -0.18534E-08  3816   0.321E-04
   1 F= -.36622071E+03 E0= -.36622071E+03  d E =-.366221E+03  mag=    53.0001
 curvature:   0.00 expect dE= 0.000E+00 dE for cont linesearch  0.000E+00
 trial: gam= 0.00000 g(F)=  0.119E+00 g(S)=  0.000E+00 ort = 0.000E+00 (trialstep = 0.100E+01)
 search vector abs. value=  0.119E+00
 bond charge predicted
       N       E                     dE             d eps       ncg     rms          rms(c)
DAV:   1    -0.353195677805E+03   -0.11384E-01   -0.10372E+01  6480   0.402E+00    0.182E+00
DAV:   2    -0.353281616111E+03   -0.85938E-01   -0.87472E-01  9336   0.294E+00    0.179E+00
DAV:   3    -0.353269323431E+03    0.12293E-01   -0.69776E-02  9480   0.166E+00    0.739E-01
DAV:   4    -0.353267000326E+03    0.23231E-02   -0.70396E-03  9468   0.509E-01    0.579E-01
DAV:   5    -0.353265898111E+03    0.11022E-02   -0.57177E-03  9120   0.166E-01    0.325E-01
DAV:   6    -0.353266218078E+03   -0.31997E-03   -0.13311E-03  9444   0.131E-01    0.109E-01
DAV:   7    -0.353266312039E+03   -0.93962E-04   -0.13468E-04  9348   0.419E-02    0.565E-02
DAV:   8    -0.353266367456E+03   -0.55417E-04   -0.29088E-05  9024   0.202E-02    0.508E-02
DAV:   9    -0.353266401650E+03   -0.34194E-04   -0.24148E-05  8760   0.129E-02    0.319E-02
DAV:  10    -0.353266425838E+03   -0.24188E-04   -0.16885E-05  9216   0.119E-02    0.963E-03
DAV:  11    -0.353266446522E+03   -0.20684E-04   -0.22630E-06  5652   0.513E-03    0.260E-03
DAV:  12    -0.353266456915E+03   -0.10393E-04   -0.92064E-07  4056   0.323E-03    0.294E-03
DAV:  13    -0.353266462469E+03   -0.55537E-05   -0.70277E-07  3924   0.221E-03    0.184E-03
DAV:  14    -0.353266469469E+03   -0.70004E-05   -0.29070E-07  3804   0.153E-03    0.116E-03
DAV:  15    -0.353266475622E+03   -0.61528E-05   -0.16545E-07  3840   0.115E-03    0.738E-04
DAV:  16    -0.353266482231E+03   -0.66092E-05   -0.11940E-07  3792   0.806E-04    0.545E-04
DAV:  17    -0.353266485112E+03   -0.28802E-05   -0.76759E-08  3816   0.675E-04    0.556E-04
DAV:  18    -0.353266486309E+03   -0.11975E-05   -0.34109E-08  3804   0.488E-04    0.308E-04
DAV:  19    -0.353266488218E+03   -0.19087E-05   -0.34599E-08  3708   0.353E-04    0.341E-04
DAV:  20    -0.353266489778E+03   -0.15607E-05   -0.28090E-08  3804   0.380E-04    0.223E-04
DAV:  21    -0.353266490323E+03   -0.54425E-06   -0.13283E-08  3816   0.311E-04
   2 F= -.36631298E+03 E0= -.36631298E+03  d E =-.922794E-01  mag=    53.0000
 trial-energy change:   -0.092279  1 .order   -0.092015   -0.118632   -0.065398
 step:   2.1545(harm=  2.2285)  dis= 0.07282  next Energy=  -366.351142 (dE=-0.130E+00)
 bond charge predicted
       N       E                     dE             d eps       ncg     rms          rms(c)
DAV:   1    -0.353198035386E+03    0.68454E-01   -0.13825E+01  6480   0.469E+00    0.209E+00
DAV:   2    -0.353312651779E+03   -0.11462E+00   -0.11666E+00  9348   0.345E+00    0.205E+00
DAV:   3    -0.353297723711E+03    0.14928E-01   -0.89038E-02  9480   0.188E+00    0.850E-01
DAV:   4    -0.353294589985E+03    0.31337E-02   -0.87078E-03  9516   0.596E-01    0.665E-01
DAV:   5    -0.353293083353E+03    0.15066E-02   -0.72052E-03  9144   0.188E-01    0.377E-01
DAV:   6    -0.353293489118E+03   -0.40577E-03   -0.17533E-03  9456   0.144E-01    0.120E-01
DAV:   7    -0.353293615228E+03   -0.12611E-03   -0.17430E-04  9408   0.445E-02    0.652E-02
DAV:   8    -0.353293685814E+03   -0.70586E-04   -0.40443E-05  8952   0.242E-02    0.584E-02
DAV:   9    -0.353293729294E+03   -0.43480E-04   -0.30505E-05  8796   0.142E-02    0.367E-02
DAV:  10    -0.353293761774E+03   -0.32480E-04   -0.21538E-05  9300   0.159E-02    0.112E-02
DAV:  11    -0.353293786813E+03   -0.25039E-04   -0.38419E-06  7116   0.600E-03    0.357E-03
DAV:  12    -0.353293797841E+03   -0.11028E-04   -0.92608E-07  4200   0.362E-03    0.325E-03
DAV:  13    -0.353293807882E+03   -0.10041E-04   -0.62361E-07  3792   0.257E-03    0.175E-03
DAV:  14    -0.353293817511E+03   -0.96290E-05   -0.39144E-07  3936   0.154E-03    0.117E-03
DAV:  15    -0.353293824265E+03   -0.67539E-05   -0.17652E-07  3780   0.121E-03    0.808E-04
DAV:  16    -0.353293830930E+03   -0.66649E-05   -0.11681E-07  3696   0.776E-04    0.613E-04
DAV:  17    -0.353293834582E+03   -0.36515E-05   -0.75627E-08  3828   0.681E-04    0.557E-04
DAV:  18    -0.353293837254E+03   -0.26723E-05   -0.58514E-08  3708   0.525E-04    0.358E-04
DAV:  19    -0.353293838870E+03   -0.16158E-05   -0.35809E-08  3804   0.470E-04    0.348E-04
DAV:  20    -0.353293840226E+03   -0.13562E-05   -0.28739E-08  3696   0.412E-04    0.261E-04
DAV:  21    -0.353293840987E+03   -0.76121E-06   -0.19115E-08  3780   0.310E-04
   3 F= -.36635184E+03 E0= -.36635184E+03  d E =-.131130E+00  mag=    53.0000
 curvature:  -1.11 expect dE=-0.801E-01 dE for cont linesearch -0.160E-04
 trial: gam= 0.59712 g(F)=  0.721E-01 g(S)=  0.000E+00 ort = 0.131E-02 (trialstep = 0.123E+01)
 search vector abs. value=  0.116E+00
 bond charge predicted
       N       E                     dE             d eps       ncg     rms          rms(c)
DAV:   1    -0.353237674562E+03    0.56166E-01   -0.12941E+01  6504   0.464E+00    0.201E+00
DAV:   2    -0.353329581683E+03   -0.91907E-01   -0.92400E-01  9204   0.244E+00    0.125E+00
DAV:   3    -0.353329110525E+03    0.47116E-03   -0.62842E-02  9480   0.154E+00    0.919E-01
DAV:   4    -0.353324404270E+03    0.47063E-02   -0.10213E-02  9576   0.710E-01    0.545E-01
DAV:   5    -0.353323142684E+03    0.12616E-02   -0.41182E-03  8736   0.116E-01    0.366E-01
DAV:   6    -0.353323086261E+03    0.56423E-04   -0.19975E-03  9444   0.188E-01    0.103E-01
DAV:   7    -0.353323406625E+03   -0.32036E-03   -0.27092E-04  9384   0.455E-02    0.568E-02
DAV:   8    -0.353323769994E+03   -0.36337E-03   -0.48461E-05  9492   0.247E-02    0.443E-02
DAV:   9    -0.353324133774E+03   -0.36378E-03   -0.20076E-05  9252   0.154E-02    0.264E-02
DAV:  10    -0.353324389260E+03   -0.25549E-03   -0.12556E-05  9072   0.720E-03    0.126E-02
DAV:  11    -0.353324680331E+03   -0.29107E-03   -0.55948E-06  7332   0.467E-03    0.419E-03
DAV:  12    -0.353324830490E+03   -0.15016E-03   -0.12778E-06  5400   0.294E-03    0.298E-03
DAV:  13    -0.353324946183E+03   -0.11569E-03   -0.11270E-06  4788   0.249E-03    0.250E-03
DAV:  14    -0.353325053647E+03   -0.10746E-03   -0.11521E-06  4848   0.178E-03    0.216E-03
DAV:  15    -0.353325203018E+03   -0.14937E-03   -0.22880E-06  5940   0.200E-03    0.114E-03
DAV:  16    -0.353325295644E+03   -0.92626E-04   -0.11246E-06  5148   0.140E-03    0.102E-03
DAV:  17    -0.353325335538E+03   -0.39894E-04   -0.49711E-07  4464   0.135E-03    0.105E-03
DAV:  18    -0.353325361586E+03   -0.26048E-04   -0.55583E-07  4416   0.131E-03    0.915E-04
DAV:  19    -0.353325372787E+03   -0.11201E-04   -0.41390E-07  4044   0.124E-03    0.730E-04
DAV:  20    -0.353325379598E+03   -0.68114E-05   -0.44617E-07  4320   0.105E-03    0.717E-04
DAV:  21    -0.353325380893E+03   -0.12949E-05   -0.21680E-07  3912   0.103E-03    0.340E-04
DAV:  22    -0.353325381845E+03   -0.95180E-06   -0.12571E-07  3720   0.594E-04
   4 F= -.36639514E+03 E0= -.36639514E+03  d E =-.433062E-01  mag=    53.0000
 trial-energy change:   -0.043306  1 .order   -0.044719   -0.089763    0.000325
 step:   1.2260(harm=  1.2265)  dis= 0.04535  next Energy=  -366.395142 (dE=-0.433E-01)
 bond charge predicted
       N       E                     dE             d eps       ncg     rms          rms(c)
DAV:   1    -0.353325428508E+03   -0.47615E-04   -0.20442E-04  6780   0.186E-02    0.807E-03
DAV:   2    -0.353325429975E+03   -0.14679E-05   -0.14662E-05  9228   0.981E-03    0.497E-03
DAV:   3    -0.353325430580E+03   -0.60441E-06   -0.74794E-07  4848   0.587E-03
   5 F= -.36639514E+03 E0= -.36639514E+03  d E =-.433083E-01  mag=    53.0000
 curvature:  -0.97 expect dE=-0.299E-01 dE for cont linesearch -0.338E-07
 trial: gam= 0.47206 g(F)=  0.310E-01 g(S)=  0.000E+00 ort =-0.637E-04 (trialstep = 0.123E+01)
 search vector abs. value=  0.568E-01
 bond charge predicted
       N       E                     dE             d eps       ncg     rms          rms(c)
DAV:   1    -0.353295278237E+03    0.30152E-01   -0.70378E+00  6480   0.357E+00    0.154E+00
DAV:   2    -0.353347797710E+03   -0.52519E-01   -0.48971E-01  9192   0.163E+00    0.980E-01
DAV:   3    -0.353350082730E+03   -0.22850E-02   -0.20972E-02  9468   0.827E-01    0.571E-01
DAV:   4    -0.353348619823E+03    0.14629E-02   -0.34655E-03  9504   0.353E-01    0.355E-01
DAV:   5    -0.353348086917E+03    0.53291E-03   -0.12000E-03  9756   0.128E-01    0.273E-01
DAV:   6    -0.353347730058E+03    0.35686E-03   -0.17929E-03  9312   0.110E-01    0.938E-02
DAV:   7    -0.353347930019E+03   -0.19996E-03   -0.26456E-04  9132   0.467E-02    0.339E-02
DAV:   8    -0.353348128105E+03   -0.19809E-03   -0.20570E-05  9648   0.198E-02    0.223E-02
DAV:   9    -0.353348302719E+03   -0.17461E-03   -0.56691E-06  7380   0.863E-03    0.147E-02
DAV:  10    -0.353348552648E+03   -0.24993E-03   -0.83481E-06  8244   0.597E-03    0.645E-03
DAV:  11    -0.353348742052E+03   -0.18940E-03   -0.28543E-06  6348   0.448E-03    0.299E-03
DAV:  12    -0.353348816934E+03   -0.74882E-04   -0.73110E-07  4200   0.232E-03    0.242E-03
DAV:  13    -0.353348884110E+03   -0.67175E-04   -0.55429E-07  4236   0.175E-03    0.190E-03
DAV:  14    -0.353349005119E+03   -0.12101E-03   -0.15849E-06  5544   0.176E-03    0.127E-03
DAV:  15    -0.353349091366E+03   -0.86247E-04   -0.80318E-07  4752   0.143E-03    0.103E-03
DAV:  16    -0.353349143691E+03   -0.52326E-04   -0.56827E-07  4296   0.135E-03    0.101E-03
DAV:  17    -0.353349175454E+03   -0.31762E-04   -0.47480E-07  4188   0.126E-03    0.852E-04
DAV:  18    -0.353349195460E+03   -0.20007E-04   -0.38499E-07  3960   0.113E-03    0.630E-04
DAV:  19    -0.353349207507E+03   -0.12047E-04   -0.28831E-07  3936   0.996E-04    0.563E-04
DAV:  20    -0.353349219020E+03   -0.11513E-04   -0.32696E-07  4212   0.923E-04    0.540E-04
DAV:  21    -0.353349224016E+03   -0.49956E-05   -0.21932E-07  3900   0.861E-04    0.333E-04
DAV:  22    -0.353349225327E+03   -0.13115E-05   -0.11142E-07  3816   0.656E-04    0.283E-04
DAV:  23    -0.353349226373E+03   -0.10455E-05   -0.60549E-08  3744   0.463E-04    0.151E-04
DAV:  24    -0.353349227599E+03   -0.12257E-05   -0.40093E-08  3744   0.371E-04    0.199E-04
DAV:  25    -0.353349228585E+03   -0.98617E-06   -0.29393E-08  3768   0.328E-04
   6 F= -.36642597E+03 E0= -.36642597E+03  d E =-.308249E-01  mag=    53.0000
 trial-energy change:   -0.030825  1 .order   -0.030791   -0.038101   -0.023480
 step:   3.2051(harm=  3.2051)  dis= 0.06943  next Energy=  -366.444789 (dE=-0.496E-01)
 bond charge predicted
       N       E                     dE             d eps       ncg     rms          rms(c)
DAV:   1    -0.353214951029E+03    0.13428E+00   -0.18143E+01  6480   0.576E+00    0.250E+00
DAV:   2    -0.353355068038E+03   -0.14012E+00   -0.13050E+00  9216   0.276E+00    0.174E+00
DAV:   3    -0.353359355501E+03   -0.42875E-02   -0.59535E-02  9420   0.143E+00    0.921E-01
DAV:   4    -0.353355486739E+03    0.38688E-02   -0.95645E-03  9480   0.584E-01    0.584E-01
DAV:   5    -0.353354120795E+03    0.13659E-02   -0.31966E-03  9744   0.220E-01    0.447E-01
DAV:   6    -0.353353266312E+03    0.85448E-03   -0.49831E-03  9300   0.178E-01    0.155E-01
DAV:   7    -0.353353728858E+03   -0.46255E-03   -0.74654E-04  9156   0.761E-02    0.567E-02
DAV:   8    -0.353354128069E+03   -0.39921E-03   -0.49223E-05  9696   0.334E-02    0.363E-02
DAV:   9    -0.353354491639E+03   -0.36357E-03   -0.14845E-05  9108   0.131E-02    0.249E-02
DAV:  10    -0.353355018134E+03   -0.52649E-03   -0.19318E-05  8700   0.999E-03    0.103E-02
DAV:  11    -0.353355365433E+03   -0.34730E-03   -0.70776E-06  8376   0.678E-03    0.470E-03
DAV:  12    -0.353355509515E+03   -0.14408E-03   -0.89257E-07  4668   0.262E-03    0.362E-03
DAV:  13    -0.353355663852E+03   -0.15434E-03   -0.11413E-06  4920   0.236E-03    0.286E-03
DAV:  14    -0.353355919292E+03   -0.25544E-03   -0.35111E-06  6036   0.245E-03    0.162E-03
DAV:  15    -0.353356082021E+03   -0.16273E-03   -0.15715E-06  5556   0.166E-03    0.159E-03
DAV:  16    -0.353356160700E+03   -0.78680E-04   -0.59034E-07  4536   0.130E-03    0.117E-03
DAV:  17    -0.353356218632E+03   -0.57932E-04   -0.58161E-07  4452   0.136E-03    0.115E-03
DAV:  18    -0.353356257165E+03   -0.38533E-04   -0.57347E-07  4284   0.130E-03    0.799E-04
DAV:  19    -0.353356288152E+03   -0.30987E-04   -0.62189E-07  4452   0.121E-03    0.793E-04
DAV:  20    -0.353356307032E+03   -0.18880E-04   -0.54981E-07  4380   0.125E-03    0.690E-04
DAV:  21    -0.353356311114E+03   -0.40818E-05   -0.23445E-07  3840   0.988E-04    0.367E-04
DAV:  22    -0.353356315216E+03   -0.41024E-05   -0.16254E-07  3816   0.679E-04    0.406E-04
DAV:  23    -0.353356317789E+03   -0.25730E-05   -0.93425E-08  3804   0.638E-04    0.200E-04
DAV:  24    -0.353356320334E+03   -0.25444E-05   -0.89289E-08  3804   0.465E-04    0.324E-04
DAV:  25    -0.353356321079E+03   -0.74548E-06   -0.37460E-08  3828   0.480E-04
   7 F= -.36644419E+03 E0= -.36644419E+03  d E =-.490498E-01  mag=    53.0000
 curvature:  -2.94 expect dE=-0.647E-01 dE for cont linesearch -0.277E-04
 trial: gam= 0.69547 g(F)=  0.220E-01 g(S)=  0.000E+00 ort =-0.732E-03 (trialstep = 0.162E+01)
 search vector abs. value=  0.485E-01
 bond charge predicted
       N       E                     dE             d eps       ncg     rms          rms(c)
DAV:   1    -0.353298737389E+03    0.57583E-01   -0.98980E+00  6480   0.427E+00    0.206E+00
DAV:   2    -0.353368273262E+03   -0.69536E-01   -0.70940E-01  9204   0.196E+00    0.108E+00
DAV:   3    -0.353371567340E+03   -0.32941E-02   -0.27986E-02  9264   0.833E-01    0.731E-01
DAV:   4    -0.353369542931E+03    0.20244E-02   -0.45408E-03  9588   0.416E-01    0.468E-01
DAV:   5    -0.353368509753E+03    0.10332E-02   -0.15928E-03  9576   0.147E-01    0.367E-01
DAV:   6    -0.353367737743E+03    0.77201E-03   -0.25082E-03  9192   0.133E-01    0.142E-01
DAV:   7    -0.353368007842E+03   -0.27010E-03   -0.41115E-04  9264   0.553E-02    0.478E-02
DAV:   8    -0.353368380689E+03   -0.37285E-03   -0.52907E-05  9564   0.213E-02    0.292E-02
DAV:   9    -0.353368774521E+03   -0.39383E-03   -0.21823E-05  8976   0.154E-02    0.174E-02
DAV:  10    -0.353369061139E+03   -0.28662E-03   -0.92189E-06  9240   0.851E-03    0.732E-03
DAV:  11    -0.353369369236E+03   -0.30810E-03   -0.28998E-06  6060   0.410E-03    0.392E-03
DAV:  12    -0.353369623892E+03   -0.25466E-03   -0.24339E-06  5844   0.334E-03    0.339E-03
DAV:  13    -0.353369832199E+03   -0.20831E-03   -0.17180E-06  5436   0.266E-03    0.237E-03
DAV:  14    -0.353370034878E+03   -0.20268E-03   -0.22074E-06  5748   0.227E-03    0.201E-03
DAV:  15    -0.353370161209E+03   -0.12633E-03   -0.12008E-06  4920   0.179E-03    0.148E-03
DAV:  16    -0.353370261436E+03   -0.10023E-03   -0.12924E-06  5040   0.190E-03    0.121E-03
DAV:  17    -0.353370303660E+03   -0.42224E-04   -0.59077E-07  4308   0.147E-03    0.846E-04
DAV:  18    -0.353370339380E+03   -0.35720E-04   -0.64122E-07  4464   0.128E-03    0.104E-03
DAV:  19    -0.353370357520E+03   -0.18140E-04   -0.43202E-07  4128   0.136E-03    0.603E-04
DAV:  20    -0.353370367269E+03   -0.97489E-05   -0.36149E-07  3936   0.100E-03    0.630E-04
DAV:  21    -0.353370372506E+03   -0.52370E-05   -0.22147E-07  3948   0.988E-04    0.335E-04
DAV:  22    -0.353370374904E+03   -0.23978E-05   -0.14629E-07  3768   0.670E-04    0.374E-04
DAV:  23    -0.353370375844E+03   -0.93999E-06   -0.70077E-08  3828   0.577E-04
   8 F= -.36646400E+03 E0= -.36646400E+03  d E =-.198054E-01  mag=    53.0000
 trial-energy change:   -0.019805  1 .order   -0.019826   -0.034937   -0.004715
 step:   1.8785(harm=  1.8785)  dis= 0.03929  next Energy=  -366.464388 (dE=-0.202E-01)
 bond charge predicted
       N       E                     dE             d eps       ncg     rms          rms(c)
DAV:   1    -0.353368122762E+03    0.22521E-02   -0.24078E-01  6600   0.669E-01    0.315E-01
DAV:   2    -0.353369661304E+03   -0.15385E-02   -0.17075E-02  9108   0.296E-01    0.152E-01
DAV:   3    -0.353369834238E+03   -0.17293E-03   -0.62878E-04  9180   0.120E-01    0.111E-01
DAV:   4    -0.353369779972E+03    0.54266E-04   -0.10015E-04  9540   0.615E-02    0.713E-02
DAV:   5    -0.353369735935E+03    0.44037E-04   -0.37314E-05  9288   0.201E-02    0.561E-02
DAV:   6    -0.353369684793E+03    0.51142E-04   -0.56003E-05  9156   0.196E-02    0.221E-02
DAV:   7    -0.353369694389E+03   -0.95962E-05   -0.94602E-06  9072   0.866E-03    0.763E-03
DAV:   8    -0.353369717790E+03   -0.23401E-04   -0.79874E-07  4140   0.376E-03    0.526E-03
DAV:   9    -0.353369745694E+03   -0.27903E-04   -0.87687E-07  4068   0.333E-03    0.333E-03
DAV:  10    -0.353369765479E+03   -0.19786E-04   -0.67071E-07  3936   0.220E-03    0.180E-03
DAV:  11    -0.353369783403E+03   -0.17924E-04   -0.54504E-07  3948   0.191E-03    0.139E-03
DAV:  12    -0.353369795906E+03   -0.12503E-04   -0.28707E-07  3780   0.164E-03    0.107E-03
DAV:  13    -0.353369812140E+03   -0.16234E-04   -0.26876E-07  3900   0.124E-03    0.869E-04
DAV:  14    -0.353369820799E+03   -0.86587E-05   -0.16585E-07  3828   0.903E-04    0.652E-04
DAV:  15    -0.353369828762E+03   -0.79630E-05   -0.11434E-07  3696   0.646E-04    0.479E-04
DAV:  16    -0.353369833539E+03   -0.47770E-05   -0.62481E-08  3828   0.602E-04    0.428E-04
DAV:  17    -0.353369839984E+03   -0.64456E-05   -0.76542E-08  3864   0.457E-04    0.384E-04
DAV:  18    -0.353369847825E+03   -0.78406E-05   -0.10058E-07  3924   0.538E-04    0.420E-04
DAV:  19    -0.353369851726E+03   -0.39015E-05   -0.78167E-08  3792   0.540E-04    0.359E-04
DAV:  20    -0.353369852637E+03   -0.91048E-06   -0.37470E-08  3888   0.429E-04
   9 F= -.36646436E+03 E0= -.36646436E+03  d E =-.201665E-01  mag=    53.0000
 curvature:  -2.12 expect dE=-0.122E-01 dE for cont linesearch -0.679E-09
 trial: gam= 0.21871 g(F)=  0.574E-02 g(S)=  0.000E+00 ort =-0.394E-05 (trialstep = 0.168E+01)
 search vector abs. value=  0.806E-02
 bond charge predicted
       N       E                     dE             d eps       ncg     rms          rms(c)
DAV:   1    -0.353362260237E+03    0.75915E-02   -0.19090E+00  6492   0.190E+00    0.896E-01
DAV:   2    -0.353375860892E+03   -0.13601E-01   -0.13441E-01  9204   0.877E-01    0.455E-01
DAV:   3    -0.353376698341E+03   -0.83745E-03   -0.43546E-03  9300   0.340E-01    0.306E-01
DAV:   4    -0.353376300157E+03    0.39818E-03   -0.72488E-04  9672   0.160E-01    0.204E-01
DAV:   5    -0.353375926309E+03    0.37385E-03   -0.37932E-04  9492   0.661E-02    0.151E-01
DAV:   6    -0.353375630451E+03    0.29586E-03   -0.39838E-04  9468   0.579E-02    0.608E-02
DAV:   7    -0.353375684243E+03   -0.53791E-04   -0.65629E-05  9288   0.305E-02    0.201E-02
DAV:   8    -0.353375836088E+03   -0.15185E-03   -0.11181E-05  8928   0.118E-02    0.131E-02
DAV:   9    -0.353375998378E+03   -0.16229E-03   -0.36842E-06  5736   0.754E-03    0.850E-03
DAV:  10    -0.353376111204E+03   -0.11283E-03   -0.27300E-06  5148   0.423E-03    0.484E-03
DAV:  11    -0.353376256990E+03   -0.14579E-03   -0.23190E-06  5292   0.263E-03    0.257E-03
DAV:  12    -0.353376390968E+03   -0.13398E-03   -0.97768E-07  4776   0.218E-03    0.217E-03
DAV:  13    -0.353376468898E+03   -0.77930E-04   -0.60156E-07  4176   0.170E-03    0.145E-03
DAV:  14    -0.353376542492E+03   -0.73594E-04   -0.70808E-07  4536   0.162E-03    0.144E-03
DAV:  15    -0.353376593514E+03   -0.51022E-04   -0.52268E-07  4128   0.135E-03    0.105E-03
DAV:  16    -0.353376673292E+03   -0.79778E-04   -0.13985E-06  5088   0.146E-03    0.928E-04
DAV:  17    -0.353376707206E+03   -0.33915E-04   -0.38247E-07  4272   0.111E-03    0.557E-04
DAV:  18    -0.353376730988E+03   -0.23782E-04   -0.41550E-07  4308   0.971E-04    0.606E-04
DAV:  19    -0.353376738061E+03   -0.70731E-05   -0.18722E-07  3828   0.975E-04    0.392E-04
DAV:  20    -0.353376743438E+03   -0.53765E-05   -0.15344E-07  3828   0.632E-04    0.364E-04
DAV:  21    -0.353376746737E+03   -0.32989E-05   -0.95135E-08  3780   0.689E-04    0.261E-04
DAV:  22    -0.353376748861E+03   -0.21245E-05   -0.82664E-08  3792   0.443E-04    0.236E-04
DAV:  23    -0.353376749668E+03   -0.80725E-06   -0.38143E-08  3804   0.467E-04
  10 F= -.36647139E+03 E0= -.36647139E+03  d E =-.703186E-02  mag=    53.0000
 trial-energy change:   -0.007032  1 .order   -0.007015   -0.009625   -0.004405
 step:   3.0422(harm=  3.0898)  dis= 0.02139  next Energy=  -366.473197 (dE=-0.884E-02)
 bond charge predicted
       N       E                     dE             d eps       ncg     rms          rms(c)
DAV:   1    -0.353368893937E+03    0.78549E-02   -0.12695E+00  6540   0.155E+00    0.730E-01
DAV:   2    -0.353377837037E+03   -0.89431E-02   -0.89311E-02  9108   0.714E-01    0.369E-01
DAV:   3    -0.353378444309E+03   -0.60727E-03   -0.28638E-03  9312   0.274E-01    0.249E-01
DAV:   4    -0.353378173862E+03    0.27045E-03   -0.47545E-04  9696   0.129E-01    0.166E-01
DAV:   5    -0.353377903006E+03    0.27086E-03   -0.25285E-04  9480   0.539E-02    0.123E-01
DAV:   6    -0.353377681579E+03    0.22143E-03   -0.26575E-04  9420   0.477E-02    0.495E-02
DAV:   7    -0.353377720013E+03   -0.38434E-04   -0.43922E-05  9252   0.252E-02    0.165E-02
DAV:   8    -0.353377834099E+03   -0.11409E-03   -0.72928E-06  7920   0.969E-03    0.107E-02
DAV:   9    -0.353377958133E+03   -0.12403E-03   -0.24440E-06  5316   0.627E-03    0.696E-03
DAV:  10    -0.353378044359E+03   -0.86225E-04   -0.17460E-06  4404   0.376E-03    0.400E-03
DAV:  11    -0.353378149075E+03   -0.10472E-03   -0.25243E-06  5196   0.271E-03    0.238E-03
DAV:  12    -0.353378235628E+03   -0.86552E-04   -0.64477E-07  4356   0.205E-03    0.169E-03
DAV:  13    -0.353378302972E+03   -0.67345E-04   -0.55125E-07  4152   0.167E-03    0.145E-03
DAV:  14    -0.353378360620E+03   -0.57648E-04   -0.57005E-07  4464   0.152E-03    0.115E-03
DAV:  15    -0.353378408351E+03   -0.47731E-04   -0.53089E-07  4116   0.121E-03    0.100E-03
DAV:  16    -0.353378450790E+03   -0.42438E-04   -0.52821E-07  4296   0.131E-03    0.971E-04
DAV:  17    -0.353378486115E+03   -0.35325E-04   -0.64019E-07  4512   0.122E-03    0.806E-04
DAV:  18    -0.353378506118E+03   -0.20003E-04   -0.43818E-07  4128   0.115E-03    0.742E-04
DAV:  19    -0.353378514992E+03   -0.88738E-05   -0.29627E-07  3888   0.102E-03    0.486E-04
DAV:  20    -0.353378518409E+03   -0.34175E-05   -0.17253E-07  3816   0.789E-04    0.419E-04
DAV:  21    -0.353378521051E+03   -0.26420E-05   -0.11289E-07  3756   0.612E-04    0.283E-04
DAV:  22    -0.353378522781E+03   -0.17299E-05   -0.73725E-08  3864   0.510E-04    0.228E-04
DAV:  23    -0.353378523966E+03   -0.11853E-05   -0.50727E-08  3888   0.411E-04    0.216E-04
DAV:  24    -0.353378524531E+03   -0.56486E-06   -0.28664E-08  3780   0.356E-04
  11 F= -.36647326E+03 E0= -.36647326E+03  d E =-.889949E-02  mag=    53.0000
 curvature:  -2.17 expect dE=-0.100E-01 dE for cont linesearch -0.230E-05
 trial: gam= 0.79037 g(F)=  0.464E-02 g(S)=  0.000E+00 ort = 0.926E-04 (trialstep = 0.160E+01)
 search vector abs. value=  0.982E-02
 bond charge predicted
       N       E                     dE             d eps       ncg     rms          rms(c)
DAV:   1    -0.353369586336E+03    0.89376E-02   -0.20514E+00  6516   0.198E+00    0.892E-01
DAV:   2    -0.353383781862E+03   -0.14196E-01   -0.14884E-01  9180   0.903E-01    0.437E-01
DAV:   3    -0.353385007835E+03   -0.12260E-02   -0.43874E-03  9288   0.318E-01    0.304E-01
DAV:   4    -0.353384597950E+03    0.40989E-03   -0.63597E-04  9732   0.147E-01    0.212E-01
DAV:   5    -0.353384231914E+03    0.36604E-03   -0.26295E-04  9552   0.513E-02    0.165E-01
DAV:   6    -0.353383799973E+03    0.43194E-03   -0.42711E-04  9324   0.520E-02    0.768E-02
DAV:   7    -0.353383852936E+03   -0.52963E-04   -0.82531E-05  9276   0.298E-02    0.224E-02
DAV:   8    -0.353384052245E+03   -0.19931E-03   -0.12153E-05  8892   0.106E-02    0.127E-02
DAV:   9    -0.353384287385E+03   -0.23514E-03   -0.53893E-06  6996   0.836E-03    0.934E-03
DAV:  10    -0.353384421341E+03   -0.13396E-03   -0.15097E-06  4548   0.388E-03    0.491E-03
DAV:  11    -0.353384597432E+03   -0.17609E-03   -0.26242E-06  5568   0.261E-03    0.268E-03
DAV:  12    -0.353384762746E+03   -0.16531E-03   -0.97463E-07  4812   0.211E-03    0.229E-03
DAV:  13    -0.353384878899E+03   -0.11615E-03   -0.78065E-07  4380   0.193E-03    0.183E-03
DAV:  14    -0.353384989430E+03   -0.11053E-03   -0.12201E-06  5028   0.187E-03    0.130E-03
DAV:  15    -0.353385059215E+03   -0.69785E-04   -0.62649E-07  4188   0.141E-03    0.105E-03
DAV:  16    -0.353385159551E+03   -0.10034E-03   -0.14955E-06  5184   0.154E-03    0.875E-04
DAV:  17    -0.353385204734E+03   -0.45183E-04   -0.51360E-07  4464   0.131E-03    0.673E-04
DAV:  18    -0.353385234890E+03   -0.30156E-04   -0.65671E-07  4524   0.117E-03    0.702E-04
DAV:  19    -0.353385242291E+03   -0.74005E-05   -0.22888E-07  3924   0.110E-03    0.371E-04
DAV:  20    -0.353385248822E+03   -0.65315E-05   -0.20981E-07  3948   0.676E-04    0.435E-04
DAV:  21    -0.353385251123E+03   -0.23004E-05   -0.97252E-08  3804   0.760E-04    0.213E-04
DAV:  22    -0.353385253039E+03   -0.19166E-05   -0.85496E-08  3840   0.412E-04    0.258E-04
DAV:  23    -0.353385253633E+03   -0.59402E-06   -0.33978E-08  3840   0.487E-04
  12 F= -.36647808E+03 E0= -.36647808E+03  d E =-.482010E-02  mag=    53.0000
 trial-energy change:   -0.004820  1 .order   -0.004823   -0.007538   -0.002108
 step:   2.2205(harm=  2.2205)  dis= 0.01681  next Energy=  -366.478492 (dE=-0.523E-02)
 bond charge predicted
       N       E                     dE             d eps       ncg     rms          rms(c)
DAV:   1    -0.353384054957E+03    0.11981E-02   -0.30898E-01  6588   0.769E-01    0.346E-01
DAV:   2    -0.353386051389E+03   -0.19964E-02   -0.22398E-02  9060   0.351E-01    0.169E-01
DAV:   3    -0.353386333129E+03   -0.28174E-03   -0.65611E-04  9264   0.122E-01    0.118E-01
DAV:   4    -0.353386256656E+03    0.76473E-04   -0.95132E-05  9708   0.568E-02    0.822E-02
DAV:   5    -0.353386173356E+03    0.83300E-04   -0.39985E-05  9432   0.199E-02    0.637E-02
DAV:   6    -0.353386050491E+03    0.12286E-03   -0.65086E-05  9348   0.205E-02    0.296E-02
DAV:   7    -0.353386055781E+03   -0.52893E-05   -0.12488E-05  9276   0.117E-02    0.869E-03
DAV:   8    -0.353386103191E+03   -0.47410E-04   -0.12052E-06  4620   0.410E-03    0.537E-03
DAV:   9    -0.353386161552E+03   -0.58361E-04   -0.10621E-06  4632   0.373E-03    0.402E-03
DAV:  10    -0.353386202381E+03   -0.40828E-04   -0.68880E-07  3984   0.234E-03    0.202E-03
DAV:  11    -0.353386246464E+03   -0.44083E-04   -0.77686E-07  4188   0.167E-03    0.173E-03
DAV:  12    -0.353386276634E+03   -0.30169E-04   -0.38797E-07  3852   0.173E-03    0.114E-03
DAV:  13    -0.353386316171E+03   -0.39537E-04   -0.51538E-07  4236   0.118E-03    0.105E-03
DAV:  14    -0.353386346356E+03   -0.30185E-04   -0.36138E-07  3996   0.138E-03    0.818E-04
DAV:  15    -0.353386359699E+03   -0.13343E-04   -0.25521E-07  3816   0.934E-04    0.620E-04
DAV:  16    -0.353386373163E+03   -0.13464E-04   -0.19204E-07  3864   0.793E-04    0.518E-04
DAV:  17    -0.353386387047E+03   -0.13884E-04   -0.19766E-07  3996   0.729E-04    0.547E-04
DAV:  18    -0.353386403514E+03   -0.16467E-04   -0.30255E-07  4404   0.792E-04    0.496E-04
DAV:  19    -0.353386409503E+03   -0.59887E-05   -0.18080E-07  3888   0.833E-04    0.476E-04
DAV:  20    -0.353386411247E+03   -0.17439E-05   -0.10169E-07  3816   0.572E-04    0.194E-04
DAV:  21    -0.353386413340E+03   -0.20931E-05   -0.79603E-08  3828   0.482E-04    0.368E-04
DAV:  22    -0.353386414198E+03   -0.85764E-06   -0.47622E-08  3780   0.429E-04
  13 F= -.36647849E+03 E0= -.36647849E+03  d E =-.523432E-02  mag=    53.0000
 curvature:  -2.31 expect dE=-0.779E-02 dE for cont linesearch -0.373E-07
 trial: gam= 0.75018 g(F)=  0.337E-02 g(S)=  0.000E+00 ort = 0.126E-04 (trialstep = 0.172E+01)
 search vector abs. value=  0.891E-02
 bond charge predicted
       N       E                     dE             d eps       ncg     rms          rms(c)
DAV:   1    -0.353374283449E+03    0.12130E-01   -0.23771E+00  6492   0.213E+00    0.947E-01
DAV:   2    -0.353391695851E+03   -0.17412E-01   -0.16788E-01  9108   0.999E-01    0.547E-01
DAV:   3    -0.353393205383E+03   -0.15095E-02   -0.57184E-03  9420   0.418E-01    0.322E-01
DAV:   4    -0.353392766401E+03    0.43898E-03   -0.95428E-04  9612   0.194E-01    0.216E-01
DAV:   5    -0.353392611254E+03    0.15515E-03   -0.44959E-04  9660   0.777E-02    0.157E-01
DAV:   6    -0.353392649747E+03   -0.38493E-04   -0.52694E-04  9264   0.603E-02    0.616E-02
DAV:   7    -0.353392740585E+03   -0.90838E-04   -0.79834E-05  9192   0.294E-02    0.181E-02
DAV:   8    -0.353392818462E+03   -0.77877E-04   -0.85218E-06  8052   0.117E-02    0.134E-02
DAV:   9    -0.353392871261E+03   -0.52798E-04   -0.23377E-06  5244   0.718E-03    0.948E-03
DAV:  10    -0.353392909789E+03   -0.38529E-04   -0.15696E-06  4512   0.350E-03    0.526E-03
DAV:  11    -0.353392956057E+03   -0.46268E-04   -0.20109E-06  5136   0.294E-03    0.229E-03
DAV:  12    -0.353392983665E+03   -0.27608E-04   -0.72089E-07  4020   0.222E-03    0.145E-03
DAV:  13    -0.353393001463E+03   -0.17797E-04   -0.36013E-07  3828   0.167E-03    0.103E-03
DAV:  14    -0.353393016191E+03   -0.14728E-04   -0.22435E-07  3936   0.125E-03    0.860E-04
DAV:  15    -0.353393027786E+03   -0.11595E-04   -0.14564E-07  3768   0.981E-04    0.610E-04
DAV:  16    -0.353393037082E+03   -0.92959E-05   -0.12687E-07  3828   0.664E-04    0.551E-04
DAV:  17    -0.353393049324E+03   -0.12242E-04   -0.13640E-07  3936   0.699E-04    0.505E-04
DAV:  18    -0.353393056711E+03   -0.73876E-05   -0.11407E-07  3804   0.629E-04    0.382E-04
DAV:  19    -0.353393064506E+03   -0.77946E-05   -0.14293E-07  3972   0.611E-04    0.433E-04
DAV:  20    -0.353393066355E+03   -0.18486E-05   -0.67189E-08  3852   0.599E-04    0.204E-04
DAV:  21    -0.353393068526E+03   -0.21710E-05   -0.56920E-08  3672   0.369E-04    0.303E-04
DAV:  22    -0.353393069974E+03   -0.14485E-05   -0.34552E-08  3780   0.412E-04    0.144E-04
DAV:  23    -0.353393070860E+03   -0.88603E-06   -0.29683E-08  3720   0.286E-04
  14 F= -.36648169E+03 E0= -.36648169E+03  d E =-.319671E-02  mag=    53.0000
 trial-energy change:   -0.003197  1 .order   -0.003184   -0.005821   -0.000547
 step:   1.8997(harm=  1.9025)  dis= 0.01447  next Energy=  -366.481719 (dE=-0.322E-02)
 bond charge predicted
       N       E                     dE             d eps       ncg     rms          rms(c)
DAV:   1    -0.353393258908E+03   -0.18893E-03   -0.24739E-02  6624   0.217E-01    0.967E-02
DAV:   2    -0.353393401366E+03   -0.14246E-03   -0.17187E-03  9120   0.991E-02    0.526E-02
DAV:   3    -0.353393444964E+03   -0.43599E-04   -0.54673E-05  9204   0.394E-02    0.323E-02
DAV:   4    -0.353393439855E+03    0.51096E-05   -0.89578E-06  8964   0.186E-02    0.218E-02
DAV:   5    -0.353393437798E+03    0.20569E-05   -0.37708E-06  6684   0.778E-03    0.159E-02
DAV:   6    -0.353393439109E+03   -0.13109E-05   -0.95784E-06  8436   0.726E-03    0.674E-03
DAV:   7    -0.353393441438E+03   -0.23289E-05   -0.73216E-07  3840   0.293E-03    0.249E-03
DAV:   8    -0.353393444833E+03   -0.33949E-05   -0.33611E-07  3696   0.207E-03    0.179E-03
DAV:   9    -0.353393446495E+03   -0.16626E-05   -0.16391E-07  3768   0.136E-03    0.141E-03
DAV:  10    -0.353393447279E+03   -0.78431E-06   -0.59926E-08  3816   0.748E-04
  15 F= -.36648171E+03 E0= -.36648171E+03  d E =-.321899E-02  mag=    53.0000
 curvature:  -2.51 expect dE=-0.685E-02 dE for cont linesearch -0.681E-07
 trial: gam= 0.80945 g(F)=  0.273E-02 g(S)=  0.000E+00 ort =-0.156E-04 (trialstep = 0.176E+01)
 search vector abs. value=  0.855E-02
 bond charge predicted
       N       E                     dE             d eps       ncg     rms          rms(c)
DAV:   1    -0.353382840310E+03    0.10606E-01   -0.23336E+00  6480   0.209E+00    0.961E-01
DAV:   2    -0.353399551102E+03   -0.16711E-01   -0.17775E-01  9120   0.995E-01    0.455E-01
DAV:   3    -0.353400150152E+03   -0.59905E-03   -0.37099E-03  9096   0.261E-01    0.311E-01
DAV:   4    -0.353399910609E+03    0.23954E-03   -0.60841E-04  9600   0.128E-01    0.222E-01
DAV:   5    -0.353399726208E+03    0.18440E-03   -0.31500E-04  9456   0.600E-02    0.171E-01
DAV:   6    -0.353399644094E+03    0.82114E-04   -0.40007E-04  9336   0.669E-02    0.872E-02
DAV:   7    -0.353399653361E+03   -0.92672E-05   -0.90217E-05  9432   0.348E-02    0.252E-02
DAV:   8    -0.353399689805E+03   -0.36444E-04   -0.12416E-05  8952   0.104E-02    0.972E-03
DAV:   9    -0.353399731948E+03   -0.42143E-04   -0.25326E-06  5256   0.643E-03    0.777E-03
DAV:  10    -0.353399757594E+03   -0.25646E-04   -0.10786E-06  3900   0.403E-03    0.421E-03
DAV:  11    -0.353399790426E+03   -0.32832E-04   -0.17078E-06  4464   0.254E-03    0.272E-03
DAV:  12    -0.353399814881E+03   -0.24455E-04   -0.66763E-07  3864   0.266E-03    0.185E-03
DAV:  13    -0.353399839051E+03   -0.24170E-04   -0.43522E-07  3924   0.156E-03    0.122E-03
DAV:  14    -0.353399855605E+03   -0.16554E-04   -0.28464E-07  3840   0.156E-03    0.988E-04
DAV:  15    -0.353399867038E+03   -0.11433E-04   -0.21398E-07  3828   0.883E-04    0.742E-04
DAV:  16    -0.353399877228E+03   -0.10190E-04   -0.14632E-07  3864   0.970E-04    0.696E-04
DAV:  17    -0.353399890517E+03   -0.13289E-04   -0.21136E-07  4068   0.705E-04    0.586E-04
DAV:  18    -0.353399899154E+03   -0.86369E-05   -0.15152E-07  3912   0.824E-04    0.508E-04
DAV:  19    -0.353399905155E+03   -0.60010E-05   -0.16156E-07  3948   0.625E-04    0.420E-04
DAV:  20    -0.353399908178E+03   -0.30231E-05   -0.10265E-07  3792   0.634E-04    0.337E-04
DAV:  21    -0.353399909539E+03   -0.13610E-05   -0.67197E-08  3768   0.468E-04    0.247E-04
DAV:  22    -0.353399910758E+03   -0.12195E-05   -0.52445E-08  3792   0.428E-04    0.216E-04
DAV:  23    -0.353399911304E+03   -0.54586E-06   -0.31064E-08  3816   0.359E-04
  16 F= -.36648457E+03 E0= -.36648457E+03  d E =-.285360E-02  mag=    53.0000
 trial-energy change:   -0.002854  1 .order   -0.002838   -0.004781   -0.000895
 step:   2.1521(harm=  2.1639)  dis= 0.00853  next Energy=  -366.484667 (dE=-0.295E-02)
 bond charge predicted
       N       E                     dE             d eps       ncg     rms          rms(c)
DAV:   1    -0.353399971797E+03   -0.61039E-04   -0.11650E-01  6588   0.467E-01    0.215E-01
DAV:   2    -0.353400746205E+03   -0.77441E-03   -0.88569E-03  9072   0.222E-01    0.101E-01
DAV:   3    -0.353400824416E+03   -0.78212E-04   -0.18539E-04  9012   0.584E-02    0.697E-02
DAV:   4    -0.353400811552E+03    0.12864E-04   -0.29950E-05  9576   0.284E-02    0.497E-02
DAV:   5    -0.353400800918E+03    0.10634E-04   -0.15956E-05  9060   0.131E-02    0.382E-02
DAV:   6    -0.353400795733E+03    0.51850E-05   -0.19586E-05  9348   0.151E-02    0.196E-02
DAV:   7    -0.353400795717E+03    0.16316E-07   -0.31588E-06  6204   0.786E-03
  17 F= -.36648464E+03 E0= -.36648464E+03  d E =-.292784E-02  mag=    53.0000
 curvature:  -3.40 expect dE=-0.451E-02 dE for cont linesearch -0.123E-05
 trial: gam= 0.47954 g(F)=  0.133E-02 g(S)=  0.000E+00 ort = 0.555E-04 (trialstep = 0.184E+01)
 search vector abs. value=  0.335E-02
 bond charge predicted
       N       E                     dE             d eps       ncg     rms          rms(c)
DAV:   1    -0.353395245815E+03    0.55499E-02   -0.98942E-01  6516   0.139E+00    0.643E-01
DAV:   2    -0.353402270865E+03   -0.70251E-02   -0.71792E-02  9144   0.616E-01    0.305E-01
DAV:   3    -0.353403185988E+03   -0.91512E-03   -0.15962E-03  9264   0.162E-01    0.197E-01
DAV:   4    -0.353403010988E+03    0.17500E-03   -0.24303E-04  9600   0.753E-02    0.139E-01
DAV:   5    -0.353402804738E+03    0.20625E-03   -0.15760E-04  9492   0.483E-02    0.111E-01
DAV:   6    -0.353402589938E+03    0.21480E-03   -0.25341E-04  9432   0.464E-02    0.428E-02
DAV:   7    -0.353402651186E+03   -0.61249E-04   -0.33430E-05  9300   0.183E-02    0.157E-02
DAV:   8    -0.353402770141E+03   -0.11896E-03   -0.40027E-06  6276   0.648E-03    0.945E-03
DAV:   9    -0.353402896723E+03   -0.12658E-03   -0.20988E-06  5304   0.512E-03    0.508E-03
DAV:  10    -0.353403004756E+03   -0.10803E-03   -0.28807E-06  5448   0.400E-03    0.237E-03
DAV:  11    -0.353403082316E+03   -0.77560E-04   -0.11318E-06  4368   0.227E-03    0.219E-03
DAV:  12    -0.353403131733E+03   -0.49417E-04   -0.45069E-07  3864   0.193E-03    0.165E-03
DAV:  13    -0.353403197441E+03   -0.65708E-04   -0.56789E-07  4392   0.145E-03    0.130E-03
DAV:  14    -0.353403255662E+03   -0.58221E-04   -0.48416E-07  4224   0.151E-03    0.116E-03
DAV:  15    -0.353403297543E+03   -0.41881E-04   -0.50736E-07  3948   0.123E-03    0.981E-04
DAV:  16    -0.353403332869E+03   -0.35327E-04   -0.43142E-07  4236   0.128E-03    0.947E-04
DAV:  17    -0.353403356328E+03   -0.23459E-04   -0.38291E-07  3936   0.101E-03    0.572E-04
DAV:  18    -0.353403375351E+03   -0.19023E-04   -0.32559E-07  4080   0.102E-03    0.716E-04
DAV:  19    -0.353403393023E+03   -0.17672E-04   -0.40638E-07  4296   0.939E-04    0.395E-04
DAV:  20    -0.353403399806E+03   -0.67830E-05   -0.24316E-07  3924   0.959E-04    0.552E-04
DAV:  21    -0.353403403330E+03   -0.35243E-05   -0.18029E-07  3804   0.686E-04    0.221E-04
DAV:  22    -0.353403405062E+03   -0.17318E-05   -0.11028E-07  3780   0.641E-04    0.368E-04
DAV:  23    -0.353403405805E+03   -0.74281E-06   -0.66336E-08  3840   0.455E-04
  18 F= -.36648633E+03 E0= -.36648633E+03  d E =-.169145E-02  mag=    53.0000
 trial-energy change:   -0.001691  1 .order   -0.001680   -0.002489   -0.000871
 step:   2.7694(harm=  2.8274)  dis= 0.00935  next Energy=  -366.486555 (dE=-0.191E-02)
 bond charge predicted
       N       E                     dE             d eps       ncg     rms          rms(c)
DAV:   1    -0.353402021900E+03    0.13832E-02   -0.25457E-01  6636   0.703E-01    0.326E-01
DAV:   2    -0.353403711615E+03   -0.16897E-02   -0.18449E-02  9048   0.311E-01    0.154E-01
DAV:   3    -0.353404015045E+03   -0.30343E-03   -0.40126E-04  9228   0.787E-02    0.993E-02
DAV:   4    -0.353403961278E+03    0.53767E-04   -0.59778E-05  9564   0.361E-02    0.709E-02
DAV:   5    -0.353403886596E+03    0.74682E-04   -0.41808E-05  9396   0.247E-02    0.567E-02
DAV:   6    -0.353403799525E+03    0.87072E-04   -0.64490E-05  9444   0.241E-02    0.220E-02
DAV:   7    -0.353403819531E+03   -0.20006E-04   -0.84913E-06  8880   0.950E-03    0.841E-03
DAV:   8    -0.353403866413E+03   -0.46882E-04   -0.86579E-07  4344   0.352E-03    0.528E-03
DAV:   9    -0.353403915212E+03   -0.48799E-04   -0.82759E-07  4440   0.310E-03    0.322E-03
DAV:  10    -0.353403956417E+03   -0.41205E-04   -0.93038E-07  4308   0.252E-03    0.164E-03
DAV:  11    -0.353403987159E+03   -0.30742E-04   -0.72588E-07  3912   0.191E-03    0.159E-03
DAV:  12    -0.353404004277E+03   -0.17118E-04   -0.34026E-07  3792   0.166E-03    0.111E-03
DAV:  13    -0.353404027622E+03   -0.23345E-04   -0.28266E-07  3876   0.107E-03    0.961E-04
DAV:  14    -0.353404053922E+03   -0.26299E-04   -0.27919E-07  3972   0.115E-03    0.800E-04
DAV:  15    -0.353404069506E+03   -0.15584E-04   -0.22698E-07  3840   0.859E-04    0.623E-04
DAV:  16    -0.353404081098E+03   -0.11592E-04   -0.15912E-07  3828   0.779E-04    0.590E-04
DAV:  17    -0.353404091614E+03   -0.10516E-04   -0.15047E-07  3804   0.625E-04    0.371E-04
DAV:  18    -0.353404101483E+03   -0.98698E-05   -0.14305E-07  3900   0.640E-04    0.425E-04
DAV:  19    -0.353404111833E+03   -0.10350E-04   -0.20713E-07  4272   0.659E-04    0.387E-04
DAV:  20    -0.353404114132E+03   -0.22995E-05   -0.98414E-08  3828   0.692E-04    0.295E-04
DAV:  21    -0.353404115809E+03   -0.16768E-05   -0.74941E-08  3780   0.402E-04    0.215E-04
DAV:  22    -0.353404116795E+03   -0.98528E-06   -0.42586E-08  3768   0.440E-04
  19 F= -.36648657E+03 E0= -.36648657E+03  d E =-.193237E-02  mag=    53.0000
 curvature:  -3.48 expect dE=-0.476E-02 dE for cont linesearch -0.162E-05
 trial: gam= 1.01098 g(F)=  0.137E-02 g(S)=  0.000E+00 ort = 0.395E-04 (trialstep = 0.139E+01)
 search vector abs. value=  0.487E-02
 bond charge predicted
       N       E                     dE             d eps       ncg     rms          rms(c)
DAV:   1    -0.353399207760E+03    0.49080E-02   -0.77639E-01  6576   0.123E+00    0.561E-01
DAV:   2    -0.353404789750E+03   -0.55820E-02   -0.57340E-02  9132   0.565E-01    0.276E-01
DAV:   3    -0.353405543549E+03   -0.75380E-03   -0.15761E-03  9240   0.200E-01    0.191E-01
DAV:   4    -0.353405441663E+03    0.10189E-03   -0.22752E-04  9648   0.863E-02    0.130E-01
DAV:   5    -0.353405397394E+03    0.44269E-04   -0.10275E-04  9552   0.312E-02    0.103E-01
DAV:   6    -0.353405403277E+03   -0.58824E-05   -0.16755E-04  9384   0.320E-02    0.439E-02
DAV:   7    -0.353405422778E+03   -0.19501E-04   -0.25375E-05  9312   0.165E-02    0.107E-02
DAV:   8    -0.353405442443E+03   -0.19665E-04   -0.26652E-06  5544   0.540E-03    0.549E-03
DAV:   9    -0.353405459815E+03   -0.17371E-04   -0.97677E-07  3948   0.386E-03    0.424E-03
DAV:  10    -0.353405470442E+03   -0.10628E-04   -0.35264E-07  3732   0.220E-03    0.238E-03
DAV:  11    -0.353405484271E+03   -0.13828E-04   -0.45160E-07  4092   0.133E-03    0.146E-03
DAV:  12    -0.353405495083E+03   -0.10812E-04   -0.23284E-07  3816   0.138E-03    0.107E-03
DAV:  13    -0.353405504327E+03   -0.92439E-05   -0.19728E-07  3804   0.109E-03    0.681E-04
DAV:  14    -0.353405510358E+03   -0.60309E-05   -0.12320E-07  3792   0.917E-04    0.560E-04
DAV:  15    -0.353405512761E+03   -0.24029E-05   -0.60517E-08  3828   0.582E-04    0.341E-04
DAV:  16    -0.353405515826E+03   -0.30653E-05   -0.37343E-08  3696   0.462E-04    0.380E-04
DAV:  17    -0.353405519022E+03   -0.31957E-05   -0.32575E-08  3780   0.354E-04    0.254E-04
DAV:  18    -0.353405523267E+03   -0.42451E-05   -0.45346E-08  3888   0.392E-04    0.315E-04
DAV:  19    -0.353405525059E+03   -0.17917E-05   -0.27838E-08  3816   0.370E-04    0.170E-04
DAV:  20    -0.353405526008E+03   -0.94959E-06   -0.14852E-08  3756   0.292E-04
  20 F= -.36648818E+03 E0= -.36648818E+03  d E =-.160902E-02  mag=    53.0000
 trial-energy change:   -0.001609  1 .order   -0.001607   -0.001960   -0.001254
 step:   3.8640(harm=  3.8640)  dis= 0.01807  next Energy=  -366.489295 (dE=-0.272E-02)
 bond charge predicted
       N       E                     dE             d eps       ncg     rms          rms(c)
DAV:   1    -0.353386327165E+03    0.19198E-01   -0.24541E+00  6480   0.218E+00    0.100E+00
DAV:   2    -0.353404506765E+03   -0.18180E-01   -0.18141E-01  9096   0.101E+00    0.497E-01
DAV:   3    -0.353406468839E+03   -0.19621E-02   -0.50688E-03  9228   0.363E-01    0.343E-01
DAV:   4    -0.353406146313E+03    0.32253E-03   -0.74083E-04  9684   0.157E-01    0.231E-01
DAV:   5    -0.353406005309E+03    0.14100E-03   -0.32153E-04  9516   0.560E-02    0.184E-01
DAV:   6    -0.353406004575E+03    0.73426E-06   -0.53042E-04  9336   0.560E-02    0.785E-02
DAV:   7    -0.353406054360E+03   -0.49786E-04   -0.80915E-05  9276   0.287E-02    0.190E-02
DAV:   8    -0.353406102053E+03   -0.47693E-04   -0.10797E-05  8712   0.954E-03    0.927E-03
DAV:   9    -0.353406143742E+03   -0.41688E-04   -0.19328E-06  4824   0.587E-03    0.711E-03
DAV:  10    -0.353406168943E+03   -0.25201E-04   -0.82715E-07  3888   0.336E-03    0.423E-03
DAV:  11    -0.353406201194E+03   -0.32251E-04   -0.17059E-06  4584   0.234E-03    0.254E-03
DAV:  12    -0.353406226217E+03   -0.25023E-04   -0.58001E-07  3948   0.247E-03    0.161E-03
DAV:  13    -0.353406245174E+03   -0.18957E-04   -0.35041E-07  3912   0.150E-03    0.110E-03
DAV:  14    -0.353406258997E+03   -0.13823E-04   -0.22173E-07  3756   0.137E-03    0.786E-04
DAV:  15    -0.353406269474E+03   -0.10476E-04   -0.17480E-07  3816   0.784E-04    0.615E-04
DAV:  16    -0.353406278388E+03   -0.89148E-05   -0.10882E-07  3912   0.838E-04    0.520E-04
DAV:  17    -0.353406286788E+03   -0.83995E-05   -0.11561E-07  3828   0.553E-04    0.447E-04
DAV:  18    -0.353406294250E+03   -0.74621E-05   -0.95087E-08  3840   0.619E-04    0.374E-04
DAV:  19    -0.353406299983E+03   -0.57331E-05   -0.10242E-07  3768   0.512E-04    0.320E-04
DAV:  20    -0.353406302203E+03   -0.22202E-05   -0.54679E-08  3804   0.527E-04    0.247E-04
DAV:  21    -0.353406303565E+03   -0.13623E-05   -0.35217E-08  3780   0.330E-04    0.170E-04
DAV:  22    -0.353406305432E+03   -0.18669E-05   -0.33516E-08  3840   0.334E-04    0.216E-04
DAV:  23    -0.353406306210E+03   -0.77812E-06   -0.19942E-08  3804   0.311E-04
  21 F= -.36648930E+03 E0= -.36648930E+03  d E =-.272553E-02  mag=    53.0000
 curvature:  -6.68 expect dE=-0.576E-02 dE for cont linesearch -0.237E-07
 trial: gam= 0.68544 g(F)=  0.863E-03 g(S)=  0.000E+00 ort =-0.416E-05 (trialstep = 0.189E+01)
 search vector abs. value=  0.314E-02
 bond charge predicted
       N       E                     dE             d eps       ncg     rms          rms(c)
DAV:   1    -0.353399082752E+03    0.72227E-02   -0.96243E-01  6540   0.136E+00    0.608E-01
DAV:   2    -0.353405819111E+03   -0.67364E-02   -0.68446E-02  9108   0.639E-01    0.328E-01
DAV:   3    -0.353406793628E+03   -0.97452E-03   -0.24612E-03  9312   0.273E-01    0.211E-01
DAV:   4    -0.353406599013E+03    0.19461E-03   -0.36047E-04  9708   0.124E-01    0.141E-01
DAV:   5    -0.353406516214E+03    0.82799E-04   -0.14051E-04  9624   0.359E-02    0.106E-01
DAV:   6    -0.353406489909E+03    0.26305E-04   -0.20397E-04  9168   0.293E-02    0.422E-02
DAV:   7    -0.353406534184E+03   -0.44275E-04   -0.30891E-05  9216   0.174E-02    0.119E-02
DAV:   8    -0.353406581465E+03   -0.47280E-04   -0.40904E-06  6372   0.800E-03    0.770E-03
DAV:   9    -0.353406620713E+03   -0.39248E-04   -0.12049E-06  4332   0.432E-03    0.617E-03
DAV:  10    -0.353406647006E+03   -0.26293E-04   -0.56997E-07  3912   0.296E-03    0.351E-03
DAV:  11    -0.353406679512E+03   -0.32506E-04   -0.91025E-07  4356   0.185E-03    0.224E-03
DAV:  12    -0.353406707884E+03   -0.28371E-04   -0.49498E-07  3960   0.221E-03    0.147E-03
DAV:  13    -0.353406726577E+03   -0.18693E-04   -0.43440E-07  3840   0.132E-03    0.110E-03
DAV:  14    -0.353406742285E+03   -0.15708E-04   -0.24419E-07  3948   0.137E-03    0.780E-04
DAV:  15    -0.353406750718E+03   -0.84328E-05   -0.14911E-07  3816   0.836E-04    0.538E-04
DAV:  16    -0.353406756611E+03   -0.58930E-05   -0.88821E-08  3744   0.702E-04    0.521E-04
DAV:  17    -0.353406769447E+03   -0.12836E-04   -0.15023E-07  3888   0.537E-04    0.405E-04
DAV:  18    -0.353406774848E+03   -0.54012E-05   -0.69751E-08  3816   0.618E-04    0.359E-04
DAV:  19    -0.353406784336E+03   -0.94872E-05   -0.15326E-07  4032   0.474E-04    0.353E-04
DAV:  20    -0.353406787142E+03   -0.28059E-05   -0.55253E-08  3816   0.573E-04    0.199E-04
DAV:  21    -0.353406789134E+03   -0.19928E-05   -0.43412E-08  3696   0.307E-04    0.229E-04
DAV:  22    -0.353406790812E+03   -0.16775E-05   -0.25855E-08  3804   0.377E-04    0.157E-04
DAV:  23    -0.353406791932E+03   -0.11205E-05   -0.26412E-08  3732   0.261E-04    0.192E-04
DAV:  24    -0.353406792380E+03   -0.44760E-06   -0.10352E-08  3780   0.300E-04
  22 F= -.36649048E+03 E0= -.36649048E+03  d E =-.117716E-02  mag=    53.0000
 trial-energy change:   -0.001177  1 .order   -0.001181   -0.001621   -0.000740
 step:   3.4678(harm=  3.4678)  dis= 0.01143  next Energy=  -366.490790 (dE=-0.149E-02)
 bond charge predicted
       N       E                     dE             d eps       ncg     rms          rms(c)
DAV:   1    -0.353401099894E+03    0.56920E-02   -0.67767E-01  6552   0.114E+00    0.511E-01
DAV:   2    -0.353405778012E+03   -0.46781E-02   -0.48144E-02  9096   0.536E-01    0.275E-01
DAV:   3    -0.353406510183E+03   -0.73217E-03   -0.17259E-03  9240   0.228E-01    0.177E-01
DAV:   4    -0.353406373444E+03    0.13674E-03   -0.25240E-04  9684   0.104E-01    0.118E-01
DAV:   5    -0.353406309025E+03    0.64419E-04   -0.98748E-05  9600   0.300E-02    0.890E-02
DAV:   6    -0.353406289659E+03    0.19367E-04   -0.14340E-04  9144   0.246E-02    0.354E-02
DAV:   7    -0.353406323098E+03   -0.33439E-04   -0.21705E-05  9216   0.146E-02    0.995E-03
DAV:   8    -0.353406360050E+03   -0.36952E-04   -0.26775E-06  5712   0.673E-03    0.655E-03
DAV:   9    -0.353406390582E+03   -0.30531E-04   -0.99222E-07  4056   0.374E-03    0.523E-03
DAV:  10    -0.353406411012E+03   -0.20431E-04   -0.45952E-07  3864   0.261E-03    0.296E-03
DAV:  11    -0.353406436497E+03   -0.25484E-04   -0.64442E-07  4308   0.161E-03    0.194E-03
DAV:  12    -0.353406458765E+03   -0.22268E-04   -0.38721E-07  3900   0.191E-03    0.130E-03
DAV:  13    -0.353406473898E+03   -0.15133E-04   -0.35691E-07  3828   0.117E-03    0.970E-04
DAV:  14    -0.353406486878E+03   -0.12981E-04   -0.20103E-07  3816   0.123E-03    0.696E-04
DAV:  15    -0.353406492785E+03   -0.59065E-05   -0.11340E-07  3828   0.756E-04    0.464E-04
DAV:  16    -0.353406496442E+03   -0.36570E-05   -0.61048E-08  3780   0.594E-04    0.452E-04
DAV:  17    -0.353406506356E+03   -0.99145E-05   -0.10391E-07  3828   0.459E-04    0.356E-04
DAV:  18    -0.353406510858E+03   -0.45016E-05   -0.50444E-08  3804   0.530E-04    0.323E-04
DAV:  19    -0.353406518602E+03   -0.77434E-05   -0.11468E-07  3852   0.420E-04    0.340E-04
DAV:  20    -0.353406520852E+03   -0.22509E-05   -0.41235E-08  3816   0.512E-04    0.183E-04
DAV:  21    -0.353406522497E+03   -0.16443E-05   -0.31906E-08  3684   0.274E-04    0.224E-04
DAV:  22    -0.353406523844E+03   -0.13473E-05   -0.17411E-08  3780   0.336E-04    0.143E-04
DAV:  23    -0.353406524889E+03   -0.10453E-05   -0.20908E-08  3720   0.232E-04    0.192E-04
DAV:  24    -0.353406525291E+03   -0.40187E-06   -0.67203E-09  3792   0.278E-04
  23 F= -.36649078E+03 E0= -.36649078E+03  d E =-.148373E-02  mag=    53.0000
 curvature:  -6.34 expect dE=-0.434E-02 dE for cont linesearch -0.205E-08
 trial: gam= 0.77743 g(F)=  0.684E-03 g(S)=  0.000E+00 ort =-0.101E-05 (trialstep = 0.220E+01)
 search vector abs. value=  0.258E-02
 bond charge predicted
       N       E                     dE             d eps       ncg     rms          rms(c)
DAV:   1    -0.353398650441E+03    0.78744E-02   -0.10865E+00  6492   0.143E+00    0.646E-01
DAV:   2    -0.353406219524E+03   -0.75691E-02   -0.81625E-02  9108   0.667E-01    0.319E-01
DAV:   3    -0.353406699757E+03   -0.48023E-03   -0.18020E-03  9144   0.201E-01    0.218E-01
DAV:   4    -0.353406585404E+03    0.11435E-03   -0.27475E-04  9588   0.926E-02    0.159E-01
DAV:   5    -0.353406524939E+03    0.60464E-04   -0.12115E-04  9516   0.353E-02    0.124E-01
DAV:   6    -0.353406523035E+03    0.19047E-05   -0.21512E-04  9216   0.362E-02    0.577E-02
DAV:   7    -0.353406544115E+03   -0.21080E-04   -0.38023E-05  9276   0.191E-02    0.155E-02
DAV:   8    -0.353406560632E+03   -0.16517E-04   -0.37432E-06  6300   0.691E-03    0.612E-03
DAV:   9    -0.353406571086E+03   -0.10454E-04   -0.12981E-06  4104   0.474E-03    0.518E-03
DAV:  10    -0.353406577350E+03   -0.62638E-05   -0.46584E-07  3792   0.252E-03    0.305E-03
DAV:  11    -0.353406585589E+03   -0.82392E-05   -0.49264E-07  4152   0.158E-03    0.171E-03
DAV:  12    -0.353406590511E+03   -0.49216E-05   -0.24187E-07  3792   0.137E-03    0.129E-03
DAV:  13    -0.353406596491E+03   -0.59801E-05   -0.21051E-07  3828   0.113E-03    0.749E-04
DAV:  14    -0.353406598711E+03   -0.22205E-05   -0.87745E-08  3804   0.103E-03    0.604E-04
DAV:  15    -0.353406600099E+03   -0.13883E-05   -0.41566E-08  3744   0.619E-04    0.326E-04
DAV:  16    -0.353406601082E+03   -0.98218E-06   -0.18666E-08  3792   0.372E-04
  24 F= -.36649174E+03 E0= -.36649174E+03  d E =-.959535E-03  mag=    53.0000
 trial-energy change:   -0.000960  1 .order   -0.000968   -0.001504   -0.000432
 step:   3.1561(harm=  3.0898)  dis= 0.00830  next Energy=  -366.491835 (dE=-0.105E-02)
 bond charge predicted
       N       E                     dE             d eps       ncg     rms          rms(c)
DAV:   1    -0.353404817081E+03    0.17830E-02   -0.20395E-01  6588   0.621E-01    0.280E-01
DAV:   2    -0.353406179861E+03   -0.13628E-02   -0.15293E-02  9180   0.288E-01    0.138E-01
DAV:   3    -0.353406316658E+03   -0.13680E-03   -0.33745E-04  9048   0.868E-02    0.943E-02
DAV:   4    -0.353406293822E+03    0.22836E-04   -0.51204E-05  9540   0.400E-02    0.688E-02
DAV:   5    -0.353406282781E+03    0.11041E-04   -0.22920E-05  9252   0.151E-02    0.538E-02
DAV:   6    -0.353406284705E+03   -0.19248E-05   -0.39647E-05  9264   0.155E-02    0.251E-02
DAV:   7    -0.353406290606E+03   -0.59007E-05   -0.60445E-06  7224   0.814E-03    0.858E-03
DAV:   8    -0.353406296045E+03   -0.54391E-05   -0.11228E-06  4068   0.357E-03    0.309E-03
DAV:   9    -0.353406299126E+03   -0.30810E-05   -0.65716E-07  3804   0.277E-03    0.270E-03
DAV:  10    -0.353406300687E+03   -0.15607E-05   -0.28203E-07  3792   0.163E-03    0.202E-03
DAV:  11    -0.353406303094E+03   -0.24068E-05   -0.11624E-07  3732   0.104E-03    0.136E-03
DAV:  12    -0.353406305214E+03   -0.21204E-05   -0.66709E-08  3732   0.761E-04    0.891E-04
DAV:  13    -0.353406307451E+03   -0.22371E-05   -0.74244E-08  3780   0.743E-04    0.506E-04
DAV:  14    -0.353406307893E+03   -0.44148E-06   -0.28203E-08  3924   0.535E-04
  25 F= -.36649183E+03 E0= -.36649183E+03  d E =-.104670E-02  mag=    53.0000
 curvature:  -5.81 expect dE=-0.444E-02 dE for cont linesearch -0.889E-06
 trial: gam= 1.13665 g(F)=  0.764E-03 g(S)=  0.000E+00 ort =-0.199E-04 (trialstep = 0.152E+01)
 search vector abs. value=  0.406E-02
 bond charge predicted
       N       E                     dE             d eps       ncg     rms          rms(c)
DAV:   1    -0.353399420599E+03    0.68869E-02   -0.85061E-01  6480   0.128E+00    0.571E-01
DAV:   2    -0.353405245140E+03   -0.58245E-02   -0.60403E-02  9096   0.551E-01    0.276E-01
DAV:   3    -0.353405963565E+03   -0.71843E-03   -0.10222E-03  9216   0.116E-01    0.171E-01
DAV:   4    -0.353405881656E+03    0.81909E-04   -0.15616E-04  9636   0.479E-02    0.126E-01
DAV:   5    -0.353405840048E+03    0.41608E-04   -0.17192E-04  9432   0.518E-02    0.962E-02
DAV:   6    -0.353405888751E+03   -0.48702E-04   -0.16992E-04  9396   0.483E-02    0.348E-02
DAV:   7    -0.353405961576E+03   -0.72825E-04   -0.21033E-05  9180   0.181E-02    0.120E-02
DAV:   8    -0.353406029175E+03   -0.67599E-04   -0.24897E-06  5988   0.644E-03    0.563E-03
DAV:   9    -0.353406062102E+03   -0.32927E-04   -0.92274E-07  4524   0.376E-03    0.373E-03
DAV:  10    -0.353406079427E+03   -0.17325E-04   -0.78074E-07  4308   0.264E-03    0.194E-03
DAV:  11    -0.353406088804E+03   -0.93771E-05   -0.67268E-07  3972   0.169E-03    0.143E-03
DAV:  12    -0.353406092670E+03   -0.38657E-05   -0.28264E-07  3756   0.163E-03    0.744E-04
DAV:  13    -0.353406095372E+03   -0.27024E-05   -0.17022E-07  3780   0.964E-04    0.731E-04
DAV:  14    -0.353406096956E+03   -0.15836E-05   -0.87318E-08  3732   0.909E-04    0.421E-04
DAV:  15    -0.353406097945E+03   -0.98911E-06   -0.52497E-08  3756   0.467E-04
  26 F= -.36649245E+03 E0= -.36649245E+03  d E =-.620835E-03  mag=    53.0000
 trial-energy change:   -0.000621  1 .order   -0.000611   -0.001130   -0.000093
 step:   1.6527(harm=  1.6604)  dis= 0.00689  next Energy=  -366.492454 (dE=-0.625E-03)
 bond charge predicted
       N       E                     dE             d eps       ncg     rms          rms(c)
DAV:   1    -0.353405985336E+03    0.11162E-03   -0.60877E-03  6660   0.108E-01    0.482E-02
DAV:   2    -0.353406011180E+03   -0.25843E-04   -0.43059E-04  9108   0.464E-02    0.231E-02
DAV:   3    -0.353406028502E+03   -0.17323E-04   -0.67354E-06  7560   0.936E-03    0.141E-02
DAV:   4    -0.353406027583E+03    0.91918E-06   -0.96647E-07  4032   0.428E-03
  27 F= -.36649245E+03 E0= -.36649245E+03  d E =-.620406E-03  mag=    53.0000
 curvature:  -4.53 expect dE=-0.233E-02 dE for cont linesearch -0.403E-05
 trial: gam= 0.61951 g(F)=  0.514E-03 g(S)=  0.000E+00 ort = 0.601E-04 (trialstep = 0.155E+01)
 search vector abs. value=  0.214E-02
 bond charge predicted
       N       E                     dE             d eps       ncg     rms          rms(c)
DAV:   1    -0.353402468889E+03    0.35596E-02   -0.45927E-01  6492   0.935E-01    0.428E-01
DAV:   2    -0.353405522937E+03   -0.30540E-02   -0.33909E-02  9072   0.438E-01    0.212E-01
DAV:   3    -0.353405959947E+03   -0.43701E-03   -0.75492E-04  9180   0.119E-01    0.139E-01
DAV:   4    -0.353405890942E+03    0.69005E-04   -0.11393E-04  9624   0.569E-02    0.103E-01
DAV:   5    -0.353405825266E+03    0.65676E-04   -0.68132E-05  9360   0.279E-02    0.773E-02
DAV:   6    -0.353405778602E+03    0.46664E-04   -0.95870E-05  9504   0.285E-02    0.347E-02
DAV:   7    -0.353405797584E+03   -0.18982E-04   -0.17024E-05  9312   0.145E-02    0.937E-03
DAV:   8    -0.353405836760E+03   -0.39175E-04   -0.16003E-06  5196   0.479E-03    0.531E-03
DAV:   9    -0.353405873662E+03   -0.36902E-04   -0.89666E-07  4092   0.368E-03    0.396E-03
DAV:  10    -0.353405899848E+03   -0.26186E-04   -0.56585E-07  3948   0.221E-03    0.216E-03
DAV:  11    -0.353405928887E+03   -0.29039E-04   -0.61217E-07  4236   0.159E-03    0.168E-03
DAV:  12    -0.353405949941E+03   -0.21053E-04   -0.35233E-07  3804   0.172E-03    0.108E-03
DAV:  13    -0.353405974247E+03   -0.24306E-04   -0.36978E-07  3936   0.119E-03    0.930E-04
DAV:  14    -0.353405988151E+03   -0.13905E-04   -0.21564E-07  3828   0.132E-03    0.675E-04
DAV:  15    -0.353405997145E+03   -0.89943E-05   -0.16357E-07  3804   0.661E-04    0.508E-04
DAV:  16    -0.353406003173E+03   -0.60274E-05   -0.79060E-08  3828   0.659E-04    0.425E-04
DAV:  17    -0.353406009360E+03   -0.61871E-05   -0.69990E-08  3720   0.428E-04    0.339E-04
DAV:  18    -0.353406021675E+03   -0.12315E-04   -0.13257E-07  4044   0.510E-04    0.408E-04
DAV:  19    -0.353406030390E+03   -0.87145E-05   -0.14288E-07  3960   0.607E-04    0.393E-04
DAV:  20    -0.353406031757E+03   -0.13679E-05   -0.63332E-08  3900   0.573E-04    0.207E-04
DAV:  21    -0.353406033848E+03   -0.20905E-05   -0.57982E-08  3732   0.343E-04    0.252E-04
DAV:  22    -0.353406035054E+03   -0.12061E-05   -0.32674E-08  3768   0.398E-04    0.117E-04
DAV:  23    -0.353406035617E+03   -0.56317E-06   -0.23534E-08  3840   0.268E-04
  28 F= -.36649297E+03 E0= -.36649297E+03  d E =-.521492E-03  mag=    53.0000
 trial-energy change:   -0.000521  1 .order   -0.000541   -0.000854   -0.000228
 step:   2.3335(harm=  2.1143)  dis= 0.00557  next Energy=  -366.493026 (dE=-0.577E-03)
 reached required accuracy - stopping structural energy minimisation
