CrCl3 2x2 + Ni S1 top-Cl (no_vdw, U=0) (
   1.0000000000000000     
    12.0925489970493256    0.0000000000000000    0.0000000000000000
    -6.0462744985246628   10.4724546279527502    0.0000000000000000
     0.0000000000000000    0.0000000000000000   20.0000000000000000
   Cr   Cl   Ni
     8    24     1
Direct
  0.1655403840028620  0.3391544812855073  0.5007406456803588
  0.3315598359375150  0.1761193876496426  0.5006908196949512
  0.6684401640624844  0.3445595517121131  0.5006908196949512
  0.8346454377252982  0.1694748215950849  0.5037088736415619
  0.1653545622747019  0.8348293838697728  0.5037088736415619
  0.3335228508849389  0.6710759646017239  0.5037026320669487
  0.6664771491150611  0.8375531137167703  0.5037026320669487
  0.8344596159971385  0.6736140972826594  0.5007406456803588
  0.1795672713131199  0.5077416190877165  0.4355187076831182
  0.5000000000000000  0.1882034373722270  0.4352392280213377
  0.3182063333409754  0.3277774827854782  0.4327728735602673
  0.3203042376762266  0.5031365590390205  0.5688970266056085
  0.0019100729396826  0.3257139219661520  0.5692681280580387
  0.1773932699627830  0.1854739683659404  0.5680638112813267
  0.6817936666590250  0.5095711494445027  0.4327728735602673
  0.0012051632969140  0.1853969874626226  0.4337370834085736
  0.8180212124607187  0.3218619049203132  0.4368993332264890
  0.8226067300372171  0.5080806984031573  0.5680638112813267
  0.5000000000000000  0.3310989975475172  0.5705711747895663
  0.6945923719815145  0.1912653909424534  0.5822905590584230
  0.1819787875392814  0.0038406924595949  0.4368993332264890
  0.5000000000000000  0.6848846390642364  0.4366103735731272
  0.3245715558051595  0.8287984329845869  0.4389852270147875
  0.3054076280184855 -0.0033269810390612  0.5822905590584230
 -0.0019100729396826  0.8238038490264696  0.5692681280580387
  0.1776194802012291  0.6799063020901254  0.5702548537889851
  0.6754284441948404  0.0042268771794277  0.4389852270147875
 -0.0012051632969140  0.6841918241657088  0.4337370834085736
  0.8204327286868797  0.8281743477745961  0.4355187076831182
  0.8223805197987710  0.0022868218888963  0.5702548537889851
  0.5000000000000000  0.8227513373711836  0.5718543619959359
  0.6796957623237734  0.6828323213627935  0.5688970266056085
  0.5000000000000000  0.1462765181892595  0.5739499053410828

  0.00000000E+00  0.00000000E+00  0.00000000E+00
  0.00000000E+00  0.00000000E+00  0.00000000E+00
  0.00000000E+00  0.00000000E+00  0.00000000E+00
  0.00000000E+00  0.00000000E+00  0.00000000E+00
  0.00000000E+00  0.00000000E+00  0.00000000E+00
  0.00000000E+00  0.00000000E+00  0.00000000E+00
  0.00000000E+00  0.00000000E+00  0.00000000E+00
  0.00000000E+00  0.00000000E+00  0.00000000E+00
  0.00000000E+00  0.00000000E+00  0.00000000E+00
  0.00000000E+00  0.00000000E+00  0.00000000E+00
  0.00000000E+00  0.00000000E+00  0.00000000E+00
  0.00000000E+00  0.00000000E+00  0.00000000E+00
  0.00000000E+00  0.00000000E+00  0.00000000E+00
  0.00000000E+00  0.00000000E+00  0.00000000E+00
  0.00000000E+00  0.00000000E+00  0.00000000E+00
  0.00000000E+00  0.00000000E+00  0.00000000E+00
  0.00000000E+00  0.00000000E+00  0.00000000E+00
  0.00000000E+00  0.00000000E+00  0.00000000E+00
  0.00000000E+00  0.00000000E+00  0.00000000E+00
  0.00000000E+00  0.00000000E+00  0.00000000E+00
  0.00000000E+00  0.00000000E+00  0.00000000E+00
  0.00000000E+00  0.00000000E+00  0.00000000E+00
  0.00000000E+00  0.00000000E+00  0.00000000E+00
  0.00000000E+00  0.00000000E+00  0.00000000E+00
  0.00000000E+00  0.00000000E+00  0.00000000E+00
  0.00000000E+00  0.00000000E+00  0.00000000E+00
  0.00000000E+00  0.00000000E+00  0.00000000E+00
  0.00000000E+00  0.00000000E+00  0.00000000E+00
  0.00000000E+00  0.00000000E+00  0.00000000E+00
  0.00000000E+00  0.00000000E+00  0.00000000E+00
  0.00000000E+00  0.00000000E+00  0.00000000E+00
  0.00000000E+00  0.00000000E+00  0.00000000E+00
  0.00000000E+00  0.00000000E+00  0.00000000E+00
