 running on   64 total cores
 distrk:  each k-point on   64 cores,    1 groups
 distr:  one band on    8 cores,    8 groups
 vasp.6.2.0 18Jan21 (build Jul 28 2023 11:58:00) complex                         
 POSCAR found type information on POSCAR CrClNi
 POSCAR found :  3 types and      33 ions
 scaLAPACK will be used
 LDA part: xc-table for Pade appr. of Perdew
 POSCAR, INCAR and KPOINTS ok, starting setup
 FFT: planning ...
 WAVECAR not read
 entering main loop
       N       E                     dE             d eps       ncg     rms          rms(c)
DAV:   1     0.210956120912E+04    0.21096E+04   -0.64726E+04  5600   0.913E+02
DAV:   2     0.417200313968E+03   -0.16924E+04   -0.15734E+04  6400   0.245E+02
DAV:   3    -0.125183453584E+03   -0.54238E+03   -0.52464E+03  8096   0.138E+02
DAV:   4    -0.172949435129E+03   -0.47766E+02   -0.47051E+02  8424   0.569E+01
DAV:   5    -0.173766711752E+03   -0.81728E+00   -0.80712E+00  8480   0.975E+00    0.421E+01
DAV:   6    -0.197140725951E+03   -0.23374E+02   -0.24692E+02  7808   0.637E+01    0.879E+01
DAV:   7    -0.166944403215E+03    0.30196E+02   -0.35838E+01  8280   0.522E+01    0.372E+01
DAV:   8    -0.159635966748E+03    0.73084E+01   -0.20970E+01  8640   0.280E+01    0.202E+01
DAV:   9    -0.157066976688E+03    0.25690E+01   -0.81645E+00  8200   0.237E+01    0.121E+01
DAV:  10    -0.156458079233E+03    0.60890E+00   -0.31236E+00  8240   0.100E+01    0.708E+00
DAV:  11    -0.156654250203E+03   -0.19617E+00   -0.13223E+00  8016   0.395E+00    0.515E+00
DAV:  12    -0.156612858084E+03    0.41392E-01   -0.81475E-01  7624   0.339E+00    0.555E+00
DAV:  13    -0.156293964845E+03    0.31889E+00   -0.39062E-01  7488   0.158E+00    0.266E+00
DAV:  14    -0.156587607610E+03   -0.29364E+00   -0.15293E-01  7720   0.175E+00    0.163E+00
DAV:  15    -0.156901923784E+03   -0.31432E+00   -0.19806E-01  7040   0.799E-01    0.360E+00
DAV:  16    -0.156879225151E+03    0.22699E-01   -0.23107E-02  6152   0.318E-01    0.406E+00
DAV:  17    -0.156821699295E+03    0.57526E-01   -0.63676E-02  7176   0.313E-01    0.381E+00
DAV:  18    -0.156880138689E+03   -0.58439E-01   -0.76420E-02  7048   0.297E-01    0.183E+00
DAV:  19    -0.157075050915E+03   -0.19491E+00   -0.52625E-02  6696   0.449E-01    0.137E+00
DAV:  20    -0.157136394623E+03   -0.61344E-01   -0.12318E-02  7664   0.321E-01    0.102E+00
DAV:  21    -0.157285597588E+03   -0.14920E+00   -0.21015E-02  7048   0.352E-01    0.194E+00
DAV:  22    -0.157409614003E+03   -0.12402E+00   -0.19700E-02  7384   0.316E-01    0.101E+00
DAV:  23    -0.157471191236E+03   -0.61577E-01   -0.38875E-03  7520   0.181E-01    0.118E+00
DAV:  24    -0.157553365973E+03   -0.82175E-01   -0.47879E-03  7352   0.163E-01    0.130E+00
DAV:  25    -0.157653835118E+03   -0.10047E+00   -0.12963E-02  6800   0.177E-01    0.505E-01
DAV:  26    -0.157681524442E+03   -0.27689E-01   -0.15941E-03  6776   0.106E-01    0.309E-01
DAV:  27    -0.157712539749E+03   -0.31015E-01   -0.17003E-03  7256   0.749E-02    0.440E-01
DAV:  28    -0.157745156209E+03   -0.32616E-01   -0.23731E-03  7696   0.907E-02    0.270E-01
DAV:  29    -0.157772956345E+03   -0.27800E-01   -0.29767E-03  6744   0.704E-02    0.328E-01
DAV:  30    -0.157761865343E+03    0.11091E-01   -0.10618E-03  5904   0.768E-02    0.305E-01
DAV:  31    -0.157748039517E+03    0.13826E-01   -0.85011E-03  6448   0.126E-01    0.201E-01
DAV:  32    -0.157762273047E+03   -0.14234E-01   -0.12666E-02  7200   0.134E-01    0.330E-01
DAV:  33    -0.157795986681E+03   -0.33714E-01   -0.52471E-03  6712   0.106E-01    0.167E-01
DAV:  34    -0.157817304839E+03   -0.21318E-01   -0.69007E-03  7752   0.104E-01    0.537E-01
DAV:  35    -0.157819577373E+03   -0.22725E-02   -0.58146E-04  5696   0.614E-02    0.530E-01
DAV:  36    -0.157820397675E+03   -0.82030E-03   -0.48892E-05  6240   0.149E-02    0.534E-01
DAV:  37    -0.157821861349E+03   -0.14637E-02   -0.41569E-04  5848   0.380E-02    0.478E-01
DAV:  38    -0.157851301109E+03   -0.29440E-01   -0.43902E-02  6800   0.303E-01    0.453E-01
DAV:  39    -0.157878678072E+03   -0.27377E-01   -0.16630E-02  7120   0.161E-01    0.174E-01
DAV:  40    -0.157888776329E+03   -0.10098E-01   -0.14072E-02  7152   0.124E-01    0.625E-01
DAV:  41    -0.157891667817E+03   -0.28915E-02   -0.76363E-04  5768   0.745E-02    0.634E-01
DAV:  42    -0.157891214442E+03    0.45338E-03   -0.44241E-05  5688   0.181E-02    0.643E-01
DAV:  43    -0.157890985964E+03    0.22848E-03   -0.45930E-06  4744   0.622E-03    0.641E-01
DAV:  44    -0.157891305224E+03   -0.31926E-03   -0.88480E-06  4088   0.609E-03    0.648E-01
DAV:  45    -0.157891015233E+03    0.28999E-03   -0.28449E-04  6168   0.245E-02    0.588E-01
DAV:  46    -0.157888144414E+03    0.28708E-02   -0.74693E-03  6768   0.109E-01    0.284E-01
DAV:  47    -0.157890249695E+03   -0.21053E-02   -0.25862E-03  6808   0.640E-02    0.139E-01
DAV:  48    -0.157891356909E+03   -0.11072E-02   -0.19909E-03  6912   0.531E-02    0.982E-02
DAV:  49    -0.157892049294E+03   -0.69239E-03   -0.12805E-03  6784   0.415E-02    0.780E-02
DAV:  50    -0.157892549515E+03   -0.50022E-03   -0.81522E-04  6704   0.335E-02    0.685E-02
DAV:  51    -0.157893006367E+03   -0.45685E-03   -0.33521E-04  6400   0.255E-02    0.590E-02
DAV:  52    -0.157893200156E+03   -0.19379E-03   -0.25005E-04  6376   0.203E-02    0.551E-02
DAV:  53    -0.157893346447E+03   -0.14629E-03   -0.55261E-05  5528   0.127E-02    0.495E-02
DAV:  54    -0.157893370688E+03   -0.24241E-04   -0.46177E-05  4256   0.832E-03    0.430E-02
DAV:  55    -0.157893387217E+03   -0.16530E-04   -0.55112E-05  4784   0.909E-03    0.372E-02
DAV:  56    -0.157893400807E+03   -0.13589E-04   -0.50471E-05  4464   0.874E-03    0.338E-02
DAV:  57    -0.157893397818E+03    0.29889E-05   -0.68200E-05  4192   0.995E-03    0.313E-02
DAV:  58    -0.157893419005E+03   -0.21187E-04   -0.18629E-05  4640   0.718E-03    0.291E-02
DAV:  59    -0.157893421655E+03   -0.26500E-05   -0.22001E-05  3712   0.618E-03    0.275E-02
DAV:  60    -0.157893416923E+03    0.47320E-05   -0.55126E-05  4328   0.962E-03    0.259E-02
DAV:  61    -0.157893433131E+03   -0.16209E-04   -0.16053E-05  4216   0.603E-03    0.238E-02
DAV:  62    -0.157893439556E+03   -0.64243E-05   -0.85130E-06  3752   0.470E-03    0.228E-02
DAV:  63    -0.157893445388E+03   -0.58323E-05   -0.10051E-06  3664   0.362E-03    0.224E-02
DAV:  64    -0.157893446864E+03   -0.14758E-05   -0.14511E-07  3328   0.174E-03    0.221E-02
DAV:  65    -0.157893446739E+03    0.12430E-06   -0.80607E-07  3432   0.145E-03
   1 F= -.15789345E+03 E0= -.15788737E+03  d E =-.157893E+03  mag=    23.9999
 curvature:   0.00 expect dE= 0.000E+00 dE for cont linesearch  0.000E+00
 trial: gam= 0.00000 g(F)=  0.315E+00 g(S)=  0.000E+00 ort = 0.000E+00 (trialstep = 0.100E+01)
 search vector abs. value=  0.315E+00
 bond charge predicted
       N       E                     dE             d eps       ncg     rms          rms(c)
DAV:   1    -0.157922631044E+03   -0.29184E-01   -0.42681E+01  5704   0.959E+00    0.372E+00
DAV:   2    -0.158425254973E+03   -0.50262E+00   -0.37809E+00  7912   0.420E+00    0.837E+00
DAV:   3    -0.158183549911E+03    0.24171E+00   -0.20030E+00  7480   0.478E+00    0.999E+00
DAV:   4    -0.158134248359E+03    0.49302E-01   -0.52911E-01  8168   0.203E+00    0.397E+00
DAV:   5    -0.158143752294E+03   -0.95039E-02   -0.21978E-02  7368   0.376E-01    0.334E+00
DAV:   6    -0.158122298557E+03    0.21454E-01   -0.16404E-01  9192   0.645E-01    0.118E+00
DAV:   7    -0.158124674292E+03   -0.23757E-02   -0.14755E-02  8112   0.365E-01    0.595E-01
DAV:   8    -0.158126810967E+03   -0.21367E-02   -0.19863E-02  8496   0.314E-01    0.944E-01
DAV:   9    -0.158123812909E+03    0.29981E-02   -0.24602E-03  6144   0.926E-02    0.109E+00
DAV:  10    -0.158111013631E+03    0.12799E-01   -0.14429E-02  7624   0.213E-01    0.128E+00
DAV:  11    -0.158115652935E+03   -0.46393E-02   -0.58073E-03  7640   0.148E-01    0.193E+00
DAV:  12    -0.158119231217E+03   -0.35783E-02   -0.60283E-03  7520   0.225E-01    0.901E-01
DAV:  13    -0.158124818434E+03   -0.55872E-02   -0.50146E-03  7984   0.178E-01    0.395E-01
DAV:  14    -0.158122410237E+03    0.24082E-02   -0.26705E-03  6584   0.155E-01    0.338E-01
DAV:  15    -0.158121243861E+03    0.11664E-02   -0.29302E-03  8360   0.104E-01    0.323E-01
DAV:  16    -0.158122882630E+03   -0.16388E-02   -0.44108E-04  7176   0.417E-02    0.340E-01
DAV:  17    -0.158124458407E+03   -0.15758E-02   -0.74001E-05  5472   0.222E-02    0.339E-01
DAV:  18    -0.158123984725E+03    0.47368E-03   -0.11495E-04  6064   0.176E-02    0.323E-01
DAV:  19    -0.158119227606E+03    0.47571E-02   -0.41144E-03  6984   0.968E-02    0.356E-01
DAV:  20    -0.158118123256E+03    0.11043E-02   -0.21643E-03  7616   0.616E-02    0.440E-01
DAV:  21    -0.158124922707E+03   -0.67995E-02   -0.40177E-02  6904   0.297E-01    0.705E-01
DAV:  22    -0.158121819877E+03    0.31028E-02   -0.13066E-01  7240   0.343E-01    0.237E+00
DAV:  23    -0.158116855035E+03    0.49648E-02   -0.48427E-02  6624   0.287E-01    0.128E+00
DAV:  24    -0.158129373487E+03   -0.12518E-01   -0.13776E-03  5568   0.871E-02    0.125E+00
DAV:  25    -0.158122527214E+03    0.68463E-02   -0.14789E-02  6840   0.124E-01    0.835E-01
DAV:  26    -0.158123453934E+03   -0.92672E-03   -0.70891E-03  7648   0.910E-02    0.771E-01
DAV:  27    -0.158122416986E+03    0.10369E-02   -0.74117E-03  7544   0.957E-02    0.803E-01
DAV:  28    -0.158124954640E+03   -0.25377E-02   -0.14573E-03  6384   0.575E-02    0.832E-01
DAV:  29    -0.158126804466E+03   -0.18498E-02   -0.17287E-04  5536   0.321E-02    0.833E-01
DAV:  30    -0.158127140573E+03   -0.33611E-03   -0.11534E-05  5032   0.843E-03    0.838E-01
DAV:  31    -0.158127823921E+03   -0.68335E-03   -0.11993E-04  5464   0.200E-02    0.815E-01
DAV:  32    -0.158128550585E+03   -0.72666E-03   -0.32435E-04  6016   0.251E-02    0.802E-01
DAV:  33    -0.158129022015E+03   -0.47143E-03   -0.29440E-04  5792   0.202E-02    0.788E-01
DAV:  34    -0.158130410843E+03   -0.13888E-02   -0.60096E-03  6848   0.105E-01    0.789E-01
DAV:  35    -0.158131682593E+03   -0.12718E-02   -0.43772E-03  7384   0.676E-02    0.870E-01
DAV:  36    -0.158132584114E+03   -0.90152E-03   -0.13925E-03  6312   0.457E-02    0.944E-01
DAV:  37    -0.158131549977E+03    0.10341E-02   -0.21614E-04  5344   0.395E-02    0.931E-01
DAV:  38    -0.158131308351E+03    0.24163E-03   -0.18732E-05  4976   0.921E-03    0.934E-01
DAV:  39    -0.158126201472E+03    0.51069E-02   -0.77753E-03  6232   0.111E-01    0.834E-01
DAV:  40    -0.158120243852E+03    0.59576E-02   -0.16904E-02  7424   0.151E-01    0.804E-01
DAV:  41    -0.158107782102E+03    0.12462E-01   -0.30151E-02  7376   0.231E-01    0.136E+00
DAV:  42    -0.158119342093E+03   -0.11560E-01   -0.23506E-03  5528   0.105E-01    0.137E+00
DAV:  43    -0.158121244590E+03   -0.19025E-02   -0.18510E-04  5784   0.340E-02    0.136E+00
DAV:  44    -0.158119373582E+03    0.18710E-02   -0.51037E-04  6328   0.405E-02    0.148E+00
DAV:  45    -0.158120775201E+03   -0.14016E-02   -0.10573E-04  5496   0.268E-02    0.145E+00
DAV:  46    -0.158122475222E+03   -0.17000E-02   -0.33760E-04  6152   0.355E-02    0.135E+00
DAV:  47    -0.158125716726E+03   -0.32415E-02   -0.10091E-02  6904   0.177E-01    0.944E-01
DAV:  48    -0.158127159334E+03   -0.14426E-02   -0.96155E-04  5592   0.869E-02    0.934E-01
DAV:  49    -0.158127777149E+03   -0.61781E-03   -0.94482E-05  5592   0.216E-02    0.898E-01
DAV:  50    -0.158128110060E+03   -0.33291E-03   -0.62274E-05  4976   0.115E-02    0.861E-01
DAV:  51    -0.158126492567E+03    0.16175E-02   -0.50084E-04  5736   0.415E-02    0.854E-01
DAV:  52    -0.158124347811E+03    0.21448E-02   -0.94470E-04  6592   0.475E-02    0.909E-01
DAV:  53    -0.158124703516E+03   -0.35570E-03   -0.15599E-04  6048   0.192E-02    0.931E-01
DAV:  54    -0.158125354251E+03   -0.65074E-03   -0.18929E-05  4944   0.116E-02    0.928E-01
DAV:  55    -0.158125747648E+03   -0.39340E-03   -0.15631E-05  4592   0.800E-03    0.916E-01
DAV:  56    -0.158125952556E+03   -0.20491E-03   -0.91563E-06  3752   0.558E-03    0.900E-01
DAV:  57    -0.158125257721E+03    0.69484E-03   -0.78528E-05  5120   0.156E-02    0.920E-01
DAV:  58    -0.158124249834E+03    0.10079E-02   -0.16011E-04  6040   0.223E-02    0.977E-01
DAV:  59    -0.158123314363E+03    0.93547E-03   -0.26369E-04  6168   0.229E-02    0.103E+00
DAV:  60    -0.158125367847E+03   -0.20535E-02   -0.28985E-04  5536   0.371E-02    0.971E-01
DAV:  61    -0.158127588220E+03   -0.22204E-02   -0.10863E-03  6464   0.567E-02    0.849E-01
DAV:  62    -0.158129717077E+03   -0.21289E-02   -0.34386E-03  7024   0.890E-02    0.682E-01
DAV:  63    -0.158129634253E+03    0.82825E-04   -0.26925E-04  5560   0.420E-02    0.651E-01
DAV:  64    -0.158130478929E+03   -0.84468E-03   -0.81007E-04  6808   0.360E-02    0.608E-01
DAV:  65    -0.158131424136E+03   -0.94521E-03   -0.16499E-03  7168   0.511E-02    0.566E-01
DAV:  66    -0.158131398423E+03    0.25713E-04   -0.38925E-04  5920   0.292E-02    0.556E-01
DAV:  67    -0.158130322798E+03    0.10756E-02   -0.94765E-05  5408   0.263E-02    0.555E-01
DAV:  68    -0.158130272457E+03    0.50340E-04   -0.18012E-06  3712   0.303E-03    0.556E-01
DAV:  69    -0.158130351172E+03   -0.78715E-04   -0.13043E-06  3496   0.223E-03    0.555E-01
DAV:  70    -0.158130313016E+03    0.38156E-04   -0.16975E-07  3384   0.101E-03    0.553E-01
DAV:  71    -0.158130309658E+03    0.33586E-05   -0.10600E-05  3976   0.607E-03    0.541E-01
DAV:  72    -0.158129908002E+03    0.40166E-03   -0.67489E-05  4952   0.140E-02    0.553E-01
DAV:  73    -0.158129891920E+03    0.16082E-04   -0.14341E-05  4088   0.600E-03    0.539E-01
DAV:  74    -0.158129597173E+03    0.29475E-03   -0.32198E-05  4424   0.784E-03    0.538E-01
DAV:  75    -0.158129692603E+03   -0.95431E-04   -0.63746E-06  3728   0.395E-03    0.539E-01
DAV:  76    -0.158129485902E+03    0.20670E-03   -0.18584E-05  3880   0.574E-03    0.542E-01
DAV:  77    -0.158131667040E+03   -0.21811E-02   -0.15624E-02  6856   0.183E-01    0.615E-01
DAV:  78    -0.158133023127E+03   -0.13561E-02   -0.60431E-04  5520   0.779E-02    0.630E-01
DAV:  79    -0.158132598791E+03    0.42434E-03   -0.69782E-05  5744   0.169E-02    0.645E-01
DAV:  80    -0.158133298514E+03   -0.69972E-03   -0.40174E-04  5848   0.214E-02    0.698E-01
DAV:  81    -0.158133013755E+03    0.28476E-03   -0.96893E-05  5368   0.138E-02    0.723E-01
DAV:  82    -0.158134447324E+03   -0.14336E-02   -0.12413E-03  6208   0.407E-02    0.814E-01
DAV:  83    -0.158133354035E+03    0.10933E-02   -0.11031E-04  5504   0.269E-02    0.826E-01
DAV:  84    -0.158133355887E+03   -0.18516E-05   -0.63002E-05  4432   0.809E-03    0.851E-01
DAV:  85    -0.158132766610E+03    0.58928E-03   -0.15592E-05  4792   0.102E-02    0.844E-01
DAV:  86    -0.158132406903E+03    0.35971E-03   -0.23318E-05  4904   0.868E-03    0.823E-01
DAV:  87    -0.158136318774E+03   -0.39119E-02   -0.36295E-02  7280   0.232E-01    0.170E+00
DAV:  88    -0.158145652419E+03   -0.93336E-02   -0.92489E-02  7288   0.239E-01    0.379E+00
DAV:  89    -0.158152021750E+03   -0.63693E-02   -0.21405E-02  6304   0.158E-01    0.502E+00
DAV:  90    -0.158132345462E+03    0.19676E-01   -0.22608E-03  5608   0.106E-01    0.521E+00
DAV:  91    -0.158125478646E+03    0.68668E-02   -0.21785E-04  5888   0.301E-02    0.528E+00
DAV:  92    -0.158097066519E+03    0.28412E-01   -0.22416E-02  7000   0.151E-01    0.377E+00
DAV:  93    -0.158148844597E+03   -0.51778E-01   -0.42049E-02  5808   0.212E-01    0.546E+00
DAV:  94    -0.158122318364E+03    0.26526E-01   -0.28146E-03  5568   0.111E-01    0.514E+00
DAV:  95    -0.158123035345E+03   -0.71698E-03   -0.37784E-05  5944   0.162E-02    0.518E+00
DAV:  96    -0.158121194187E+03    0.18412E-02   -0.65021E-05  4384   0.892E-03    0.510E+00
DAV:  97    -0.158135228048E+03   -0.14034E-01   -0.61998E-03  6776   0.726E-02    0.585E+00
DAV:  98    -0.158093630411E+03    0.41598E-01   -0.24303E-02  6456   0.182E-01    0.416E+00
DAV:  99    -0.158119833199E+03   -0.26203E-01   -0.12507E-03  5696   0.790E-02    0.417E+00
DAV: 100    -0.158122681503E+03   -0.28483E-02   -0.67808E-05  6248   0.162E-02
 -----------------------------------------------------------------------------
|                                                                             |
|           W    W    AA    RRRRR   N    N  II  N    N   GGGG   !!!           |
|           W    W   A  A   R    R  NN   N  II  NN   N  G    G  !!!           |
|           W    W  A    A  R    R  N N  N  II  N N  N  G       !!!           |
|           W WW W  AAAAAA  RRRRR   N  N N  II  N  N N  G  GGG   !            |
|           WW  WW  A    A  R   R   N   NN  II  N   NN  G    G                |
|           W    W  A    A  R    R  N    N  II  N    N   GGGG   !!!           |
|                                                                             |
|     The electronic self-consistency was not achieved in the given           |
|     number of steps (NELM). The forces and other quantities evaluated       |
|     might not be reliable so examine the results carefully. If you find     |
|     spurious results, we suggest increasing NELM, if you were close to      |
|     convergence or switching to a different ALGO or adjusting the           |
|     density mixing parameters otherwise.                                    |
|                                                                             |
 -----------------------------------------------------------------------------

   2 F= -.15812268E+03 E0= -.15812028E+03  d E =-.229235E+00  mag=    24.0000
 trial-energy change:   -0.229235  1 .order   -0.231784   -0.315302   -0.148265
 step:   1.8876(harm=  1.8876)  dis= 0.16632  next Energy=  -158.191032 (dE=-0.298E+00)
 bond charge predicted
       N       E                     dE             d eps       ncg     rms          rms(c)
DAV:   1    -0.157949624808E+03    0.17021E+00   -0.33636E+01  5656   0.856E+00    0.567E+00
DAV:   2    -0.159420717991E+03   -0.14711E+01   -0.11182E+01  9384   0.916E+00    0.138E+01
DAV:   3    -0.158138765683E+03    0.12820E+01   -0.25599E+00  7464   0.160E+01    0.564E+00
DAV:   4    -0.158145798030E+03   -0.70323E-02   -0.15641E+00  8440   0.263E+00    0.532E+00
DAV:   5    -0.158121233177E+03    0.24565E-01   -0.33308E-01  7512   0.128E+00    0.160E+00
DAV:   6    -0.158132186913E+03   -0.10954E-01   -0.17629E-02  7624   0.403E-01    0.148E+00
DAV:   7    -0.158139786861E+03   -0.75999E-02   -0.13178E-01  9368   0.694E-01    0.273E+00
DAV:   8    -0.158136855855E+03    0.29310E-02   -0.70364E-03  7112   0.248E-01    0.257E+00
DAV:   9    -0.158125710207E+03    0.11146E-01   -0.32714E-02  8968   0.278E-01    0.603E-01
DAV:  10    -0.158132723407E+03   -0.70132E-02   -0.27588E-03  6736   0.132E-01    0.455E-01
DAV:  11    -0.158134004010E+03   -0.12806E-02   -0.12459E-03  7696   0.668E-02    0.658E-01
DAV:  12    -0.158133436830E+03    0.56718E-03   -0.12099E-04  6656   0.313E-02    0.640E-01
DAV:  13    -0.158134401003E+03   -0.96417E-03   -0.40128E-04  7672   0.646E-02    0.512E-01
DAV:  14    -0.158135270603E+03   -0.86960E-03   -0.36167E-04  7872   0.542E-02    0.368E-01
DAV:  15    -0.158135875623E+03   -0.60502E-03   -0.40912E-04  8288   0.404E-02    0.176E-01
DAV:  16    -0.158136361250E+03   -0.48563E-03   -0.92930E-05  7176   0.253E-02    0.973E-02
DAV:  17    -0.158136617010E+03   -0.25576E-03   -0.13249E-05  6056   0.155E-02    0.824E-02
DAV:  18    -0.158137002380E+03   -0.38537E-03   -0.37433E-05  6424   0.980E-03    0.343E-02
DAV:  19    -0.158137237858E+03   -0.23548E-03   -0.83874E-06  5048   0.620E-03    0.185E-02
DAV:  20    -0.158137389826E+03   -0.15197E-03   -0.19104E-06  4248   0.390E-03    0.162E-02
DAV:  21    -0.158137589002E+03   -0.19918E-03   -0.57291E-06  4888   0.495E-03    0.219E-03
DAV:  22    -0.158137729856E+03   -0.14085E-03   -0.32824E-06  4944   0.326E-03    0.826E-03
DAV:  23    -0.158137751243E+03   -0.21387E-04   -0.36819E-07  4008   0.247E-03    0.524E-03
DAV:  24    -0.158137775833E+03   -0.24590E-04   -0.27501E-07  3784   0.139E-03    0.412E-03
DAV:  25    -0.158137811483E+03   -0.35650E-04   -0.42429E-07  3888   0.162E-03    0.158E-03
DAV:  26    -0.158137867103E+03   -0.55620E-04   -0.14018E-06  4344   0.184E-03    0.180E-03
DAV:  27    -0.158137879662E+03   -0.12558E-04   -0.29575E-07  4032   0.156E-03    0.121E-03
DAV:  28    -0.158137886361E+03   -0.66990E-05   -0.22784E-07  3720   0.107E-03    0.142E-03
DAV:  29    -0.158137889427E+03   -0.30665E-05   -0.15084E-07  3656   0.113E-03    0.589E-04
DAV:  30    -0.158137891224E+03   -0.17968E-05   -0.14713E-07  3672   0.798E-04    0.441E-04
DAV:  31    -0.158137891568E+03   -0.34411E-06   -0.77044E-08  3440   0.842E-04
   3 F= -.15813789E+03 E0= -.15813772E+03  d E =-.244445E+00  mag=    24.0000
 curvature:  -0.94 expect dE=-0.148E+00 dE for cont linesearch -0.944E-01
 ZBRENT: interpolating
 opt :   1.4038  next Energy=  -158.152619 (dE=-0.259E+00)
 bond charge predicted
       N       E                     dE             d eps       ncg     rms          rms(c)
DAV:   1    -0.158124108738E+03    0.13782E-01   -0.10089E+01  5616   0.466E+00    0.201E+00
DAV:   2    -0.158857918696E+03   -0.73381E+00   -0.60728E+00  7984   0.256E+00    0.307E+01
DAV:   3    -0.158080048152E+03    0.77787E+00   -0.70230E-01  7736   0.234E+00    0.158E+00
DAV:   4    -0.158165833356E+03   -0.85785E-01   -0.41962E-02  7752   0.134E+00    0.931E-01
DAV:   5    -0.158172355041E+03   -0.65217E-02   -0.15382E-02  7936   0.544E-01    0.122E+00
DAV:   6    -0.158170924227E+03    0.14308E-02   -0.10398E-02  8776   0.675E-01    0.151E+00
DAV:   7    -0.158169365394E+03    0.15588E-02   -0.85778E-03  8632   0.579E-01    0.990E-01
DAV:   8    -0.158170309730E+03   -0.94434E-03   -0.65945E-03  7912   0.283E-01    0.613E-01
DAV:   9    -0.158171041299E+03   -0.73157E-03   -0.51104E-03  8016   0.153E-01    0.540E-01
DAV:  10    -0.158170071967E+03    0.96933E-03   -0.84085E-04  7728   0.126E-01    0.480E-01
DAV:  11    -0.158170841041E+03   -0.76907E-03   -0.10849E-03  8512   0.207E-01    0.300E-01
DAV:  12    -0.158171392508E+03   -0.55147E-03   -0.23247E-03  8608   0.295E-01    0.261E-01
DAV:  13    -0.158171887262E+03   -0.49475E-03   -0.82691E-04  7296   0.783E-02    0.266E-01
DAV:  14    -0.158172003739E+03   -0.11648E-03   -0.28185E-04  8128   0.898E-02    0.149E-01
DAV:  15    -0.158172136470E+03   -0.13273E-03   -0.47354E-05  7608   0.245E-02    0.122E-01
DAV:  16    -0.158172303610E+03   -0.16714E-03   -0.24277E-05  5416   0.362E-02    0.991E-02
DAV:  17    -0.158172541466E+03   -0.23786E-03   -0.77893E-05  7848   0.440E-02    0.540E-02
DAV:  18    -0.158172682944E+03   -0.14148E-03   -0.43709E-05  8040   0.265E-02    0.300E-02
DAV:  19    -0.158172748218E+03   -0.65274E-04   -0.80357E-06  5712   0.123E-02    0.209E-02
DAV:  20    -0.158172852935E+03   -0.10472E-03   -0.86855E-06  4264   0.152E-02    0.835E-03
DAV:  21    -0.158172924997E+03   -0.72062E-04   -0.66447E-06  6304   0.802E-03    0.465E-03
DAV:  22    -0.158172957489E+03   -0.32492E-04   -0.10772E-06  4040   0.428E-03    0.356E-03
DAV:  23    -0.158172964980E+03   -0.74912E-05   -0.25642E-07  3520   0.192E-03    0.305E-03
DAV:  24    -0.158173004041E+03   -0.39061E-04   -0.47994E-07  3968   0.167E-03    0.216E-03
DAV:  25    -0.158173038462E+03   -0.34421E-04   -0.51838E-07  4168   0.265E-03    0.170E-03
DAV:  26    -0.158173045990E+03   -0.75273E-05   -0.25232E-07  3536   0.222E-03    0.142E-03
DAV:  27    -0.158173054004E+03   -0.80141E-05   -0.22340E-07  3560   0.933E-04    0.111E-03
DAV:  28    -0.158173061204E+03   -0.72004E-05   -0.93215E-08  3528   0.905E-04    0.105E-03
DAV:  29    -0.158173071993E+03   -0.10789E-04   -0.18168E-07  3744   0.726E-04    0.963E-04
DAV:  30    -0.158173084004E+03   -0.12011E-04   -0.31085E-07  3936   0.104E-03    0.654E-04
DAV:  31    -0.158173086149E+03   -0.21446E-05   -0.10595E-07  3528   0.105E-03    0.474E-04
DAV:  32    -0.158173087044E+03   -0.89578E-06   -0.62533E-08  3360   0.603E-04
   4 F= -.15817309E+03 E0= -.15817270E+03  d E =-.279640E+00  mag=    24.0000
 curvature:  -0.30 expect dE=-0.795E-02 dE for cont linesearch -0.392E-03
 ZBRENT: interpolating
 opt :   1.4614  next Energy=  -158.173732 (dE=-0.280E+00)
 bond charge predicted
       N       E                     dE             d eps       ncg     rms          rms(c)
DAV:   1    -0.158173040733E+03    0.45415E-04   -0.14198E-01  5680   0.548E-01    0.234E-01
DAV:   2    -0.158177427364E+03   -0.43866E-02   -0.32030E-02  8048   0.300E-01    0.143E+00
DAV:   3    -0.158171528191E+03    0.58992E-02   -0.18765E-02  7632   0.351E-01    0.166E-01
DAV:   4    -0.158173477144E+03   -0.19490E-02   -0.51236E-04  6680   0.674E-02    0.132E-01
DAV:   5    -0.158173616276E+03   -0.13913E-03   -0.17566E-04  7568   0.361E-02    0.168E-01
DAV:   6    -0.158173594715E+03    0.21561E-04   -0.87547E-04  8560   0.370E-02    0.106E-01
DAV:   7    -0.158173616740E+03   -0.22024E-04   -0.29700E-05  5704   0.195E-02    0.916E-02
DAV:   8    -0.158173591591E+03    0.25149E-04   -0.12163E-04  4976   0.220E-02    0.283E-02
DAV:   9    -0.158173609917E+03   -0.18326E-04   -0.24003E-05  4728   0.129E-02    0.136E-02
DAV:  10    -0.158173625416E+03   -0.15498E-04   -0.32638E-06  3960   0.737E-03    0.397E-03
DAV:  11    -0.158173636615E+03   -0.11199E-04   -0.11270E-06  3744   0.418E-03    0.575E-03
DAV:  12    -0.158173645125E+03   -0.85100E-05   -0.33663E-07  3672   0.267E-03    0.410E-03
DAV:  13    -0.158173653039E+03   -0.79145E-05   -0.28955E-07  3728   0.163E-03    0.114E-03
DAV:  14    -0.158173660982E+03   -0.79426E-05   -0.14152E-07  3680   0.130E-03    0.843E-04
DAV:  15    -0.158173667763E+03   -0.67811E-05   -0.10667E-07  3624   0.929E-04    0.554E-04
DAV:  16    -0.158173672826E+03   -0.50631E-05   -0.74306E-08  3504   0.811E-04    0.515E-04
DAV:  17    -0.158173677625E+03   -0.47991E-05   -0.69751E-08  3584   0.647E-04    0.419E-04
DAV:  18    -0.158173682077E+03   -0.44521E-05   -0.66794E-08  3584   0.651E-04    0.393E-04
DAV:  19    -0.158173685635E+03   -0.35581E-05   -0.67870E-08  3624   0.593E-04    0.257E-04
DAV:  20    -0.158173687324E+03   -0.16882E-05   -0.42575E-08  3472   0.552E-04    0.274E-04
DAV:  21    -0.158173688665E+03   -0.13415E-05   -0.37165E-08  3488   0.420E-04    0.175E-04
DAV:  22    -0.158173689586E+03   -0.92117E-06   -0.29428E-08  3440   0.433E-04
   5 F= -.15817369E+03 E0= -.15817333E+03  d E =-.280243E+00  mag=    24.0000
 curvature:  -0.49 expect dE=-0.135E-01 dE for cont linesearch -0.144E-06
 trial: gam= 0.08594 g(F)=  0.274E-01 g(S)=  0.000E+00 ort = 0.303E-03 (trialstep = 0.109E+01)
 search vector abs. value=  0.298E-01
 bond charge predicted
       N       E                     dE             d eps       ncg     rms          rms(c)
DAV:   1    -0.158175458346E+03   -0.17697E-02   -0.38277E+00  5472   0.374E+00    0.133E+00
DAV:   2    -0.158284344550E+03   -0.10889E+00   -0.81349E-01  8000   0.232E+00    0.534E+00
DAV:   3    -0.158181902687E+03    0.10244E+00   -0.45927E-01  7728   0.208E+00    0.844E-01
DAV:   4    -0.158195715258E+03   -0.13813E-01   -0.15599E-02  7832   0.485E-01    0.411E-01
DAV:   5    -0.158195808479E+03   -0.93221E-04   -0.25736E-03  8480   0.145E-01    0.609E-01
DAV:   6    -0.158193996369E+03    0.18121E-02   -0.38284E-03  8392   0.144E-01    0.176E-01
DAV:   7    -0.158194297477E+03   -0.30111E-03   -0.47085E-03  7856   0.889E-02    0.535E-01
DAV:   8    -0.158193841598E+03    0.45588E-03   -0.52096E-04  7472   0.763E-02    0.344E-01
DAV:   9    -0.158194078123E+03   -0.23652E-03   -0.19291E-04  7744   0.377E-02    0.254E-01
DAV:  10    -0.158194483941E+03   -0.40582E-03   -0.41278E-04  7952   0.378E-02    0.992E-02
DAV:  11    -0.158194802849E+03   -0.31891E-03   -0.99139E-05  7416   0.210E-02    0.230E-02
DAV:  12    -0.158195118380E+03   -0.31553E-03   -0.15356E-05  6272   0.131E-02    0.233E-02
DAV:  13    -0.158195396041E+03   -0.27766E-03   -0.51478E-06  5088   0.675E-03    0.211E-02
DAV:  14    -0.158195616123E+03   -0.22008E-03   -0.56866E-06  4704   0.569E-03    0.496E-03
DAV:  15    -0.158195795203E+03   -0.17908E-03   -0.25420E-06  4696   0.408E-03    0.344E-03
DAV:  16    -0.158196010727E+03   -0.21552E-03   -0.29748E-06  4744   0.354E-03    0.344E-03
DAV:  17    -0.158196152666E+03   -0.14194E-03   -0.17210E-06  4488   0.261E-03    0.299E-03
DAV:  18    -0.158196246027E+03   -0.93361E-04   -0.10389E-06  4112   0.252E-03    0.303E-03
DAV:  19    -0.158196341255E+03   -0.95228E-04   -0.22429E-06  4760   0.274E-03    0.104E-03
DAV:  20    -0.158196395763E+03   -0.54509E-04   -0.10490E-06  4128   0.200E-03    0.157E-03
DAV:  21    -0.158196412870E+03   -0.17107E-04   -0.36230E-07  3976   0.173E-03    0.951E-04
DAV:  22    -0.158196427770E+03   -0.14900E-04   -0.40987E-07  3936   0.134E-03    0.975E-04
DAV:  23    -0.158196436434E+03   -0.86644E-05   -0.31280E-07  3952   0.144E-03    0.526E-04
DAV:  24    -0.158196438899E+03   -0.24646E-05   -0.19021E-07  3624   0.113E-03    0.591E-04
DAV:  25    -0.158196439787E+03   -0.88849E-06   -0.10969E-07  3456   0.918E-04
   6 F= -.15819644E+03 E0= -.15819625E+03  d E =-.227502E-01  mag=    24.0000
 trial-energy change:   -0.022750  1 .order   -0.022848   -0.029956   -0.015740
 step:   2.4239(harm=  2.3017)  dis= 0.03533  next Energy=  -158.205857 (dE=-0.322E-01)
 bond charge predicted
       N       E                     dE             d eps       ncg     rms          rms(c)
DAV:   1    -0.158174735899E+03    0.21703E-01   -0.56854E+00  5504   0.453E+00    0.161E+00
DAV:   2    -0.158321996485E+03   -0.14726E+00   -0.11680E+00  7936   0.280E+00    0.591E+00
DAV:   3    -0.158188718078E+03    0.13328E+00   -0.72049E-01  7672   0.257E+00    0.101E+00
DAV:   4    -0.158204740176E+03   -0.16022E-01   -0.23816E-02  7944   0.579E-01    0.488E-01
DAV:   5    -0.158204823269E+03   -0.83093E-04   -0.37473E-03  8344   0.171E-01    0.701E-01
DAV:   6    -0.158202369099E+03    0.24542E-02   -0.60605E-03  8536   0.182E-01    0.211E-01
DAV:   7    -0.158202678825E+03   -0.30973E-03   -0.58623E-03  7736   0.101E-01    0.577E-01
DAV:   8    -0.158202168813E+03    0.51001E-03   -0.79579E-04  7512   0.890E-02    0.350E-01
DAV:   9    -0.158202515160E+03   -0.34635E-03   -0.27010E-04  7808   0.402E-02    0.250E-01
DAV:  10    -0.158203047090E+03   -0.53193E-03   -0.42437E-04  7992   0.357E-02    0.107E-01
DAV:  11    -0.158203465543E+03   -0.41845E-03   -0.10973E-04  7480   0.217E-02    0.292E-02
DAV:  12    -0.158203931597E+03   -0.46605E-03   -0.19318E-05  6640   0.134E-02    0.258E-02
DAV:  13    -0.158204293012E+03   -0.36142E-03   -0.64639E-06  5336   0.780E-03    0.175E-02
DAV:  14    -0.158204583301E+03   -0.29029E-03   -0.57207E-06  4968   0.544E-03    0.501E-03
DAV:  15    -0.158204868372E+03   -0.28507E-03   -0.36498E-06  4968   0.429E-03    0.342E-03
DAV:  16    -0.158205183843E+03   -0.31547E-03   -0.49906E-06  5296   0.419E-03    0.235E-03
DAV:  17    -0.158205344834E+03   -0.16099E-03   -0.18282E-06  4672   0.243E-03    0.283E-03
DAV:  18    -0.158205463964E+03   -0.11913E-03   -0.15162E-06  4344   0.243E-03    0.244E-03
DAV:  19    -0.158205564195E+03   -0.10023E-03   -0.21766E-06  4680   0.275E-03    0.139E-03
DAV:  20    -0.158205606767E+03   -0.42572E-04   -0.81824E-07  4208   0.203E-03    0.119E-03
DAV:  21    -0.158205628519E+03   -0.21752E-04   -0.54571E-07  3976   0.185E-03    0.113E-03
DAV:  22    -0.158205639065E+03   -0.10546E-04   -0.38696E-07  3864   0.163E-03    0.820E-04
DAV:  23    -0.158205645284E+03   -0.62193E-05   -0.34039E-07  3928   0.140E-03    0.577E-04
DAV:  24    -0.158205646979E+03   -0.16951E-05   -0.18766E-07  3536   0.124E-03    0.440E-04
DAV:  25    -0.158205647766E+03   -0.78660E-06   -0.11792E-07  3416   0.843E-04
   7 F= -.15820565E+03 E0= -.15820556E+03  d E =-.319582E-01  mag=    24.0000
 curvature:  -1.24 expect dE=-0.294E-01 dE for cont linesearch -0.615E-05
 trial: gam= 0.78283 g(F)=  0.237E-01 g(S)=  0.000E+00 ort =-0.385E-03 (trialstep = 0.978E+00)
 search vector abs. value=  0.414E-01
 bond charge predicted
       N       E                     dE             d eps       ncg     rms          rms(c)
DAV:   1    -0.158196040127E+03    0.96069E-02   -0.39321E+00  5568   0.362E+00    0.110E+00
DAV:   2    -0.158227513465E+03   -0.31473E-01   -0.32499E-01  7888   0.179E+00    0.183E+00
DAV:   3    -0.158249832693E+03   -0.22319E-01   -0.39864E-01  8296   0.127E+00    0.481E+00
DAV:   4    -0.158206315790E+03    0.43517E-01   -0.15068E-01  8128   0.810E-01    0.556E-01
DAV:   5    -0.158219342111E+03   -0.13026E-01   -0.58459E-03  6656   0.149E-01    0.324E-01
DAV:   6    -0.158221171361E+03   -0.18293E-02   -0.46284E-03  7904   0.157E-01    0.513E-01
DAV:   7    -0.158220729438E+03    0.44192E-03   -0.10265E-03  9088   0.965E-02    0.264E-01
DAV:   8    -0.158221053541E+03   -0.32410E-03   -0.74044E-04  8144   0.544E-02    0.164E-01
DAV:   9    -0.158221206324E+03   -0.15278E-03   -0.17342E-04  7536   0.343E-02    0.218E-01
DAV:  10    -0.158221193402E+03    0.12922E-04   -0.94966E-05  6200   0.268E-02    0.149E-01
DAV:  11    -0.158221287436E+03   -0.94034E-04   -0.25501E-04  7056   0.231E-02    0.326E-02
DAV:  12    -0.158221369311E+03   -0.81874E-04   -0.25494E-05  5488   0.118E-02    0.225E-02
DAV:  13    -0.158221463754E+03   -0.94444E-04   -0.11502E-05  4464   0.995E-03    0.144E-02
DAV:  14    -0.158221575146E+03   -0.11139E-03   -0.94967E-06  5816   0.717E-03    0.858E-03
DAV:  15    -0.158221656449E+03   -0.81303E-04   -0.18838E-06  4096   0.417E-03    0.101E-02
DAV:  16    -0.158221737717E+03   -0.81268E-04   -0.15757E-06  4192   0.414E-03    0.346E-03
DAV:  17    -0.158221803125E+03   -0.65408E-04   -0.14048E-06  4136   0.323E-03    0.195E-03
DAV:  18    -0.158221834930E+03   -0.31805E-04   -0.55445E-07  3992   0.278E-03    0.169E-03
DAV:  19    -0.158221866237E+03   -0.31307E-04   -0.53577E-07  3920   0.180E-03    0.131E-03
DAV:  20    -0.158221896914E+03   -0.30677E-04   -0.50571E-07  3896   0.188E-03    0.109E-03
DAV:  21    -0.158221931855E+03   -0.34941E-04   -0.86643E-07  4080   0.168E-03    0.964E-04
DAV:  22    -0.158221948805E+03   -0.16950E-04   -0.41066E-07  4024   0.167E-03    0.725E-04
DAV:  23    -0.158221960962E+03   -0.12157E-04   -0.48505E-07  3864   0.137E-03    0.736E-04
DAV:  24    -0.158221964142E+03   -0.31796E-05   -0.21866E-07  3800   0.142E-03    0.447E-04
DAV:  25    -0.158221966168E+03   -0.20259E-05   -0.19384E-07  3648   0.879E-04    0.394E-04
DAV:  26    -0.158221966586E+03   -0.41808E-06   -0.84774E-08  3480   0.949E-04
   8 F= -.15822197E+03 E0= -.15822189E+03  d E =-.163188E-01  mag=    24.0000
 trial-energy change:   -0.016319  1 .order   -0.016352   -0.022910   -0.009794
 step:   1.7078(harm=  1.7078)  dis= 0.03465  next Energy=  -158.225657 (dE=-0.200E-01)
 bond charge predicted
       N       E                     dE             d eps       ncg     rms          rms(c)
DAV:   1    -0.158211371206E+03    0.10595E-01   -0.21949E+00  5576   0.271E+00    0.824E-01
DAV:   2    -0.158228228034E+03   -0.16857E-01   -0.17757E-01  7832   0.131E+00    0.135E+00
DAV:   3    -0.158241606109E+03   -0.13378E-01   -0.23188E-01  8384   0.940E-01    0.351E+00
DAV:   4    -0.158215833134E+03    0.25773E-01   -0.91284E-02  8024   0.622E-01    0.416E-01
DAV:   5    -0.158224100552E+03   -0.82674E-02   -0.36337E-03  6568   0.117E-01    0.238E-01
DAV:   6    -0.158225235758E+03   -0.11352E-02   -0.29666E-03  7808   0.120E-01    0.391E-01
DAV:   7    -0.158224947851E+03    0.28791E-03   -0.58014E-04  8848   0.664E-02    0.202E-01
DAV:   8    -0.158225080454E+03   -0.13260E-03   -0.40998E-04  8344   0.387E-02    0.942E-02
DAV:   9    -0.158225188884E+03   -0.10843E-03   -0.70504E-05  6952   0.220E-02    0.127E-01
DAV:  10    -0.158225206210E+03   -0.17325E-04   -0.36211E-05  5000   0.166E-02    0.862E-02
DAV:  11    -0.158225265356E+03   -0.59146E-04   -0.10443E-04  5624   0.151E-02    0.149E-02
DAV:  12    -0.158225320086E+03   -0.54730E-04   -0.12737E-05  5320   0.870E-03    0.180E-02
DAV:  13    -0.158225377567E+03   -0.57481E-04   -0.50185E-06  4048   0.642E-03    0.585E-03
DAV:  14    -0.158225438874E+03   -0.61307E-04   -0.25868E-06  4728   0.449E-03    0.561E-03
DAV:  15    -0.158225484434E+03   -0.45561E-04   -0.10025E-06  3968   0.339E-03    0.680E-03
DAV:  16    -0.158225524347E+03   -0.39912E-04   -0.87980E-07  3888   0.283E-03    0.287E-03
DAV:  17    -0.158225567814E+03   -0.43467E-04   -0.89048E-07  3976   0.250E-03    0.156E-03
DAV:  18    -0.158225592642E+03   -0.24828E-04   -0.44727E-07  3992   0.225E-03    0.115E-03
DAV:  19    -0.158225616005E+03   -0.23363E-04   -0.44515E-07  3816   0.158E-03    0.106E-03
DAV:  20    -0.158225638046E+03   -0.22042E-04   -0.41333E-07  3888   0.160E-03    0.816E-04
DAV:  21    -0.158225656265E+03   -0.18219E-04   -0.44998E-07  3912   0.146E-03    0.734E-04
DAV:  22    -0.158225669068E+03   -0.12803E-04   -0.42194E-07  3864   0.151E-03    0.767E-04
DAV:  23    -0.158225675204E+03   -0.61360E-05   -0.34425E-07  3800   0.138E-03    0.575E-04
DAV:  24    -0.158225676310E+03   -0.11058E-05   -0.16077E-07  3512   0.116E-03    0.321E-04
DAV:  25    -0.158225677378E+03   -0.10677E-05   -0.12929E-07  3576   0.762E-04    0.310E-04
DAV:  26    -0.158225677567E+03   -0.18944E-06   -0.58010E-08  3528   0.747E-04
   9 F= -.15822568E+03 E0= -.15822561E+03  d E =-.200298E-01  mag=    24.0000
 curvature:  -1.51 expect dE=-0.216E-01 dE for cont linesearch -0.152E-05
 trial: gam= 0.58673 g(F)=  0.143E-01 g(S)=  0.000E+00 ort = 0.204E-03 (trialstep = 0.112E+01)
 search vector abs. value=  0.288E-01
 bond charge predicted
       N       E                     dE             d eps       ncg     rms          rms(c)
DAV:   1    -0.158216284426E+03    0.93930E-02   -0.45470E+00  5480   0.366E+00    0.119E+00
DAV:   2    -0.158288478334E+03   -0.72194E-01   -0.62706E-01  7968   0.193E+00    0.443E+00
DAV:   3    -0.158225584882E+03    0.62893E-01   -0.44915E-01  7864   0.170E+00    0.106E+00
DAV:   4    -0.158237242738E+03   -0.11658E-01   -0.12876E-02  7720   0.382E-01    0.314E-01
DAV:   5    -0.158236935809E+03    0.30693E-03   -0.21149E-03  8208   0.994E-02    0.313E-01
DAV:   6    -0.158236667572E+03    0.26824E-03   -0.34992E-03  7968   0.112E-01    0.260E-01
DAV:   7    -0.158236919481E+03   -0.25191E-03   -0.10454E-03  7456   0.557E-02    0.343E-01
DAV:   8    -0.158236646505E+03    0.27298E-03   -0.27832E-04  8080   0.452E-02    0.208E-01
DAV:   9    -0.158236740602E+03   -0.94097E-04   -0.59697E-04  7664   0.346E-02    0.469E-02
DAV:  10    -0.158236969174E+03   -0.22857E-03   -0.57873E-05  6984   0.235E-02    0.402E-02
DAV:  11    -0.158237086862E+03   -0.11769E-03   -0.14493E-05  4880   0.118E-02    0.154E-02
DAV:  12    -0.158237237687E+03   -0.15083E-03   -0.84674E-06  5192   0.823E-03    0.744E-03
DAV:  13    -0.158237362537E+03   -0.12485E-03   -0.24653E-06  4568   0.530E-03    0.437E-03
DAV:  14    -0.158237485042E+03   -0.12251E-03   -0.19460E-06  4064   0.364E-03    0.400E-03
DAV:  15    -0.158237606036E+03   -0.12099E-03   -0.17819E-06  4200   0.316E-03    0.477E-03
DAV:  16    -0.158237716451E+03   -0.11041E-03   -0.19593E-06  4208   0.319E-03    0.197E-03
DAV:  17    -0.158237780695E+03   -0.64244E-04   -0.97773E-07  4088   0.264E-03    0.167E-03
DAV:  18    -0.158237846947E+03   -0.66253E-04   -0.14326E-06  4144   0.229E-03    0.169E-03
DAV:  19    -0.158237895495E+03   -0.48548E-04   -0.10564E-06  4096   0.218E-03    0.925E-04
DAV:  20    -0.158237917926E+03   -0.22431E-04   -0.58668E-07  4024   0.191E-03    0.771E-04
DAV:  21    -0.158237932537E+03   -0.14612E-04   -0.50448E-07  3832   0.171E-03    0.732E-04
DAV:  22    -0.158237939716E+03   -0.71782E-05   -0.38411E-07  3920   0.157E-03    0.534E-04
DAV:  23    -0.158237942266E+03   -0.25500E-05   -0.23180E-07  3752   0.124E-03    0.550E-04
DAV:  24    -0.158237943403E+03   -0.11375E-05   -0.14053E-07  3616   0.995E-04    0.254E-04
DAV:  25    -0.158237943927E+03   -0.52351E-06   -0.79733E-08  3488   0.732E-04
  10 F= -.15823794E+03 E0= -.15823789E+03  d E =-.122664E-01  mag=    24.0000
 trial-energy change:   -0.012266  1 .order   -0.012274   -0.016250   -0.008297
 step:   2.2960(harm=  2.2960)  dis= 0.03977  next Energy=  -158.242279 (dE=-0.166E-01)
 bond charge predicted
       N       E                     dE             d eps       ncg     rms          rms(c)
DAV:   1    -0.158218772965E+03    0.19170E-01   -0.49436E+00  5488   0.382E+00    0.125E+00
DAV:   2    -0.158298815375E+03   -0.80042E-01   -0.68087E-01  7992   0.206E+00    0.461E+00
DAV:   3    -0.158229671534E+03    0.69144E-01   -0.48734E-01  7840   0.182E+00    0.113E+00
DAV:   4    -0.158241729915E+03   -0.12058E-01   -0.14195E-02  7728   0.401E-01    0.329E-01
DAV:   5    -0.158241397508E+03    0.33241E-03   -0.23124E-03  8216   0.103E-01    0.325E-01
DAV:   6    -0.158241103590E+03    0.29392E-03   -0.35011E-03  8024   0.120E-01    0.261E-01
DAV:   7    -0.158241374068E+03   -0.27048E-03   -0.11290E-03  7432   0.573E-02    0.350E-01
DAV:   8    -0.158241089073E+03    0.28500E-03   -0.28715E-04  8248   0.482E-02    0.213E-01
DAV:   9    -0.158241192736E+03   -0.10366E-03   -0.58893E-04  7744   0.352E-02    0.504E-02
DAV:  10    -0.158241431611E+03   -0.23887E-03   -0.59451E-05  6928   0.233E-02    0.429E-02
DAV:  11    -0.158241551548E+03   -0.11994E-03   -0.16174E-05  4864   0.122E-02    0.149E-02
DAV:  12    -0.158241715168E+03   -0.16362E-03   -0.87319E-06  5288   0.843E-03    0.778E-03
DAV:  13    -0.158241848731E+03   -0.13356E-03   -0.27253E-06  4544   0.541E-03    0.439E-03
DAV:  14    -0.158241978828E+03   -0.13010E-03   -0.21248E-06  4072   0.384E-03    0.411E-03
DAV:  15    -0.158242103170E+03   -0.12434E-03   -0.18919E-06  4240   0.320E-03    0.540E-03
DAV:  16    -0.158242218905E+03   -0.11574E-03   -0.21088E-06  4168   0.328E-03    0.197E-03
DAV:  17    -0.158242281307E+03   -0.62402E-04   -0.91114E-07  4096   0.264E-03    0.166E-03
DAV:  18    -0.158242353078E+03   -0.71771E-04   -0.14905E-06  4136   0.232E-03    0.169E-03
DAV:  19    -0.158242403763E+03   -0.50685E-04   -0.10366E-06  4104   0.219E-03    0.117E-03
DAV:  20    -0.158242431751E+03   -0.27988E-04   -0.72531E-07  3928   0.197E-03    0.837E-04
DAV:  21    -0.158242449155E+03   -0.17405E-04   -0.62832E-07  3992   0.185E-03    0.752E-04
DAV:  22    -0.158242456773E+03   -0.76172E-05   -0.44023E-07  3776   0.166E-03    0.641E-04
DAV:  23    -0.158242459232E+03   -0.24591E-05   -0.26150E-07  3824   0.135E-03    0.467E-04
DAV:  24    -0.158242460208E+03   -0.97633E-06   -0.14705E-07  3616   0.102E-03
  11 F= -.15824246E+03 E0= -.15824242E+03  d E =-.167826E-01  mag=    24.0000
 curvature:  -2.29 expect dE=-0.189E-01 dE for cont linesearch -0.791E-05
 trial: gam= 0.53324 g(F)=  0.826E-02 g(S)=  0.000E+00 ort = 0.316E-03 (trialstep = 0.136E+01)
 search vector abs. value=  0.168E-01
 bond charge predicted
       N       E                     dE             d eps       ncg     rms          rms(c)
DAV:   1    -0.158232755288E+03    0.97039E-02   -0.42479E+00  5488   0.344E+00    0.106E+00
DAV:   2    -0.158290399645E+03   -0.57644E-01   -0.48946E-01  8048   0.185E+00    0.407E+00
DAV:   3    -0.158237726357E+03    0.52673E-01   -0.32032E-01  8048   0.149E+00    0.696E-01
DAV:   4    -0.158248198873E+03   -0.10473E-01   -0.87925E-03  7744   0.311E-01    0.278E-01
DAV:   5    -0.158247830621E+03    0.36825E-03   -0.10391E-03  8112   0.847E-02    0.318E-01
DAV:   6    -0.158246533276E+03    0.12973E-02   -0.30909E-03  8176   0.115E-01    0.198E-01
DAV:   7    -0.158246694772E+03   -0.16150E-03   -0.59174E-04  7592   0.535E-02    0.239E-01
DAV:   8    -0.158246926667E+03   -0.23190E-03   -0.34126E-04  8536   0.448E-02    0.937E-02
DAV:   9    -0.158247414057E+03   -0.48739E-03   -0.22989E-04  7448   0.280E-02    0.329E-02
DAV:  10    -0.158247659073E+03   -0.24502E-03   -0.35272E-05  7416   0.244E-02    0.368E-02
DAV:  11    -0.158247991321E+03   -0.33225E-03   -0.10642E-05  5192   0.114E-02    0.249E-02
DAV:  12    -0.158248493512E+03   -0.50219E-03   -0.14267E-05  6032   0.822E-03    0.844E-03
DAV:  13    -0.158248843885E+03   -0.35037E-03   -0.36298E-06  5032   0.529E-03    0.742E-03
DAV:  14    -0.158249167242E+03   -0.32336E-03   -0.44276E-06  5008   0.431E-03    0.339E-03
DAV:  15    -0.158249520677E+03   -0.35344E-03   -0.53951E-06  5264   0.364E-03    0.283E-03
DAV:  16    -0.158249821816E+03   -0.30114E-03   -0.56313E-06  5152   0.342E-03    0.193E-03
DAV:  17    -0.158249964802E+03   -0.14299E-03   -0.21929E-06  4616   0.251E-03    0.191E-03
DAV:  18    -0.158250083116E+03   -0.11831E-03   -0.34078E-06  4848   0.300E-03    0.213E-03
DAV:  19    -0.158250120521E+03   -0.37405E-04   -0.10343E-06  4224   0.213E-03    0.949E-04
DAV:  20    -0.158250132465E+03   -0.11945E-04   -0.58055E-07  3872   0.184E-03    0.862E-04
DAV:  21    -0.158250134872E+03   -0.24071E-05   -0.27855E-07  3784   0.156E-03    0.557E-04
DAV:  22    -0.158250135649E+03   -0.77708E-06   -0.25474E-07  3824   0.111E-03
  12 F= -.15825014E+03 E0= -.15825010E+03  d E =-.767544E-02  mag=    24.0000
 trial-energy change:   -0.007675  1 .order   -0.007685   -0.011445   -0.003925
 step:   2.0671(harm=  2.0671)  dis= 0.02075  next Energy=  -158.251170 (dE=-0.871E-02)
 bond charge predicted
       N       E                     dE             d eps       ncg     rms          rms(c)
DAV:   1    -0.158246559051E+03    0.35758E-02   -0.11564E+00  5592   0.179E+00    0.550E-01
DAV:   2    -0.158261767755E+03   -0.15209E-01   -0.13011E-01  8048   0.943E-01    0.230E+00
DAV:   3    -0.158246098292E+03    0.15669E-01   -0.92172E-02  7976   0.756E-01    0.374E-01
DAV:   4    -0.158250531173E+03   -0.44329E-02   -0.25550E-03  7464   0.162E-01    0.143E-01
DAV:   5    -0.158250374999E+03    0.15617E-03   -0.26484E-04  8112   0.427E-02    0.156E-01
DAV:   6    -0.158249899828E+03    0.47517E-03   -0.73133E-04  7960   0.546E-02    0.881E-02
DAV:   7    -0.158249925780E+03   -0.25952E-04   -0.97173E-05  7664   0.277E-02    0.990E-02
DAV:   8    -0.158250039770E+03   -0.11399E-03   -0.93541E-05  5768   0.233E-02    0.288E-02
DAV:   9    -0.158250197605E+03   -0.15784E-03   -0.51093E-05  6984   0.135E-02    0.175E-02
DAV:  10    -0.158250266968E+03   -0.69363E-04   -0.91368E-06  4568   0.133E-02    0.122E-02
DAV:  11    -0.158250396092E+03   -0.12912E-03   -0.42260E-06  4440   0.579E-03    0.138E-02
DAV:  12    -0.158250556286E+03   -0.16019E-03   -0.31941E-06  4416   0.408E-03    0.493E-03
DAV:  13    -0.158250711880E+03   -0.15559E-03   -0.21126E-06  4448   0.351E-03    0.278E-03
DAV:  14    -0.158250824601E+03   -0.11272E-03   -0.12381E-06  4104   0.278E-03    0.225E-03
DAV:  15    -0.158250932670E+03   -0.10807E-03   -0.13342E-06  4096   0.292E-03    0.186E-03
DAV:  16    -0.158251031548E+03   -0.98878E-04   -0.18678E-06  4448   0.283E-03    0.162E-03
DAV:  17    -0.158251118208E+03   -0.86660E-04   -0.20195E-06  4512   0.235E-03    0.877E-04
DAV:  18    -0.158251168673E+03   -0.50465E-04   -0.11144E-06  4192   0.192E-03    0.163E-03
DAV:  19    -0.158251186375E+03   -0.17701E-04   -0.50627E-07  4000   0.192E-03    0.815E-04
DAV:  20    -0.158251195986E+03   -0.96111E-05   -0.46887E-07  3928   0.150E-03    0.595E-04
DAV:  21    -0.158251198688E+03   -0.27028E-05   -0.25662E-07  3688   0.147E-03    0.391E-04
DAV:  22    -0.158251199271E+03   -0.58304E-06   -0.15809E-07  3584   0.992E-04
  13 F= -.15825120E+03 E0= -.15825117E+03  d E =-.873906E-02  mag=    24.0000
 curvature:  -2.06 expect dE=-0.116E-01 dE for cont linesearch -0.112E-05
 trial: gam= 0.70658 g(F)=  0.562E-02 g(S)=  0.000E+00 ort = 0.956E-04 (trialstep = 0.150E+01)
 search vector abs. value=  0.141E-01
 bond charge predicted
       N       E                     dE             d eps       ncg     rms          rms(c)
DAV:   1    -0.158241162980E+03    0.10036E-01   -0.46330E+00  5496   0.329E+00    0.900E-01
DAV:   2    -0.158278813409E+03   -0.37650E-01   -0.33192E-01  7792   0.165E+00    0.303E+00
DAV:   3    -0.158252799776E+03    0.26014E-01   -0.22163E-01  8104   0.114E+00    0.113E+00
DAV:   4    -0.158257237542E+03   -0.44378E-02   -0.13128E-02  8376   0.357E-01    0.271E-01
DAV:   5    -0.158257407368E+03   -0.16983E-03   -0.12148E-03  8192   0.811E-02    0.298E-01
DAV:   6    -0.158257196484E+03    0.21088E-03   -0.23520E-03  7816   0.107E-01    0.194E-01
DAV:   7    -0.158257318541E+03   -0.12206E-03   -0.42406E-04  7616   0.453E-02    0.219E-01
DAV:   8    -0.158257259854E+03    0.58687E-04   -0.21724E-04  8888   0.391E-02    0.104E-01
DAV:   9    -0.158257382244E+03   -0.12239E-03   -0.17692E-04  7224   0.201E-02    0.238E-02
DAV:  10    -0.158257459422E+03   -0.77178E-04   -0.26306E-05  5232   0.154E-02    0.185E-02
DAV:  11    -0.158257487231E+03   -0.27809E-04   -0.43777E-06  4200   0.871E-03    0.122E-02
DAV:  12    -0.158257535481E+03   -0.48250E-04   -0.38760E-06  4320   0.525E-03    0.670E-03
DAV:  13    -0.158257567684E+03   -0.32203E-04   -0.11159E-06  3992   0.417E-03    0.447E-03
DAV:  14    -0.158257600780E+03   -0.33095E-04   -0.12915E-06  4144   0.376E-03    0.275E-03
DAV:  15    -0.158257622200E+03   -0.21420E-04   -0.79094E-07  4000   0.295E-03    0.254E-03
DAV:  16    -0.158257638761E+03   -0.16562E-04   -0.56324E-07  3936   0.242E-03    0.140E-03
DAV:  17    -0.158257652352E+03   -0.13590E-04   -0.43392E-07  3960   0.181E-03    0.132E-03
DAV:  18    -0.158257665878E+03   -0.13526E-04   -0.42644E-07  3888   0.151E-03    0.137E-03
DAV:  19    -0.158257677887E+03   -0.12009E-04   -0.45209E-07  3928   0.145E-03    0.954E-04
DAV:  20    -0.158257685222E+03   -0.73349E-05   -0.35651E-07  3952   0.138E-03    0.710E-04
DAV:  21    -0.158257689314E+03   -0.40916E-05   -0.29610E-07  3848   0.128E-03    0.606E-04
DAV:  22    -0.158257690606E+03   -0.12925E-05   -0.13972E-07  3784   0.103E-03    0.473E-04
DAV:  23    -0.158257691306E+03   -0.69930E-06   -0.82020E-08  3528   0.744E-04
  14 F= -.15825769E+03 E0= -.15825766E+03  d E =-.649203E-02  mag=    24.0000
 trial-energy change:   -0.006492  1 .order   -0.006458   -0.008528   -0.004389
 step:   2.9509(harm=  3.0901)  dis= 0.02177  next Energy=  -158.259844 (dE=-0.864E-02)
 bond charge predicted
       N       E                     dE             d eps       ncg     rms          rms(c)
DAV:   1    -0.158244423740E+03    0.13267E-01   -0.43405E+00  5480   0.318E+00    0.868E-01
DAV:   2    -0.158278455724E+03   -0.34032E-01   -0.29937E-01  7784   0.156E+00    0.286E+00
DAV:   3    -0.158255896699E+03    0.22559E-01   -0.20490E-01  8120   0.108E+00    0.117E+00
DAV:   4    -0.158259371652E+03   -0.34750E-02   -0.13810E-02  8432   0.356E-01    0.262E-01
DAV:   5    -0.158259605939E+03   -0.23429E-03   -0.11159E-03  8048   0.776E-02    0.285E-01
DAV:   6    -0.158259425835E+03    0.18010E-03   -0.21947E-03  7848   0.103E-01    0.192E-01
DAV:   7    -0.158259513181E+03   -0.87346E-04   -0.33529E-04  7648   0.427E-02    0.201E-01
DAV:   8    -0.158259469987E+03    0.43193E-04   -0.20204E-04  8920   0.368E-02    0.906E-02
DAV:   9    -0.158259586575E+03   -0.11659E-03   -0.13596E-04  7048   0.181E-02    0.217E-02
DAV:  10    -0.158259655207E+03   -0.68632E-04   -0.20147E-05  4896   0.139E-02    0.169E-02
DAV:  11    -0.158259681971E+03   -0.26765E-04   -0.37915E-06  4120   0.809E-03    0.116E-02
DAV:  12    -0.158259727482E+03   -0.45511E-04   -0.33824E-06  4256   0.504E-03    0.620E-03
DAV:  13    -0.158259757094E+03   -0.29612E-04   -0.10142E-06  3944   0.397E-03    0.409E-03
DAV:  14    -0.158259786676E+03   -0.29581E-04   -0.11280E-06  4024   0.364E-03    0.280E-03
DAV:  15    -0.158259807963E+03   -0.21287E-04   -0.79471E-07  3976   0.287E-03    0.246E-03
DAV:  16    -0.158259822929E+03   -0.14967E-04   -0.52612E-07  3944   0.243E-03    0.132E-03
DAV:  17    -0.158259835361E+03   -0.12431E-04   -0.39152E-07  3928   0.175E-03    0.125E-03
DAV:  18    -0.158259847769E+03   -0.12409E-04   -0.38318E-07  3904   0.145E-03    0.136E-03
DAV:  19    -0.158259859441E+03   -0.11671E-04   -0.43982E-07  3904   0.139E-03    0.945E-04
DAV:  20    -0.158259866093E+03   -0.66520E-05   -0.32112E-07  3920   0.134E-03    0.655E-04
DAV:  21    -0.158259869819E+03   -0.37260E-05   -0.26736E-07  3912   0.121E-03    0.579E-04
DAV:  22    -0.158259871009E+03   -0.11899E-05   -0.12565E-07  3728   0.101E-03    0.490E-04
DAV:  23    -0.158259871692E+03   -0.68389E-06   -0.77380E-08  3520   0.705E-04
  15 F= -.15825987E+03 E0= -.15825985E+03  d E =-.867242E-02  mag=    24.0000
 curvature:  -3.81 expect dE=-0.260E-01 dE for cont linesearch -0.419E-05
 trial: gam= 1.18178 g(F)=  0.682E-02 g(S)=  0.000E+00 ort = 0.125E-03 (trialstep = 0.942E+00)
 search vector abs. value=  0.269E-01
 bond charge predicted
       N       E                     dE             d eps       ncg     rms          rms(c)
DAV:   1    -0.158256533073E+03    0.33379E-02   -0.43453E+00  5504   0.273E+00    0.836E-01
DAV:   2    -0.158312211807E+03   -0.55679E-01   -0.44027E-01  8288   0.159E+00    0.411E+00
DAV:   3    -0.158254548700E+03    0.57663E-01   -0.24011E-01  8144   0.131E+00    0.465E-01
DAV:   4    -0.158263214933E+03   -0.86662E-02   -0.84861E-03  7600   0.225E-01    0.227E-01
DAV:   5    -0.158264678484E+03   -0.14636E-02   -0.23510E-03  8168   0.132E-01    0.289E-01
DAV:   6    -0.158264549206E+03    0.12928E-03   -0.15060E-03  7664   0.768E-02    0.891E-02
DAV:   7    -0.158264772160E+03   -0.22295E-03   -0.47108E-04  7992   0.496E-02    0.129E-01
DAV:   8    -0.158264775370E+03   -0.32098E-05   -0.26476E-04  7856   0.443E-02    0.345E-02
DAV:   9    -0.158264853910E+03   -0.78540E-04   -0.12556E-04  6480   0.184E-02    0.510E-02
DAV:  10    -0.158264864763E+03   -0.10853E-04   -0.55839E-05  5168   0.219E-02    0.175E-02
DAV:  11    -0.158264886796E+03   -0.22033E-04   -0.53891E-06  4352   0.823E-03    0.134E-02
DAV:  12    -0.158264906063E+03   -0.19268E-04   -0.30816E-06  4120   0.564E-03    0.452E-03
DAV:  13    -0.158264927709E+03   -0.21646E-04   -0.10241E-06  3984   0.298E-03    0.299E-03
DAV:  14    -0.158264947025E+03   -0.19316E-04   -0.60085E-07  3944   0.275E-03    0.174E-03
DAV:  15    -0.158264962914E+03   -0.15889E-04   -0.43422E-07  3960   0.204E-03    0.128E-03
DAV:  16    -0.158264976449E+03   -0.13535E-04   -0.35319E-07  3920   0.166E-03    0.126E-03
DAV:  17    -0.158264988201E+03   -0.11752E-04   -0.29894E-07  3936   0.136E-03    0.967E-04
DAV:  18    -0.158264997960E+03   -0.97591E-05   -0.26729E-07  3888   0.114E-03    0.708E-04
DAV:  19    -0.158265005294E+03   -0.73340E-05   -0.24578E-07  3904   0.104E-03    0.603E-04
DAV:  20    -0.158265008975E+03   -0.36810E-05   -0.15310E-07  3960   0.887E-04    0.448E-04
DAV:  21    -0.158265011255E+03   -0.22796E-05   -0.11585E-07  3856   0.806E-04    0.416E-04
DAV:  22    -0.158265012253E+03   -0.99835E-06   -0.56450E-08  3728   0.636E-04
  16 F= -.15826501E+03 E0= -.15826499E+03  d E =-.514056E-02  mag=    24.0000
 trial-energy change:   -0.005141  1 .order   -0.005154   -0.006564   -0.003743
 step:   2.2819(harm=  2.1923)  dis= 0.02495  next Energy=  -158.267635 (dE=-0.776E-02)
 bond charge predicted
       N       E                     dE             d eps       ncg     rms          rms(c)
DAV:   1    -0.158249580602E+03    0.15431E-01   -0.88177E+00  5504   0.391E+00    0.118E+00
DAV:   2    -0.158354640719E+03   -0.10506E+00   -0.82146E-01  8272   0.227E+00    0.515E+00
DAV:   3    -0.158253207645E+03    0.10143E+00   -0.42887E-01  8208   0.188E+00    0.600E-01
DAV:   4    -0.158265127775E+03   -0.11920E-01   -0.16215E-02  7736   0.325E-01    0.329E-01
DAV:   5    -0.158267095986E+03   -0.19682E-02   -0.46953E-03  8288   0.187E-01    0.397E-01
DAV:   6    -0.158266792828E+03    0.30316E-03   -0.23726E-03  7752   0.110E-01    0.127E-01
DAV:   7    -0.158267209302E+03   -0.41647E-03   -0.11888E-03  8200   0.781E-02    0.192E-01
DAV:   8    -0.158267202015E+03    0.72870E-05   -0.41486E-04  8552   0.621E-02    0.477E-02
DAV:   9    -0.158267331058E+03   -0.12904E-03   -0.25440E-04  7008   0.234E-02    0.581E-02
DAV:  10    -0.158267365098E+03   -0.34041E-04   -0.94165E-05  6320   0.292E-02    0.291E-02
DAV:  11    -0.158267398302E+03   -0.33204E-04   -0.80199E-06  4600   0.102E-02    0.172E-02
DAV:  12    -0.158267435261E+03   -0.36959E-04   -0.69701E-06  4296   0.740E-03    0.731E-03
DAV:  13    -0.158267471402E+03   -0.36141E-04   -0.23847E-06  4208   0.466E-03    0.359E-03
DAV:  14    -0.158267504407E+03   -0.33005E-04   -0.12683E-06  3992   0.373E-03    0.223E-03
DAV:  15    -0.158267530816E+03   -0.26409E-04   -0.83634E-07  4008   0.266E-03    0.173E-03
DAV:  16    -0.158267553379E+03   -0.22563E-04   -0.64579E-07  3928   0.226E-03    0.161E-03
DAV:  17    -0.158267574084E+03   -0.20705E-04   -0.63028E-07  3976   0.176E-03    0.144E-03
DAV:  18    -0.158267589722E+03   -0.15638E-04   -0.52359E-07  3944   0.155E-03    0.977E-04
DAV:  19    -0.158267599861E+03   -0.10139E-04   -0.39589E-07  3928   0.142E-03    0.815E-04
DAV:  20    -0.158267605529E+03   -0.56685E-05   -0.28191E-07  3968   0.120E-03    0.647E-04
DAV:  21    -0.158267608877E+03   -0.33481E-05   -0.20486E-07  3880   0.110E-03    0.587E-04
DAV:  22    -0.158267610369E+03   -0.14921E-05   -0.99454E-08  3904   0.857E-04    0.307E-04
DAV:  23    -0.158267611302E+03   -0.93269E-06   -0.67104E-08  3616   0.573E-04
  17 F= -.15826761E+03 E0= -.15826760E+03  d E =-.773961E-02  mag=    24.0000
 curvature:  -4.20 expect dE=-0.275E-01 dE for cont linesearch -0.141E-05
 trial: gam= 1.04140 g(F)=  0.653E-02 g(S)=  0.000E+00 ort =-0.948E-04 (trialstep = 0.917E+00)
 search vector abs. value=  0.355E-01
 bond charge predicted
       N       E                     dE             d eps       ncg     rms          rms(c)
DAV:   1    -0.158261289227E+03    0.63211E-02   -0.55155E+00  5472   0.297E+00    0.778E-01
DAV:   2    -0.158298093361E+03   -0.36804E-01   -0.30069E-01  7864   0.146E+00    0.312E+00
DAV:   3    -0.158265986944E+03    0.32106E-01   -0.17463E-01  8184   0.109E+00    0.424E-01
DAV:   4    -0.158271836127E+03   -0.58492E-02   -0.36752E-03  7464   0.220E-01    0.212E-01
DAV:   5    -0.158271881494E+03   -0.45367E-04   -0.99640E-04  8656   0.791E-02    0.203E-01
DAV:   6    -0.158271573348E+03    0.30815E-03   -0.96984E-04  7968   0.711E-02    0.997E-02
DAV:   7    -0.158271598670E+03   -0.25322E-04   -0.20443E-04  7712   0.443E-02    0.109E-01
DAV:   8    -0.158271734099E+03   -0.13543E-03   -0.13682E-04  7856   0.363E-02    0.294E-02
DAV:   9    -0.158271920153E+03   -0.18605E-03   -0.53685E-05  6608   0.173E-02    0.208E-02
DAV:  10    -0.158272025398E+03   -0.10525E-03   -0.99666E-06  4480   0.120E-02    0.107E-02
DAV:  11    -0.158272139632E+03   -0.11423E-03   -0.41138E-06  4528   0.602E-03    0.114E-02
DAV:  12    -0.158272262767E+03   -0.12313E-03   -0.28657E-06  4272   0.489E-03    0.568E-03
DAV:  13    -0.158272430287E+03   -0.16752E-03   -0.40771E-06  5112   0.403E-03    0.379E-03
DAV:  14    -0.158272546047E+03   -0.11576E-03   -0.15506E-06  4096   0.281E-03    0.216E-03
DAV:  15    -0.158272620603E+03   -0.74556E-04   -0.10666E-06  4120   0.310E-03    0.228E-03
DAV:  16    -0.158272679777E+03   -0.59174E-04   -0.11227E-06  4040   0.253E-03    0.177E-03
DAV:  17    -0.158272737397E+03   -0.57621E-04   -0.14875E-06  4168   0.232E-03    0.155E-03
DAV:  18    -0.158272790013E+03   -0.52616E-04   -0.17670E-06  4176   0.240E-03    0.126E-03
DAV:  19    -0.158272812858E+03   -0.22844E-04   -0.96991E-07  4112   0.204E-03    0.108E-03
DAV:  20    -0.158272818242E+03   -0.53840E-05   -0.43193E-07  3976   0.175E-03    0.673E-04
DAV:  21    -0.158272819481E+03   -0.12394E-05   -0.18297E-07  3656   0.129E-03    0.565E-04
DAV:  22    -0.158272820668E+03   -0.11869E-05   -0.13111E-07  3680   0.896E-04    0.368E-04
DAV:  23    -0.158272821634E+03   -0.96570E-06   -0.10153E-07  3832   0.806E-04
  18 F= -.15827282E+03 E0= -.15827281E+03  d E =-.521033E-02  mag=    24.0000
 ZBRENT: can't locate minimum, use default step
 trial-energy change:   -0.005210  1 .order   -0.005201   -0.005895   -0.004508
 step:   3.6664(harm=  3.8951)  dis= 0.05580  next Energy=  -158.280136 (dE=-0.125E-01)
 bond charge predicted
       N       E                     dE             d eps       ncg     rms          rms(c)
DAV:   1    -0.158161238342E+03    0.11158E+00   -0.51796E+01  5480   0.939E+00    0.241E+00
DAV:   2    -0.158500377082E+03   -0.33914E+00   -0.26738E+00  7856   0.457E+00    0.723E+00
DAV:   3    -0.158256470410E+03    0.24391E+00   -0.12327E+00  8120   0.376E+00    0.134E+00
DAV:   4    -0.158276539415E+03   -0.20069E-01   -0.44108E-02  7832   0.729E-01    0.628E-01
DAV:   5    -0.158276001329E+03    0.53809E-03   -0.46593E-03  7880   0.219E-01    0.591E-01
DAV:   6    -0.158274063855E+03    0.19375E-02   -0.10941E-02  7976   0.254E-01    0.500E-01
DAV:   7    -0.158273984690E+03    0.79165E-04   -0.20424E-03  8312   0.167E-01    0.284E-01
DAV:   8    -0.158275169306E+03   -0.11846E-02   -0.10034E-03  8664   0.132E-01    0.844E-02
DAV:   9    -0.158276246425E+03   -0.10771E-02   -0.21309E-04  7776   0.586E-02    0.767E-02
DAV:  10    -0.158277002663E+03   -0.75624E-03   -0.54511E-05  7368   0.221E-02    0.482E-02
DAV:  11    -0.158277784380E+03   -0.78172E-03   -0.27556E-05  7128   0.151E-02    0.262E-02
DAV:  12    -0.158278559291E+03   -0.77491E-03   -0.19530E-05  6936   0.101E-02    0.153E-02
DAV:  13    -0.158279306607E+03   -0.74732E-03   -0.18034E-05  6544   0.891E-03    0.888E-03
DAV:  14    -0.158279798886E+03   -0.49228E-03   -0.88423E-06  5392   0.518E-03    0.737E-03
DAV:  15    -0.158280203813E+03   -0.40493E-03   -0.85323E-06  5280   0.521E-03    0.473E-03
DAV:  16    -0.158280628103E+03   -0.42429E-03   -0.14549E-05  5568   0.551E-03    0.298E-03
DAV:  17    -0.158280836799E+03   -0.20870E-03   -0.74674E-06  5416   0.363E-03    0.280E-03
DAV:  18    -0.158280919780E+03   -0.82981E-04   -0.32068E-06  4664   0.281E-03    0.211E-03
DAV:  19    -0.158280939150E+03   -0.19370E-04   -0.85933E-07  4152   0.233E-03    0.135E-03
DAV:  20    -0.158280945596E+03   -0.64463E-05   -0.41572E-07  4016   0.189E-03    0.101E-03
DAV:  21    -0.158280949999E+03   -0.44033E-05   -0.47755E-07  3912   0.142E-03    0.757E-04
DAV:  22    -0.158280952547E+03   -0.25482E-05   -0.24024E-07  3912   0.136E-03    0.501E-04
DAV:  23    -0.158280954286E+03   -0.17383E-05   -0.15376E-07  3848   0.890E-04    0.373E-04
DAV:  24    -0.158280955938E+03   -0.16527E-05   -0.90781E-08  3784   0.802E-04    0.574E-04
DAV:  25    -0.158280957546E+03   -0.16080E-05   -0.61559E-08  3728   0.578E-04    0.290E-04
DAV:  26    -0.158280958490E+03   -0.94349E-06   -0.29085E-08  3672   0.447E-04
  19 F= -.15828096E+03 E0= -.15828095E+03  d E =-.133472E-01  mag=    24.0000
 curvature: -10.67 expect dE=-0.120E+00 dE for cont linesearch -0.204E-03
 trial: gam= 1.71881 g(F)=  0.112E-01 g(S)=  0.000E+00 ort = 0.823E-03 (trialstep = 0.438E+00)
 search vector abs. value=  0.119E+00
 bond charge predicted
       N       E                     dE             d eps       ncg     rms          rms(c)
DAV:   1    -0.158278645148E+03    0.23124E-02   -0.44435E+00  5480   0.247E+00    0.623E-01
DAV:   2    -0.158300665740E+03   -0.22021E-01   -0.17507E-01  7848   0.111E+00    0.238E+00
DAV:   3    -0.158283085829E+03    0.17580E-01   -0.10646E-01  8240   0.835E-01    0.489E-01
DAV:   4    -0.158286117863E+03   -0.30320E-02   -0.25702E-03  7648   0.187E-01    0.190E-01
DAV:   5    -0.158286131388E+03   -0.13525E-04   -0.59729E-04  8480   0.570E-02    0.140E-01
DAV:   6    -0.158286193953E+03   -0.62565E-04   -0.42111E-04  7712   0.514E-02    0.722E-02
DAV:   7    -0.158286244096E+03   -0.50143E-04   -0.65652E-05  7568   0.320E-02    0.559E-02
DAV:   8    -0.158286269403E+03   -0.25307E-04   -0.36799E-05  5288   0.215E-02    0.207E-02
DAV:   9    -0.158286291229E+03   -0.21826E-04   -0.13755E-05  4800   0.123E-02    0.130E-02
DAV:  10    -0.158286310396E+03   -0.19167E-04   -0.25313E-06  3880   0.679E-03    0.888E-03
DAV:  11    -0.158286324894E+03   -0.14498E-04   -0.18347E-06  4144   0.453E-03    0.580E-03
DAV:  12    -0.158286338503E+03   -0.13609E-04   -0.84938E-07  4080   0.329E-03    0.436E-03
DAV:  13    -0.158286355593E+03   -0.17089E-04   -0.12112E-06  4000   0.281E-03    0.447E-03
DAV:  14    -0.158286366550E+03   -0.10957E-04   -0.65813E-07  4024   0.284E-03    0.157E-03
DAV:  15    -0.158286373758E+03   -0.72083E-05   -0.33548E-07  3952   0.188E-03    0.107E-03
DAV:  16    -0.158286380865E+03   -0.71063E-05   -0.29362E-07  3920   0.137E-03    0.108E-03
DAV:  17    -0.158286388971E+03   -0.81061E-05   -0.42225E-07  3928   0.117E-03    0.831E-04
DAV:  18    -0.158286394114E+03   -0.51437E-05   -0.28879E-07  3944   0.114E-03    0.728E-04
DAV:  19    -0.158286396772E+03   -0.26573E-05   -0.15715E-07  3992   0.882E-04    0.469E-04
DAV:  20    -0.158286398564E+03   -0.17921E-05   -0.97187E-08  3872   0.735E-04    0.333E-04
DAV:  21    -0.158286399950E+03   -0.13863E-05   -0.75964E-08  3824   0.633E-04    0.302E-04
DAV:  22    -0.158286400873E+03   -0.92350E-06   -0.53958E-08  3712   0.515E-04
  20 F= -.15828640E+03 E0= -.15828640E+03  d E =-.544238E-02  mag=    24.0000
 ZBRENT: can't locate minimum, use default step
 trial-energy change:   -0.005442  1 .order   -0.005455   -0.005536   -0.005373
 step:   1.7506(harm= 14.8660)  dis= 0.05252  next Energy=  -158.374980 (dE=-0.940E-01)
 bond charge predicted
       N       E                     dE             d eps       ncg     rms          rms(c)
DAV:   1    -0.158220545256E+03    0.65855E-01   -0.41475E+01  5472   0.780E+00    0.194E+00
DAV:   2    -0.158448920254E+03   -0.22837E+00   -0.17716E+00  7824   0.358E+00    0.615E+00
DAV:   3    -0.158288358541E+03    0.16056E+00   -0.92931E-01  8248   0.289E+00    0.142E+00
DAV:   4    -0.158299859455E+03   -0.11501E-01   -0.30352E-02  7976   0.610E-01    0.487E-01
DAV:   5    -0.158300063660E+03   -0.20420E-03   -0.33056E-03  7872   0.160E-01    0.447E-01
DAV:   6    -0.158300339475E+03   -0.27582E-03   -0.63634E-03  7816   0.187E-01    0.411E-01
DAV:   7    -0.158300503636E+03   -0.16416E-03   -0.10260E-03  8400   0.120E-01    0.222E-01
DAV:   8    -0.158300762207E+03   -0.25857E-03   -0.68094E-04  8816   0.978E-02    0.574E-02
DAV:   9    -0.158300945326E+03   -0.18312E-03   -0.75954E-05  7840   0.420E-02    0.432E-02
DAV:  10    -0.158301060288E+03   -0.11496E-03   -0.14010E-05  5656   0.176E-02    0.350E-02
DAV:  11    -0.158301170636E+03   -0.11035E-03   -0.17408E-05  6440   0.122E-02    0.168E-02
DAV:  12    -0.158301269709E+03   -0.99074E-04   -0.87557E-06  5728   0.818E-03    0.125E-02
DAV:  13    -0.158301359356E+03   -0.89647E-04   -0.72588E-06  5056   0.586E-03    0.563E-03
DAV:  14    -0.158301410952E+03   -0.51596E-04   -0.28595E-06  4248   0.425E-03    0.485E-03
DAV:  15    -0.158301436320E+03   -0.25368E-04   -0.92868E-07  4080   0.315E-03    0.361E-03
DAV:  16    -0.158301476150E+03   -0.39830E-04   -0.22717E-06  3984   0.254E-03    0.263E-03
DAV:  17    -0.158301525398E+03   -0.49248E-04   -0.49109E-06  4504   0.300E-03    0.348E-03
DAV:  18    -0.158301541936E+03   -0.16539E-04   -0.10085E-06  4176   0.226E-03    0.235E-03
DAV:  19    -0.158301554475E+03   -0.12538E-04   -0.86433E-07  3904   0.163E-03    0.948E-04
DAV:  20    -0.158301562464E+03   -0.79893E-05   -0.51412E-07  4080   0.165E-03    0.767E-04
DAV:  21    -0.158301568597E+03   -0.61329E-05   -0.47524E-07  3872   0.134E-03    0.679E-04
DAV:  22    -0.158301570962E+03   -0.23656E-05   -0.17405E-07  4112   0.109E-03    0.425E-04
DAV:  23    -0.158301572516E+03   -0.15538E-05   -0.94787E-08  3704   0.671E-04    0.247E-04
DAV:  24    -0.158301573904E+03   -0.13873E-05   -0.75741E-08  3768   0.617E-04    0.264E-04
DAV:  25    -0.158301574807E+03   -0.90340E-06   -0.48022E-08  3696   0.482E-04
  21 F= -.15830157E+03 E0= -.15830157E+03  d E =-.206163E-01  mag=    24.0000
 curvature: -12.13 expect dE=-0.121E+00 dE for cont linesearch -0.122E-01
 ZBRENT: increasing intervall
 opt :   4.3766  next Energy=  -158.326775 (dE=-0.458E-01)
 bond charge predicted
       N       E                     dE             d eps       ncg     rms          rms(c)
DAV:   1    -0.157962910040E+03    0.33866E+00   -0.18799E+02  5472   0.180E+01    0.396E+00
DAV:   2    -0.158710696055E+03   -0.74779E+00   -0.54699E+00  7816   0.665E+00    0.914E+00
DAV:   3    -0.158336624139E+03    0.37407E+00   -0.27881E+00  8280   0.639E+00    0.552E+00
DAV:   4    -0.158328074705E+03    0.85494E-02   -0.51587E-01  8544   0.173E+00    0.278E+00
DAV:   5    -0.158323928555E+03    0.41462E-02   -0.40294E-02  7760   0.546E-01    0.149E+00
DAV:   6    -0.158326736130E+03   -0.28076E-02   -0.10394E-01  8504   0.601E-01    0.191E+00
DAV:   7    -0.158321550332E+03    0.51858E-02   -0.23039E-02  8352   0.413E-01    0.446E-01
DAV:   8    -0.158323840898E+03   -0.22906E-02   -0.16169E-03  7808   0.187E-01    0.505E-01
DAV:   9    -0.158324143911E+03   -0.30301E-03   -0.50511E-04  8360   0.139E-01    0.333E-01
DAV:  10    -0.158324569699E+03   -0.42579E-03   -0.64557E-04  8720   0.719E-02    0.102E-01
DAV:  11    -0.158325111451E+03   -0.54175E-03   -0.12568E-04  7344   0.265E-02    0.310E-02
DAV:  12    -0.158325434195E+03   -0.32274E-03   -0.48051E-05  7480   0.215E-02    0.425E-02
DAV:  13    -0.158325644763E+03   -0.21057E-03   -0.18629E-05  6824   0.131E-02    0.428E-02
DAV:  14    -0.158325803311E+03   -0.15855E-03   -0.26370E-05  4712   0.101E-02    0.587E-03
DAV:  15    -0.158325915247E+03   -0.11194E-03   -0.76150E-06  4952   0.602E-03    0.511E-03
DAV:  16    -0.158326046627E+03   -0.13138E-03   -0.14006E-05  4872   0.571E-03    0.994E-03
DAV:  17    -0.158326137147E+03   -0.90520E-04   -0.10330E-05  5088   0.588E-03    0.443E-03
DAV:  18    -0.158326179306E+03   -0.42159E-04   -0.37062E-06  4280   0.317E-03    0.360E-03
DAV:  19    -0.158326203876E+03   -0.24570E-04   -0.20504E-06  4136   0.306E-03    0.171E-03
DAV:  20    -0.158326216859E+03   -0.12983E-04   -0.98991E-07  4152   0.228E-03    0.149E-03
DAV:  21    -0.158326227414E+03   -0.10555E-04   -0.79545E-07  3960   0.200E-03    0.115E-03
DAV:  22    -0.158326235118E+03   -0.77037E-05   -0.71289E-07  3976   0.175E-03    0.112E-03
DAV:  23    -0.158326237581E+03   -0.24630E-05   -0.20029E-07  4024   0.132E-03    0.596E-04
DAV:  24    -0.158326240042E+03   -0.24616E-05   -0.16463E-07  3824   0.816E-04    0.374E-04
DAV:  25    -0.158326242074E+03   -0.20321E-05   -0.97151E-08  3816   0.867E-04    0.402E-04
DAV:  26    -0.158326243014E+03   -0.93937E-06   -0.51800E-08  3744   0.500E-04
  22 F= -.15832624E+03 E0= -.15832624E+03  d E =-.452845E-01  mag=    24.0000
 curvature: -25.03 expect dE=-0.919E+00 dE for cont linesearch -0.128E-01
 ZBRENT: increasing intervall
 opt :   9.6286  next Energy=  -158.350604 (dE=-0.696E-01)
 bond charge predicted
       N       E                     dE             d eps       ncg     rms          rms(c)
DAV:   1    -0.153972555902E+03    0.43537E+01   -0.10539E+03  5496   0.487E+01    0.303E+01
DAV:   2    -0.206773083413E+03   -0.52801E+02   -0.12187E+02  9056   0.707E+01    0.777E+01
DAV:   3    -0.184743605785E+03    0.22029E+02   -0.66131E+01  7832   0.249E+01    0.342E+01
DAV:   4    -0.167721589010E+03    0.17022E+02   -0.23823E+01  8880   0.335E+01    0.332E+01
DAV:   5    -0.161462664899E+03    0.62589E+01   -0.17734E+01  9136   0.264E+01    0.146E+01
DAV:   6    -0.160524680531E+03    0.93798E+00   -0.26509E+00  8088   0.111E+01    0.116E+01
DAV:   7    -0.159695513009E+03    0.82917E+00   -0.54241E-01  8848   0.650E+00    0.937E+00
DAV:   8    -0.158741130738E+03    0.95438E+00   -0.63251E-01  8520   0.728E+00    0.647E+00
DAV:   9    -0.158494660746E+03    0.24647E+00   -0.40595E-01  8136   0.190E+00    0.486E+00
DAV:  10    -0.158507996215E+03   -0.13335E-01   -0.96910E-02  7936   0.926E-01    0.484E+00
DAV:  11    -0.158333559825E+03    0.17444E+00   -0.19671E+00  9400   0.267E+00    0.657E+00
DAV:  12    -0.158310950192E+03    0.22610E-01   -0.81775E-02  7528   0.615E-01    0.484E+00
DAV:  13    -0.158316301172E+03   -0.53510E-02   -0.47270E-03  7968   0.265E-01    0.480E+00
DAV:  14    -0.158360705308E+03   -0.44404E-01   -0.33695E-02  8040   0.511E-01    0.623E+00
DAV:  15    -0.158352443637E+03    0.82617E-02   -0.75350E-03  8416   0.249E-01    0.560E+00
DAV:  16    -0.158341611965E+03    0.10832E-01   -0.64129E-02  8856   0.755E-01    0.318E+00
DAV:  17    -0.158325932237E+03    0.15680E-01   -0.45703E-02  8616   0.803E-01    0.135E+00
DAV:  18    -0.158322114111E+03    0.38181E-02   -0.59143E-03  7800   0.362E-01    0.115E+00
DAV:  19    -0.158326101643E+03   -0.39875E-02   -0.49966E-03  8712   0.258E-01    0.144E+00
DAV:  20    -0.158328826348E+03   -0.27247E-02   -0.20296E-03  7952   0.233E-01    0.131E+00
DAV:  21    -0.158327711234E+03    0.11151E-02   -0.68976E-03  9192   0.358E-01    0.369E-01
DAV:  22    -0.158333129265E+03   -0.54180E-02   -0.29743E-03  8216   0.158E-01    0.261E-01
DAV:  23    -0.158335701207E+03   -0.25719E-02   -0.24697E-04  6496   0.581E-02    0.203E-01
DAV:  24    -0.158339650499E+03   -0.39493E-02   -0.43910E-04  7880   0.899E-02    0.124E-01
DAV:  25    -0.158342512831E+03   -0.28623E-02   -0.21458E-04  7832   0.462E-02    0.359E-02
DAV:  26    -0.158344218551E+03   -0.17057E-02   -0.58403E-05  7584   0.285E-02    0.225E-02
DAV:  27    -0.158346003370E+03   -0.17848E-02   -0.28099E-05  6928   0.150E-02    0.181E-02
DAV:  28    -0.158347798364E+03   -0.17950E-02   -0.44426E-05  6480   0.172E-02    0.488E-02
DAV:  29    -0.158348936076E+03   -0.11377E-02   -0.45233E-05  6432   0.147E-02    0.800E-03
DAV:  30    -0.158349436913E+03   -0.50084E-03   -0.14128E-05  5888   0.812E-03    0.170E-02
DAV:  31    -0.158349694511E+03   -0.25760E-03   -0.70412E-06  5480   0.523E-03    0.958E-03
DAV:  32    -0.158349806524E+03   -0.11201E-03   -0.33540E-06  4784   0.396E-03    0.322E-03
DAV:  33    -0.158349847795E+03   -0.41272E-04   -0.16686E-06  4320   0.318E-03    0.501E-03
DAV:  34    -0.158349856402E+03   -0.86069E-05   -0.52216E-07  4008   0.293E-03    0.209E-03
DAV:  35    -0.158349861734E+03   -0.53316E-05   -0.36490E-07  3888   0.144E-03    0.107E-03
DAV:  36    -0.158349865473E+03   -0.37390E-05   -0.18031E-07  3736   0.146E-03    0.190E-03
DAV:  37    -0.158349869315E+03   -0.38421E-05   -0.28487E-07  3864   0.142E-03    0.291E-03
DAV:  38    -0.158349870656E+03   -0.13407E-05   -0.11076E-07  3672   0.127E-03    0.963E-04
DAV:  39    -0.158349872346E+03   -0.16899E-05   -0.81127E-08  3640   0.718E-04    0.143E-03
DAV:  40    -0.158349873841E+03   -0.14951E-05   -0.49564E-08  3576   0.699E-04    0.327E-04
DAV:  41    -0.158349874930E+03   -0.10887E-05   -0.44729E-08  3648   0.378E-04    0.452E-04
DAV:  42    -0.158349875409E+03   -0.47910E-06   -0.20193E-08  3488   0.439E-04
  23 F= -.15834988E+03 E0= -.15834985E+03  d E =-.689169E-01  mag=    23.9999
 curvature: -47.73 expect dE=-0.104E+02 dE for cont linesearch -0.343E-02
 ZBRENT: increasing intervall
 opt :  20.1324  next Energy=  -158.329487 (dE=-0.485E-01)
 bond charge predicted
       N       E                     dE             d eps       ncg     rms          rms(c)
DAV:   1    -0.142941407584E+03    0.15408E+02   -0.23880E+03  5680   0.746E+01    0.636E+01
DAV:   2    -0.347276188900E+03   -0.20433E+03   -0.35780E+02  8616   0.142E+02    0.506E+02
DAV:   3    -0.355028525232E+03   -0.77523E+01   -0.31239E+02  8752   0.416E+01    0.643E+02
DAV:   4    -0.356086691599E+03   -0.10582E+01   -0.20136E+01  8848   0.112E+01    0.718E+02
DAV:   5    -0.356301602999E+03   -0.21491E+00   -0.14659E+00  8504   0.237E+00    0.720E+02
DAV:   6    -0.330421434748E+03    0.25880E+02   -0.13631E+01  8104   0.120E+01    0.543E+02
DAV:   7    -0.309502756456E+03    0.20919E+02   -0.13707E+01  8488   0.273E+01    0.498E+02
DAV:   8    -0.250087168644E+03    0.59416E+02   -0.30508E+01  8448   0.245E+01    0.196E+02
DAV:   9    -0.159922528040E+03    0.90165E+02   -0.14819E+02  8328   0.435E+01    0.236E+02
DAV:  10    -0.157860924176E+03    0.20616E+01   -0.40332E+01  8152   0.444E+01    0.224E+02
DAV:  11    -0.155419793845E+03    0.24411E+01   -0.58104E+00  8464   0.145E+01    0.212E+02
DAV:  12    -0.158380155393E+03   -0.29604E+01   -0.18746E+00  8312   0.861E+00    0.180E+02
DAV:  13    -0.158801243096E+03   -0.42109E+00   -0.21239E+00  7920   0.159E+01    0.121E+02
DAV:  14    -0.159295542564E+03   -0.49430E+00   -0.32257E+00  7976   0.136E+01    0.648E+01
DAV:  15    -0.159416824176E+03   -0.12128E+00   -0.10895E+00  8096   0.624E+00    0.384E+01
DAV:  16    -0.159489130242E+03   -0.72306E-01   -0.29468E-01  8496   0.367E+00    0.244E+01
DAV:  17    -0.159361451841E+03    0.12768E+00   -0.18976E-01  8944   0.331E+00    0.157E+01
DAV:  18    -0.159005222612E+03    0.35623E+00   -0.25670E-01  8728   0.363E+00    0.149E+01
DAV:  19    -0.158549008708E+03    0.45621E+00   -0.43596E-01  8752   0.462E+00    0.193E+01
DAV:  20    -0.158550185072E+03   -0.11764E-02   -0.11019E-01  7936   0.134E+00    0.167E+01
DAV:  21    -0.158398129642E+03    0.15206E+00   -0.49666E-01  9368   0.184E+00    0.151E+01
DAV:  22    -0.158406203346E+03   -0.80737E-02   -0.35054E-02  7896   0.650E-01    0.133E+01
DAV:  23    -0.158404031850E+03    0.21715E-02   -0.86035E-02  9016   0.828E-01    0.118E+01
DAV:  24    -0.158404572148E+03   -0.54030E-03   -0.38017E-02  8000   0.107E+00    0.881E+00
DAV:  25    -0.158360996130E+03    0.43576E-01   -0.56642E-02  9000   0.153E+00    0.547E+00
DAV:  26    -0.158366519988E+03   -0.55239E-02   -0.20914E-02  7040   0.411E-01    0.569E+00
DAV:  27    -0.158355820259E+03    0.10700E-01   -0.14208E-02  8624   0.510E-01    0.459E+00
DAV:  28    -0.158349401078E+03    0.64192E-02   -0.22334E-02  8512   0.898E-01    0.193E+00
DAV:  29    -0.158362715666E+03   -0.13315E-01   -0.67351E-03  7800   0.334E-01    0.133E+00
DAV:  30    -0.158376222755E+03   -0.13507E-01   -0.14097E-03  7896   0.151E-01    0.110E+00
DAV:  31    -0.158393659927E+03   -0.17437E-01   -0.13722E-03  8904   0.210E-01    0.123E+00
DAV:  32    -0.158402070433E+03   -0.84105E-02   -0.48656E-04  7352   0.661E-02    0.129E+00
DAV:  33    -0.158409248508E+03   -0.71781E-02   -0.79765E-05  6936   0.316E-02    0.126E+00
DAV:  34    -0.158418097061E+03   -0.88486E-02   -0.17950E-04  7552   0.443E-02    0.115E+00
DAV:  35    -0.158421297111E+03   -0.32000E-02   -0.61023E-05  7984   0.260E-02    0.107E+00
DAV:  36    -0.158424135666E+03   -0.28386E-02   -0.31027E-05  6936   0.207E-02    0.102E+00
DAV:  37    -0.158427460670E+03   -0.33250E-02   -0.74224E-05  7504   0.342E-02    0.945E-01
DAV:  38    -0.158428948549E+03   -0.14879E-02   -0.47477E-05  7728   0.290E-02    0.916E-01
DAV:  39    -0.158430342165E+03   -0.13936E-02   -0.43973E-05  7232   0.186E-02    0.789E-01
DAV:  40    -0.158430813218E+03   -0.47105E-03   -0.26302E-05  6512   0.204E-02    0.678E-01
DAV:  41    -0.158431372128E+03   -0.55891E-03   -0.22864E-05  6616   0.138E-02    0.479E-01
DAV:  42    -0.158431522055E+03   -0.14993E-03   -0.31369E-05  7064   0.168E-02    0.250E-01
DAV:  43    -0.158431396811E+03    0.12524E-03   -0.11571E-05  6416   0.141E-02    0.189E-01
DAV:  44    -0.158431484496E+03   -0.87685E-04   -0.56541E-06  5560   0.103E-02    0.206E-01
DAV:  45    -0.158431561267E+03   -0.76770E-04   -0.74069E-06  5520   0.828E-03    0.224E-01
DAV:  46    -0.158431568637E+03   -0.73706E-05   -0.15174E-06  4264   0.597E-03    0.213E-01
DAV:  47    -0.158430859639E+03    0.70900E-03   -0.85611E-05  6936   0.282E-02    0.603E-02
DAV:  48    -0.158431060180E+03   -0.20054E-03   -0.11068E-05  4936   0.158E-02    0.152E-02
DAV:  49    -0.158431228957E+03   -0.16878E-03   -0.31133E-06  4720   0.579E-03    0.124E-02
DAV:  50    -0.158431352560E+03   -0.12360E-03   -0.19558E-06  4352   0.465E-03    0.119E-02
DAV:  51    -0.158431511739E+03   -0.15918E-03   -0.44696E-06  5232   0.494E-03    0.188E-02
DAV:  52    -0.158431512136E+03   -0.39780E-06   -0.70391E-07  3888   0.766E-03
  24 F= -.15843151E+03 E0= -.15843151E+03  d E =-.150554E+00  mag=    24.0017
 curvature: 283.49 expect dE= 0.176E+03 dE for cont linesearch  0.110E+00
 ZBRENT: increasing intervall
 opt :  41.1402  next Energy=  -158.655225 (dE=-0.374E+00)
 bond charge predicted
       N       E                     dE             d eps       ncg     rms          rms(c)
DAV:   1    -0.124828602621E+03    0.33603E+02   -0.42402E+03  5664   0.109E+02    0.819E+01
DAV:   2    -0.353595453464E+03   -0.22877E+03   -0.70082E+02  8664   0.196E+02    0.289E+02
DAV:   3    -0.335162112264E+03    0.18433E+02   -0.41377E+02  9488   0.525E+01    0.329E+02
DAV:   4    -0.332375107024E+03    0.27870E+01   -0.75000E+01 10080   0.193E+01    0.703E+02
DAV:   5    -0.298338656407E+03    0.34036E+02   -0.22629E+01  8944   0.209E+01    0.546E+02
DAV:   6    -0.307507287250E+03   -0.91686E+01   -0.12628E+01  9480   0.188E+01    0.450E+02
DAV:   7    -0.279582629746E+03    0.27925E+02   -0.11644E+01  9168   0.313E+01    0.279E+02
DAV:   8    -0.279101901742E+03    0.48073E+00   -0.51576E+01  9896   0.613E+01    0.148E+02
DAV:   9    -0.194752504531E+03    0.84349E+02   -0.10714E+02  8824   0.100E+02    0.963E+01
DAV:  10    -0.178344474117E+03    0.16408E+02   -0.15217E+02  8600   0.866E+01    0.661E+01
DAV:  11    -0.160386241563E+03    0.17958E+02   -0.20035E+01  9080   0.354E+01    0.488E+01
DAV:  12    -0.162422510721E+03   -0.20363E+01   -0.49001E+00  8416   0.114E+01    0.439E+01
DAV:  13    -0.162345876361E+03    0.76634E-01   -0.10494E+00  9072   0.825E+00    0.428E+01
DAV:  14    -0.160676986142E+03    0.16689E+01   -0.10535E+00  8688   0.112E+01    0.447E+01
DAV:  15    -0.159132435818E+03    0.15446E+01   -0.13093E+00  8984   0.114E+01    0.496E+01
DAV:  16    -0.158136905255E+03    0.99553E+00   -0.63981E-01  9312   0.750E+00    0.590E+01
DAV:  17    -0.157665830566E+03    0.47107E+00   -0.30839E-01  9904   0.341E+00    0.710E+01
DAV:  18    -0.157865244208E+03   -0.19941E+00   -0.12282E-01  8352   0.208E+00    0.608E+01
DAV:  19    -0.157295669251E+03    0.56957E+00   -0.37802E-01  8512   0.663E+00    0.412E+01
DAV:  20    -0.157221280309E+03    0.74389E-01   -0.19066E-01  8128   0.265E+00    0.263E+01
DAV:  21    -0.156718496460E+03    0.50278E+00   -0.25447E-01  9728   0.545E+00    0.139E+01
DAV:  22    -0.156520215510E+03    0.19828E+00   -0.52132E-01  9672   0.432E+00    0.460E+00
DAV:  23    -0.156605416257E+03   -0.85201E-01   -0.22469E-01  8072   0.182E+00    0.479E+00
DAV:  24    -0.156708366621E+03   -0.10295E+00   -0.11914E+00  8928   0.368E+00    0.805E+00
DAV:  25    -0.156695142449E+03    0.13224E-01   -0.54609E-02  6512   0.518E-01    0.849E+00
DAV:  26    -0.156931735932E+03   -0.23659E+00   -0.48796E-01  8416   0.130E+00    0.142E+01
DAV:  27    -0.156957435017E+03   -0.25699E-01   -0.24994E-02  7376   0.314E-01    0.154E+01
DAV:  28    -0.156951693649E+03    0.57414E-02   -0.36279E-03  8336   0.209E-01    0.162E+01
DAV:  29    -0.156993179860E+03   -0.41486E-01   -0.91222E-03  6808   0.148E-01    0.163E+01
DAV:  30    -0.156960996795E+03    0.32183E-01   -0.60348E-03  6800   0.137E-01    0.158E+01
DAV:  31    -0.156953594072E+03    0.74027E-02   -0.33695E-04  6712   0.541E-02    0.157E+01
DAV:  32    -0.157334860421E+03   -0.38127E+00   -0.10676E+00  8368   0.104E+00    0.270E+01
DAV:  33    -0.157330982649E+03    0.38778E-02   -0.24508E-02  6904   0.610E-01    0.259E+01
DAV:  34    -0.157138797493E+03    0.19219E+00   -0.76883E-02  8848   0.639E-01    0.206E+01
DAV:  35    -0.156910958338E+03    0.22784E+00   -0.21469E-01  8920   0.109E+00    0.123E+01
DAV:  36    -0.156688347411E+03    0.22261E+00   -0.49729E-01  8864   0.147E+00    0.490E+00
DAV:  37    -0.156698991135E+03   -0.10644E-01   -0.37549E-02  8080   0.435E-01    0.395E+00
DAV:  38    -0.156727850080E+03   -0.28859E-01   -0.98942E-03  8496   0.386E-01    0.471E+00
DAV:  39    -0.156746144431E+03   -0.18294E-01   -0.17975E-02  8472   0.593E-01    0.538E+00
DAV:  40    -0.156702935378E+03    0.43209E-01   -0.72621E-02  8320   0.632E-01    0.346E+00
DAV:  41    -0.156705978594E+03   -0.30432E-02   -0.51290E-03  7984   0.259E-01    0.338E+00
DAV:  42    -0.156703144287E+03    0.28343E-02   -0.11264E-03  8296   0.887E-02    0.327E+00
DAV:  43    -0.156706341418E+03   -0.31971E-02   -0.10152E-04  6512   0.396E-02    0.329E+00
DAV:  44    -0.156703002857E+03    0.33386E-02   -0.20036E-04  8080   0.814E-02    0.334E+00
DAV:  45    -0.156698532633E+03    0.44702E-02   -0.55260E-04  8608   0.566E-02    0.322E+00
DAV:  46    -0.156693656717E+03    0.48759E-02   -0.49016E-04  8680   0.791E-02    0.317E+00
DAV:  47    -0.156811622991E+03   -0.11797E+00   -0.28773E+00  8176   0.258E+00    0.150E+01
DAV:  48    -0.156900923011E+03   -0.89300E-01   -0.49946E-02  6616   0.764E-01    0.146E+01
DAV:  49    -0.156874312542E+03    0.26610E-01   -0.41250E-03  6624   0.224E-01    0.144E+01
DAV:  50    -0.156869639905E+03    0.46726E-02   -0.32387E-04  6544   0.686E-02    0.145E+01
DAV:  51    -0.156859630073E+03    0.10010E-01   -0.26194E-04  8136   0.737E-02    0.144E+01
DAV:  52    -0.156627165715E+03    0.23246E+00   -0.93591E-02  8448   0.153E+00    0.119E+01
DAV:  53    -0.156591225715E+03    0.35940E-01   -0.23944E-02  7848   0.492E-01    0.101E+01
DAV:  54    -0.156586389249E+03    0.48365E-02   -0.41525E-02  7768   0.425E-01    0.650E+00
DAV:  55    -0.156543744560E+03    0.42645E-01   -0.50357E-02  7904   0.627E-01    0.394E+00
DAV:  56    -0.156466196713E+03    0.77548E-01   -0.18088E-02  7704   0.534E-01    0.363E+00
DAV:  57    -0.156415679516E+03    0.50517E-01   -0.79907E-03  9160   0.384E-01    0.384E+00
DAV:  58    -0.156421910572E+03   -0.62311E-02   -0.15752E-03  6440   0.124E-01    0.379E+00
DAV:  59    -0.156421265693E+03    0.64488E-03   -0.58962E-05  8048   0.226E-02    0.379E+00
DAV:  60    -0.156422572824E+03   -0.13071E-02   -0.33676E-05  6392   0.253E-02    0.385E+00
DAV:  61    -0.156422188698E+03    0.38413E-03   -0.11920E-03  8768   0.678E-02    0.417E+00
DAV:  62    -0.156408535974E+03    0.13653E-01   -0.30549E-03  8968   0.211E-01    0.445E+00
DAV:  63    -0.156419674181E+03   -0.11138E-01   -0.18026E-03  7992   0.134E-01    0.442E+00
DAV:  64    -0.156432523639E+03   -0.12849E-01   -0.13931E-03  8008   0.146E-01    0.425E+00
DAV:  65    -0.156450285190E+03   -0.17762E-01   -0.33819E-03  8088   0.222E-01    0.383E+00
DAV:  66    -0.156471852575E+03   -0.21567E-01   -0.52155E-03  8496   0.351E-01    0.361E+00
DAV:  67    -0.156417771691E+03    0.54081E-01   -0.15491E-02  8616   0.582E-01    0.333E+00
DAV:  68    -0.156420612693E+03   -0.28410E-02   -0.48732E-03  7752   0.220E-01    0.339E+00
DAV:  69    -0.156400461322E+03    0.20151E-01   -0.70082E-04  6048   0.885E-02    0.333E+00
DAV:  70    -0.156406346681E+03   -0.58854E-02   -0.18557E-04  8560   0.369E-02    0.335E+00
DAV:  71    -0.156404593890E+03    0.17528E-02   -0.44526E-05  8048   0.271E-02    0.332E+00
DAV:  72    -0.156538778579E+03   -0.13418E+00   -0.39681E-02  8312   0.702E-01    0.314E+00
DAV:  73    -0.156546467648E+03   -0.76891E-02   -0.56061E-03  7952   0.165E-01    0.306E+00
DAV:  74    -0.156594335303E+03   -0.47868E-01   -0.11613E-02  8496   0.354E-01    0.288E+00
DAV:  75    -0.156604111477E+03   -0.97762E-02   -0.53140E-03  8176   0.275E-01    0.269E+00
DAV:  76    -0.156598106548E+03    0.60049E-02   -0.26560E-03  8120   0.165E-01    0.256E+00
DAV:  77    -0.156716334273E+03   -0.11823E+00   -0.13773E-01  8424   0.171E+00    0.254E+00
DAV:  78    -0.156703307487E+03    0.13027E-01   -0.20992E-02  7864   0.412E-01    0.208E+00
DAV:  79    -0.156698934707E+03    0.43728E-02   -0.35064E-03  7944   0.188E-01    0.176E+00
DAV:  80    -0.156693533165E+03    0.54015E-02   -0.71761E-03  8416   0.250E-01    0.146E+00
DAV:  81    -0.156682925374E+03    0.10608E-01   -0.15808E-02  8408   0.308E-01    0.148E+00
DAV:  82    -0.156689112171E+03   -0.61868E-02   -0.25062E-03  7728   0.302E-01    0.125E+00
DAV:  83    -0.156693144680E+03   -0.40325E-02   -0.16541E-03  7408   0.127E-01    0.109E+00
DAV:  84    -0.156699045602E+03   -0.59009E-02   -0.11274E-03  7720   0.837E-02    0.975E-01
DAV:  85    -0.156704120168E+03   -0.50746E-02   -0.62085E-04  7120   0.493E-02    0.878E-01
DAV:  86    -0.156717669411E+03   -0.13549E-01   -0.43140E-03  7752   0.139E-01    0.655E-01
DAV:  87    -0.156727547463E+03   -0.98781E-02   -0.53860E-03  8104   0.271E-01    0.359E-01
DAV:  88    -0.156729036222E+03   -0.14888E-02   -0.12997E-03  7960   0.109E-01    0.301E-01
DAV:  89    -0.156729975023E+03   -0.93880E-03   -0.32055E-04  8240   0.513E-02    0.269E-01
DAV:  90    -0.156730472503E+03   -0.49748E-03   -0.25349E-04  7992   0.550E-02    0.187E-01
DAV:  91    -0.156730885461E+03   -0.41296E-03   -0.48750E-04  8504   0.514E-02    0.889E-02
DAV:  92    -0.156731071152E+03   -0.18569E-03   -0.43845E-04  7424   0.361E-02    0.129E-01
DAV:  93    -0.156730847738E+03    0.22341E-03   -0.35145E-04  7472   0.283E-02    0.210E-01
DAV:  94    -0.156730784451E+03    0.63286E-04   -0.94303E-05  6976   0.145E-02    0.250E-01
DAV:  95    -0.156730905676E+03   -0.12122E-03   -0.71246E-06  5528   0.970E-03    0.239E-01
DAV:  96    -0.156731017036E+03   -0.11136E-03   -0.15296E-05  4400   0.881E-03    0.215E-01
DAV:  97    -0.156731134560E+03   -0.11752E-03   -0.30761E-05  6096   0.985E-03    0.184E-01
DAV:  98    -0.156731252076E+03   -0.11752E-03   -0.39790E-05  5864   0.105E-02    0.148E-01
DAV:  99    -0.156731339056E+03   -0.86980E-04   -0.41763E-05  6256   0.112E-02    0.110E-01
DAV: 100    -0.156731399731E+03   -0.60675E-04   -0.38057E-05  5768   0.104E-02
 -----------------------------------------------------------------------------
|                                                                             |
|           W    W    AA    RRRRR   N    N  II  N    N   GGGG   !!!           |
|           W    W   A  A   R    R  NN   N  II  NN   N  G    G  !!!           |
|           W    W  A    A  R    R  N N  N  II  N N  N  G       !!!           |
|           W WW W  AAAAAA  RRRRR   N  N N  II  N  N N  G  GGG   !            |
|           WW  WW  A    A  R   R   N   NN  II  N   NN  G    G                |
|           W    W  A    A  R    R  N    N  II  N    N   GGGG   !!!           |
|                                                                             |
|     The electronic self-consistency was not achieved in the given           |
|     number of steps (NELM). The forces and other quantities evaluated       |
|     might not be reliable so examine the results carefully. If you find     |
|     spurious results, we suggest increasing NELM, if you were close to      |
|     convergence or switching to a different ALGO or adjusting the           |
|     density mixing parameters otherwise.                                    |
|                                                                             |
 -----------------------------------------------------------------------------

  25 F= -.15673140E+03 E0= -.15673140E+03  d E =0.154956E+01  mag=    23.9995
 curvature: ****** expect dE=-0.261E+04 dE for cont linesearch -0.302E+01
 ZBRENT: bracketing found
 ZBRENT: interpolating
 opt :  24.6256  next Energy=  -158.446758 (dE=-0.166E+00)
 bond charge predicted
       N       E                     dE             d eps       ncg     rms          rms(c)
DAV:   1    -0.145947634184E+03    0.10784E+02   -0.29436E+03  6064   0.978E+01    0.802E+01
DAV:   2    -0.428180548441E+03   -0.28223E+03   -0.70296E+02  9192   0.152E+02    0.517E+02
DAV:   3    -0.442706111202E+03   -0.14526E+02   -0.55699E+02  9096   0.567E+01    0.751E+02
DAV:   4    -0.440162899617E+03    0.25432E+01   -0.40050E+01  8752   0.167E+01    0.753E+02
DAV:   5    -0.411302319975E+03    0.28861E+02   -0.24381E+00  8712   0.630E+00    0.755E+02
DAV:   6    -0.316862317497E+03    0.94440E+02   -0.15923E+01  7632   0.154E+01    0.564E+02
DAV:   7    -0.222372762669E+03    0.94490E+02   -0.11208E+02  8696   0.388E+01    0.207E+02
DAV:   8    -0.187504923875E+03    0.34868E+02   -0.50066E+01  8040   0.330E+01    0.157E+02
DAV:   9    -0.189609004273E+03   -0.21041E+01   -0.18937E+01  8832   0.399E+01    0.142E+02
DAV:  10    -0.175050654030E+03    0.14558E+02   -0.29735E+01  8944   0.272E+01    0.106E+02
DAV:  11    -0.169850038427E+03    0.52006E+01   -0.50750E+00  9504   0.160E+01    0.849E+01
DAV:  12    -0.168223365989E+03    0.16267E+01   -0.14099E+00  8664   0.549E+00    0.677E+01
DAV:  13    -0.165344768053E+03    0.28786E+01   -0.10968E+00  8792   0.982E+00    0.437E+01
DAV:  14    -0.162920930961E+03    0.24238E+01   -0.13882E+00  8472   0.130E+01    0.273E+01
DAV:  15    -0.160792304264E+03    0.21286E+01   -0.17611E+00  8456   0.169E+01    0.168E+01
DAV:  16    -0.159078222841E+03    0.17141E+01   -0.17514E+00  9056   0.166E+01    0.134E+01
DAV:  17    -0.158622122601E+03    0.45610E+00   -0.11051E+00  9456   0.510E+00    0.127E+01
DAV:  18    -0.158742009666E+03   -0.11989E+00   -0.30419E-01  8224   0.201E+00    0.113E+01
DAV:  19    -0.158480808640E+03    0.26120E+00   -0.77529E-01  9360   0.353E+00    0.108E+01
DAV:  20    -0.158424420303E+03    0.56388E-01   -0.36510E-01  8640   0.242E+00    0.977E+00
DAV:  21    -0.158368884844E+03    0.55535E-01   -0.15450E-01  8152   0.123E+00    0.690E+00
DAV:  22    -0.158349483896E+03    0.19401E-01   -0.23519E-01  9256   0.178E+00    0.814E+00
DAV:  23    -0.158343194918E+03    0.62890E-02   -0.19205E-02  7456   0.419E-01    0.825E+00
DAV:  24    -0.158341700192E+03    0.14947E-02   -0.10350E-03  6680   0.120E-01    0.838E+00
DAV:  25    -0.158330878884E+03    0.10821E-01   -0.30105E-03  8240   0.169E-01    0.784E+00
DAV:  26    -0.158266281348E+03    0.64598E-01   -0.37011E-01  8712   0.226E+00    0.352E+00
DAV:  27    -0.158292099095E+03   -0.25818E-01   -0.96709E-02  8472   0.128E+00    0.429E+00
DAV:  28    -0.158284243903E+03    0.78552E-02   -0.35059E-02  8160   0.653E-01    0.374E+00
DAV:  29    -0.158298626287E+03   -0.14382E-01   -0.10950E-02  9488   0.491E-01    0.372E+00
DAV:  30    -0.158319862918E+03   -0.21237E-01   -0.13794E-02  9776   0.525E-01    0.401E+00
DAV:  31    -0.158336975325E+03   -0.17112E-01   -0.11832E-02  9120   0.335E-01    0.480E+00
DAV:  32    -0.158346322469E+03   -0.93471E-02   -0.10719E-03  7688   0.133E-01    0.511E+00
DAV:  33    -0.158353833579E+03   -0.75111E-02   -0.19101E-03  8208   0.161E-01    0.529E+00
DAV:  34    -0.158362510096E+03   -0.86765E-02   -0.10612E-03  8192   0.125E-01    0.578E+00
DAV:  35    -0.158366024260E+03   -0.35142E-02   -0.21780E-04  7416   0.476E-02    0.606E+00
DAV:  36    -0.158366811269E+03   -0.78701E-03   -0.12478E-04  8736   0.425E-02    0.616E+00
DAV:  37    -0.158370028792E+03   -0.32175E-02   -0.88073E-05  7904   0.586E-02    0.649E+00
DAV:  38    -0.158370607860E+03   -0.57907E-03   -0.16304E-05  7864   0.154E-02    0.657E+00
DAV:  39    -0.158369844897E+03    0.76296E-03   -0.31884E-06  4776   0.140E-02    0.645E+00
DAV:  40    -0.158367013093E+03    0.28318E-02   -0.14089E-04  8000   0.783E-02    0.571E+00
DAV:  41    -0.158362497083E+03    0.45160E-02   -0.71887E-04  9256   0.145E-01    0.414E+00
DAV:  42    -0.158363224031E+03   -0.72695E-03   -0.42322E-04  8456   0.125E-01    0.285E+00
DAV:  43    -0.158368263173E+03   -0.50391E-02   -0.19586E-04  8432   0.825E-02    0.199E+00
DAV:  44    -0.158375459641E+03   -0.71965E-02   -0.51558E-04  8000   0.778E-02    0.103E+00
DAV:  45    -0.158382164944E+03   -0.67053E-02   -0.11630E-03  8104   0.131E-01    0.545E-01
DAV:  46    -0.158384551737E+03   -0.23868E-02   -0.14484E-04  7344   0.346E-02    0.285E-01
DAV:  47    -0.158385891491E+03   -0.13398E-02   -0.50230E-05  7720   0.437E-02    0.603E-02
DAV:  48    -0.158387103041E+03   -0.12115E-02   -0.41884E-05  6856   0.152E-02    0.521E-02
DAV:  49    -0.158387756630E+03   -0.65359E-03   -0.21846E-05  6312   0.119E-02    0.279E-02
DAV:  50    -0.158388181522E+03   -0.42489E-03   -0.11875E-05  5904   0.706E-03    0.237E-02
DAV:  51    -0.158388358933E+03   -0.17741E-03   -0.33217E-06  5024   0.713E-03    0.169E-02
DAV:  52    -0.158388408040E+03   -0.49107E-04   -0.17623E-06  4336   0.589E-03    0.595E-03
DAV:  53    -0.158388491125E+03   -0.83085E-04   -0.47681E-06  5152   0.726E-03    0.154E-02
DAV:  54    -0.158388530208E+03   -0.39083E-04   -0.19708E-06  4344   0.458E-03    0.102E-02
DAV:  55    -0.158388544026E+03   -0.13819E-04   -0.63482E-07  3936   0.282E-03    0.774E-03
DAV:  56    -0.158388553476E+03   -0.94494E-05   -0.41000E-07  3840   0.215E-03    0.507E-03
DAV:  57    -0.158388558914E+03   -0.54388E-05   -0.33474E-07  3616   0.207E-03    0.143E-03
DAV:  58    -0.158388566772E+03   -0.78576E-05   -0.34050E-07  3928   0.173E-03    0.233E-03
DAV:  59    -0.158388568057E+03   -0.12850E-05   -0.99661E-08  3616   0.132E-03    0.184E-03
DAV:  60    -0.158388570170E+03   -0.21128E-05   -0.70493E-08  3488   0.603E-04    0.172E-03
DAV:  61    -0.158388573562E+03   -0.33925E-05   -0.59801E-08  3712   0.841E-04    0.705E-04
DAV:  62    -0.158388576384E+03   -0.28222E-05   -0.83555E-08  3784   0.536E-04    0.389E-04
DAV:  63    -0.158388577674E+03   -0.12898E-05   -0.34790E-08  3544   0.678E-04    0.276E-04
DAV:  64    -0.158388578508E+03   -0.83340E-06   -0.25488E-08  3528   0.335E-04
  26 F= -.15838858E+03 E0= -.15838857E+03  d E =-.107620E+00  mag=    23.9999
 curvature:  -2.91 expect dE=-0.176E+01 dE for cont linesearch -0.307E-01
 ZBRENT: interpolating
 opt :  20.8551  next Energy=  -158.433964 (dE=-0.153E+00)
 bond charge predicted
       N       E                     dE             d eps       ncg     rms          rms(c)
DAV:   1    -0.157200030840E+03    0.11885E+01   -0.44843E+02  5568   0.324E+01    0.695E+00
DAV:   2    -0.173300920920E+03   -0.16101E+02   -0.10092E+02  9032   0.143E+01    0.755E+01
DAV:   3    -0.158213198179E+03    0.15088E+02   -0.98623E-01  8896   0.711E+00    0.437E+00
DAV:   4    -0.158423137645E+03   -0.20994E+00   -0.76705E-01  7896   0.328E+00    0.326E+00
DAV:   5    -0.158404334568E+03    0.18803E-01   -0.84313E-02  8552   0.145E+00    0.240E+00
DAV:   6    -0.158405810277E+03   -0.14757E-02   -0.17238E-02  8160   0.984E-01    0.179E+00
DAV:   7    -0.158421375044E+03   -0.15565E-01   -0.21439E-02  8088   0.775E-01    0.138E+00
DAV:   8    -0.158425623131E+03   -0.42481E-02   -0.23018E-02  8744   0.938E-01    0.753E-01
DAV:   9    -0.158409727330E+03    0.15896E-01   -0.10911E-02  8696   0.645E-01    0.578E-01
DAV:  10    -0.158398674351E+03    0.11053E-01   -0.54288E-03  8360   0.323E-01    0.419E-01
DAV:  11    -0.158417235351E+03   -0.18561E-01   -0.33245E-03  7888   0.322E-01    0.225E-01
DAV:  12    -0.158425710224E+03   -0.84749E-02   -0.15267E-03  7936   0.151E-01    0.852E-02
DAV:  13    -0.158428135584E+03   -0.24254E-02   -0.40807E-04  7616   0.722E-02    0.494E-02
DAV:  14    -0.158428986521E+03   -0.85094E-03   -0.48670E-05  8040   0.393E-02    0.363E-02
DAV:  15    -0.158430019062E+03   -0.10325E-02   -0.21231E-05  7696   0.213E-02    0.232E-02
DAV:  16    -0.158431445123E+03   -0.14261E-02   -0.19103E-05  7256   0.160E-02    0.157E-02
DAV:  17    -0.158433003268E+03   -0.15581E-02   -0.26665E-05  7232   0.148E-02    0.959E-03
DAV:  18    -0.158433747637E+03   -0.74437E-03   -0.90808E-06  5872   0.682E-03    0.795E-03
DAV:  19    -0.158434305786E+03   -0.55815E-03   -0.53580E-06  5488   0.498E-03    0.589E-03
DAV:  20    -0.158434947905E+03   -0.64212E-03   -0.11825E-05  5872   0.609E-03    0.365E-03
DAV:  21    -0.158435258145E+03   -0.31024E-03   -0.68672E-06  5632   0.439E-03    0.319E-03
DAV:  22    -0.158435364308E+03   -0.10616E-03   -0.24495E-06  4792   0.372E-03    0.245E-03
DAV:  23    -0.158435384860E+03   -0.20552E-04   -0.69757E-07  4200   0.274E-03    0.199E-03
DAV:  24    -0.158435392798E+03   -0.79379E-05   -0.44487E-07  3784   0.173E-03    0.134E-03
DAV:  25    -0.158435398638E+03   -0.58397E-05   -0.32872E-07  3856   0.150E-03    0.884E-04
DAV:  26    -0.158435401650E+03   -0.30121E-05   -0.19293E-07  3656   0.121E-03    0.776E-04
DAV:  27    -0.158435403424E+03   -0.17742E-05   -0.10119E-07  3552   0.102E-03    0.572E-04
DAV:  28    -0.158435404999E+03   -0.15746E-05   -0.60617E-08  3488   0.685E-04    0.389E-04
DAV:  29    -0.158435406213E+03   -0.12142E-05   -0.33855E-08  3536   0.499E-04    0.231E-04
DAV:  30    -0.158435407348E+03   -0.11347E-05   -0.20535E-08  3568   0.414E-04    0.128E-04
DAV:  31    -0.158435408092E+03   -0.74424E-06   -0.13885E-08  3512   0.311E-04
  27 F= -.15843541E+03 E0= -.15843541E+03  d E =-.154450E+00  mag=    24.0000
 curvature:  -0.23 expect dE=-0.145E+00 dE for cont linesearch -0.230E-04
 ZBRENT: interpolating
 opt :  21.5295  next Energy=  -158.436668 (dE=-0.156E+00)
 bond charge predicted
       N       E                     dE             d eps       ncg     rms          rms(c)
DAV:   1    -0.158414737515E+03    0.20670E-01   -0.10640E+01  5472   0.414E+00    0.115E+00
DAV:   2    -0.158487574327E+03   -0.72837E-01   -0.33266E-01  8512   0.194E+00    0.461E+00
DAV:   3    -0.158423803310E+03    0.63771E-01   -0.22911E-01  8480   0.171E+00    0.750E-01
DAV:   4    -0.158435105272E+03   -0.11302E-01   -0.13480E-02  8096   0.623E-01    0.494E-01
DAV:   5    -0.158435286317E+03   -0.18104E-03   -0.36865E-03  8720   0.372E-01    0.255E-01
DAV:   6    -0.158435724953E+03   -0.43864E-03   -0.75270E-04  8352   0.146E-01    0.222E-01
DAV:   7    -0.158435831894E+03   -0.10694E-03   -0.81356E-04  8528   0.105E-01    0.154E-01
DAV:   8    -0.158435958531E+03   -0.12664E-03   -0.19770E-04  8096   0.569E-02    0.426E-02
DAV:   9    -0.158436095016E+03   -0.13648E-03   -0.80766E-05  7632   0.280E-02    0.611E-02
DAV:  10    -0.158436124293E+03   -0.29277E-04   -0.28644E-05  6648   0.241E-02    0.185E-02
DAV:  11    -0.158436174177E+03   -0.49884E-04   -0.62732E-06  4336   0.960E-03    0.162E-02
DAV:  12    -0.158436221020E+03   -0.46843E-04   -0.42788E-06  4488   0.755E-03    0.769E-03
DAV:  13    -0.158436268158E+03   -0.47137E-04   -0.25283E-06  4344   0.539E-03    0.312E-03
DAV:  14    -0.158436294735E+03   -0.26578E-04   -0.93785E-07  3944   0.378E-03    0.282E-03
DAV:  15    -0.158436317078E+03   -0.22342E-04   -0.64833E-07  4016   0.266E-03    0.152E-03
DAV:  16    -0.158436342389E+03   -0.25311E-04   -0.62996E-07  3920   0.219E-03    0.114E-03
DAV:  17    -0.158436359198E+03   -0.16809E-04   -0.44842E-07  4040   0.187E-03    0.127E-03
DAV:  18    -0.158436374507E+03   -0.15309E-04   -0.49226E-07  3920   0.163E-03    0.131E-03
DAV:  19    -0.158436385693E+03   -0.11186E-04   -0.51039E-07  3968   0.163E-03    0.902E-04
DAV:  20    -0.158436390506E+03   -0.48134E-05   -0.33447E-07  3952   0.146E-03    0.643E-04
DAV:  21    -0.158436392505E+03   -0.19990E-05   -0.19010E-07  3720   0.112E-03    0.461E-04
DAV:  22    -0.158436393384E+03   -0.87858E-06   -0.95971E-08  3648   0.890E-04
  28 F= -.15843639E+03 E0= -.15843639E+03  d E =-.155435E+00  mag=    24.0000
 curvature: -12.70 expect dE=-0.794E+01 dE for cont linesearch -0.361E-04
 trial: gam=57.93041 g(F)=  0.625E+00 g(S)=  0.000E+00 ort =-0.581E-03 (trialstep = 0.139E-02)
 search vector abs. value=  0.399E+03
 bond charge predicted
       N       E                     dE             d eps       ncg     rms          rms(c)
DAV:   1    -0.158436922698E+03   -0.53019E-03   -0.15080E-01  5696   0.485E-01    0.134E-01
DAV:   2    -0.158437900892E+03   -0.97819E-03   -0.43595E-03  8920   0.213E-01    0.633E-01
DAV:   3    -0.158436787327E+03    0.11136E-02   -0.25826E-03  8256   0.195E-01    0.794E-02
DAV:   4    -0.158437149807E+03   -0.36248E-03   -0.17431E-04  7736   0.706E-02    0.512E-02
DAV:   5    -0.158437170972E+03   -0.21164E-04   -0.46070E-05  7864   0.436E-02    0.350E-02
DAV:   6    -0.158437171033E+03   -0.60980E-07   -0.96718E-06  6864   0.174E-02
  29 F= -.15843717E+03 E0= -.15843717E+03  d E =-.777649E-03  mag=    24.0000
 ZBRENT: can't locate minimum, use default step
 trial-energy change:   -0.000778  1 .order   -0.000798   -0.000819   -0.000778
 step:   0.0055(harm=  0.0275)  dis= 0.00962  next Energy=  -158.444508 (dE=-0.811E-02)
 bond charge predicted
       N       E                     dE             d eps       ncg     rms          rms(c)
DAV:   1    -0.158436829385E+03    0.34159E-03   -0.13581E+00  5520   0.146E+00    0.412E-01
DAV:   2    -0.158447983560E+03   -0.11154E-01   -0.46087E-02  8968   0.706E-01    0.204E+00
DAV:   3    -0.158436072921E+03    0.11911E-01   -0.29271E-02  8328   0.634E-01    0.228E-01
DAV:   4    -0.158438927348E+03   -0.28544E-02   -0.19360E-03  8112   0.222E-01    0.174E-01
DAV:   5    -0.158439115753E+03   -0.18841E-03   -0.48209E-04  8600   0.139E-01    0.102E-01
DAV:   6    -0.158439159658E+03   -0.43905E-04   -0.10701E-04  8392   0.558E-02    0.101E-01
DAV:   7    -0.158439155398E+03    0.42603E-05   -0.14190E-04  8296   0.436E-02    0.545E-02
DAV:   8    -0.158439193154E+03   -0.37756E-04   -0.24526E-05  6704   0.206E-02    0.188E-02
DAV:   9    -0.158439220616E+03   -0.27462E-04   -0.14891E-05  4600   0.110E-02    0.240E-02
DAV:  10    -0.158439233034E+03   -0.12419E-04   -0.48001E-06  4192   0.104E-02    0.658E-03
DAV:  11    -0.158439248254E+03   -0.15219E-04   -0.12694E-06  3920   0.412E-03    0.733E-03
DAV:  12    -0.158439262864E+03   -0.14610E-04   -0.68305E-07  3800   0.321E-03    0.256E-03
DAV:  13    -0.158439283178E+03   -0.20314E-04   -0.54943E-07  3920   0.214E-03    0.216E-03
DAV:  14    -0.158439293235E+03   -0.10058E-04   -0.27642E-07  3680   0.210E-03    0.938E-04
DAV:  15    -0.158439299976E+03   -0.67408E-05   -0.16783E-07  3584   0.130E-03    0.763E-04
DAV:  16    -0.158439308916E+03   -0.89399E-05   -0.19763E-07  3776   0.117E-03    0.116E-03
DAV:  17    -0.158439316417E+03   -0.75012E-05   -0.20350E-07  3824   0.120E-03    0.638E-04
DAV:  18    -0.158439319954E+03   -0.35363E-05   -0.13448E-07  3696   0.912E-04    0.465E-04
DAV:  19    -0.158439323175E+03   -0.32215E-05   -0.13265E-07  3752   0.794E-04    0.396E-04
DAV:  20    -0.158439324648E+03   -0.14730E-05   -0.81242E-08  3656   0.741E-04    0.287E-04
DAV:  21    -0.158439325380E+03   -0.73156E-06   -0.62040E-08  3496   0.594E-04
  30 F= -.15843933E+03 E0= -.15843932E+03  d E =-.293200E-02  mag=    24.0000
 curvature:  -2.72 expect dE=-0.169E+01 dE for cont linesearch -0.142E-02
 ZBRENT: increasing intervall
 opt :   0.0139  next Energy=  -158.442242 (dE=-0.585E-02)
 bond charge predicted
       N       E                     dE             d eps       ncg     rms          rms(c)
DAV:   1    -0.158431840031E+03    0.74846E-02   -0.54496E+00  5472   0.295E+00    0.822E-01
DAV:   2    -0.158475288442E+03   -0.43448E-01   -0.18866E-01  8752   0.144E+00    0.374E+00
DAV:   3    -0.158433979389E+03    0.41309E-01   -0.12502E-01  8376   0.128E+00    0.458E-01
DAV:   4    -0.158441197626E+03   -0.72182E-02   -0.78008E-03  8080   0.455E-01    0.365E-01
DAV:   5    -0.158441603991E+03   -0.40637E-03   -0.19151E-03  8704   0.277E-01    0.195E-01
DAV:   6    -0.158441811651E+03   -0.20766E-03   -0.42549E-04  8424   0.108E-01    0.200E-01
DAV:   7    -0.158441791154E+03    0.20497E-04   -0.55915E-04  8872   0.875E-02    0.102E-01
DAV:   8    -0.158441884905E+03   -0.93751E-04   -0.90461E-05  7832   0.400E-02    0.366E-02
DAV:   9    -0.158441963541E+03   -0.78636E-04   -0.60471E-05  7160   0.216E-02    0.471E-02
DAV:  10    -0.158441987927E+03   -0.24385E-04   -0.16017E-05  5216   0.186E-02    0.126E-02
DAV:  11    -0.158442026379E+03   -0.38452E-04   -0.45067E-06  4184   0.732E-03    0.150E-02
DAV:  12    -0.158442061190E+03   -0.34812E-04   -0.27607E-06  4048   0.632E-03    0.500E-03
DAV:  13    -0.158442103652E+03   -0.42461E-04   -0.17507E-06  4216   0.395E-03    0.325E-03
DAV:  14    -0.158442122995E+03   -0.19343E-04   -0.68681E-07  3936   0.331E-03    0.183E-03
DAV:  15    -0.158442139809E+03   -0.16814E-04   -0.42525E-07  3792   0.209E-03    0.130E-03
DAV:  16    -0.158442161662E+03   -0.21853E-04   -0.46820E-07  3928   0.183E-03    0.112E-03
DAV:  17    -0.158442177225E+03   -0.15564E-04   -0.38409E-07  3936   0.161E-03    0.114E-03
DAV:  18    -0.158442189086E+03   -0.11861E-04   -0.37180E-07  3824   0.148E-03    0.800E-04
DAV:  19    -0.158442196892E+03   -0.78053E-05   -0.33548E-07  3920   0.136E-03    0.832E-04
DAV:  20    -0.158442201216E+03   -0.43244E-05   -0.27145E-07  3872   0.129E-03    0.603E-04
DAV:  21    -0.158442202928E+03   -0.17120E-05   -0.16328E-07  3792   0.107E-03    0.444E-04
DAV:  22    -0.158442203400E+03   -0.47219E-06   -0.75380E-08  3544   0.788E-04
  31 F= -.15844220E+03 E0= -.15844220E+03  d E =-.581002E-02  mag=    24.0000
 curvature:  -5.60 expect dE=-0.344E+01 dE for cont linesearch -0.746E-03
 ZBRENT: increasing intervall
 opt :   0.0305  next Energy=  -158.442290 (dE=-0.590E-02)
 bond charge predicted
       N       E                     dE             d eps       ncg     rms          rms(c)
DAV:   1    -0.158397141040E+03    0.45062E-01   -0.22133E+01  5472   0.607E+00    0.165E+00
DAV:   2    -0.158561285439E+03   -0.16414E+00   -0.76547E-01  8592   0.302E+00    0.631E+00
DAV:   3    -0.158422335179E+03    0.13895E+00   -0.53188E-01  8472   0.280E+00    0.965E-01
DAV:   4    -0.158438988096E+03   -0.16653E-01   -0.30343E-02  8000   0.917E-01    0.668E-01
DAV:   5    -0.158439393596E+03   -0.40550E-03   -0.74184E-03  8800   0.551E-01    0.453E-01
DAV:   6    -0.158439795007E+03   -0.40141E-03   -0.17466E-03  8208   0.204E-01    0.343E-01
DAV:   7    -0.158439890568E+03   -0.95561E-04   -0.23373E-03  9144   0.168E-01    0.250E-01
DAV:   8    -0.158440040222E+03   -0.14965E-03   -0.50073E-04  8464   0.888E-02    0.574E-02
DAV:   9    -0.158440354391E+03   -0.31417E-03   -0.21755E-04  7640   0.394E-02    0.783E-02
DAV:  10    -0.158440438563E+03   -0.84172E-04   -0.73160E-05  7672   0.384E-02    0.429E-02
DAV:  11    -0.158440553883E+03   -0.11532E-03   -0.13245E-05  5232   0.135E-02    0.336E-02
DAV:  12    -0.158440664545E+03   -0.11066E-03   -0.10485E-05  5160   0.109E-02    0.886E-03
DAV:  13    -0.158440787769E+03   -0.12322E-03   -0.61189E-06  5688   0.665E-03    0.700E-03
DAV:  14    -0.158440867963E+03   -0.80194E-04   -0.13755E-06  4280   0.397E-03    0.391E-03
DAV:  15    -0.158440948575E+03   -0.80612E-04   -0.19485E-06  4208   0.418E-03    0.430E-03
DAV:  16    -0.158440996266E+03   -0.47691E-04   -0.12262E-06  4288   0.336E-03    0.171E-03
DAV:  17    -0.158441043346E+03   -0.47080E-04   -0.16014E-06  4144   0.267E-03    0.176E-03
DAV:  18    -0.158441073772E+03   -0.30427E-04   -0.11027E-06  4176   0.240E-03    0.149E-03
DAV:  19    -0.158441096869E+03   -0.23097E-04   -0.14289E-06  4152   0.253E-03    0.132E-03
DAV:  20    -0.158441101316E+03   -0.44469E-05   -0.45324E-07  3992   0.207E-03    0.711E-04
DAV:  21    -0.158441103108E+03   -0.17919E-05   -0.22918E-07  3544   0.126E-03    0.741E-04
DAV:  22    -0.158441104217E+03   -0.11088E-05   -0.11564E-07  3576   0.112E-03    0.417E-04
DAV:  23    -0.158441106322E+03   -0.21051E-05   -0.15308E-07  3816   0.699E-04    0.303E-04
DAV:  24    -0.158441107588E+03   -0.12662E-05   -0.96675E-08  3864   0.804E-04    0.353E-04
DAV:  25    -0.158441107718E+03   -0.13027E-06   -0.29579E-08  3560   0.469E-04
  32 F= -.15844111E+03 E0= -.15844110E+03  d E =-.471433E-02  mag=    24.0000
 curvature:  -0.65 expect dE=-0.388E+00 dE for cont linesearch -0.247E-03
 ZBRENT: bracketing found
 ZBRENT: interpolating
 opt :   0.0200  next Energy=  -158.442918 (dE=-0.652E-02)
 bond charge predicted
       N       E                     dE             d eps       ncg     rms          rms(c)
DAV:   1    -0.158426890179E+03    0.14217E-01   -0.86100E+00  5504   0.375E+00    0.980E-01
DAV:   2    -0.158473531534E+03   -0.46641E-01   -0.23302E-01  8896   0.139E+00    0.434E+00
DAV:   3    -0.158433075462E+03    0.40456E-01   -0.12452E-01  8064   0.146E+00    0.907E-01
DAV:   4    -0.158442298133E+03   -0.92227E-02   -0.12604E-02  7968   0.540E-01    0.419E-01
DAV:   5    -0.158442591344E+03   -0.29321E-03   -0.18417E-03  8304   0.287E-01    0.454E-01
DAV:   6    -0.158442191258E+03    0.40009E-03   -0.10311E-03  9240   0.160E-01    0.170E-01
DAV:   7    -0.158442409711E+03   -0.21845E-03   -0.54819E-04  8504   0.756E-02    0.107E-01
DAV:   8    -0.158442528410E+03   -0.11870E-03   -0.16969E-04  7560   0.449E-02    0.321E-02
DAV:   9    -0.158442593233E+03   -0.64823E-04   -0.23204E-05  7152   0.196E-02    0.218E-02
DAV:  10    -0.158442646279E+03   -0.53046E-04   -0.80590E-06  4672   0.130E-02    0.325E-02
DAV:  11    -0.158442709219E+03   -0.62940E-04   -0.36030E-06  4672   0.869E-03    0.209E-02
DAV:  12    -0.158442766391E+03   -0.57172E-04   -0.36056E-06  4584   0.667E-03    0.501E-03
DAV:  13    -0.158442822977E+03   -0.56586E-04   -0.18225E-06  4288   0.499E-03    0.363E-03
DAV:  14    -0.158442858985E+03   -0.36008E-04   -0.88706E-07  3952   0.339E-03    0.205E-03
DAV:  15    -0.158442892690E+03   -0.33705E-04   -0.61872E-07  3856   0.261E-03    0.166E-03
DAV:  16    -0.158442922580E+03   -0.29890E-04   -0.50300E-07  3872   0.236E-03    0.150E-03
DAV:  17    -0.158442941884E+03   -0.19303E-04   -0.39569E-07  3840   0.183E-03    0.990E-04
DAV:  18    -0.158442961374E+03   -0.19490E-04   -0.46368E-07  3832   0.178E-03    0.118E-03
DAV:  19    -0.158442974270E+03   -0.12896E-04   -0.45650E-07  3888   0.152E-03    0.639E-04
DAV:  20    -0.158442978215E+03   -0.39453E-05   -0.23051E-07  3680   0.142E-03    0.599E-04
DAV:  21    -0.158442980472E+03   -0.22566E-05   -0.15537E-07  3632   0.104E-03    0.386E-04
DAV:  22    -0.158442982160E+03   -0.16878E-05   -0.12007E-07  3672   0.912E-04    0.296E-04
DAV:  23    -0.158442982874E+03   -0.71380E-06   -0.73965E-08  3520   0.714E-04
  33 F= -.15844298E+03 E0= -.15844298E+03  d E =-.658949E-02  mag=    24.0000
 curvature:  -1.89 expect dE=-0.115E+01 dE for cont linesearch -0.747E-06
 trial: gam=-0.01065 g(F)=  0.607E+00 g(S)=  0.000E+00 ort = 0.126E-01 (trialstep = 0.512E-02)
 search vector abs. value=  0.652E+00
 bond charge predicted
       N       E                     dE             d eps       ncg     rms          rms(c)
DAV:   1    -0.158446072036E+03   -0.30899E-02   -0.18681E-03  5864   0.852E-02    0.287E-02
DAV:   2    -0.158446078610E+03   -0.65734E-05   -0.94125E-05  7784   0.317E-02    0.336E-02
DAV:   3    -0.158446103196E+03   -0.24587E-04   -0.96410E-05  6520   0.366E-02    0.101E-01
DAV:   4    -0.158446069679E+03    0.33518E-04   -0.51256E-05  5200   0.291E-02    0.957E-03
DAV:   5    -0.158446082026E+03   -0.12347E-04   -0.27145E-06  3792   0.677E-03    0.730E-03
DAV:   6    -0.158446083652E+03   -0.16261E-05   -0.81515E-07  3584   0.479E-03    0.451E-03
DAV:   7    -0.158446083834E+03   -0.18210E-06   -0.10415E-06  3360   0.327E-03
  34 F= -.15844608E+03 E0= -.15844608E+03  d E =-.310096E-02  mag=    24.0000
 ZBRENT: can't locate minimum, use default step
 trial-energy change:   -0.003101  1 .order   -0.003103   -0.003105   -0.003100
 step:   0.0205(harm=  2.8894)  dis= 0.00116  next Energy=  -159.319526 (dE=-0.877E+00)
 bond charge predicted
       N       E                     dE             d eps       ncg     rms          rms(c)
DAV:   1    -0.158455224854E+03   -0.91412E-02   -0.16730E-02  5760   0.255E-01    0.859E-02
DAV:   2    -0.158455310707E+03   -0.85853E-04   -0.85014E-04  7784   0.955E-02    0.100E-01
DAV:   3    -0.158455512581E+03   -0.20187E-03   -0.87617E-04  7664   0.109E-01    0.304E-01
DAV:   4    -0.158455246459E+03    0.26612E-03   -0.46383E-04  7824   0.864E-02    0.280E-02
DAV:   5    -0.158455322053E+03   -0.75594E-04   -0.23768E-05  6312   0.186E-02    0.219E-02
DAV:   6    -0.158455328984E+03   -0.69312E-05   -0.46383E-06  4808   0.121E-02    0.131E-02
DAV:   7    -0.158455329146E+03   -0.16211E-06   -0.60004E-06  5960   0.816E-03
  35 F= -.15845533E+03 E0= -.15845533E+03  d E =-.123463E-01  mag=    24.0000
 curvature:  -0.02 expect dE=-0.980E-02 dE for cont linesearch -0.912E-02
 ZBRENT: increasing intervall
 opt :   0.0512  next Energy=  -158.473611 (dE=-0.306E-01)
 bond charge predicted
       N       E                     dE             d eps       ncg     rms          rms(c)
DAV:   1    -0.158473160992E+03   -0.17832E-01   -0.67237E-02  5688   0.512E-01    0.172E-01
DAV:   2    -0.158473545394E+03   -0.38440E-03   -0.33797E-03  7768   0.192E-01    0.191E-01
DAV:   3    -0.158474333060E+03   -0.78767E-03   -0.34400E-03  7688   0.215E-01    0.611E-01
DAV:   4    -0.158473306348E+03    0.10267E-02   -0.18410E-03  8080   0.172E-01    0.566E-02
DAV:   5    -0.158473567218E+03   -0.26087E-03   -0.97572E-05  7904   0.385E-02    0.436E-02
DAV:   6    -0.158473587278E+03   -0.20060E-04   -0.17886E-05  7480   0.220E-02    0.254E-02
DAV:   7    -0.158473589292E+03   -0.20138E-05   -0.13165E-05  7816   0.143E-02    0.206E-02
DAV:   8    -0.158473593676E+03   -0.43835E-05   -0.56405E-06  4720   0.116E-02    0.966E-03
DAV:   9    -0.158473599795E+03   -0.61192E-05   -0.12029E-06  3704   0.444E-03    0.444E-03
DAV:  10    -0.158473604091E+03   -0.42958E-05   -0.52377E-07  3624   0.243E-03    0.254E-03
DAV:  11    -0.158473606758E+03   -0.26678E-05   -0.21109E-07  3440   0.239E-03    0.178E-03
DAV:  12    -0.158473608578E+03   -0.18199E-05   -0.10537E-07  3408   0.115E-03    0.140E-03
DAV:  13    -0.158473610346E+03   -0.17674E-05   -0.55708E-08  3440   0.111E-03    0.132E-03
DAV:  14    -0.158473612881E+03   -0.25355E-05   -0.57386E-08  3376   0.757E-04    0.768E-04
DAV:  15    -0.158473614814E+03   -0.19329E-05   -0.45663E-08  3440   0.690E-04    0.482E-04
DAV:  16    -0.158473615903E+03   -0.10885E-05   -0.26514E-08  3456   0.577E-04    0.371E-04
DAV:  17    -0.158473616949E+03   -0.10468E-05   -0.21207E-08  3408   0.426E-04    0.238E-04
DAV:  18    -0.158473617864E+03   -0.91468E-06   -0.17667E-08  3432   0.375E-04
  36 F= -.15847362E+03 E0= -.15847362E+03  d E =-.306350E-01  mag=    24.0000
 curvature:  -0.03 expect dE=-0.190E-01 dE for cont linesearch -0.177E-01
 ZBRENT: increasing intervall
 opt :   0.1126  next Energy=  -158.509274 (dE=-0.663E-01)
 bond charge predicted
       N       E                     dE             d eps       ncg     rms          rms(c)
DAV:   1    -0.158507469568E+03   -0.33853E-01   -0.26897E-01  5488   0.102E+00    0.345E-01
DAV:   2    -0.158509223207E+03   -0.17536E-02   -0.13735E-02  7752   0.389E-01    0.416E-01
DAV:   3    -0.158512220778E+03   -0.29976E-02   -0.14888E-02  7600   0.450E-01    0.124E+00
DAV:   4    -0.158508284408E+03    0.39364E-02   -0.73224E-03  8024   0.347E-01    0.117E-01
DAV:   5    -0.158509151962E+03   -0.86755E-03   -0.40085E-04  8104   0.797E-02    0.847E-02
DAV:   6    -0.158509216199E+03   -0.64237E-04   -0.71426E-05  8336   0.430E-02    0.506E-02
DAV:   7    -0.158509220368E+03   -0.41688E-05   -0.50008E-05  7976   0.271E-02    0.404E-02
DAV:   8    -0.158509229869E+03   -0.95012E-05   -0.23681E-05  6976   0.227E-02    0.179E-02
DAV:   9    -0.158509243314E+03   -0.13445E-04   -0.33962E-06  4528   0.728E-03    0.847E-03
DAV:  10    -0.158509253586E+03   -0.10272E-04   -0.10684E-06  3736   0.377E-03    0.391E-03
DAV:  11    -0.158509261328E+03   -0.77429E-05   -0.58621E-07  3632   0.338E-03    0.276E-03
DAV:  12    -0.158509265439E+03   -0.41105E-05   -0.31691E-07  3448   0.257E-03    0.179E-03
DAV:  13    -0.158509269098E+03   -0.36588E-05   -0.20794E-07  3472   0.164E-03    0.195E-03
DAV:  14    -0.158509273096E+03   -0.39983E-05   -0.12850E-07  3376   0.166E-03    0.103E-03
DAV:  15    -0.158509276880E+03   -0.37841E-05   -0.11337E-07  3528   0.938E-04    0.882E-04
DAV:  16    -0.158509278829E+03   -0.19486E-05   -0.51389E-08  3456   0.937E-04    0.501E-04
DAV:  17    -0.158509281812E+03   -0.29828E-05   -0.56591E-08  3384   0.574E-04    0.349E-04
DAV:  18    -0.158509284180E+03   -0.23684E-05   -0.43394E-08  3440   0.600E-04    0.312E-04
DAV:  19    -0.158509286104E+03   -0.19240E-05   -0.43224E-08  3472   0.496E-04    0.263E-04
DAV:  20    -0.158509287970E+03   -0.18662E-05   -0.48448E-08  3552   0.507E-04    0.293E-04
DAV:  21    -0.158509289097E+03   -0.11271E-05   -0.41779E-08  3408   0.503E-04    0.321E-04
DAV:  22    -0.158509289593E+03   -0.49607E-06   -0.28539E-08  3448   0.445E-04
  37 F= -.15850929E+03 E0= -.15850929E+03  d E =-.663067E-01  mag=    24.0000
 curvature:  -0.07 expect dE=-0.359E-01 dE for cont linesearch -0.334E-01
 ZBRENT: increasing intervall
 opt :   0.2354  next Energy=  -158.577059 (dE=-0.134E+00)
 bond charge predicted
       N       E                     dE             d eps       ncg     rms          rms(c)
DAV:   1    -0.158569751993E+03   -0.60463E-01   -0.10758E+00  5496   0.204E+00    0.691E-01
DAV:   2    -0.158577179699E+03   -0.74277E-02   -0.55586E-02  7768   0.796E-01    0.837E-01
DAV:   3    -0.158588987594E+03   -0.11808E-01   -0.63140E-02  7648   0.918E-01    0.250E+00
DAV:   4    -0.158573900187E+03    0.15087E-01   -0.28952E-02  8120   0.695E-01    0.233E-01
DAV:   5    -0.158576633014E+03   -0.27328E-02   -0.16000E-03  8216   0.162E-01    0.170E-01
DAV:   6    -0.158576849926E+03   -0.21691E-03   -0.28338E-04  8456   0.882E-02    0.101E-01
DAV:   7    -0.158576873565E+03   -0.23639E-04   -0.20755E-04  7952   0.526E-02    0.864E-02
DAV:   8    -0.158576897191E+03   -0.23626E-04   -0.99879E-05  8408   0.445E-02    0.324E-02
DAV:   9    -0.158576935727E+03   -0.38536E-04   -0.10939E-05  6440   0.128E-02    0.188E-02
DAV:  10    -0.158576963190E+03   -0.27462E-04   -0.27857E-06  4056   0.668E-03    0.701E-03
DAV:  11    -0.158576984300E+03   -0.21110E-04   -0.19723E-06  4208   0.518E-03    0.425E-03
DAV:  12    -0.158576994154E+03   -0.98540E-05   -0.82970E-07  3512   0.418E-03    0.328E-03
DAV:  13    -0.158577005230E+03   -0.11076E-04   -0.55510E-07  3600   0.285E-03    0.239E-03
DAV:  14    -0.158577017730E+03   -0.12500E-04   -0.42542E-07  3648   0.261E-03    0.165E-03
DAV:  15    -0.158577024477E+03   -0.67465E-05   -0.24898E-07  3456   0.186E-03    0.134E-03
DAV:  16    -0.158577031058E+03   -0.65816E-05   -0.18425E-07  3576   0.133E-03    0.101E-03
DAV:  17    -0.158577040594E+03   -0.95353E-05   -0.21871E-07  3760   0.127E-03    0.929E-04
DAV:  18    -0.158577045108E+03   -0.45138E-05   -0.12670E-07  3472   0.107E-03    0.517E-04
DAV:  19    -0.158577051346E+03   -0.62387E-05   -0.19431E-07  3720   0.925E-04    0.697E-04
DAV:  20    -0.158577053812E+03   -0.24655E-05   -0.95065E-08  3456   0.994E-04    0.348E-04
DAV:  21    -0.158577055828E+03   -0.20160E-05   -0.95858E-08  3464   0.654E-04    0.424E-04
DAV:  22    -0.158577056941E+03   -0.11129E-05   -0.57556E-08  3456   0.716E-04    0.218E-04
DAV:  23    -0.158577057906E+03   -0.96542E-06   -0.59608E-08  3432   0.486E-04
  38 F= -.15857706E+03 E0= -.15857706E+03  d E =-.134075E+00  mag=    24.0000
 curvature:  -0.14 expect dE=-0.638E-01 dE for cont linesearch -0.589E-01
 ZBRENT: increasing intervall
 opt :   0.4811  next Energy=  -158.698324 (dE=-0.255E+00)
 bond charge predicted
       N       E                     dE             d eps       ncg     rms          rms(c)
DAV:   1    -0.158668809493E+03   -0.91753E-01   -0.43016E+00  5472   0.409E+00    0.140E+00
DAV:   2    -0.158700152838E+03   -0.31343E-01   -0.22841E-01  7808   0.167E+00    0.168E+00
DAV:   3    -0.158746490838E+03   -0.46338E-01   -0.28685E-01  7648   0.191E+00    0.503E+00
DAV:   4    -0.158687980914E+03    0.58510E-01   -0.11796E-01  8176   0.140E+00    0.449E-01
DAV:   5    -0.158697128021E+03   -0.91471E-02   -0.62539E-03  8312   0.325E-01    0.341E-01
DAV:   6    -0.158697724508E+03   -0.59649E-03   -0.11529E-03  8440   0.190E-01    0.207E-01
DAV:   7    -0.158697849133E+03   -0.12462E-03   -0.93987E-04  7936   0.107E-01    0.211E-01
DAV:   8    -0.158697872975E+03   -0.23842E-04   -0.51591E-04  8448   0.967E-02    0.586E-02
DAV:   9    -0.158698011116E+03   -0.13814E-03   -0.46633E-05  7800   0.260E-02    0.547E-02
DAV:  10    -0.158698075710E+03   -0.64594E-04   -0.17588E-05  6200   0.166E-02    0.167E-02
DAV:  11    -0.158698130243E+03   -0.54533E-04   -0.48848E-06  5360   0.849E-03    0.760E-03
DAV:  12    -0.158698171748E+03   -0.41505E-04   -0.14466E-06  4072   0.542E-03    0.407E-03
DAV:  13    -0.158698211275E+03   -0.39527E-04   -0.13881E-06  4264   0.452E-03    0.317E-03
DAV:  14    -0.158698238017E+03   -0.26743E-04   -0.99689E-07  3864   0.433E-03    0.420E-03
DAV:  15    -0.158698251690E+03   -0.13673E-04   -0.58594E-07  3456   0.277E-03    0.355E-03
DAV:  16    -0.158698270304E+03   -0.18614E-04   -0.48829E-07  3720   0.219E-03    0.170E-03
DAV:  17    -0.158698296073E+03   -0.25768E-04   -0.70151E-07  4144   0.194E-03    0.140E-03
DAV:  18    -0.158698308977E+03   -0.12904E-04   -0.35541E-07  3672   0.200E-03    0.115E-03
DAV:  19    -0.158698319114E+03   -0.10137E-04   -0.36728E-07  3752   0.132E-03    0.789E-04
DAV:  20    -0.158698329394E+03   -0.10281E-04   -0.35108E-07  3928   0.145E-03    0.610E-04
DAV:  21    -0.158698335279E+03   -0.58849E-05   -0.30763E-07  3672   0.128E-03    0.497E-04
DAV:  22    -0.158698337748E+03   -0.24694E-05   -0.17903E-07  3472   0.119E-03    0.503E-04
DAV:  23    -0.158698339501E+03   -0.17528E-05   -0.13993E-07  3552   0.896E-04    0.351E-04
DAV:  24    -0.158698340968E+03   -0.14666E-05   -0.12013E-07  3648   0.860E-04    0.340E-04
DAV:  25    -0.158698341353E+03   -0.38541E-06   -0.61707E-08  3496   0.700E-04
  39 F= -.15869834E+03 E0= -.15869834E+03  d E =-.255358E+00  mag=    24.0000
 curvature:  -0.28 expect dE=-0.998E-01 dE for cont linesearch -0.886E-01
 ZBRENT: increasing intervall
 opt :   0.9725  next Energy=  -158.884026 (dE=-0.441E+00)
 bond charge predicted
       N       E                     dE             d eps       ncg     rms          rms(c)
DAV:   1    -0.158762672775E+03   -0.64332E-01   -0.17196E+01  5512   0.820E+00    0.285E+00
DAV:   2    -0.158894889131E+03   -0.13222E+00   -0.96194E-01  7880   0.361E+00    0.328E+00
DAV:   3    -0.159074215908E+03   -0.17933E+00   -0.14678E+00  7656   0.405E+00    0.100E+01
DAV:   4    -0.158858570203E+03    0.21565E+00   -0.68180E-01  8144   0.281E+00    0.784E-01
DAV:   5    -0.158881947915E+03   -0.23378E-01   -0.19787E-02  7664   0.456E-01    0.667E-01
DAV:   6    -0.158882420264E+03   -0.47235E-03   -0.46094E-03  8656   0.405E-01    0.468E-01
DAV:   7    -0.158883315133E+03   -0.89487E-03   -0.37680E-03  8040   0.236E-01    0.617E-01
DAV:   8    -0.158882733288E+03    0.58185E-03   -0.38489E-03  8568   0.275E-01    0.122E-01
DAV:   9    -0.158883351857E+03   -0.61857E-03   -0.40430E-04  8232   0.109E-01    0.209E-01
DAV:  10    -0.158883480908E+03   -0.12905E-03   -0.23490E-04  7800   0.627E-02    0.739E-02
DAV:  11    -0.158883640308E+03   -0.15940E-03   -0.69498E-05  8040   0.264E-02    0.274E-02
DAV:  12    -0.158883746025E+03   -0.10572E-03   -0.71655E-06  5504   0.116E-02    0.161E-02
DAV:  13    -0.158883847364E+03   -0.10134E-03   -0.60633E-06  6112   0.882E-03    0.871E-03
DAV:  14    -0.158883950730E+03   -0.10337E-03   -0.31457E-06  5048   0.831E-03    0.123E-02
DAV:  15    -0.158884011034E+03   -0.60303E-04   -0.24810E-06  4384   0.635E-03    0.491E-03
DAV:  16    -0.158884052912E+03   -0.41878E-04   -0.12153E-06  3792   0.385E-03    0.332E-03
DAV:  17    -0.158884105910E+03   -0.52998E-04   -0.13594E-06  4256   0.294E-03    0.235E-03
DAV:  18    -0.158884146555E+03   -0.40645E-04   -0.85126E-07  4040   0.219E-03    0.170E-03
DAV:  19    -0.158884198618E+03   -0.52063E-04   -0.16565E-06  4552   0.265E-03    0.164E-03
DAV:  20    -0.158884230221E+03   -0.31604E-04   -0.98433E-07  4272   0.233E-03    0.168E-03
DAV:  21    -0.158884240921E+03   -0.10700E-04   -0.43779E-07  3744   0.202E-03    0.122E-03
DAV:  22    -0.158884250045E+03   -0.91239E-05   -0.43430E-07  3832   0.153E-03    0.822E-04
DAV:  23    -0.158884256678E+03   -0.66328E-05   -0.34659E-07  3824   0.158E-03    0.698E-04
DAV:  24    -0.158884259940E+03   -0.32628E-05   -0.23734E-07  3560   0.126E-03    0.606E-04
DAV:  25    -0.158884261709E+03   -0.17688E-05   -0.14901E-07  3464   0.109E-03    0.356E-04
DAV:  26    -0.158884263173E+03   -0.14638E-05   -0.11624E-07  3568   0.811E-04    0.387E-04
DAV:  27    -0.158884264268E+03   -0.10950E-05   -0.85925E-08  3560   0.786E-04    0.301E-04
DAV:  28    -0.158884264676E+03   -0.40750E-06   -0.47316E-08  3472   0.565E-04
  40 F= -.15888426E+03 E0= -.15888426E+03  d E =-.441282E+00  mag=    24.0000
 curvature:  -0.58 expect dE=-0.126E+00 dE for cont linesearch -0.816E-01
 ZBRENT: increasing intervall
 opt :   1.9552  next Energy=  -159.030038 (dE=-0.587E+00)
 bond charge predicted
       N       E                     dE             d eps       ncg     rms          rms(c)
DAV:   1    -0.158509698828E+03    0.37457E+00   -0.68860E+01  5600   0.166E+01    0.588E+00
DAV:   2    -0.159060528175E+03   -0.55083E+00   -0.41417E+00  7904   0.777E+00    0.580E+00
DAV:   3    -0.159813737594E+03   -0.75321E+00   -0.77859E+00  7456   0.874E+00    0.276E+01
DAV:   4    -0.158984713949E+03    0.82902E+00   -0.84339E+00  8552   0.529E+00    0.202E+00
DAV:   5    -0.159027002718E+03   -0.42289E-01   -0.76018E-02  7976   0.119E+00    0.162E+00
DAV:   6    -0.159023735070E+03    0.32676E-02   -0.29809E-02  9072   0.808E-01    0.112E+00
DAV:   7    -0.159023923788E+03   -0.18872E-03   -0.10895E-02  8904   0.826E-01    0.980E-01
DAV:   8    -0.159022820806E+03    0.11030E-02   -0.89659E-03  8024   0.392E-01    0.607E-01
DAV:   9    -0.159024785617E+03   -0.19648E-02   -0.29454E-03  8424   0.179E-01    0.293E-01
DAV:  10    -0.159025938315E+03   -0.11527E-02   -0.12336E-03  8104   0.182E-01    0.159E-01
DAV:  11    -0.159026520972E+03   -0.58266E-03   -0.33748E-04  7824   0.725E-02    0.859E-02
DAV:  12    -0.159026903904E+03   -0.38293E-03   -0.84214E-05  8024   0.400E-02    0.559E-02
DAV:  13    -0.159027157645E+03   -0.25374E-03   -0.28007E-05  7888   0.252E-02    0.383E-02
DAV:  14    -0.159027504703E+03   -0.34706E-03   -0.32744E-05  7800   0.251E-02    0.176E-02
DAV:  15    -0.159027705326E+03   -0.20062E-03   -0.81599E-06  6504   0.116E-02    0.110E-02
DAV:  16    -0.159027900613E+03   -0.19529E-03   -0.38759E-06  5008   0.552E-03    0.981E-03
DAV:  17    -0.159028085563E+03   -0.18495E-03   -0.36023E-06  5184   0.640E-03    0.566E-03
DAV:  18    -0.159028215884E+03   -0.13032E-03   -0.35448E-06  5440   0.582E-03    0.279E-03
DAV:  19    -0.159028376818E+03   -0.16093E-03   -0.51265E-06  5344   0.451E-03    0.296E-03
DAV:  20    -0.159028485942E+03   -0.10912E-03   -0.38096E-06  5160   0.343E-03    0.254E-03
DAV:  21    -0.159028525069E+03   -0.39126E-04   -0.10808E-06  4552   0.248E-03    0.168E-03
DAV:  22    -0.159028546266E+03   -0.21197E-04   -0.75592E-07  4136   0.230E-03    0.168E-03
DAV:  23    -0.159028558682E+03   -0.12416E-04   -0.65919E-07  4024   0.235E-03    0.142E-03
DAV:  24    -0.159028563321E+03   -0.46393E-05   -0.34292E-07  3568   0.152E-03    0.916E-04
DAV:  25    -0.159028567771E+03   -0.44494E-05   -0.29591E-07  3712   0.132E-03    0.719E-04
DAV:  26    -0.159028571083E+03   -0.33129E-05   -0.20173E-07  3704   0.138E-03    0.450E-04
DAV:  27    -0.159028572744E+03   -0.16604E-05   -0.16096E-07  3568   0.930E-04    0.384E-04
DAV:  28    -0.159028573327E+03   -0.58292E-06   -0.69716E-08  3480   0.804E-04
  41 F= -.15902857E+03 E0= -.15902857E+03  d E =-.585590E+00  mag=    24.0000
 curvature:  -1.04 expect dE=-0.254E+00 dE for cont linesearch -0.155E-03
 trial: gam= 0.42157 g(F)=  0.243E+00 g(S)=  0.000E+00 ort =-0.985E-02 (trialstep = 0.395E+00)
 search vector abs. value=  0.351E+00
 bond charge predicted
       N       E                     dE             d eps       ncg     rms          rms(c)
DAV:   1    -0.159086755349E+03   -0.58183E-01   -0.73750E+00  5640   0.461E+00    0.133E+00
DAV:   2    -0.159157760432E+03   -0.71005E-01   -0.41213E-01  8416   0.223E+00    0.382E+00
DAV:   3    -0.159116170154E+03    0.41590E-01   -0.27406E-01  7744   0.253E+00    0.186E+00
DAV:   4    -0.159115694043E+03    0.47611E-03   -0.30053E-02  8152   0.863E-01    0.507E-01
DAV:   5    -0.159115669621E+03    0.24423E-04   -0.31762E-03  8568   0.372E-01    0.336E-01
DAV:   6    -0.159115467595E+03    0.20203E-03   -0.13126E-03  8208   0.171E-01    0.256E-01
DAV:   7    -0.159115184283E+03    0.28331E-03   -0.10191E-03  9000   0.126E-01    0.915E-02
DAV:   8    -0.159115284707E+03   -0.10042E-03   -0.17377E-04  8056   0.543E-02    0.314E-02
DAV:   9    -0.159115436721E+03   -0.15201E-03   -0.18429E-05  7424   0.175E-02    0.236E-02
DAV:  10    -0.159115594899E+03   -0.15818E-03   -0.52929E-06  5736   0.114E-02    0.164E-02
DAV:  11    -0.159115777359E+03   -0.18246E-03   -0.67013E-06  6152   0.730E-03    0.722E-03
DAV:  12    -0.159115937495E+03   -0.16014E-03   -0.29663E-06  4952   0.516E-03    0.290E-03
DAV:  13    -0.159116031031E+03   -0.93536E-04   -0.11300E-06  4192   0.419E-03    0.251E-03
DAV:  14    -0.159116129796E+03   -0.98764E-04   -0.17960E-06  4464   0.339E-03    0.248E-03
DAV:  15    -0.159116225057E+03   -0.95262E-04   -0.17219E-06  4344   0.313E-03    0.175E-03
DAV:  16    -0.159116312731E+03   -0.87673E-04   -0.20498E-06  4560   0.278E-03    0.146E-03
DAV:  17    -0.159116363976E+03   -0.51246E-04   -0.12512E-06  4304   0.249E-03    0.110E-03
DAV:  18    -0.159116390349E+03   -0.26373E-04   -0.94986E-07  4128   0.217E-03    0.894E-04
DAV:  19    -0.159116395856E+03   -0.55067E-05   -0.31672E-07  3744   0.188E-03    0.666E-04
DAV:  20    -0.159116401242E+03   -0.53862E-05   -0.27914E-07  3832   0.114E-03    0.497E-04
DAV:  21    -0.159116405114E+03   -0.38718E-05   -0.18630E-07  3824   0.125E-03    0.463E-04
DAV:  22    -0.159116407202E+03   -0.20884E-05   -0.15204E-07  3800   0.869E-04    0.277E-04
DAV:  23    -0.159116408082E+03   -0.88009E-06   -0.78498E-08  3608   0.865E-04
  42 F= -.15911641E+03 E0= -.15911641E+03  d E =-.878348E-01  mag=    24.0000
 ZBRENT: can't locate minimum, use default step
 trial-energy change:   -0.087835  1 .order   -0.087658   -0.094414   -0.080902
 step:   1.5805(harm=  2.7611)  dis= 0.10934  next Energy=  -159.301506 (dE=-0.273E+00)
 bond charge predicted
       N       E                     dE             d eps       ncg     rms          rms(c)
DAV:   1    -0.158991202143E+03    0.12521E+00   -0.67792E+01  5680   0.143E+01    0.437E+00
DAV:   2    -0.159500709945E+03   -0.50951E+00   -0.34778E+00  8680   0.687E+00    0.771E+00
DAV:   3    -0.159413647279E+03    0.87063E-01   -0.40421E+00  8040   0.956E+00    0.851E+00
DAV:   4    -0.159270670270E+03    0.14298E+00   -0.89022E-01  8496   0.401E+00    0.190E+00
DAV:   5    -0.159279387398E+03   -0.87171E-02   -0.52108E-02  8184   0.130E+00    0.145E+00
DAV:   6    -0.159273514124E+03    0.58733E-02   -0.18926E-02  9320   0.860E-01    0.788E-01
DAV:   7    -0.159275932781E+03   -0.24187E-02   -0.11446E-02  7976   0.316E-01    0.892E-01
DAV:   8    -0.159273298589E+03    0.26342E-02   -0.10481E-02  8304   0.467E-01    0.227E-01
DAV:   9    -0.159274370632E+03   -0.10720E-02   -0.11596E-03  7688   0.148E-01    0.850E-02
DAV:  10    -0.159275268781E+03   -0.89815E-03   -0.18811E-04  8040   0.589E-02    0.771E-02
DAV:  11    -0.159276017327E+03   -0.74855E-03   -0.72677E-05  8192   0.401E-02    0.319E-02
DAV:  12    -0.159276646368E+03   -0.62904E-03   -0.26438E-05  7328   0.148E-02    0.204E-02
DAV:  13    -0.159277242975E+03   -0.59661E-03   -0.14750E-05  7008   0.128E-02    0.805E-03
DAV:  14    -0.159277665488E+03   -0.42251E-03   -0.74268E-06  5608   0.678E-03    0.711E-03
DAV:  15    -0.159277980492E+03   -0.31500E-03   -0.52890E-06  5232   0.546E-03    0.408E-03
DAV:  16    -0.159278301927E+03   -0.32143E-03   -0.72271E-06  5672   0.473E-03    0.311E-03
DAV:  17    -0.159278633975E+03   -0.33205E-03   -0.11666E-05  5576   0.486E-03    0.223E-03
DAV:  18    -0.159278772918E+03   -0.13894E-03   -0.56496E-06  5576   0.354E-03    0.137E-03
DAV:  19    -0.159278803394E+03   -0.30476E-04   -0.77876E-07  4272   0.199E-03    0.119E-03
DAV:  20    -0.159278814143E+03   -0.10749E-04   -0.33102E-07  3904   0.160E-03    0.118E-03
DAV:  21    -0.159278824799E+03   -0.10656E-04   -0.44873E-07  4048   0.150E-03    0.720E-04
DAV:  22    -0.159278831680E+03   -0.68813E-05   -0.41870E-07  4072   0.139E-03    0.706E-04
DAV:  23    -0.159278834115E+03   -0.24345E-05   -0.22887E-07  3856   0.129E-03    0.421E-04
DAV:  24    -0.159278835020E+03   -0.90508E-06   -0.11394E-07  3568   0.980E-04
  43 F= -.15927884E+03 E0= -.15927884E+03  d E =-.250262E+00  mag=    24.0000
 curvature:  -1.52 expect dE=-0.146E+00 dE for cont linesearch -0.128E-01
 ZBRENT: extrapolating
 opt :   2.0091  next Energy=  -159.290487 (dE=-0.262E+00)
 bond charge predicted
       N       E                     dE             d eps       ncg     rms          rms(c)
DAV:   1    -0.159246706557E+03    0.32128E-01   -0.87393E+00  5712   0.501E+00    0.150E+00
DAV:   2    -0.159311996396E+03   -0.65290E-01   -0.45920E-01  8424   0.235E+00    0.303E+00
DAV:   3    -0.159297885656E+03    0.14111E-01   -0.33652E-01  7872   0.288E+00    0.265E+00
DAV:   4    -0.159284159713E+03    0.13726E-01   -0.81671E-02  7920   0.138E+00    0.648E-01
DAV:   5    -0.159285094011E+03   -0.93430E-03   -0.58629E-03  8616   0.514E-01    0.549E-01
DAV:   6    -0.159284363270E+03    0.73074E-03   -0.21498E-03  8344   0.229E-01    0.287E-01
DAV:   7    -0.159284509447E+03   -0.14618E-03   -0.13453E-03  8936   0.133E-01    0.104E-01
DAV:   8    -0.159284588137E+03   -0.78690E-04   -0.35503E-04  8192   0.792E-02    0.666E-02
DAV:   9    -0.159284706547E+03   -0.11841E-03   -0.57793E-05  7776   0.336E-02    0.294E-02
DAV:  10    -0.159284840303E+03   -0.13376E-03   -0.99580E-06  6320   0.137E-02    0.173E-02
DAV:  11    -0.159284982747E+03   -0.14244E-03   -0.66149E-06  6160   0.844E-03    0.755E-03
DAV:  12    -0.159285110180E+03   -0.12743E-03   -0.35598E-06  5064   0.461E-03    0.295E-03
DAV:  13    -0.159285187836E+03   -0.77655E-04   -0.11368E-06  4184   0.428E-03    0.249E-03
DAV:  14    -0.159285252179E+03   -0.64344E-04   -0.11866E-06  4096   0.315E-03    0.268E-03
DAV:  15    -0.159285318138E+03   -0.65959E-04   -0.15037E-06  4312   0.297E-03    0.191E-03
DAV:  16    -0.159285390404E+03   -0.72266E-04   -0.22374E-06  4456   0.287E-03    0.166E-03
DAV:  17    -0.159285432024E+03   -0.41620E-04   -0.12765E-06  4256   0.221E-03    0.975E-04
DAV:  18    -0.159285449194E+03   -0.17170E-04   -0.61886E-07  4048   0.201E-03    0.770E-04
DAV:  19    -0.159285456317E+03   -0.71226E-05   -0.35624E-07  3824   0.169E-03    0.612E-04
DAV:  20    -0.159285460874E+03   -0.45572E-05   -0.25774E-07  3760   0.134E-03    0.548E-04
DAV:  21    -0.159285464004E+03   -0.31297E-05   -0.19305E-07  3760   0.112E-03    0.350E-04
DAV:  22    -0.159285466314E+03   -0.23109E-05   -0.17535E-07  3840   0.924E-04    0.325E-04
DAV:  23    -0.159285466936E+03   -0.62116E-06   -0.69458E-08  3456   0.815E-04
  44 F= -.15928547E+03 E0= -.15928547E+03  d E =-.256894E+00  mag=    24.0000
 curvature:  -1.38 expect dE=-0.159E+00 dE for cont linesearch -0.278E-02
 ZBRENT: bracketing found
 ZBRENT: interpolating
 opt :   1.8684  next Energy=  -159.287337 (dE=-0.259E+00)
 bond charge predicted
       N       E                     dE             d eps       ncg     rms          rms(c)
DAV:   1    -0.159282873855E+03    0.25925E-02   -0.94149E-01  5592   0.164E+00    0.466E-01
DAV:   2    -0.159288629605E+03   -0.57558E-02   -0.45795E-02  7960   0.679E-01    0.872E-01
DAV:   3    -0.159288870786E+03   -0.24118E-03   -0.26093E-02  7696   0.826E-01    0.877E-01
DAV:   4    -0.159286926823E+03    0.19440E-02   -0.82892E-03  7664   0.465E-01    0.203E-01
DAV:   5    -0.159287083831E+03   -0.15701E-03   -0.57540E-04  8568   0.146E-01    0.181E-01
DAV:   6    -0.159286965810E+03    0.11802E-03   -0.27139E-04  8312   0.699E-02    0.881E-02
DAV:   7    -0.159287020386E+03   -0.54576E-04   -0.99537E-05  8488   0.319E-02    0.204E-02
DAV:   8    -0.159287039671E+03   -0.19285E-04   -0.10739E-05  6568   0.191E-02    0.159E-02
DAV:   9    -0.159287052687E+03   -0.13016E-04   -0.25619E-06  4568   0.892E-03    0.966E-03
DAV:  10    -0.159287067384E+03   -0.14697E-04   -0.18552E-06  3912   0.529E-03    0.600E-03
DAV:  11    -0.159287083019E+03   -0.15635E-04   -0.10994E-06  3816   0.452E-03    0.316E-03
DAV:  12    -0.159287098693E+03   -0.15674E-04   -0.99061E-07  3680   0.354E-03    0.159E-03
DAV:  13    -0.159287110483E+03   -0.11790E-04   -0.52689E-07  3576   0.284E-03    0.136E-03
DAV:  14    -0.159287119504E+03   -0.90204E-05   -0.25443E-07  3504   0.204E-03    0.981E-04
DAV:  15    -0.159287125385E+03   -0.58808E-05   -0.14109E-07  3488   0.135E-03    0.882E-04
DAV:  16    -0.159287136094E+03   -0.10709E-04   -0.15834E-07  3680   0.114E-03    0.627E-04
DAV:  17    -0.159287146217E+03   -0.10123E-04   -0.18979E-07  3680   0.103E-03    0.514E-04
DAV:  18    -0.159287151592E+03   -0.53752E-05   -0.12732E-07  3560   0.102E-03    0.422E-04
DAV:  19    -0.159287154071E+03   -0.24786E-05   -0.82959E-08  3408   0.788E-04    0.340E-04
DAV:  20    -0.159287156409E+03   -0.23381E-05   -0.75253E-08  3568   0.667E-04    0.273E-04
DAV:  21    -0.159287157520E+03   -0.11114E-05   -0.49204E-08  3424   0.590E-04    0.161E-04
DAV:  22    -0.159287158306E+03   -0.78604E-06   -0.40878E-08  3464   0.461E-04
  45 F= -.15928716E+03 E0= -.15928716E+03  d E =-.258585E+00  mag=    24.0000
 curvature:  -0.93 expect dE=-0.956E-01 dE for cont linesearch -0.111E-04
 trial: gam= 0.17171 g(F)=  0.103E+00 g(S)=  0.000E+00 ort = 0.205E-02 (trialstep = 0.690E+00)
 search vector abs. value=  0.114E+00
 bond charge predicted
       N       E                     dE             d eps       ncg     rms          rms(c)
DAV:   1    -0.159305789751E+03   -0.18632E-01   -0.56500E+00  5472   0.470E+00    0.153E+00
DAV:   2    -0.159348533780E+03   -0.42744E-01   -0.34919E-01  7728   0.206E+00    0.134E+00
DAV:   3    -0.159388757880E+03   -0.40224E-01   -0.24310E-01  8192   0.223E+00    0.393E+00
DAV:   4    -0.159343715027E+03    0.45043E-01   -0.13974E-01  8040   0.168E+00    0.417E-01
DAV:   5    -0.159347331624E+03   -0.36166E-02   -0.55825E-03  8040   0.244E-01    0.381E-01
DAV:   6    -0.159346908609E+03    0.42301E-03   -0.17640E-03  8832   0.255E-01    0.251E-01
DAV:   7    -0.159346980235E+03   -0.71626E-04   -0.15646E-03  8048   0.155E-01    0.294E-01
DAV:   8    -0.159346886217E+03    0.94018E-04   -0.11242E-03  9400   0.138E-01    0.468E-02
DAV:   9    -0.159347084518E+03   -0.19830E-03   -0.10433E-04  8248   0.497E-02    0.277E-02
DAV:  10    -0.159347292310E+03   -0.20779E-03   -0.22010E-05  7384   0.172E-02    0.177E-02
DAV:  11    -0.159347406947E+03   -0.11464E-03   -0.34226E-06  4976   0.110E-02    0.119E-02
DAV:  12    -0.159347545822E+03   -0.13887E-03   -0.49848E-06  5576   0.618E-03    0.779E-03
DAV:  13    -0.159347661885E+03   -0.11606E-03   -0.14052E-06  4184   0.496E-03    0.317E-03
DAV:  14    -0.159347758564E+03   -0.96679E-04   -0.17198E-06  4400   0.381E-03    0.280E-03
DAV:  15    -0.159347830989E+03   -0.72425E-04   -0.11098E-06  4016   0.339E-03    0.184E-03
DAV:  16    -0.159347902685E+03   -0.71697E-04   -0.12487E-06  4176   0.248E-03    0.191E-03
DAV:  17    -0.159347958478E+03   -0.55792E-04   -0.82946E-07  3960   0.250E-03    0.147E-03
DAV:  18    -0.159347995690E+03   -0.37212E-04   -0.73289E-07  4000   0.209E-03    0.122E-03
DAV:  19    -0.159348028415E+03   -0.32725E-04   -0.84483E-07  3992   0.205E-03    0.924E-04
DAV:  20    -0.159348041019E+03   -0.12605E-04   -0.42656E-07  3616   0.189E-03    0.737E-04
DAV:  21    -0.159348053309E+03   -0.12289E-04   -0.60897E-07  3928   0.148E-03    0.539E-04
DAV:  22    -0.159348055608E+03   -0.22990E-05   -0.20802E-07  3488   0.150E-03    0.406E-04
DAV:  23    -0.159348058059E+03   -0.24516E-05   -0.19290E-07  3536   0.820E-04    0.262E-04
DAV:  24    -0.159348059010E+03   -0.95074E-06   -0.91190E-08  3456   0.962E-04
  46 F= -.15934806E+03 E0= -.15934806E+03  d E =-.609007E-01  mag=    24.0000
 trial-energy change:   -0.060901  1 .order   -0.060894   -0.071301   -0.050488
 step:   2.3630(harm=  2.3630)  dis= 0.05817  next Energy=  -159.409288 (dE=-0.122E+00)
 bond charge predicted
       N       E                     dE             d eps       ncg     rms          rms(c)
DAV:   1    -0.159153829625E+03    0.19423E+00   -0.33258E+01  5472   0.115E+01    0.376E+00
DAV:   2    -0.159416713108E+03   -0.26288E+00   -0.21294E+00  7848   0.513E+00    0.324E+00
DAV:   3    -0.159671835316E+03   -0.25512E+00   -0.17488E+00  8040   0.541E+00    0.109E+01
DAV:   4    -0.159392470173E+03    0.27937E+00   -0.13587E+00  8152   0.388E+00    0.119E+00
DAV:   5    -0.159408176851E+03   -0.15707E-01   -0.31987E-02  7760   0.485E-01    0.103E+00
DAV:   6    -0.159404857939E+03    0.33189E-02   -0.10849E-02  8696   0.636E-01    0.586E-01
DAV:   7    -0.159406078877E+03   -0.12209E-02   -0.90188E-03  8600   0.395E-01    0.798E-01
DAV:   8    -0.159405179274E+03    0.89960E-03   -0.63338E-03  9104   0.363E-01    0.268E-01
DAV:   9    -0.159406060391E+03   -0.88112E-03   -0.73925E-04  8576   0.170E-01    0.110E-01
DAV:  10    -0.159406823040E+03   -0.76265E-03   -0.16623E-04  8584   0.576E-02    0.486E-02
DAV:  11    -0.159407267936E+03   -0.44490E-03   -0.40180E-05  7960   0.299E-02    0.306E-02
DAV:  12    -0.159407706972E+03   -0.43904E-03   -0.90100E-06  6472   0.136E-02    0.217E-02
DAV:  13    -0.159408240990E+03   -0.53402E-03   -0.14506E-05  7144   0.114E-02    0.126E-02
DAV:  14    -0.159408641442E+03   -0.40045E-03   -0.86607E-06  6296   0.103E-02    0.111E-02
DAV:  15    -0.159408855453E+03   -0.21401E-03   -0.33211E-06  4728   0.717E-03    0.580E-03
DAV:  16    -0.159409103957E+03   -0.24850E-03   -0.44358E-06  5144   0.456E-03    0.320E-03
DAV:  17    -0.159409366368E+03   -0.26241E-03   -0.43844E-06  5144   0.364E-03    0.253E-03
DAV:  18    -0.159409549419E+03   -0.18305E-03   -0.32261E-06  4944   0.319E-03    0.239E-03
DAV:  19    -0.159409671962E+03   -0.12254E-03   -0.28463E-06  4960   0.313E-03    0.175E-03
DAV:  20    -0.159409720230E+03   -0.48268E-04   -0.11758E-06  4168   0.235E-03    0.109E-03
DAV:  21    -0.159409731806E+03   -0.11576E-04   -0.41202E-07  3656   0.213E-03    0.853E-04
DAV:  22    -0.159409740028E+03   -0.82226E-05   -0.40569E-07  3712   0.146E-03    0.616E-04
DAV:  23    -0.159409745213E+03   -0.51851E-05   -0.25291E-07  3576   0.141E-03    0.651E-04
DAV:  24    -0.159409748394E+03   -0.31806E-05   -0.21125E-07  3544   0.106E-03    0.321E-04
DAV:  25    -0.159409750156E+03   -0.17622E-05   -0.12038E-07  3504   0.100E-03    0.395E-04
DAV:  26    -0.159409751379E+03   -0.12226E-05   -0.93098E-08  3528   0.735E-04    0.225E-04
DAV:  27    -0.159409751937E+03   -0.55810E-06   -0.50168E-08  3448   0.664E-04
  47 F= -.15940975E+03 E0= -.15940975E+03  d E =-.122594E+00  mag=    24.0000
 curvature:  -1.30 expect dE=-0.713E-01 dE for cont linesearch -0.291E-05
 trial: gam= 0.51904 g(F)=  0.547E-01 g(S)=  0.000E+00 ort = 0.504E-03 (trialstep = 0.102E+01)
 search vector abs. value=  0.859E-01
 bond charge predicted
       N       E                     dE             d eps       ncg     rms          rms(c)
DAV:   1    -0.159404582130E+03    0.51692E-02   -0.11436E+01  5472   0.606E+00    0.164E+00
DAV:   2    -0.159475336358E+03   -0.70754E-01   -0.59501E-01  7896   0.299E+00    0.248E+00
DAV:   3    -0.159498938622E+03   -0.23602E-01   -0.41098E-01  8152   0.293E+00    0.410E+00
DAV:   4    -0.159453987924E+03    0.44951E-01   -0.16507E-01  8264   0.185E+00    0.659E-01
DAV:   5    -0.159456806972E+03   -0.28190E-02   -0.72890E-03  8064   0.389E-01    0.540E-01
DAV:   6    -0.159455685531E+03    0.11214E-02   -0.17163E-03  8384   0.189E-01    0.312E-01
DAV:   7    -0.159455526548E+03    0.15898E-03   -0.16092E-03  7912   0.137E-01    0.164E-01
DAV:   8    -0.159455789183E+03   -0.26263E-03   -0.34239E-04  8656   0.867E-02    0.402E-02
DAV:   9    -0.159456055451E+03   -0.26627E-03   -0.65491E-05  7768   0.258E-02    0.248E-02
DAV:  10    -0.159456386739E+03   -0.33129E-03   -0.15337E-05  7656   0.176E-02    0.214E-02
DAV:  11    -0.159456615286E+03   -0.22855E-03   -0.41693E-06  5328   0.706E-03    0.125E-02
DAV:  12    -0.159456918075E+03   -0.30279E-03   -0.69204E-06  6136   0.678E-03    0.519E-03
DAV:  13    -0.159457124704E+03   -0.20663E-03   -0.22567E-06  4456   0.445E-03    0.620E-03
DAV:  14    -0.159457252628E+03   -0.12792E-03   -0.16929E-06  4200   0.507E-03    0.285E-03
DAV:  15    -0.159457395625E+03   -0.14300E-03   -0.27438E-06  4784   0.337E-03    0.235E-03
DAV:  16    -0.159457509280E+03   -0.11366E-03   -0.12915E-06  4176   0.234E-03    0.202E-03
DAV:  17    -0.159457612654E+03   -0.10337E-03   -0.17686E-06  4392   0.260E-03    0.222E-03
DAV:  18    -0.159457676075E+03   -0.63422E-04   -0.11585E-06  4176   0.266E-03    0.154E-03
DAV:  19    -0.159457722937E+03   -0.46861E-04   -0.15049E-06  4256   0.239E-03    0.126E-03
DAV:  20    -0.159457734240E+03   -0.11303E-04   -0.50292E-07  3816   0.208E-03    0.676E-04
DAV:  21    -0.159457739750E+03   -0.55103E-05   -0.38250E-07  3608   0.143E-03    0.566E-04
DAV:  22    -0.159457741003E+03   -0.12524E-05   -0.18415E-07  3488   0.133E-03    0.356E-04
DAV:  23    -0.159457742047E+03   -0.10437E-05   -0.13384E-07  3424   0.799E-04    0.313E-04
DAV:  24    -0.159457742529E+03   -0.48292E-06   -0.69709E-08  3432   0.797E-04
  48 F= -.15945774E+03 E0= -.15945774E+03  d E =-.479906E-01  mag=    24.0000
 trial-energy change:   -0.047991  1 .order   -0.047909   -0.056261   -0.039558
 step:   3.4505(harm=  3.4505)  dis= 0.06588  next Energy=  -159.504503 (dE=-0.948E-01)
 bond charge predicted
       N       E                     dE             d eps       ncg     rms          rms(c)
DAV:   1    -0.159187176693E+03    0.27057E+00   -0.65314E+01  5472   0.147E+01    0.395E+00
DAV:   2    -0.159634574188E+03   -0.44740E+00   -0.36601E+00  8056   0.741E+00    0.584E+00
DAV:   3    -0.159772064135E+03   -0.13749E+00   -0.34760E+00  8224   0.781E+00    0.121E+01
DAV:   4    -0.159493679597E+03    0.27838E+00   -0.19866E+00  8672   0.428E+00    0.217E+00
DAV:   5    -0.159505975549E+03   -0.12296E-01   -0.41526E-02  7904   0.685E-01    0.180E+00
DAV:   6    -0.159495879262E+03    0.10096E-01   -0.14060E-02  9064   0.596E-01    0.968E-01
DAV:   7    -0.159494535389E+03    0.13439E-02   -0.17672E-02  8976   0.528E-01    0.699E-01
DAV:   8    -0.159494404620E+03    0.13077E-03   -0.61708E-03  9016   0.342E-01    0.288E-01
DAV:   9    -0.159495408695E+03   -0.10041E-02   -0.12782E-03  8224   0.197E-01    0.225E-01
DAV:  10    -0.159496703840E+03   -0.12951E-02   -0.29780E-04  8568   0.937E-02    0.176E-01
DAV:  11    -0.159497720723E+03   -0.10169E-02   -0.21336E-04  9104   0.674E-02    0.526E-02
DAV:  12    -0.159498516777E+03   -0.79605E-03   -0.35782E-05  7840   0.229E-02    0.326E-02
DAV:  13    -0.159499437754E+03   -0.92098E-03   -0.16905E-05  7280   0.130E-02    0.153E-02
DAV:  14    -0.159500182286E+03   -0.74453E-03   -0.13086E-05  6752   0.947E-03    0.752E-03
DAV:  15    -0.159500541269E+03   -0.35898E-03   -0.30973E-06  4960   0.513E-03    0.597E-03
DAV:  16    -0.159500958912E+03   -0.41764E-03   -0.59246E-06  5584   0.541E-03    0.452E-03
DAV:  17    -0.159501466614E+03   -0.50770E-03   -0.93085E-06  5576   0.444E-03    0.322E-03
DAV:  18    -0.159501846842E+03   -0.38023E-03   -0.91014E-06  5640   0.405E-03    0.184E-03
DAV:  19    -0.159502017714E+03   -0.17087E-03   -0.53070E-06  5472   0.328E-03    0.109E-03
DAV:  20    -0.159502036573E+03   -0.18860E-04   -0.38049E-07  4032   0.182E-03    0.926E-04
DAV:  21    -0.159502044609E+03   -0.80356E-05   -0.28376E-07  3608   0.152E-03    0.991E-04
DAV:  22    -0.159502048745E+03   -0.41365E-05   -0.24006E-07  3608   0.124E-03    0.589E-04
DAV:  23    -0.159502052378E+03   -0.36326E-05   -0.29382E-07  3912   0.111E-03    0.604E-04
DAV:  24    -0.159502053401E+03   -0.10227E-05   -0.11668E-07  3512   0.119E-03    0.315E-04
DAV:  25    -0.159502054395E+03   -0.99431E-06   -0.84319E-08  3456   0.670E-04
  49 F= -.15950205E+03 E0= -.15950205E+03  d E =-.923025E-01  mag=    24.0000
 curvature:  -2.70 expect dE=-0.155E+00 dE for cont linesearch -0.261E-03
 trial: gam= 1.11134 g(F)=  0.576E-01 g(S)=  0.000E+00 ort =-0.288E-02 (trialstep = 0.824E+00)
 search vector abs. value=  0.157E+00
 bond charge predicted
       N       E                     dE             d eps       ncg     rms          rms(c)
DAV:   1    -0.159491943985E+03    0.10109E-01   -0.17888E+01  5472   0.663E+00    0.156E+00
DAV:   2    -0.159607498745E+03   -0.11555E+00   -0.73198E-01  8440   0.346E+00    0.412E+00
DAV:   3    -0.159540999888E+03    0.66499E-01   -0.52298E-01  8352   0.327E+00    0.169E+00
DAV:   4    -0.159540307043E+03    0.69284E-03   -0.61624E-02  8464   0.126E+00    0.668E-01
DAV:   5    -0.159539674044E+03    0.63300E-03   -0.52785E-03  8224   0.455E-01    0.500E-01
DAV:   6    -0.159538968758E+03    0.70529E-03   -0.11812E-03  8240   0.144E-01    0.375E-01
DAV:   7    -0.159538409530E+03    0.55923E-03   -0.37742E-03  8424   0.224E-01    0.169E-01
DAV:   8    -0.159538807053E+03   -0.39752E-03   -0.51240E-04  7992   0.857E-02    0.532E-02
DAV:   9    -0.159539226220E+03   -0.41917E-03   -0.40990E-05  7592   0.235E-02    0.357E-02
DAV:  10    -0.159539713645E+03   -0.48742E-03   -0.18788E-05  7672   0.172E-02    0.272E-02
DAV:  11    -0.159540169391E+03   -0.45575E-03   -0.13182E-05  6816   0.111E-02    0.846E-03
DAV:  12    -0.159540581940E+03   -0.41255E-03   -0.72656E-06  5800   0.622E-03    0.440E-03
DAV:  13    -0.159540888092E+03   -0.30615E-03   -0.33257E-06  5008   0.500E-03    0.359E-03
DAV:  14    -0.159541184230E+03   -0.29614E-03   -0.46832E-06  5544   0.439E-03    0.275E-03
DAV:  15    -0.159541429642E+03   -0.24541E-03   -0.37689E-06  5040   0.329E-03    0.230E-03
DAV:  16    -0.159541589853E+03   -0.16021E-03   -0.29307E-06  4896   0.301E-03    0.148E-03
DAV:  17    -0.159541679617E+03   -0.89764E-04   -0.20995E-06  4568   0.262E-03    0.119E-03
DAV:  18    -0.159541706586E+03   -0.26969E-04   -0.68891E-07  4008   0.219E-03    0.874E-04
DAV:  19    -0.159541725963E+03   -0.19377E-04   -0.93405E-07  3936   0.190E-03    0.850E-04
DAV:  20    -0.159541729967E+03   -0.40038E-05   -0.45746E-07  3840   0.199E-03    0.568E-04
DAV:  21    -0.159541731023E+03   -0.10565E-05   -0.20365E-07  3544   0.129E-03    0.394E-04
DAV:  22    -0.159541731740E+03   -0.71702E-06   -0.13901E-07  3448   0.994E-04
  50 F= -.15954173E+03 E0= -.15954173E+03  d E =-.396773E-01  mag=    24.0000
 ZBRENT: can't locate minimum, use default step
 trial-energy change:   -0.039677  1 .order   -0.039683   -0.044860   -0.034507
 step:   3.2976(harm=  3.5720)  dis= 0.07045  next Energy=  -159.599241 (dE=-0.972E-01)
 bond charge predicted
       N       E                     dE             d eps       ncg     rms          rms(c)
DAV:   1    -0.159099459179E+03    0.44227E+00   -0.17851E+02  5472   0.222E+01    0.482E+00
DAV:   2    -0.160136226182E+03   -0.10368E+01   -0.77496E+00  8648   0.111E+01    0.929E+00
DAV:   3    -0.159645168861E+03    0.49106E+00   -0.29802E+00  8368   0.137E+01    0.594E+00
DAV:   4    -0.159613771325E+03    0.31398E-01   -0.10867E+00  9248   0.400E+00    0.292E+00
DAV:   5    -0.159595092168E+03    0.18679E-01   -0.68393E-02  8576   0.134E+00    0.173E+00
DAV:   6    -0.159584819689E+03    0.10272E-01   -0.16706E-02  9536   0.585E-01    0.970E-01
DAV:   7    -0.159577404829E+03    0.74149E-02   -0.24825E-02  9088   0.614E-01    0.444E-01
DAV:   8    -0.159579157267E+03   -0.17524E-02   -0.52907E-03  7872   0.281E-01    0.256E-01
DAV:   9    -0.159582198479E+03   -0.30412E-02   -0.58407E-04  8008   0.108E-01    0.155E-01
DAV:  10    -0.159584934992E+03   -0.27365E-02   -0.26384E-04  7776   0.616E-02    0.119E-01
DAV:  11    -0.159587763905E+03   -0.28289E-02   -0.28336E-04  8232   0.591E-02    0.257E-02
DAV:  12    -0.159589826859E+03   -0.20630E-02   -0.66921E-05  7768   0.258E-02    0.228E-02
DAV:  13    -0.159591526894E+03   -0.17000E-02   -0.25489E-05  7368   0.152E-02    0.121E-02
DAV:  14    -0.159593176110E+03   -0.16492E-02   -0.27631E-05  6848   0.127E-02    0.900E-03
DAV:  15    -0.159594495531E+03   -0.13194E-02   -0.24496E-05  5936   0.861E-03    0.663E-03
DAV:  16    -0.159595210514E+03   -0.71498E-03   -0.12306E-05  6048   0.548E-03    0.462E-03
DAV:  17    -0.159595873978E+03   -0.66346E-03   -0.19290E-05  5624   0.614E-03    0.199E-03
DAV:  18    -0.159596067445E+03   -0.19347E-03   -0.84776E-06  5880   0.413E-03    0.136E-03
DAV:  19    -0.159596087890E+03   -0.20445E-04   -0.79332E-07  4296   0.243E-03    0.116E-03
DAV:  20    -0.159596093887E+03   -0.59965E-05   -0.51286E-07  3856   0.216E-03    0.119E-03
DAV:  21    -0.159596096650E+03   -0.27631E-05   -0.29075E-07  3528   0.158E-03    0.550E-04
DAV:  22    -0.159596099222E+03   -0.25720E-05   -0.24937E-07  3616   0.109E-03    0.531E-04
DAV:  23    -0.159596101608E+03   -0.23863E-05   -0.16634E-07  3648   0.106E-03    0.448E-04
DAV:  24    -0.159596103111E+03   -0.15030E-05   -0.10315E-07  3496   0.804E-04    0.374E-04
DAV:  25    -0.159596104513E+03   -0.14024E-05   -0.63671E-08  3488   0.689E-04    0.245E-04
DAV:  26    -0.159596105348E+03   -0.83483E-06   -0.32238E-08  3456   0.486E-04
  51 F= -.15959611E+03 E0= -.15959611E+03  d E =-.940510E-01  mag=    24.0000
 curvature:  -5.11 expect dE=-0.152E+00 dE for cont linesearch -0.116E-03
 trial: gam= 0.22072 g(F)=  0.298E-01 g(S)=  0.000E+00 ort = 0.189E-02 (trialstep = 0.132E+01)
 search vector abs. value=  0.383E-01
 bond charge predicted
       N       E                     dE             d eps       ncg     rms          rms(c)
DAV:   1    -0.159584780634E+03    0.11324E-01   -0.97222E+00  5488   0.545E+00    0.145E+00
DAV:   2    -0.159632648275E+03   -0.47868E-01   -0.36577E-01  7744   0.208E+00    0.192E+00
DAV:   3    -0.159673330162E+03   -0.40682E-01   -0.48062E-01  7648   0.289E+00    0.421E+00
DAV:   4    -0.159621900634E+03    0.51430E-01   -0.22911E-01  7824   0.176E+00    0.381E-01
DAV:   5    -0.159623899764E+03   -0.19991E-02   -0.62991E-03  7808   0.219E-01    0.356E-01
DAV:   6    -0.159623660914E+03    0.23885E-03   -0.28222E-03  9392   0.262E-01    0.228E-01
DAV:   7    -0.159623717447E+03   -0.56533E-04   -0.93229E-04  8160   0.182E-01    0.161E-01
DAV:   8    -0.159623728193E+03   -0.10746E-04   -0.78414E-04  8560   0.138E-01    0.549E-02
DAV:   9    -0.159623804223E+03   -0.76030E-04   -0.71141E-05  8296   0.464E-02    0.283E-02
DAV:  10    -0.159623904115E+03   -0.99892E-04   -0.12446E-05  7056   0.151E-02    0.205E-02
DAV:  11    -0.159623997107E+03   -0.92992E-04   -0.44129E-06  5256   0.106E-02    0.108E-02
DAV:  12    -0.159624098030E+03   -0.10092E-03   -0.55527E-06  5944   0.692E-03    0.403E-03
DAV:  13    -0.159624152849E+03   -0.54819E-04   -0.98607E-07  4184   0.438E-03    0.318E-03
DAV:  14    -0.159624189124E+03   -0.36275E-04   -0.73462E-07  3792   0.361E-03    0.240E-03
DAV:  15    -0.159624226561E+03   -0.37438E-04   -0.89650E-07  4064   0.235E-03    0.224E-03
DAV:  16    -0.159624269452E+03   -0.42891E-04   -0.10447E-06  4080   0.294E-03    0.192E-03
DAV:  17    -0.159624294568E+03   -0.25117E-04   -0.82022E-07  4008   0.217E-03    0.142E-03
DAV:  18    -0.159624314148E+03   -0.19579E-04   -0.75795E-07  3976   0.237E-03    0.120E-03
DAV:  19    -0.159624328077E+03   -0.13930E-04   -0.78027E-07  4008   0.194E-03    0.831E-04
DAV:  20    -0.159624333693E+03   -0.56158E-05   -0.41018E-07  3704   0.187E-03    0.828E-04
DAV:  21    -0.159624336253E+03   -0.25594E-05   -0.23841E-07  3488   0.130E-03    0.375E-04
DAV:  22    -0.159624338518E+03   -0.22653E-05   -0.19267E-07  3536   0.107E-03    0.576E-04
DAV:  23    -0.159624339799E+03   -0.12812E-05   -0.11611E-07  3520   0.936E-04    0.207E-04
DAV:  24    -0.159624340523E+03   -0.72363E-06   -0.67462E-08  3392   0.686E-04
  52 F= -.15962434E+03 E0= -.15962434E+03  d E =-.282352E-01  mag=    24.0000
 trial-energy change:   -0.028235  1 .order   -0.028269   -0.039869   -0.016670
 step:   2.2668(harm=  2.2668)  dis= 0.02537  next Energy=  -159.630363 (dE=-0.343E-01)
 bond charge predicted
       N       E                     dE             d eps       ncg     rms          rms(c)
DAV:   1    -0.159610362944E+03    0.13977E-01   -0.50085E+00  5488   0.391E+00    0.104E+00
DAV:   2    -0.159633538592E+03   -0.23176E-01   -0.17863E-01  7672   0.143E+00    0.130E+00
DAV:   3    -0.159656056077E+03   -0.22517E-01   -0.23455E-01  7664   0.204E+00    0.292E+00
DAV:   4    -0.159629286668E+03    0.26769E-01   -0.10894E-01  7696   0.128E+00    0.276E-01
DAV:   5    -0.159630182123E+03   -0.89545E-03   -0.33764E-03  7856   0.165E-01    0.245E-01
DAV:   6    -0.159630102162E+03    0.79961E-04   -0.13409E-03  9408   0.189E-01    0.167E-01
DAV:   7    -0.159630144888E+03   -0.42725E-04   -0.46619E-04  8088   0.131E-01    0.110E-01
DAV:   8    -0.159630165160E+03   -0.20273E-04   -0.40032E-04  8584   0.973E-02    0.421E-02
DAV:   9    -0.159630211636E+03   -0.46475E-04   -0.38162E-05  7888   0.340E-02    0.206E-02
DAV:  10    -0.159630270219E+03   -0.58583E-04   -0.57193E-06  5664   0.104E-02    0.155E-02
DAV:  11    -0.159630324901E+03   -0.54682E-04   -0.33310E-06  4776   0.866E-03    0.754E-03
DAV:  12    -0.159630379362E+03   -0.54461E-04   -0.28239E-06  4888   0.505E-03    0.279E-03
DAV:  13    -0.159630406008E+03   -0.26646E-04   -0.79850E-07  3720   0.397E-03    0.243E-03
DAV:  14    -0.159630424981E+03   -0.18973E-04   -0.50973E-07  3792   0.295E-03    0.178E-03
DAV:  15    -0.159630444231E+03   -0.19250E-04   -0.47547E-07  3704   0.207E-03    0.165E-03
DAV:  16    -0.159630467984E+03   -0.23753E-04   -0.56438E-07  4048   0.227E-03    0.151E-03
DAV:  17    -0.159630485635E+03   -0.17651E-04   -0.62089E-07  3928   0.174E-03    0.101E-03
DAV:  18    -0.159630494595E+03   -0.89600E-05   -0.34061E-07  3624   0.174E-03    0.726E-04
DAV:  19    -0.159630502013E+03   -0.74179E-05   -0.37541E-07  3776   0.128E-03    0.541E-04
DAV:  20    -0.159630506039E+03   -0.40257E-05   -0.22471E-07  3512   0.130E-03    0.512E-04
DAV:  21    -0.159630509311E+03   -0.32726E-05   -0.24955E-07  3736   0.102E-03    0.351E-04
DAV:  22    -0.159630510628E+03   -0.13161E-05   -0.12499E-07  3496   0.998E-04    0.324E-04
DAV:  23    -0.159630511221E+03   -0.59379E-06   -0.71298E-08  3416   0.651E-04
  53 F= -.15963051E+03 E0= -.15963051E+03  d E =-.344059E-01  mag=    24.0000
 curvature:  -1.44 expect dE=-0.197E-01 dE for cont linesearch -0.684E-05
 trial: gam= 0.47889 g(F)=  0.137E-01 g(S)=  0.000E+00 ort = 0.427E-03 (trialstep = 0.151E+01)
 search vector abs. value=  0.229E-01
 bond charge predicted
       N       E                     dE             d eps       ncg     rms          rms(c)
DAV:   1    -0.159620867163E+03    0.96435E-02   -0.79185E+00  5472   0.477E+00    0.109E+00
DAV:   2    -0.159646590555E+03   -0.25723E-01   -0.25510E-01  7648   0.173E+00    0.983E-01
DAV:   3    -0.159675036969E+03   -0.28446E-01   -0.20793E-01  8208   0.176E+00    0.306E+00
DAV:   4    -0.159645297948E+03    0.29739E-01   -0.11671E-01  7864   0.130E+00    0.321E-01
DAV:   5    -0.159646189172E+03   -0.89122E-03   -0.36498E-03  7824   0.156E-01    0.253E-01
DAV:   6    -0.159646200597E+03   -0.11425E-04   -0.19303E-03  8416   0.183E-01    0.203E-01
DAV:   7    -0.159646208493E+03   -0.78958E-05   -0.59906E-04  8600   0.144E-01    0.119E-01
DAV:   8    -0.159646183232E+03    0.25261E-04   -0.25708E-04  8984   0.995E-02    0.307E-02
DAV:   9    -0.159646228041E+03   -0.44808E-04   -0.27417E-05  7792   0.249E-02    0.244E-02
DAV:  10    -0.159646281305E+03   -0.53264E-04   -0.72893E-06  5680   0.131E-02    0.135E-02
DAV:  11    -0.159646335915E+03   -0.54610E-04   -0.48181E-06  5504   0.829E-03    0.631E-03
DAV:  12    -0.159646380419E+03   -0.44504E-04   -0.13438E-06  4152   0.511E-03    0.291E-03
DAV:  13    -0.159646412038E+03   -0.31619E-04   -0.96084E-07  3872   0.398E-03    0.258E-03
DAV:  14    -0.159646436033E+03   -0.23994E-04   -0.69711E-07  3720   0.321E-03    0.180E-03
DAV:  15    -0.159646457678E+03   -0.21645E-04   -0.53438E-07  3784   0.238E-03    0.159E-03
DAV:  16    -0.159646474215E+03   -0.16537E-04   -0.31219E-07  3632   0.211E-03    0.118E-03
DAV:  17    -0.159646502107E+03   -0.27893E-04   -0.61206E-07  3936   0.162E-03    0.122E-03
DAV:  18    -0.159646520558E+03   -0.18451E-04   -0.42267E-07  3912   0.182E-03    0.716E-04
DAV:  19    -0.159646531349E+03   -0.10791E-04   -0.35882E-07  3632   0.147E-03    0.742E-04
DAV:  20    -0.159646536544E+03   -0.51951E-05   -0.23177E-07  3512   0.134E-03    0.466E-04
DAV:  21    -0.159646540869E+03   -0.43256E-05   -0.21828E-07  3648   0.106E-03    0.536E-04
DAV:  22    -0.159646543780E+03   -0.29107E-05   -0.19393E-07  3632   0.107E-03    0.338E-04
DAV:  23    -0.159646544492E+03   -0.71160E-06   -0.10107E-07  3464   0.909E-04
  54 F= -.15964654E+03 E0= -.15964654E+03  d E =-.160333E-01  mag=    24.0000
 trial-energy change:   -0.016033  1 .order   -0.016056   -0.021012   -0.011099
 step:   3.1978(harm=  3.1978)  dis= 0.02577  next Energy=  -159.652781 (dE=-0.223E-01)
 bond charge predicted
       N       E                     dE             d eps       ncg     rms          rms(c)
DAV:   1    -0.159620423363E+03    0.26120E-01   -0.99394E+00  5472   0.535E+00    0.123E+00
DAV:   2    -0.159653539112E+03   -0.33116E-01   -0.32613E-01  7640   0.196E+00    0.114E+00
DAV:   3    -0.159691193276E+03   -0.37654E-01   -0.28619E-01  8184   0.204E+00    0.362E+00
DAV:   4    -0.159651262396E+03    0.39931E-01   -0.16165E-01  7944   0.148E+00    0.369E-01
DAV:   5    -0.159652414965E+03   -0.11526E-02   -0.46665E-03  7824   0.175E-01    0.281E-01
DAV:   6    -0.159652452125E+03   -0.37161E-04   -0.24717E-03  8368   0.203E-01    0.238E-01
DAV:   7    -0.159652429455E+03    0.22670E-04   -0.80189E-04  8664   0.165E-01    0.135E-01
DAV:   8    -0.159652403050E+03    0.26405E-04   -0.31009E-04  8912   0.111E-01    0.344E-02
DAV:   9    -0.159652459034E+03   -0.55984E-04   -0.33776E-05  7848   0.282E-02    0.255E-02
DAV:  10    -0.159652526280E+03   -0.67247E-04   -0.88813E-06  6296   0.140E-02    0.154E-02
DAV:  11    -0.159652591614E+03   -0.65334E-04   -0.47143E-06  5240   0.897E-03    0.694E-03
DAV:  12    -0.159652649989E+03   -0.58374E-04   -0.22595E-06  4472   0.569E-03    0.327E-03
DAV:  13    -0.159652688519E+03   -0.38530E-04   -0.10491E-06  3992   0.422E-03    0.263E-03
DAV:  14    -0.159652717517E+03   -0.28997E-04   -0.75045E-07  3736   0.331E-03    0.204E-03
DAV:  15    -0.159652748219E+03   -0.30703E-04   -0.66482E-07  3840   0.253E-03    0.177E-03
DAV:  16    -0.159652771551E+03   -0.23332E-04   -0.42290E-07  3704   0.235E-03    0.129E-03
DAV:  17    -0.159652805355E+03   -0.33804E-04   -0.79878E-07  4016   0.181E-03    0.124E-03
DAV:  18    -0.159652822864E+03   -0.17508E-04   -0.37657E-07  3720   0.190E-03    0.742E-04
DAV:  19    -0.159652837713E+03   -0.14850E-04   -0.43917E-07  3800   0.144E-03    0.762E-04
DAV:  20    -0.159652845873E+03   -0.81595E-05   -0.27837E-07  3672   0.148E-03    0.551E-04
DAV:  21    -0.159652851884E+03   -0.60115E-05   -0.29933E-07  3688   0.121E-03    0.609E-04
DAV:  22    -0.159652854680E+03   -0.27956E-05   -0.20156E-07  3600   0.121E-03    0.313E-04
DAV:  23    -0.159652855597E+03   -0.91772E-06   -0.11985E-07  3424   0.907E-04
  55 F= -.15965286E+03 E0= -.15965286E+03  d E =-.223444E-01  mag=    24.0000
 curvature:  -2.63 expect dE=-0.427E-01 dE for cont linesearch -0.170E-05
 trial: gam= 1.18202 g(F)=  0.162E-01 g(S)=  0.000E+00 ort = 0.122E-03 (trialstep = 0.872E+00)
 search vector abs. value=  0.485E-01
 bond charge predicted
       N       E                     dE             d eps       ncg     rms          rms(c)
DAV:   1    -0.159647433658E+03    0.54210E-02   -0.52021E+00  5472   0.387E+00    0.918E-01
DAV:   2    -0.159667150796E+03   -0.19717E-01   -0.19665E-01  7728   0.144E+00    0.906E-01
DAV:   3    -0.159686622892E+03   -0.19472E-01   -0.15750E-01  8296   0.157E+00    0.258E+00
DAV:   4    -0.159664857482E+03    0.21765E-01   -0.98408E-02  7928   0.119E+00    0.272E-01
DAV:   5    -0.159665290578E+03   -0.43310E-03   -0.24268E-03  7736   0.111E-01    0.269E-01
DAV:   6    -0.159664841588E+03    0.44899E-03   -0.18672E-03  8280   0.165E-01    0.151E-01
DAV:   7    -0.159664765777E+03    0.75811E-04   -0.31559E-04  8400   0.663E-02    0.518E-02
DAV:   8    -0.159664852702E+03   -0.86924E-04   -0.58660E-05  7992   0.353E-02    0.278E-02
DAV:   9    -0.159664985791E+03   -0.13309E-03   -0.12543E-05  6152   0.220E-02    0.205E-02
DAV:  10    -0.159665147135E+03   -0.16134E-03   -0.60011E-06  6184   0.157E-02    0.132E-02
DAV:  11    -0.159665338971E+03   -0.19184E-03   -0.49240E-06  5896   0.844E-03    0.656E-03
DAV:  12    -0.159665469914E+03   -0.13094E-03   -0.21020E-06  4488   0.460E-03    0.431E-03
DAV:  13    -0.159665608611E+03   -0.13870E-03   -0.18625E-06  4448   0.426E-03    0.212E-03
DAV:  14    -0.159665702496E+03   -0.93885E-04   -0.10926E-06  4024   0.281E-03    0.189E-03
DAV:  15    -0.159665768885E+03   -0.66388E-04   -0.66303E-07  3840   0.276E-03    0.154E-03
DAV:  16    -0.159665819838E+03   -0.50954E-04   -0.57101E-07  3704   0.200E-03    0.133E-03
DAV:  17    -0.159665906420E+03   -0.86582E-04   -0.12893E-06  4392   0.220E-03    0.126E-03
DAV:  18    -0.159665977309E+03   -0.70888E-04   -0.11760E-06  4192   0.210E-03    0.108E-03
DAV:  19    -0.159666017010E+03   -0.39701E-04   -0.84717E-07  4056   0.206E-03    0.859E-04
DAV:  20    -0.159666030207E+03   -0.13197E-04   -0.46009E-07  3600   0.194E-03    0.684E-04
DAV:  21    -0.159666040186E+03   -0.99791E-05   -0.54171E-07  3944   0.148E-03    0.519E-04
DAV:  22    -0.159666041799E+03   -0.16125E-05   -0.24573E-07  3568   0.155E-03    0.430E-04
DAV:  23    -0.159666041944E+03   -0.14473E-06   -0.11826E-07  3528   0.870E-04
  56 F= -.15966604E+03 E0= -.15966604E+03  d E =-.131863E-01  mag=    24.0000
 ZBRENT: can't locate minimum, use default step
 trial-energy change:   -0.013186  1 .order   -0.013189   -0.014269   -0.012109
 step:   3.4881(harm=  5.7620)  dis= 0.04962  next Energy=  -159.699997 (dE=-0.471E-01)
 bond charge predicted
       N       E                     dE             d eps       ncg     rms          rms(c)
DAV:   1    -0.159512897406E+03    0.15314E+00   -0.47784E+01  5480   0.119E+01    0.282E+00
DAV:   2    -0.159740430383E+03   -0.22753E+00   -0.20687E+00  7768   0.495E+00    0.362E+00
DAV:   3    -0.159907158374E+03   -0.16673E+00   -0.18966E+00  8264   0.577E+00    0.102E+01
DAV:   4    -0.159684566406E+03    0.22259E+00   -0.13628E+00  8200   0.343E+00    0.957E-01
DAV:   5    -0.159690292519E+03   -0.57261E-02   -0.23652E-02  7896   0.486E-01    0.906E-01
DAV:   6    -0.159687498839E+03    0.27937E-02   -0.86829E-03  9016   0.505E-01    0.542E-01
DAV:   7    -0.159686691857E+03    0.80698E-03   -0.74349E-03  9480   0.416E-01    0.469E-01
DAV:   8    -0.159685931943E+03    0.75991E-03   -0.33553E-03  8960   0.221E-01    0.121E-01
DAV:   9    -0.159686497459E+03   -0.56552E-03   -0.23729E-04  8056   0.572E-02    0.105E-01
DAV:  10    -0.159687346057E+03   -0.84860E-03   -0.70596E-05  8680   0.422E-02    0.623E-02
DAV:  11    -0.159688305813E+03   -0.95976E-03   -0.56474E-05  8024   0.240E-02    0.252E-02
DAV:  12    -0.159689015817E+03   -0.71000E-03   -0.15006E-05  7112   0.121E-02    0.159E-02
DAV:  13    -0.159689519127E+03   -0.50331E-03   -0.54255E-06  5568   0.752E-03    0.720E-03
DAV:  14    -0.159690072994E+03   -0.55387E-03   -0.63429E-06  5832   0.570E-03    0.466E-03
DAV:  15    -0.159690450107E+03   -0.37711E-03   -0.25130E-06  5040   0.361E-03    0.348E-03
DAV:  16    -0.159690852493E+03   -0.40239E-03   -0.44813E-06  5400   0.362E-03    0.242E-03
DAV:  17    -0.159691131523E+03   -0.27903E-03   -0.30457E-06  5160   0.314E-03    0.222E-03
DAV:  18    -0.159691338719E+03   -0.20720E-03   -0.28943E-06  5048   0.290E-03    0.156E-03
DAV:  19    -0.159691491388E+03   -0.15267E-03   -0.31874E-06  5088   0.274E-03    0.127E-03
DAV:  20    -0.159691549467E+03   -0.58079E-04   -0.14417E-06  4608   0.221E-03    0.691E-04
DAV:  21    -0.159691556672E+03   -0.72050E-05   -0.31828E-07  3720   0.185E-03    0.537E-04
DAV:  22    -0.159691559027E+03   -0.23549E-05   -0.23131E-07  3560   0.108E-03    0.380E-04
DAV:  23    -0.159691559922E+03   -0.89496E-06   -0.10885E-07  3456   0.105E-03
  57 F= -.15969156E+03 E0= -.15969156E+03  d E =-.387043E-01  mag=    24.0000
 curvature:  -6.70 expect dE=-0.854E-01 dE for cont linesearch -0.398E-02
 ZBRENT: increasing intervall
 opt :   8.7202  next Energy=  -159.675073 (dE=-0.222E-01)
 bond charge predicted
       N       E                     dE             d eps       ncg     rms          rms(c)
DAV:   1    -0.158889818218E+03    0.80174E+00   -0.20550E+02  5488   0.256E+01    0.592E+00
DAV:   2    -0.160005031122E+03   -0.11152E+01   -0.97207E+00  7952   0.111E+01    0.782E+00
DAV:   3    -0.160468788999E+03   -0.46376E+00   -0.68277E+00  8160   0.147E+01    0.234E+01
DAV:   4    -0.159653116106E+03    0.81567E+00   -0.54056E+00  8568   0.635E+00    0.283E+00
DAV:   5    -0.159670820523E+03   -0.17704E-01   -0.88946E-02  7760   0.101E+00    0.219E+00
DAV:   6    -0.159657364281E+03    0.13456E-01   -0.28966E-02  9360   0.786E-01    0.133E+00
DAV:   7    -0.159652054545E+03    0.53097E-02   -0.35111E-02  9648   0.812E-01    0.950E-01
DAV:   8    -0.159647875127E+03    0.41794E-02   -0.11461E-02  8840   0.444E-01    0.728E-01
DAV:   9    -0.159648168346E+03   -0.29322E-03   -0.27026E-03  8328   0.270E-01    0.481E-01
DAV:  10    -0.159650052434E+03   -0.18841E-02   -0.71148E-04  8320   0.155E-01    0.379E-01
DAV:  11    -0.159652007220E+03   -0.19548E-02   -0.83271E-04  9424   0.101E-01    0.189E-01
DAV:  12    -0.159654344733E+03   -0.23375E-02   -0.25101E-04  8448   0.457E-02    0.117E-01
DAV:  13    -0.159655833728E+03   -0.14890E-02   -0.61636E-05  7944   0.283E-02    0.703E-02
DAV:  14    -0.159656820049E+03   -0.98632E-03   -0.19606E-05  7784   0.160E-02    0.523E-02
DAV:  15    -0.159657812215E+03   -0.99217E-03   -0.93963E-06  6240   0.805E-03    0.461E-02
DAV:  16    -0.159658811595E+03   -0.99938E-03   -0.20436E-05  7000   0.134E-02    0.203E-02
DAV:  17    -0.159659513795E+03   -0.70220E-03   -0.14812E-05  6744   0.922E-03    0.471E-03
DAV:  18    -0.159659941327E+03   -0.42753E-03   -0.54353E-06  5704   0.525E-03    0.324E-03
DAV:  19    -0.159660288865E+03   -0.34754E-03   -0.43707E-06  5416   0.357E-03    0.293E-03
DAV:  20    -0.159660512787E+03   -0.22392E-03   -0.36831E-06  5344   0.284E-03    0.383E-03
DAV:  21    -0.159660579852E+03   -0.67065E-04   -0.72566E-07  4256   0.175E-03    0.375E-03
DAV:  22    -0.159660635741E+03   -0.55889E-04   -0.13256E-06  4328   0.221E-03    0.288E-03
DAV:  23    -0.159660648653E+03   -0.12912E-04   -0.45836E-07  3688   0.204E-03    0.141E-03
DAV:  24    -0.159660659500E+03   -0.10847E-04   -0.55679E-07  3992   0.154E-03    0.825E-04
DAV:  25    -0.159660661981E+03   -0.24814E-05   -0.24961E-07  3440   0.160E-03    0.413E-04
DAV:  26    -0.159660662945E+03   -0.96403E-06   -0.18657E-07  3568   0.967E-04
  58 F= -.15966066E+03 E0= -.15966066E+03  d E =-.780735E-02  mag=    24.0000
 curvature:  27.77 expect dE= 0.292E+01 dE for cont linesearch  0.214E+00
 ZBRENT: bracketing found
 ZBRENT: interpolating
 opt :   4.6258  next Energy=  -159.694613 (dE=-0.418E-01)
 bond charge predicted
       N       E                     dE             d eps       ncg     rms          rms(c)
DAV:   1    -0.159251039559E+03    0.40962E+00   -0.12118E+02  5472   0.193E+01    0.418E+00
DAV:   2    -0.159694665862E+03   -0.44363E+00   -0.44646E+00  7768   0.660E+00    0.271E+00
DAV:   3    -0.159885752395E+03   -0.19109E+00   -0.13289E+00  8696   0.401E+00    0.920E+00
DAV:   4    -0.159691560701E+03    0.19419E+00   -0.10872E+00  8424   0.313E+00    0.123E+00
DAV:   5    -0.159691598964E+03   -0.38263E-04   -0.23945E-02  8208   0.523E-01    0.996E-01
DAV:   6    -0.159688954052E+03    0.26449E-02   -0.17230E-02  9224   0.604E-01    0.802E-01
DAV:   7    -0.159687885719E+03    0.10683E-02   -0.91562E-03  8224   0.578E-01    0.506E-01
DAV:   8    -0.159687961793E+03   -0.76074E-04   -0.47977E-03  8896   0.359E-01    0.134E-01
DAV:   9    -0.159688939048E+03   -0.97726E-03   -0.37308E-04  8184   0.876E-02    0.106E-01
DAV:  10    -0.159690343969E+03   -0.14049E-02   -0.76801E-05  7792   0.405E-02    0.723E-02
DAV:  11    -0.159691660611E+03   -0.13166E-02   -0.87574E-05  8400   0.335E-02    0.255E-02
DAV:  12    -0.159692542552E+03   -0.88194E-03   -0.24582E-05  7680   0.152E-02    0.109E-02
DAV:  13    -0.159693042074E+03   -0.49952E-03   -0.41372E-06  5696   0.670E-03    0.939E-03
DAV:  14    -0.159693444576E+03   -0.40250E-03   -0.24199E-06  4992   0.648E-03    0.596E-03
DAV:  15    -0.159694031843E+03   -0.58727E-03   -0.68567E-06  6048   0.512E-03    0.403E-03
DAV:  16    -0.159694509636E+03   -0.47779E-03   -0.46291E-06  5640   0.374E-03    0.282E-03
DAV:  17    -0.159694886369E+03   -0.37673E-03   -0.44603E-06  5744   0.339E-03    0.233E-03
DAV:  18    -0.159695151873E+03   -0.26550E-03   -0.42316E-06  5520   0.319E-03    0.122E-03
DAV:  19    -0.159695270394E+03   -0.11852E-03   -0.23780E-06  4952   0.245E-03    0.780E-04
DAV:  20    -0.159695294224E+03   -0.23830E-04   -0.42951E-07  4048   0.174E-03    0.567E-04
DAV:  21    -0.159695301519E+03   -0.72954E-05   -0.27820E-07  3600   0.135E-03    0.473E-04
DAV:  22    -0.159695303845E+03   -0.23259E-05   -0.15184E-07  3456   0.114E-03    0.375E-04
DAV:  23    -0.159695305273E+03   -0.14281E-05   -0.10710E-07  3456   0.872E-04    0.248E-04
DAV:  24    -0.159695305947E+03   -0.67426E-06   -0.66681E-08  3424   0.749E-04
  59 F= -.15969531E+03 E0= -.15969531E+03  d E =-.424503E-01  mag=    24.0000
 curvature:  -0.40 expect dE=-0.849E-02 dE for cont linesearch -0.908E-05
 trial: gam= 1.35311 g(F)=  0.214E-01 g(S)=  0.000E+00 ort = 0.105E-02 (trialstep = 0.696E+00)
 search vector abs. value=  0.113E+00
 bond charge predicted
       N       E                     dE             d eps       ncg     rms          rms(c)
DAV:   1    -0.159686721423E+03    0.85838E-02   -0.88282E+00  5472   0.474E+00    0.102E+00
DAV:   2    -0.159713791090E+03   -0.27070E-01   -0.26443E-01  7768   0.171E+00    0.126E+00
DAV:   3    -0.159737187938E+03   -0.23397E-01   -0.25054E-01  8312   0.198E+00    0.303E+00
DAV:   4    -0.159708575767E+03    0.28612E-01   -0.11549E-01  7952   0.124E+00    0.347E-01
DAV:   5    -0.159708987655E+03   -0.41189E-03   -0.27430E-03  7912   0.164E-01    0.248E-01
DAV:   6    -0.159709033110E+03   -0.45455E-04   -0.10188E-03  8592   0.194E-01    0.215E-01
DAV:   7    -0.159709065215E+03   -0.32105E-04   -0.42977E-04  8136   0.123E-01    0.144E-01
DAV:   8    -0.159709019838E+03    0.45377E-04   -0.33260E-04  9848   0.713E-02    0.292E-02
DAV:   9    -0.159709054509E+03   -0.34671E-04   -0.27799E-05  7768   0.223E-02    0.287E-02
DAV:  10    -0.159709089320E+03   -0.34811E-04   -0.58719E-06  4632   0.109E-02    0.147E-02
DAV:  11    -0.159709139188E+03   -0.49868E-04   -0.76755E-06  6584   0.826E-03    0.713E-03
DAV:  12    -0.159709170765E+03   -0.31577E-04   -0.10654E-06  3976   0.482E-03    0.483E-03
DAV:  13    -0.159709200515E+03   -0.29750E-04   -0.10233E-06  3816   0.441E-03    0.230E-03
DAV:  14    -0.159709225861E+03   -0.25346E-04   -0.63850E-07  3928   0.252E-03    0.220E-03
DAV:  15    -0.159709243541E+03   -0.17680E-04   -0.31931E-07  3664   0.225E-03    0.185E-03
DAV:  16    -0.159709256498E+03   -0.12957E-04   -0.21737E-07  3528   0.137E-03    0.143E-03
DAV:  17    -0.159709274482E+03   -0.17984E-04   -0.23740E-07  3728   0.148E-03    0.103E-03
DAV:  18    -0.159709304943E+03   -0.30461E-04   -0.64653E-07  4064   0.145E-03    0.883E-04
DAV:  19    -0.159709311586E+03   -0.66426E-05   -0.18062E-07  3552   0.148E-03    0.625E-04
DAV:  20    -0.159709319693E+03   -0.81074E-05   -0.20148E-07  3552   0.902E-04    0.568E-04
DAV:  21    -0.159709326100E+03   -0.64073E-05   -0.15056E-07  3536   0.103E-03    0.402E-04
DAV:  22    -0.159709332189E+03   -0.60885E-05   -0.21983E-07  3728   0.876E-04    0.524E-04
DAV:  23    -0.159709334540E+03   -0.23514E-05   -0.14171E-07  3528   0.103E-03    0.362E-04
DAV:  24    -0.159709334815E+03   -0.27444E-06   -0.63100E-08  3528   0.705E-04
  60 F= -.15970933E+03 E0= -.15970933E+03  d E =-.140289E-01  mag=    24.0000
 ZBRENT: can't locate minimum, use default step
 trial-energy change:   -0.014029  1 .order   -0.014060   -0.015886   -0.012234
 step:   2.7855(harm=  3.0293)  dis= 0.05828  next Energy=  -159.735020 (dE=-0.397E-01)
 bond charge predicted
       N       E                     dE             d eps       ncg     rms          rms(c)
DAV:   1    -0.159497130550E+03    0.21220E+00   -0.83466E+01  5520   0.150E+01    0.315E+00
DAV:   2    -0.159827417908E+03   -0.33029E+00   -0.29432E+00  7840   0.609E+00    0.483E+00
DAV:   3    -0.159958923199E+03   -0.13151E+00   -0.26798E+00  8184   0.699E+00    0.108E+01
DAV:   4    -0.159720626487E+03    0.23830E+00   -0.12681E+00  8280   0.338E+00    0.104E+00
DAV:   5    -0.159725229193E+03   -0.46027E-02   -0.23832E-02  7904   0.587E-01    0.795E-01
DAV:   6    -0.159725425946E+03   -0.19675E-03   -0.84078E-03  9224   0.535E-01    0.788E-01
DAV:   7    -0.159727126599E+03   -0.17007E-02   -0.71242E-03  9040   0.417E-01    0.926E-01
DAV:   8    -0.159725083615E+03    0.20430E-02   -0.66642E-03  9040   0.314E-01    0.312E-01
DAV:   9    -0.159725364313E+03   -0.28070E-03   -0.44520E-04  7856   0.645E-02    0.247E-01
DAV:  10    -0.159725389551E+03   -0.25239E-04   -0.12485E-04  9648   0.564E-02    0.159E-01
DAV:  11    -0.159725506953E+03   -0.11740E-03   -0.96498E-05  8800   0.367E-02    0.868E-02
DAV:  12    -0.159725643575E+03   -0.13662E-03   -0.40941E-05  8576   0.248E-02    0.394E-02
DAV:  13    -0.159725780575E+03   -0.13700E-03   -0.12770E-05  5488   0.132E-02    0.123E-02
DAV:  14    -0.159725973118E+03   -0.19254E-03   -0.85224E-06  6000   0.796E-03    0.469E-03
DAV:  15    -0.159726101804E+03   -0.12869E-03   -0.16121E-06  4408   0.485E-03    0.355E-03
DAV:  16    -0.159726221003E+03   -0.11920E-03   -0.18236E-06  4520   0.411E-03    0.276E-03
DAV:  17    -0.159726316734E+03   -0.95731E-04   -0.14545E-06  4336   0.345E-03    0.171E-03
DAV:  18    -0.159726413048E+03   -0.96314E-04   -0.19091E-06  4664   0.267E-03    0.127E-03
DAV:  19    -0.159726479258E+03   -0.66210E-04   -0.96099E-07  4120   0.214E-03    0.126E-03
DAV:  20    -0.159726516253E+03   -0.36996E-04   -0.69440E-07  3936   0.214E-03    0.118E-03
DAV:  21    -0.159726549881E+03   -0.33627E-04   -0.11613E-06  4272   0.228E-03    0.864E-04
DAV:  22    -0.159726558488E+03   -0.86075E-05   -0.40759E-07  3656   0.195E-03    0.685E-04
DAV:  23    -0.159726563000E+03   -0.45122E-05   -0.28967E-07  3528   0.130E-03    0.668E-04
DAV:  24    -0.159726565665E+03   -0.26651E-05   -0.19181E-07  3608   0.127E-03    0.484E-04
DAV:  25    -0.159726566974E+03   -0.13087E-05   -0.16278E-07  3504   0.960E-04    0.452E-04
DAV:  26    -0.159726567345E+03   -0.37149E-06   -0.76649E-08  3488   0.918E-04
  61 F= -.15972657E+03 E0= -.15972657E+03  d E =-.312614E-01  mag=    24.0000
 curvature:  -7.43 expect dE=-0.155E+00 dE for cont linesearch -0.257E-03
 trial: gam= 0.84050 g(F)=  0.208E-01 g(S)=  0.000E+00 ort =-0.198E-02 (trialstep = 0.111E+01)
 search vector abs. value=  0.974E-01
 bond charge predicted
       N       E                     dE             d eps       ncg     rms          rms(c)
DAV:   1    -0.159696581973E+03    0.29985E-01   -0.21325E+01  5520   0.704E+00    0.134E+00
DAV:   2    -0.159758342232E+03   -0.61760E-01   -0.56932E-01  7944   0.249E+00    0.224E+00
DAV:   3    -0.159782940711E+03   -0.24598E-01   -0.49126E-01  8192   0.278E+00    0.394E+00
DAV:   4    -0.159742361363E+03    0.40579E-01   -0.14610E-01  8240   0.141E+00    0.587E-01
DAV:   5    -0.159742526870E+03   -0.16551E-03   -0.57078E-03  8408   0.243E-01    0.348E-01
DAV:   6    -0.159742785549E+03   -0.25868E-03   -0.20359E-03  8680   0.269E-01    0.358E-01
DAV:   7    -0.159742737495E+03    0.48055E-04   -0.93650E-04  8304   0.211E-01    0.231E-01
DAV:   8    -0.159742622932E+03    0.11456E-03   -0.78833E-04  9624   0.121E-01    0.440E-02
DAV:   9    -0.159742702645E+03   -0.79712E-04   -0.56084E-05  7488   0.273E-02    0.325E-02
DAV:  10    -0.159742796598E+03   -0.93953E-04   -0.13354E-05  7112   0.151E-02    0.194E-02
DAV:  11    -0.159742888975E+03   -0.92377E-04   -0.59774E-06  6064   0.869E-03    0.729E-03
DAV:  12    -0.159742960838E+03   -0.71863E-04   -0.30926E-06  4584   0.572E-03    0.359E-03
DAV:  13    -0.159743003728E+03   -0.42890E-04   -0.92041E-07  3952   0.399E-03    0.361E-03
DAV:  14    -0.159743046831E+03   -0.43103E-04   -0.74710E-07  3976   0.297E-03    0.330E-03
DAV:  15    -0.159743085084E+03   -0.38254E-04   -0.59586E-07  3816   0.247E-03    0.191E-03
DAV:  16    -0.159743125635E+03   -0.40551E-04   -0.67416E-07  4008   0.225E-03    0.140E-03
DAV:  17    -0.159743160811E+03   -0.35175E-04   -0.64447E-07  3944   0.217E-03    0.127E-03
DAV:  18    -0.159743177311E+03   -0.16500E-04   -0.39916E-07  3576   0.166E-03    0.917E-04
DAV:  19    -0.159743200665E+03   -0.23353E-04   -0.55245E-07  3968   0.166E-03    0.101E-03
DAV:  20    -0.159743212516E+03   -0.11851E-04   -0.34060E-07  3616   0.161E-03    0.507E-04
DAV:  21    -0.159743223858E+03   -0.11342E-04   -0.51349E-07  3944   0.142E-03    0.925E-04
DAV:  22    -0.159743226090E+03   -0.22318E-05   -0.20477E-07  3480   0.144E-03    0.209E-04
DAV:  23    -0.159743227436E+03   -0.13462E-05   -0.15841E-07  3512   0.805E-04    0.605E-04
DAV:  24    -0.159743227887E+03   -0.45148E-06   -0.70404E-08  3472   0.887E-04
  62 F= -.15974323E+03 E0= -.15974323E+03  d E =-.166605E-01  mag=    24.0000
 trial-energy change:   -0.016661  1 .order   -0.016641   -0.021349   -0.011933
 step:   2.5263(harm=  2.5263)  dis= 0.05610  next Energy=  -159.750770 (dE=-0.242E-01)
 bond charge predicted
       N       E                     dE             d eps       ncg     rms          rms(c)
DAV:   1    -0.159673252727E+03    0.69975E-01   -0.34652E+01  5512   0.901E+00    0.172E+00
DAV:   2    -0.159779724788E+03   -0.10647E+00   -0.96658E-01  8048   0.327E+00    0.299E+00
DAV:   3    -0.159813941364E+03   -0.34217E-01   -0.84910E-01  8048   0.359E+00    0.520E+00
DAV:   4    -0.159749478965E+03    0.64462E-01   -0.24482E-01  8416   0.174E+00    0.721E-01
DAV:   5    -0.159750296253E+03   -0.81729E-03   -0.88533E-03  8032   0.259E-01    0.439E-01
DAV:   6    -0.159751146832E+03   -0.85058E-03   -0.43805E-03  9024   0.314E-01    0.583E-01
DAV:   7    -0.159750600416E+03    0.54642E-03   -0.16773E-03  8880   0.286E-01    0.331E-01
DAV:   8    -0.159750372030E+03    0.22839E-03   -0.15119E-03  9320   0.178E-01    0.643E-02
DAV:   9    -0.159750488559E+03   -0.11653E-03   -0.10569E-04  7880   0.428E-02    0.425E-02
DAV:  10    -0.159750621116E+03   -0.13256E-03   -0.29439E-05  7640   0.221E-02    0.294E-02
DAV:  11    -0.159750731634E+03   -0.11052E-03   -0.11637E-05  7336   0.121E-02    0.108E-02
DAV:  12    -0.159750824917E+03   -0.93283E-04   -0.38138E-06  5008   0.665E-03    0.461E-03
DAV:  13    -0.159750897818E+03   -0.72901E-04   -0.16406E-06  4184   0.460E-03    0.488E-03
DAV:  14    -0.159750953890E+03   -0.56072E-04   -0.10936E-06  4072   0.394E-03    0.439E-03
DAV:  15    -0.159750993103E+03   -0.39213E-04   -0.75392E-07  3800   0.292E-03    0.266E-03
DAV:  16    -0.159751043812E+03   -0.50709E-04   -0.95270E-07  4104   0.260E-03    0.162E-03
DAV:  17    -0.159751087898E+03   -0.44086E-04   -0.84051E-07  4016   0.237E-03    0.145E-03
DAV:  18    -0.159751111724E+03   -0.23826E-04   -0.54907E-07  3744   0.189E-03    0.124E-03
DAV:  19    -0.159751136626E+03   -0.24902E-04   -0.58686E-07  3968   0.191E-03    0.116E-03
DAV:  20    -0.159751148076E+03   -0.11449E-04   -0.36122E-07  3568   0.171E-03    0.480E-04
DAV:  21    -0.159751163600E+03   -0.15524E-04   -0.65585E-07  4008   0.156E-03    0.108E-03
DAV:  22    -0.159751168001E+03   -0.44009E-05   -0.30023E-07  3608   0.162E-03    0.308E-04
DAV:  23    -0.159751169446E+03   -0.14453E-05   -0.19232E-07  3456   0.101E-03    0.678E-04
DAV:  24    -0.159751170148E+03   -0.70141E-06   -0.97598E-08  3464   0.939E-04
  63 F= -.15975117E+03 E0= -.15975117E+03  d E =-.246028E-01  mag=    24.0000
 curvature:  -6.42 expect dE=-0.753E-01 dE for cont linesearch -0.235E-04
 trial: gam= 0.26942 g(F)=  0.117E-01 g(S)=  0.000E+00 ort = 0.597E-03 (trialstep = 0.140E+01)
 search vector abs. value=  0.191E-01
 bond charge predicted
       N       E                     dE             d eps       ncg     rms          rms(c)
DAV:   1    -0.159740199892E+03    0.10970E-01   -0.46997E+00  5472   0.402E+00    0.109E+00
DAV:   2    -0.159767438193E+03   -0.27238E-01   -0.22841E-01  8008   0.172E+00    0.156E+00
DAV:   3    -0.159791647996E+03   -0.24210E-01   -0.30353E-01  8032   0.207E+00    0.329E+00
DAV:   4    -0.159762071115E+03    0.29577E-01   -0.13844E-01  8016   0.133E+00    0.285E-01
DAV:   5    -0.159763043815E+03   -0.97270E-03   -0.34114E-03  7944   0.161E-01    0.296E-01
DAV:   6    -0.159762833266E+03    0.21055E-03   -0.15455E-03  8832   0.161E-01    0.157E-01
DAV:   7    -0.159762797385E+03    0.35882E-04   -0.52894E-04  8160   0.135E-01    0.118E-01
DAV:   8    -0.159762792716E+03    0.46692E-05   -0.31387E-04  8888   0.974E-02    0.292E-02
DAV:   9    -0.159762873260E+03   -0.80544E-04   -0.25925E-05  7792   0.236E-02    0.289E-02
DAV:  10    -0.159762956269E+03   -0.83010E-04   -0.73988E-06  5336   0.133E-02    0.131E-02
DAV:  11    -0.159763046992E+03   -0.90723E-04   -0.54071E-06  6176   0.826E-03    0.718E-03
DAV:  12    -0.159763116484E+03   -0.69492E-04   -0.12426E-06  4016   0.525E-03    0.275E-03
DAV:  13    -0.159763165632E+03   -0.49148E-04   -0.90897E-07  4032   0.353E-03    0.254E-03
DAV:  14    -0.159763210040E+03   -0.44408E-04   -0.69958E-07  3800   0.307E-03    0.193E-03
DAV:  15    -0.159763248863E+03   -0.38823E-04   -0.63085E-07  3776   0.221E-03    0.168E-03
DAV:  16    -0.159763286192E+03   -0.37329E-04   -0.51682E-07  3784   0.228E-03    0.131E-03
DAV:  17    -0.159763327499E+03   -0.41307E-04   -0.80104E-07  4056   0.195E-03    0.112E-03
DAV:  18    -0.159763350814E+03   -0.23315E-04   -0.42829E-07  3664   0.189E-03    0.878E-04
DAV:  19    -0.159763375140E+03   -0.24326E-04   -0.59996E-07  3952   0.163E-03    0.832E-04
DAV:  20    -0.159763384446E+03   -0.93061E-05   -0.31279E-07  3568   0.168E-03    0.588E-04
DAV:  21    -0.159763391504E+03   -0.70580E-05   -0.29968E-07  3576   0.116E-03    0.560E-04
DAV:  22    -0.159763395228E+03   -0.37241E-05   -0.19956E-07  3512   0.125E-03    0.369E-04
DAV:  23    -0.159763396428E+03   -0.12000E-05   -0.12798E-07  3520   0.878E-04    0.314E-04
DAV:  24    -0.159763397035E+03   -0.60650E-06   -0.73248E-08  3416   0.768E-04
  64 F= -.15976340E+03 E0= -.15976340E+03  d E =-.122269E-01  mag=    24.0000
 trial-energy change:   -0.012227  1 .order   -0.012255   -0.016606   -0.007904
 step:   2.7140(harm=  2.6650)  dis= 0.01758  next Energy=  -159.767101 (dE=-0.159E-01)
 bond charge predicted
       N       E                     dE             d eps       ncg     rms          rms(c)
DAV:   1    -0.159746436701E+03    0.16960E-01   -0.41822E+00  5472   0.379E+00    0.102E+00
DAV:   2    -0.159770114299E+03   -0.23678E-01   -0.20198E-01  7928   0.160E+00    0.143E+00
DAV:   3    -0.159792374100E+03   -0.22260E-01   -0.27130E-01  7992   0.194E+00    0.308E+00
DAV:   4    -0.159765780878E+03    0.26593E-01   -0.12553E-01  7968   0.126E+00    0.266E-01
DAV:   5    -0.159766712979E+03   -0.93210E-03   -0.30699E-03  7976   0.150E-01    0.270E-01
DAV:   6    -0.159766549379E+03    0.16360E-03   -0.14152E-03  8840   0.148E-01    0.150E-01
DAV:   7    -0.159766512399E+03    0.36980E-04   -0.43353E-04  8200   0.121E-01    0.102E-01
DAV:   8    -0.159766516638E+03   -0.42390E-05   -0.23649E-04  8856   0.871E-02    0.270E-02
DAV:   9    -0.159766588300E+03   -0.71662E-04   -0.21741E-05  7688   0.227E-02    0.281E-02
DAV:  10    -0.159766663715E+03   -0.75416E-04   -0.68550E-06  5248   0.134E-02    0.125E-02
DAV:  11    -0.159766748090E+03   -0.84374E-04   -0.49141E-06  5896   0.750E-03    0.660E-03
DAV:  12    -0.159766806322E+03   -0.58232E-04   -0.10678E-06  3880   0.496E-03    0.266E-03
DAV:  13    -0.159766849653E+03   -0.43331E-04   -0.82154E-07  4032   0.322E-03    0.249E-03
DAV:  14    -0.159766890212E+03   -0.40559E-04   -0.62521E-07  3672   0.291E-03    0.189E-03
DAV:  15    -0.159766924236E+03   -0.34024E-04   -0.55883E-07  3768   0.213E-03    0.157E-03
DAV:  16    -0.159766955398E+03   -0.31162E-04   -0.43494E-07  3656   0.217E-03    0.122E-03
DAV:  17    -0.159766993264E+03   -0.37866E-04   -0.70124E-07  4112   0.183E-03    0.107E-03
DAV:  18    -0.159767016356E+03   -0.23092E-04   -0.42399E-07  3672   0.183E-03    0.828E-04
DAV:  19    -0.159767038247E+03   -0.21891E-04   -0.56498E-07  3880   0.161E-03    0.837E-04
DAV:  20    -0.159767047288E+03   -0.90406E-05   -0.31399E-07  3584   0.163E-03    0.570E-04
DAV:  21    -0.159767053237E+03   -0.59494E-05   -0.27109E-07  3576   0.115E-03    0.544E-04
DAV:  22    -0.159767056905E+03   -0.36677E-05   -0.20181E-07  3528   0.119E-03    0.364E-04
DAV:  23    -0.159767057833E+03   -0.92821E-06   -0.11544E-07  3520   0.901E-04
  65 F= -.15976706E+03 E0= -.15976706E+03  d E =-.158877E-01  mag=    24.0000
 curvature:  -2.14 expect dE=-0.146E-01 dE for cont linesearch -0.126E-06
 trial: gam= 0.61578 g(F)=  0.682E-02 g(S)=  0.000E+00 ort =-0.335E-04 (trialstep = 0.166E+01)
 search vector abs. value=  0.140E-01
 bond charge predicted
       N       E                     dE             d eps       ncg     rms          rms(c)
DAV:   1    -0.159751196172E+03    0.15861E-01   -0.42761E+00  5472   0.404E+00    0.106E+00
DAV:   2    -0.159773764319E+03   -0.22568E-01   -0.21866E-01  7856   0.159E+00    0.716E-01
DAV:   3    -0.159789657270E+03   -0.15893E-01   -0.10022E-01  8232   0.122E+00    0.225E+00
DAV:   4    -0.159774619590E+03    0.15038E-01   -0.61704E-02  8032   0.894E-01    0.313E-01
DAV:   5    -0.159774831113E+03   -0.21152E-03   -0.13305E-03  8064   0.140E-01    0.254E-01
DAV:   6    -0.159774522860E+03    0.30825E-03   -0.48335E-04  8152   0.120E-01    0.204E-01
DAV:   7    -0.159774182232E+03    0.34063E-03   -0.62743E-04  8232   0.114E-01    0.128E-01
DAV:   8    -0.159774227920E+03   -0.45688E-04   -0.35735E-04  9112   0.760E-02    0.300E-02
DAV:   9    -0.159774379404E+03   -0.15148E-03   -0.23554E-05  7528   0.219E-02    0.219E-02
DAV:  10    -0.159774570710E+03   -0.19131E-03   -0.42192E-06  4704   0.893E-03    0.103E-02
DAV:  11    -0.159774802956E+03   -0.23225E-03   -0.55594E-06  6032   0.686E-03    0.563E-03
DAV:  12    -0.159774953042E+03   -0.15009E-03   -0.10884E-06  4168   0.324E-03    0.293E-03
DAV:  13    -0.159775108955E+03   -0.15591E-03   -0.15441E-06  4472   0.324E-03    0.197E-03
DAV:  14    -0.159775220578E+03   -0.11162E-03   -0.10001E-06  4128   0.276E-03    0.161E-03
DAV:  15    -0.159775290365E+03   -0.69787E-04   -0.72107E-07  3832   0.214E-03    0.141E-03
DAV:  16    -0.159775383279E+03   -0.92914E-04   -0.11796E-06  4352   0.223E-03    0.111E-03
DAV:  17    -0.159775474526E+03   -0.91246E-04   -0.16691E-06  4640   0.236E-03    0.947E-04
DAV:  18    -0.159775529434E+03   -0.54908E-04   -0.10635E-06  4216   0.215E-03    0.726E-04
DAV:  19    -0.159775542497E+03   -0.13063E-04   -0.38028E-07  3752   0.187E-03    0.434E-04
DAV:  20    -0.159775548138E+03   -0.56411E-05   -0.25943E-07  3488   0.128E-03    0.374E-04
DAV:  21    -0.159775550840E+03   -0.27021E-05   -0.15244E-07  3584   0.117E-03    0.247E-04
DAV:  22    -0.159775552151E+03   -0.13112E-05   -0.11266E-07  3440   0.834E-04    0.195E-04
DAV:  23    -0.159775552441E+03   -0.28976E-06   -0.56477E-08  3488   0.756E-04
  66 F= -.15977555E+03 E0= -.15977555E+03  d E =-.849461E-02  mag=    24.0000
 trial-energy change:   -0.008495  1 .order   -0.008484   -0.011295   -0.005673
 step:   3.3352(harm=  3.3352)  dis= 0.01822  next Energy=  -159.778404 (dE=-0.113E-01)
 bond charge predicted
       N       E                     dE             d eps       ncg     rms          rms(c)
DAV:   1    -0.159753600534E+03    0.21952E-01   -0.43536E+00  5472   0.408E+00    0.107E+00
DAV:   2    -0.159776514706E+03   -0.22914E-01   -0.22217E-01  7808   0.160E+00    0.707E-01
DAV:   3    -0.159791560336E+03   -0.15046E-01   -0.91626E-02  8208   0.118E+00    0.218E+00
DAV:   4    -0.159777524147E+03    0.14036E-01   -0.56747E-02  8056   0.867E-01    0.315E-01
DAV:   5    -0.159777706771E+03   -0.18262E-03   -0.12814E-03  8104   0.142E-01    0.259E-01
DAV:   6    -0.159777396908E+03    0.30986E-03   -0.48981E-04  8128   0.122E-01    0.206E-01
DAV:   7    -0.159777041351E+03    0.35556E-03   -0.65950E-04  8232   0.116E-01    0.129E-01
DAV:   8    -0.159777093116E+03   -0.51765E-04   -0.35437E-04  9008   0.762E-02    0.298E-02
DAV:   9    -0.159777248101E+03   -0.15499E-03   -0.23576E-05  7536   0.219E-02    0.228E-02
DAV:  10    -0.159777441278E+03   -0.19318E-03   -0.47326E-06  4664   0.939E-03    0.101E-02
DAV:  11    -0.159777673134E+03   -0.23186E-03   -0.57085E-06  6072   0.701E-03    0.568E-03
DAV:  12    -0.159777825197E+03   -0.15206E-03   -0.10972E-06  4168   0.332E-03    0.291E-03
DAV:  13    -0.159777984185E+03   -0.15899E-03   -0.16421E-06  4520   0.327E-03    0.202E-03
DAV:  14    -0.159778095533E+03   -0.11135E-03   -0.93334E-07  4120   0.292E-03    0.163E-03
DAV:  15    -0.159778164309E+03   -0.68776E-04   -0.75120E-07  3776   0.220E-03    0.139E-03
DAV:  16    -0.159778256263E+03   -0.91954E-04   -0.12422E-06  4352   0.218E-03    0.103E-03
DAV:  17    -0.159778358178E+03   -0.10191E-03   -0.19899E-06  4792   0.236E-03    0.748E-04
DAV:  18    -0.159778409416E+03   -0.51238E-04   -0.96921E-07  4184   0.196E-03    0.628E-04
DAV:  19    -0.159778416851E+03   -0.74354E-05   -0.27584E-07  3608   0.176E-03    0.441E-04
DAV:  20    -0.159778422224E+03   -0.53728E-05   -0.21564E-07  3592   0.104E-03    0.382E-04
DAV:  21    -0.159778425360E+03   -0.31360E-05   -0.13433E-07  3480   0.113E-03    0.249E-04
DAV:  22    -0.159778426534E+03   -0.11734E-05   -0.10036E-07  3432   0.794E-04    0.229E-04
DAV:  23    -0.159778426813E+03   -0.27983E-06   -0.52830E-08  3464   0.739E-04
  67 F= -.15977843E+03 E0= -.15977843E+03  d E =-.113690E-01  mag=    24.0000
 curvature:  -3.44 expect dE=-0.159E-01 dE for cont linesearch -0.122E-07
 trial: gam= 0.66623 g(F)=  0.463E-02 g(S)=  0.000E+00 ort =-0.705E-05 (trialstep = 0.200E+01)
 search vector abs. value=  0.108E-01
 bond charge predicted
       N       E                     dE             d eps       ncg     rms          rms(c)
DAV:   1    -0.159754661284E+03    0.23765E-01   -0.46409E+00  5472   0.430E+00    0.122E+00
DAV:   2    -0.159781013433E+03   -0.26352E-01   -0.24871E-01  7792   0.165E+00    0.611E-01
DAV:   3    -0.159786120953E+03   -0.51075E-02   -0.23478E-02  8200   0.634E-01    0.979E-01
DAV:   4    -0.159783183208E+03    0.29377E-02   -0.20643E-02  8552   0.579E-01    0.402E-01
DAV:   5    -0.159782789227E+03    0.39398E-03   -0.11457E-03  9128   0.128E-01    0.249E-01
DAV:   6    -0.159782420378E+03    0.36885E-03   -0.13961E-03  7800   0.102E-01    0.127E-01
DAV:   7    -0.159782471801E+03   -0.51423E-04   -0.33445E-04  8360   0.790E-02    0.402E-02
DAV:   8    -0.159782548295E+03   -0.76494E-04   -0.31548E-05  8280   0.284E-02    0.225E-02
DAV:   9    -0.159782667857E+03   -0.11956E-03   -0.71682E-06  6816   0.142E-02    0.135E-02
DAV:  10    -0.159782781460E+03   -0.11360E-03   -0.53675E-06  5624   0.141E-02    0.953E-03
DAV:  11    -0.159782857806E+03   -0.76346E-04   -0.47810E-06  5848   0.104E-02    0.406E-03
DAV:  12    -0.159782926785E+03   -0.68978E-04   -0.11921E-06  4200   0.447E-03    0.337E-03
DAV:  13    -0.159782975044E+03   -0.48260E-04   -0.73982E-07  3664   0.312E-03    0.184E-03
DAV:  14    -0.159783035748E+03   -0.60704E-04   -0.75118E-07  3992   0.209E-03    0.145E-03
DAV:  15    -0.159783083216E+03   -0.47468E-04   -0.45633E-07  3856   0.202E-03    0.122E-03
DAV:  16    -0.159783127830E+03   -0.44614E-04   -0.57392E-07  3880   0.207E-03    0.117E-03
DAV:  17    -0.159783172155E+03   -0.44325E-04   -0.89064E-07  4152   0.214E-03    0.111E-03
DAV:  18    -0.159783199346E+03   -0.27191E-04   -0.63250E-07  3928   0.187E-03    0.867E-04
DAV:  19    -0.159783210889E+03   -0.11543E-04   -0.38172E-07  3632   0.169E-03    0.654E-04
DAV:  20    -0.159783218605E+03   -0.77165E-05   -0.33081E-07  3624   0.135E-03    0.522E-04
DAV:  21    -0.159783221954E+03   -0.33489E-05   -0.20343E-07  3472   0.125E-03    0.390E-04
DAV:  22    -0.159783223058E+03   -0.11033E-05   -0.11970E-07  3496   0.916E-04    0.265E-04
DAV:  23    -0.159783223641E+03   -0.58319E-06   -0.71435E-08  3416   0.715E-04
  68 F= -.15978322E+03 E0= -.15978322E+03  d E =-.479683E-02  mag=    24.0000
 trial-energy change:   -0.004797  1 .order   -0.004791   -0.009226   -0.000355
 step:   2.0749(harm=  2.0749)  dis= 0.01005  next Energy=  -159.783225 (dE=-0.480E-02)
 bond charge predicted
       N       E                     dE             d eps       ncg     rms          rms(c)
DAV:   1    -0.159783185325E+03    0.37733E-04   -0.74247E-03  5752   0.172E-01    0.482E-02
DAV:   2    -0.159783217117E+03   -0.31792E-04   -0.40420E-04  7576   0.673E-02    0.290E-02
DAV:   3    -0.159783252149E+03   -0.35032E-04   -0.16041E-04  7784   0.489E-02    0.853E-02
DAV:   4    -0.159783223298E+03    0.28851E-04   -0.10645E-04  6144   0.403E-02    0.124E-02
DAV:   5    -0.159783227273E+03   -0.39748E-05   -0.26603E-06  3928   0.495E-03    0.108E-02
DAV:   6    -0.159783226171E+03    0.11025E-05   -0.23758E-06  3472   0.686E-03    0.801E-03
DAV:   7    -0.159783225264E+03    0.90683E-06   -0.19214E-06  3576   0.674E-03
  69 F= -.15978323E+03 E0= -.15978323E+03  d E =-.479845E-02  mag=    24.0000
 curvature:  -2.43 expect dE=-0.362E-02 dE for cont linesearch -0.465E-05
 trial: gam= 0.31104 g(F)=  0.149E-02 g(S)=  0.000E+00 ort = 0.144E-03 (trialstep = 0.201E+01)
 search vector abs. value=  0.262E-02
 bond charge predicted
       N       E                     dE             d eps       ncg     rms          rms(c)
DAV:   1    -0.159777525990E+03    0.57002E-02   -0.10907E+00  5472   0.211E+00    0.618E-01
DAV:   2    -0.159784115003E+03   -0.65890E-02   -0.59933E-02  7720   0.806E-01    0.350E-01
DAV:   3    -0.159787144389E+03   -0.30294E-02   -0.16112E-02  8144   0.519E-01    0.844E-01
DAV:   4    -0.159784701653E+03    0.24427E-02   -0.11595E-02  8424   0.429E-01    0.168E-01
DAV:   5    -0.159784690021E+03    0.11632E-04   -0.31584E-04  8128   0.652E-02    0.128E-01
DAV:   6    -0.159784520013E+03    0.17001E-03   -0.16699E-04  8536   0.709E-02    0.986E-02
DAV:   7    -0.159784368325E+03    0.15169E-03   -0.19660E-04  8168   0.685E-02    0.469E-02
DAV:   8    -0.159784405198E+03   -0.36874E-04   -0.63379E-05  8296   0.350E-02    0.195E-02
DAV:   9    -0.159784500782E+03   -0.95584E-04   -0.89324E-06  6312   0.149E-02    0.105E-02
DAV:  10    -0.159784587469E+03   -0.86687E-04   -0.23172E-06  4440   0.875E-03    0.656E-03
DAV:  11    -0.159784677591E+03   -0.90122E-04   -0.23890E-06  4528   0.448E-03    0.312E-03
DAV:  12    -0.159784738157E+03   -0.60566E-04   -0.79024E-07  3808   0.349E-03    0.254E-03
DAV:  13    -0.159784799724E+03   -0.61567E-04   -0.78569E-07  3824   0.307E-03    0.158E-03
DAV:  14    -0.159784853563E+03   -0.53839E-04   -0.72325E-07  3864   0.288E-03    0.152E-03
DAV:  15    -0.159784890026E+03   -0.36464E-04   -0.54811E-07  3720   0.218E-03    0.111E-03
DAV:  16    -0.159784939656E+03   -0.49630E-04   -0.81020E-07  4024   0.196E-03    0.120E-03
DAV:  17    -0.159784964366E+03   -0.24711E-04   -0.40356E-07  3648   0.166E-03    0.637E-04
DAV:  18    -0.159784995742E+03   -0.31375E-04   -0.67261E-07  4016   0.161E-03    0.915E-04
DAV:  19    -0.159785006427E+03   -0.10686E-04   -0.31154E-07  3632   0.164E-03    0.428E-04
DAV:  20    -0.159785012561E+03   -0.61338E-05   -0.26166E-07  3528   0.112E-03    0.529E-04
DAV:  21    -0.159785014554E+03   -0.19926E-05   -0.12893E-07  3512   0.117E-03    0.236E-04
DAV:  22    -0.159785016411E+03   -0.18577E-05   -0.11318E-07  3400   0.686E-04    0.334E-04
DAV:  23    -0.159785017080E+03   -0.66826E-06   -0.60732E-08  3448   0.787E-04
  70 F= -.15978502E+03 E0= -.15978502E+03  d E =-.179182E-02  mag=    24.0000
 trial-energy change:   -0.001792  1 .order   -0.001829   -0.003078   -0.000581
 step:   2.5389(harm=  2.4788)  dis= 0.00706  next Energy=  -159.785093 (dE=-0.187E-02)
 bond charge predicted
       N       E                     dE             d eps       ncg     rms          rms(c)
DAV:   1    -0.159784569163E+03    0.44725E-03   -0.75208E-02  5680   0.555E-01    0.162E-01
DAV:   2    -0.159784983784E+03   -0.41462E-03   -0.41474E-03  7680   0.213E-01    0.930E-02
DAV:   3    -0.159785240488E+03   -0.25670E-03   -0.12599E-03  8104   0.143E-01    0.240E-01
DAV:   4    -0.159785036107E+03    0.20438E-03   -0.89198E-04  8280   0.116E-01    0.429E-02
DAV:   5    -0.159785041540E+03   -0.54332E-05   -0.22471E-05  7456   0.171E-02    0.336E-02
DAV:   6    -0.159785019640E+03    0.21900E-04   -0.10654E-05  7184   0.187E-02    0.259E-02
DAV:   7    -0.159784992463E+03    0.27176E-04   -0.17566E-05  7976   0.188E-02    0.139E-02
DAV:   8    -0.159784995774E+03   -0.33102E-05   -0.41316E-06  3912   0.937E-03    0.512E-03
DAV:   9    -0.159785010170E+03   -0.14397E-04   -0.90590E-07  3728   0.463E-03    0.336E-03
DAV:  10    -0.159785023719E+03   -0.13549E-04   -0.47651E-07  3424   0.329E-03    0.231E-03
DAV:  11    -0.159785033442E+03   -0.97228E-05   -0.25400E-07  3512   0.183E-03    0.190E-03
DAV:  12    -0.159785040070E+03   -0.66281E-05   -0.13876E-07  3448   0.179E-03    0.129E-03
DAV:  13    -0.159785046636E+03   -0.65654E-05   -0.11244E-07  3400   0.100E-03    0.110E-03
DAV:  14    -0.159785054781E+03   -0.81457E-05   -0.87751E-08  3416   0.111E-03    0.722E-04
DAV:  15    -0.159785064117E+03   -0.93359E-05   -0.12005E-07  3632   0.819E-04    0.485E-04
DAV:  16    -0.159785069480E+03   -0.53623E-05   -0.69675E-08  3480   0.876E-04    0.405E-04
DAV:  17    -0.159785072117E+03   -0.26370E-05   -0.45525E-08  3496   0.565E-04    0.241E-04
DAV:  18    -0.159785077391E+03   -0.52744E-05   -0.62723E-08  3408   0.533E-04    0.360E-04
DAV:  19    -0.159785082771E+03   -0.53801E-05   -0.85127E-08  3576   0.612E-04    0.229E-04
DAV:  20    -0.159785084776E+03   -0.20045E-05   -0.53422E-08  3480   0.641E-04    0.294E-04
DAV:  21    -0.159785085553E+03   -0.77709E-06   -0.34049E-08  3432   0.475E-04
  71 F= -.15978509E+03 E0= -.15978509E+03  d E =-.186029E-02  mag=    24.0000
 curvature:  -2.09 expect dE=-0.194E-02 dE for cont linesearch -0.715E-06
 trial: gam= 0.64212 g(F)=  0.929E-03 g(S)=  0.000E+00 ort =-0.300E-04 (trialstep = 0.212E+01)
 search vector abs. value=  0.197E-02
 bond charge predicted
       N       E                     dE             d eps       ncg     rms          rms(c)
DAV:   1    -0.159780624280E+03    0.44605E-02   -0.91601E-01  5472   0.193E+00    0.535E-01
DAV:   2    -0.159786019971E+03   -0.53957E-02   -0.53727E-02  7800   0.775E-01    0.402E-01
DAV:   3    -0.159790987174E+03   -0.49672E-02   -0.33229E-02  8000   0.711E-01    0.118E+00
DAV:   4    -0.159786042260E+03    0.49449E-02   -0.20284E-02  7728   0.568E-01    0.140E-01
DAV:   5    -0.159786227384E+03   -0.18512E-03   -0.45940E-04  7800   0.527E-02    0.117E-01
DAV:   6    -0.159786216870E+03    0.10513E-04   -0.22885E-04  9200   0.733E-02    0.102E-01
DAV:   7    -0.159786185982E+03    0.30888E-04   -0.89372E-05  8416   0.534E-02    0.597E-02
DAV:   8    -0.159786177629E+03    0.83535E-05   -0.12662E-04  9432   0.428E-02    0.316E-02
DAV:   9    -0.159786192953E+03   -0.15324E-04   -0.17711E-05  6656   0.198E-02    0.792E-03
DAV:  10    -0.159786220050E+03   -0.27096E-04   -0.14900E-06  4080   0.557E-03    0.487E-03
DAV:  11    -0.159786244346E+03   -0.24297E-04   -0.66581E-07  3760   0.413E-03    0.307E-03
DAV:  12    -0.159786262151E+03   -0.17805E-04   -0.57182E-07  3552   0.264E-03    0.224E-03
DAV:  13    -0.159786276583E+03   -0.14432E-04   -0.34144E-07  3536   0.231E-03    0.130E-03
DAV:  14    -0.159786288538E+03   -0.11954E-04   -0.21094E-07  3504   0.174E-03    0.838E-04
DAV:  15    -0.159786300753E+03   -0.12216E-04   -0.18439E-07  3488   0.138E-03    0.871E-04
DAV:  16    -0.159786307333E+03   -0.65800E-05   -0.11462E-07  3496   0.108E-03    0.478E-04
DAV:  17    -0.159786313494E+03   -0.61606E-05   -0.88701E-08  3416   0.883E-04    0.517E-04
DAV:  18    -0.159786318555E+03   -0.50608E-05   -0.69435E-08  3448   0.715E-04    0.325E-04
DAV:  19    -0.159786327362E+03   -0.88070E-05   -0.13015E-07  3688   0.700E-04    0.396E-04
DAV:  20    -0.159786333709E+03   -0.63472E-05   -0.12081E-07  3552   0.861E-04    0.400E-04
DAV:  21    -0.159786335910E+03   -0.22010E-05   -0.78421E-08  3464   0.769E-04    0.242E-04
DAV:  22    -0.159786336866E+03   -0.95626E-06   -0.48131E-08  3448   0.607E-04
  72 F= -.15978634E+03 E0= -.15978634E+03  d E =-.125131E-02  mag=    24.0000
 trial-energy change:   -0.001251  1 .order   -0.001251   -0.001926   -0.000576
 step:   3.0209(harm=  3.0209)  dis= 0.00760  next Energy=  -159.786460 (dE=-0.137E-02)
 bond charge predicted
       N       E                     dE             d eps       ncg     rms          rms(c)
DAV:   1    -0.159785418665E+03    0.91724E-03   -0.16722E-01  5552   0.823E-01    0.228E-01
DAV:   2    -0.159786347814E+03   -0.92915E-03   -0.98557E-03  7672   0.332E-01    0.177E-01
DAV:   3    -0.159787389842E+03   -0.10420E-02   -0.67575E-03  7976   0.317E-01    0.540E-01
DAV:   4    -0.159786367593E+03    0.10222E-02   -0.41208E-03  7720   0.249E-01    0.597E-02
DAV:   5    -0.159786423401E+03   -0.55808E-04   -0.88766E-05  7640   0.226E-02    0.504E-02
DAV:   6    -0.159786422598E+03    0.80328E-06   -0.43987E-05  8560   0.320E-02    0.444E-02
DAV:   7    -0.159786415614E+03    0.69836E-05   -0.16357E-05  7904   0.230E-02    0.279E-02
DAV:   8    -0.159786412588E+03    0.30261E-05   -0.23006E-05  5368   0.186E-02    0.125E-02
DAV:   9    -0.159786417622E+03   -0.50341E-05   -0.38851E-06  3784   0.997E-03    0.336E-03
DAV:  10    -0.159786425234E+03   -0.76119E-05   -0.12483E-06  3536   0.408E-03    0.282E-03
DAV:  11    -0.159786432590E+03   -0.73553E-05   -0.45014E-07  3416   0.299E-03    0.180E-03
DAV:  12    -0.159786438176E+03   -0.55868E-05   -0.16711E-07  3440   0.172E-03    0.144E-03
DAV:  13    -0.159786444197E+03   -0.60211E-05   -0.12484E-07  3368   0.156E-03    0.101E-03
DAV:  14    -0.159786448350E+03   -0.41526E-05   -0.91975E-08  3456   0.103E-03    0.632E-04
DAV:  15    -0.159786450738E+03   -0.23880E-05   -0.56855E-08  3448   0.774E-04    0.446E-04
DAV:  16    -0.159786453038E+03   -0.23000E-05   -0.38524E-08  3408   0.556E-04    0.286E-04
DAV:  17    -0.159786455242E+03   -0.22043E-05   -0.29656E-08  3408   0.537E-04    0.269E-04
DAV:  18    -0.159786456821E+03   -0.15787E-05   -0.24280E-08  3448   0.400E-04    0.156E-04
DAV:  19    -0.159786458790E+03   -0.19687E-05   -0.27942E-08  3440   0.371E-04    0.195E-04
DAV:  20    -0.159786460007E+03   -0.12167E-05   -0.21073E-08  3448   0.377E-04    0.125E-04
DAV:  21    -0.159786460936E+03   -0.92936E-06   -0.21040E-08  3376   0.331E-04
  73 F= -.15978646E+03 E0= -.15978646E+03  d E =-.137538E-02  mag=    24.0000
 curvature:  -3.28 expect dE=-0.221E-02 dE for cont linesearch -0.970E-08
 trial: gam= 0.69337 g(F)=  0.676E-03 g(S)=  0.000E+00 ort = 0.242E-05 (trialstep = 0.230E+01)
 search vector abs. value=  0.163E-02
 bond charge predicted
       N       E                     dE             d eps       ncg     rms          rms(c)
DAV:   1    -0.159782009640E+03    0.44504E-02   -0.82722E-01  5472   0.184E+00    0.512E-01
DAV:   2    -0.159787242072E+03   -0.52324E-02   -0.55229E-02  7784   0.777E-01    0.250E-01
DAV:   3    -0.159787740010E+03   -0.49794E-03   -0.20343E-03  8128   0.195E-01    0.285E-01
DAV:   4    -0.159787601125E+03    0.13889E-03   -0.22691E-03  8408   0.188E-01    0.205E-01
DAV:   5    -0.159787482455E+03    0.11867E-03   -0.26172E-04  9032   0.639E-02    0.118E-01
DAV:   6    -0.159787407685E+03    0.74770E-04   -0.24499E-04  7928   0.527E-02    0.703E-02
DAV:   7    -0.159787400626E+03    0.70585E-05   -0.92682E-05  8080   0.493E-02    0.263E-02
DAV:   8    -0.159787410467E+03   -0.98405E-05   -0.11239E-05  7048   0.232E-02    0.111E-02
DAV:   9    -0.159787428892E+03   -0.18425E-04   -0.34897E-06  4432   0.129E-02    0.872E-03
DAV:  10    -0.159787445423E+03   -0.16530E-04   -0.11734E-06  3736   0.634E-03    0.407E-03
DAV:  11    -0.159787465127E+03   -0.19705E-04   -0.85175E-07  3704   0.282E-03    0.296E-03
DAV:  12    -0.159787476360E+03   -0.11232E-04   -0.35537E-07  3504   0.246E-03    0.186E-03
DAV:  13    -0.159787491167E+03   -0.14807E-04   -0.32016E-07  3528   0.188E-03    0.124E-03
DAV:  14    -0.159787504885E+03   -0.13718E-04   -0.21772E-07  3464   0.197E-03    0.866E-04
DAV:  15    -0.159787515236E+03   -0.10351E-04   -0.19229E-07  3584   0.120E-03    0.648E-04
DAV:  16    -0.159787519575E+03   -0.43388E-05   -0.91806E-08  3512   0.102E-03    0.445E-04
DAV:  17    -0.159787523804E+03   -0.42295E-05   -0.62347E-08  3384   0.741E-04    0.433E-04
DAV:  18    -0.159787528722E+03   -0.49180E-05   -0.59311E-08  3416   0.626E-04    0.321E-04
DAV:  19    -0.159787538506E+03   -0.97839E-05   -0.15411E-07  3712   0.723E-04    0.485E-04
DAV:  20    -0.159787541713E+03   -0.32068E-05   -0.73106E-08  3488   0.851E-04    0.248E-04
DAV:  21    -0.159787543383E+03   -0.16698E-05   -0.54393E-08  3408   0.543E-04    0.317E-04
DAV:  22    -0.159787544449E+03   -0.10664E-05   -0.32773E-08  3472   0.562E-04    0.149E-04
DAV:  23    -0.159787545881E+03   -0.14320E-05   -0.50416E-08  3480   0.399E-04    0.238E-04
DAV:  24    -0.159787546266E+03   -0.38504E-06   -0.23463E-08  3432   0.506E-04
  74 F= -.15978755E+03 E0= -.15978755E+03  d E =-.108533E-02  mag=    24.0000
 trial-energy change:   -0.001085  1 .order   -0.001090   -0.001557   -0.000622
 step:   3.8972(harm=  3.8239)  dis= 0.01117  next Energy=  -159.787761 (dE=-0.130E-02)
 bond charge predicted
       N       E                     dE             d eps       ncg     rms          rms(c)
DAV:   1    -0.159785069621E+03    0.24763E-02   -0.40107E-01  5488   0.128E+00    0.357E-01
DAV:   2    -0.159787563218E+03   -0.24936E-02   -0.26759E-02  7776   0.540E-01    0.174E-01
DAV:   3    -0.159787856397E+03   -0.29318E-03   -0.10997E-03  8112   0.141E-01    0.213E-01
DAV:   4    -0.159787761887E+03    0.94510E-04   -0.11544E-03  8448   0.134E-01    0.136E-01
DAV:   5    -0.159787712459E+03    0.49428E-04   -0.10720E-04  8832   0.410E-02    0.824E-02
DAV:   6    -0.159787673053E+03    0.39406E-04   -0.11413E-04  7928   0.371E-02    0.494E-02
DAV:   7    -0.159787667145E+03    0.59072E-05   -0.44806E-05  8088   0.345E-02    0.185E-02
DAV:   8    -0.159787672123E+03   -0.49776E-05   -0.45448E-06  4912   0.161E-02    0.818E-03
DAV:   9    -0.159787683672E+03   -0.11549E-04   -0.20004E-06  3944   0.900E-03    0.585E-03
DAV:  10    -0.159787693732E+03   -0.10060E-04   -0.94197E-07  3504   0.495E-03    0.295E-03
DAV:  11    -0.159787703579E+03   -0.98471E-05   -0.51352E-07  3576   0.253E-03    0.259E-03
DAV:  12    -0.159787709227E+03   -0.56475E-05   -0.19278E-07  3488   0.190E-03    0.188E-03
DAV:  13    -0.159787718999E+03   -0.97721E-05   -0.18333E-07  3416   0.143E-03    0.124E-03
DAV:  14    -0.159787727036E+03   -0.80373E-05   -0.12991E-07  3472   0.142E-03    0.778E-04
DAV:  15    -0.159787733913E+03   -0.68766E-05   -0.12799E-07  3528   0.100E-03    0.564E-04
DAV:  16    -0.159787736877E+03   -0.29639E-05   -0.64157E-08  3496   0.851E-04    0.329E-04
DAV:  17    -0.159787739541E+03   -0.26644E-05   -0.43723E-08  3384   0.589E-04    0.377E-04
DAV:  18    -0.159787742696E+03   -0.31552E-05   -0.39248E-08  3376   0.550E-04    0.225E-04
DAV:  19    -0.159787747615E+03   -0.49183E-05   -0.74930E-08  3568   0.561E-04    0.358E-04
DAV:  20    -0.159787749105E+03   -0.14908E-05   -0.35705E-08  3504   0.642E-04    0.190E-04
DAV:  21    -0.159787750051E+03   -0.94533E-06   -0.26280E-08  3392   0.371E-04
  75 F= -.15978775E+03 E0= -.15978775E+03  d E =-.128911E-02  mag=    24.0000
 curvature:  -4.58 expect dE=-0.254E-02 dE for cont linesearch -0.356E-06
 trial: gam= 0.85940 g(F)=  0.554E-03 g(S)=  0.000E+00 ort =-0.112E-04 (trialstep = 0.245E+01)
 search vector abs. value=  0.174E-02
 bond charge predicted
       N       E                     dE             d eps       ncg     rms          rms(c)
DAV:   1    -0.159781101772E+03    0.66473E-02   -0.96381E-01  5472   0.199E+00    0.595E-01
DAV:   2    -0.159788097476E+03   -0.69957E-02   -0.66539E-02  7736   0.859E-01    0.389E-01
DAV:   3    -0.159793053741E+03   -0.49563E-02   -0.31036E-02  8168   0.669E-01    0.125E+00
DAV:   4    -0.159788243985E+03    0.48098E-02   -0.20068E-02  7880   0.519E-01    0.154E-01
DAV:   5    -0.159788445377E+03   -0.20139E-03   -0.39486E-04  7720   0.534E-02    0.127E-01
DAV:   6    -0.159788447351E+03   -0.19742E-05   -0.19686E-04  8744   0.699E-02    0.113E-01
DAV:   7    -0.159788446028E+03    0.13226E-05   -0.13850E-04  8136   0.602E-02    0.809E-02
DAV:   8    -0.159788430387E+03    0.15642E-04   -0.15307E-04  9768   0.456E-02    0.224E-02
DAV:   9    -0.159788441874E+03   -0.11487E-04   -0.11749E-05  6808   0.149E-02    0.106E-02
DAV:  10    -0.159788454210E+03   -0.12336E-04   -0.89130E-07  3528   0.577E-03    0.546E-03
DAV:  11    -0.159788468563E+03   -0.14353E-04   -0.65875E-07  3784   0.332E-03    0.300E-03
DAV:  12    -0.159788479455E+03   -0.10892E-04   -0.47391E-07  3456   0.271E-03    0.243E-03
DAV:  13    -0.159788488989E+03   -0.95343E-05   -0.33021E-07  3560   0.224E-03    0.151E-03
DAV:  14    -0.159788496029E+03   -0.70397E-05   -0.18573E-07  3464   0.180E-03    0.959E-04
DAV:  15    -0.159788501103E+03   -0.50744E-05   -0.12484E-07  3424   0.121E-03    0.658E-04
DAV:  16    -0.159788505398E+03   -0.42947E-05   -0.80055E-08  3400   0.926E-04    0.412E-04
DAV:  17    -0.159788508547E+03   -0.31484E-05   -0.55535E-08  3456   0.765E-04    0.445E-04
DAV:  18    -0.159788512141E+03   -0.35942E-05   -0.57894E-08  3512   0.604E-04    0.327E-04
DAV:  19    -0.159788515404E+03   -0.32635E-05   -0.56644E-08  3448   0.598E-04    0.261E-04
DAV:  20    -0.159788517842E+03   -0.24377E-05   -0.53345E-08  3440   0.568E-04    0.248E-04
DAV:  21    -0.159788519266E+03   -0.14240E-05   -0.42004E-08  3424   0.545E-04    0.212E-04
DAV:  22    -0.159788519994E+03   -0.72786E-06   -0.30173E-08  3408   0.459E-04
  76 F= -.15978852E+03 E0= -.15978852E+03  d E =-.769943E-03  mag=    24.0000
 trial-energy change:   -0.000770  1 .order   -0.000772   -0.001335   -0.000209
 step:   2.9082(harm=  2.9082)  dis= 0.00921  next Energy=  -159.788541 (dE=-0.791E-03)
 reached required accuracy - stopping structural energy minimisation
Note: The following floating-point exceptions are signalling: IEEE_OVERFLOW_FLAG IEEE_UNDERFLOW_FLAG IEEE_DENORMAL
Note: The following floating-point exceptions are signalling: IEEE_OVERFLOW_FLAG IEEE_UNDERFLOW_FLAG IEEE_DENORMAL
Note: The following floating-point exceptions are signalling: IEEE_OVERFLOW_FLAG IEEE_UNDERFLOW_FLAG IEEE_DENORMAL
Note: The following floating-point exceptions are signalling: IEEE_OVERFLOW_FLAG IEEE_UNDERFLOW_FLAG IEEE_DENORMAL
Note: The following floating-point exceptions are signalling: IEEE_OVERFLOW_FLAG IEEE_UNDERFLOW_FLAG IEEE_DENORMAL
Note: The following floating-point exceptions are signalling: IEEE_OVERFLOW_FLAG IEEE_UNDERFLOW_FLAG IEEE_DENORMAL
Note: The following floating-point exceptions are signalling: IEEE_OVERFLOW_FLAG IEEE_UNDERFLOW_FLAG IEEE_DENORMAL
Note: The following floating-point exceptions are signalling: IEEE_OVERFLOW_FLAG IEEE_UNDERFLOW_FLAG IEEE_DENORMAL
Note: The following floating-point exceptions are signalling: IEEE_OVERFLOW_FLAG IEEE_UNDERFLOW_FLAG IEEE_DENORMAL
Note: The following floating-point exceptions are signalling: IEEE_OVERFLOW_FLAG IEEE_UNDERFLOW_FLAG IEEE_DENORMAL
Note: The following floating-point exceptions are signalling: IEEE_OVERFLOW_FLAG IEEE_UNDERFLOW_FLAG IEEE_DENORMAL
Note: The following floating-point exceptions are signalling: IEEE_OVERFLOW_FLAG IEEE_UNDERFLOW_FLAG IEEE_DENORMAL
Note: The following floating-point exceptions are signalling: IEEE_OVERFLOW_FLAG IEEE_UNDERFLOW_FLAG IEEE_DENORMAL
Note: The following floating-point exceptions are signalling: IEEE_OVERFLOW_FLAG IEEE_UNDERFLOW_FLAG IEEE_DENORMAL
Note: The following floating-point exceptions are signalling: IEEE_OVERFLOW_FLAG IEEE_UNDERFLOW_FLAG IEEE_DENORMAL
Note: The following floating-point exceptions are signalling: IEEE_OVERFLOW_FLAG IEEE_UNDERFLOW_FLAG IEEE_DENORMAL
Note: The following floating-point exceptions are signalling: IEEE_OVERFLOW_FLAG IEEE_UNDERFLOW_FLAG IEEE_DENORMAL
Note: The following floating-point exceptions are signalling: IEEE_OVERFLOW_FLAG IEEE_UNDERFLOW_FLAG IEEE_DENORMAL
Note: The following floating-point exceptions are signalling: IEEE_OVERFLOW_FLAG IEEE_UNDERFLOW_FLAG IEEE_DENORMAL
Note: The following floating-point exceptions are signalling: IEEE_OVERFLOW_FLAG IEEE_UNDERFLOW_FLAG IEEE_DENORMAL
Note: The following floating-point exceptions are signalling: IEEE_OVERFLOW_FLAG IEEE_UNDERFLOW_FLAG IEEE_DENORMAL
Note: The following floating-point exceptions are signalling: IEEE_OVERFLOW_FLAG IEEE_UNDERFLOW_FLAG IEEE_DENORMAL
Note: The following floating-point exceptions are signalling: IEEE_OVERFLOW_FLAG IEEE_UNDERFLOW_FLAG IEEE_DENORMAL
Note: The following floating-point exceptions are signalling: IEEE_OVERFLOW_FLAG IEEE_UNDERFLOW_FLAG IEEE_DENORMAL
Note: The following floating-point exceptions are signalling: IEEE_OVERFLOW_FLAG IEEE_UNDERFLOW_FLAG IEEE_DENORMAL
Note: The following floating-point exceptions are signalling: IEEE_OVERFLOW_FLAG IEEE_UNDERFLOW_FLAG IEEE_DENORMAL
Note: The following floating-point exceptions are signalling: IEEE_OVERFLOW_FLAG IEEE_UNDERFLOW_FLAG IEEE_DENORMAL
Note: The following floating-point exceptions are signalling: IEEE_INVALID_FLAG IEEE_OVERFLOW_FLAG IEEE_UNDERFLOW_FLAG IEEE_DENORMAL
Note: The following floating-point exceptions are signalling: IEEE_OVERFLOW_FLAG IEEE_UNDERFLOW_FLAG IEEE_DENORMAL
Note: The following floating-point exceptions are signalling: IEEE_INVALID_FLAG IEEE_OVERFLOW_FLAG IEEE_UNDERFLOW_FLAG IEEE_DENORMAL
Note: The following floating-point exceptions are signalling: IEEE_OVERFLOW_FLAG IEEE_UNDERFLOW_FLAG IEEE_DENORMAL
Note: The following floating-point exceptions are signalling: IEEE_OVERFLOW_FLAG IEEE_UNDERFLOW_FLAG IEEE_DENORMAL
Note: The following floating-point exceptions are signalling: IEEE_OVERFLOW_FLAG IEEE_UNDERFLOW_FLAG IEEE_DENORMAL
Note: The following floating-point exceptions are signalling: IEEE_OVERFLOW_FLAG IEEE_UNDERFLOW_FLAG IEEE_DENORMAL
Note: The following floating-point exceptions are signalling: IEEE_OVERFLOW_FLAG IEEE_UNDERFLOW_FLAG IEEE_DENORMAL
Note: The following floating-point exceptions are signalling: IEEE_OVERFLOW_FLAG IEEE_UNDERFLOW_FLAG IEEE_DENORMAL
Note: The following floating-point exceptions are signalling: IEEE_OVERFLOW_FLAG IEEE_UNDERFLOW_FLAG IEEE_DENORMAL
Note: The following floating-point exceptions are signalling: IEEE_INVALID_FLAG IEEE_OVERFLOW_FLAG IEEE_UNDERFLOW_FLAG IEEE_DENORMAL
Note: The following floating-point exceptions are signalling: IEEE_OVERFLOW_FLAG IEEE_UNDERFLOW_FLAG IEEE_DENORMAL
Note: The following floating-point exceptions are signalling: IEEE_OVERFLOW_FLAG IEEE_UNDERFLOW_FLAG IEEE_DENORMAL
Note: The following floating-point exceptions are signalling: IEEE_OVERFLOW_FLAG IEEE_UNDERFLOW_FLAG IEEE_DENORMAL
Note: The following floating-point exceptions are signalling: IEEE_OVERFLOW_FLAG IEEE_UNDERFLOW_FLAG IEEE_DENORMAL
Note: The following floating-point exceptions are signalling: IEEE_OVERFLOW_FLAG IEEE_UNDERFLOW_FLAG IEEE_DENORMAL
Note: The following floating-point exceptions are signalling: IEEE_OVERFLOW_FLAG IEEE_UNDERFLOW_FLAG IEEE_DENORMAL
Note: The following floating-point exceptions are signalling: IEEE_OVERFLOW_FLAG IEEE_UNDERFLOW_FLAG IEEE_DENORMAL
Note: The following floating-point exceptions are signalling: IEEE_OVERFLOW_FLAG IEEE_UNDERFLOW_FLAG IEEE_DENORMAL
Note: The following floating-point exceptions are signalling: IEEE_OVERFLOW_FLAG IEEE_UNDERFLOW_FLAG IEEE_DENORMAL
Note: The following floating-point exceptions are signalling: IEEE_OVERFLOW_FLAG IEEE_UNDERFLOW_FLAG IEEE_DENORMAL
Note: The following floating-point exceptions are signalling: IEEE_OVERFLOW_FLAG IEEE_UNDERFLOW_FLAG IEEE_DENORMAL
Note: The following floating-point exceptions are signalling: IEEE_OVERFLOW_FLAG IEEE_UNDERFLOW_FLAG IEEE_DENORMAL
Note: The following floating-point exceptions are signalling: IEEE_OVERFLOW_FLAG IEEE_UNDERFLOW_FLAG IEEE_DENORMAL
Note: The following floating-point exceptions are signalling: IEEE_OVERFLOW_FLAG IEEE_UNDERFLOW_FLAG IEEE_DENORMAL
Note: The following floating-point exceptions are signalling: IEEE_OVERFLOW_FLAG IEEE_UNDERFLOW_FLAG IEEE_DENORMAL
Note: The following floating-point exceptions are signalling: IEEE_OVERFLOW_FLAG IEEE_UNDERFLOW_FLAG IEEE_DENORMAL
Note: The following floating-point exceptions are signalling: IEEE_OVERFLOW_FLAG IEEE_UNDERFLOW_FLAG IEEE_DENORMAL
Note: The following floating-point exceptions are signalling: IEEE_OVERFLOW_FLAG IEEE_UNDERFLOW_FLAG IEEE_DENORMAL
Note: The following floating-point exceptions are signalling: IEEE_OVERFLOW_FLAG IEEE_UNDERFLOW_FLAG IEEE_DENORMAL
Note: The following floating-point exceptions are signalling: IEEE_OVERFLOW_FLAG IEEE_UNDERFLOW_FLAG IEEE_DENORMAL
Note: The following floating-point exceptions are signalling: IEEE_OVERFLOW_FLAG IEEE_UNDERFLOW_FLAG IEEE_DENORMAL
Note: The following floating-point exceptions are signalling: IEEE_OVERFLOW_FLAG IEEE_UNDERFLOW_FLAG IEEE_DENORMAL
Note: The following floating-point exceptions are signalling: IEEE_OVERFLOW_FLAG IEEE_UNDERFLOW_FLAG IEEE_DENORMAL
Note: The following floating-point exceptions are signalling: IEEE_OVERFLOW_FLAG IEEE_UNDERFLOW_FLAG IEEE_DENORMAL
Note: The following floating-point exceptions are signalling: IEEE_OVERFLOW_FLAG IEEE_UNDERFLOW_FLAG IEEE_DENORMAL
Note: The following floating-point exceptions are signalling: IEEE_OVERFLOW_FLAG IEEE_UNDERFLOW_FLAG IEEE_DENORMAL
