Cr8Cl24                                 
   1.00000000000000     
    12.2092962264999993    0.0000000000000000    0.0000000000000000
    -6.0854095134000001   10.5847228971000007    0.0000000000000000
     0.0000000000000000    0.0000000000000000   17.6887664794999999
   Cr   Cl   Fe   H 
     8    24     1     1
Direct
     0.1545096118351890    0.3378789751900130    0.3365907197447708
     0.1575072613083265    0.8438641570655059    0.3297578335817266
     0.6683506701152983    0.3417090844616982    0.3325577332728180
     0.6598082665499722    0.8458931226818771    0.3354218175743701
     0.8278105088508252    0.1737280748398096    0.3297017613429647
     0.8296430442605421    0.6760026253429506    0.3354888755554070
     0.3216856470659881    0.1705782374027967    0.3366580300948833
     0.3255072829864143    0.6844617492753058    0.3325357715296063
     0.1707129610722960    0.5039401006471567    0.2609349003659332
     0.1663467760944565    0.0137184365862347    0.2573295276084031
     0.6601576074869099    0.5116447941220453    0.2654097855283649
     0.6704705159631316    0.0048932470529963    0.2556588389054270
     0.3298973545100423    0.3459876613585509    0.2687609572205446
     0.3056045614573656    0.8405060126892678    0.2480745974416585
     0.8244715931271679    0.3216910695837299    0.2479334283542383
     0.8138069966905980    0.8299462287786116    0.2610024813264001
     0.9976852454701230    0.1824919799566593    0.2573034002324349
     0.9886395543040207    0.6865474344589900    0.2557209608151668
     0.4877146999135262    0.1867541777124470    0.2610348355333122
     0.4953951635100338    0.6766120683423799    0.2652126969966419
     0.9889807728871653    0.3278798281518205    0.4090392322905591
     0.9925153482070654    0.8325728520314523    0.4096189509775245
     0.4814255260177520    0.3216440477637749    0.4232756969854621
     0.4967464965262071    0.8367585776310053    0.4115629022846372
     0.3058197792855922    0.4979678188857384    0.4230409855928267
     0.3116085256724508    0.0049943432388901    0.4091001758410043
     0.8204963495796804    0.5130218077261540    0.4116439538528620
     0.8164542526858641    0.0087078869344288    0.4095987278626925
     0.1640140058936877    0.1802141224546698    0.4119821851077924
     0.1673774872933461    0.6921344626296961    0.4081375494596971
     0.6761790908577128    0.1836069866000075    0.4081386126249787
     0.6708446935304490    0.6871007476175575    0.4166162237629670
     0.4829139598780262    0.4989172640711221    0.3875097191157281
     0.4942286361127828    0.5102942967146317    0.4708862072161561
 
  0.00000000E+00  0.00000000E+00  0.00000000E+00
  0.00000000E+00  0.00000000E+00  0.00000000E+00
  0.00000000E+00  0.00000000E+00  0.00000000E+00
  0.00000000E+00  0.00000000E+00  0.00000000E+00
  0.00000000E+00  0.00000000E+00  0.00000000E+00
  0.00000000E+00  0.00000000E+00  0.00000000E+00
  0.00000000E+00  0.00000000E+00  0.00000000E+00
  0.00000000E+00  0.00000000E+00  0.00000000E+00
  0.00000000E+00  0.00000000E+00  0.00000000E+00
  0.00000000E+00  0.00000000E+00  0.00000000E+00
  0.00000000E+00  0.00000000E+00  0.00000000E+00
  0.00000000E+00  0.00000000E+00  0.00000000E+00
  0.00000000E+00  0.00000000E+00  0.00000000E+00
  0.00000000E+00  0.00000000E+00  0.00000000E+00
  0.00000000E+00  0.00000000E+00  0.00000000E+00
  0.00000000E+00  0.00000000E+00  0.00000000E+00
  0.00000000E+00  0.00000000E+00  0.00000000E+00
  0.00000000E+00  0.00000000E+00  0.00000000E+00
  0.00000000E+00  0.00000000E+00  0.00000000E+00
  0.00000000E+00  0.00000000E+00  0.00000000E+00
  0.00000000E+00  0.00000000E+00  0.00000000E+00
  0.00000000E+00  0.00000000E+00  0.00000000E+00
  0.00000000E+00  0.00000000E+00  0.00000000E+00
  0.00000000E+00  0.00000000E+00  0.00000000E+00
  0.00000000E+00  0.00000000E+00  0.00000000E+00
  0.00000000E+00  0.00000000E+00  0.00000000E+00
  0.00000000E+00  0.00000000E+00  0.00000000E+00
  0.00000000E+00  0.00000000E+00  0.00000000E+00
  0.00000000E+00  0.00000000E+00  0.00000000E+00
  0.00000000E+00  0.00000000E+00  0.00000000E+00
  0.00000000E+00  0.00000000E+00  0.00000000E+00
  0.00000000E+00  0.00000000E+00  0.00000000E+00
  0.00000000E+00  0.00000000E+00  0.00000000E+00
  0.00000000E+00  0.00000000E+00  0.00000000E+00
