       N       E                     dE             d eps       ncg     rms          rms(c)
DAV:   1    -0.183561292801E+03   -0.18356E+03   -0.44819E+02 12472   0.523E+01    0.860E+01
RMM:   2    -0.158464208790E+03    0.25097E+02   -0.90890E+01  9115   0.265E+01    0.746E+01
RMM:   3    -0.197850386482E+03   -0.39386E+02   -0.17131E+02 11442   0.359E+01    0.114E+02
RMM:   4    -0.177547372677E+03    0.20303E+02   -0.39143E+01  9872   0.158E+01    0.596E+01
RMM:   5    -0.150276810104E+03    0.27271E+02   -0.46779E+01  9733   0.159E+01    0.260E+01
RMM:   6    -0.150265208201E+03    0.11602E-01   -0.67502E+00  9089   0.764E+00    0.184E+01
RMM:   7    -0.150694561877E+03   -0.42935E+00   -0.51395E+00  9247   0.535E+00    0.320E+01
RMM:   8    -0.148750688473E+03    0.19439E+01   -0.19446E+00  8398   0.474E+00    0.115E+01
RMM:   9    -0.148701389759E+03    0.49299E-01   -0.86684E-01  9247   0.216E+00    0.107E+01
RMM:  10    -0.148834363875E+03   -0.13297E+00   -0.27124E-01  9664   0.156E+00    0.950E+00
RMM:  11    -0.148853279155E+03   -0.18915E-01   -0.12595E-01 10664   0.750E-01    0.884E+00
RMM:  12    -0.148683133628E+03    0.17015E+00   -0.35268E-01  9193   0.148E+00    0.380E+00
RMM:  13    -0.148923831417E+03   -0.24070E+00   -0.13179E-01  9232   0.883E-01    0.502E+00
RMM:  14    -0.149122680874E+03   -0.19885E+00   -0.42403E-02  8501   0.703E-01    0.384E+00
RMM:  15    -0.149420289752E+03   -0.29761E+00   -0.70957E-02  8668   0.598E-01    0.202E+00
RMM:  16    -0.149683634462E+03   -0.26334E+00   -0.30376E-02  8866   0.395E-01    0.144E+00
RMM:  17    -0.149894858561E+03   -0.21122E+00   -0.14283E-02  8876   0.285E-01    0.114E+00
RMM:  18    -0.150070189731E+03   -0.17533E+00   -0.10977E-02  8695   0.233E-01    0.827E-01
RMM:  19    -0.150159832697E+03   -0.89643E-01   -0.51307E-03  9250   0.177E-01    0.586E-01
RMM:  20    -0.150246646999E+03   -0.86814E-01   -0.39156E-03  8363   0.134E-01    0.387E-01
RMM:  21    -0.150285301731E+03   -0.38655E-01   -0.23849E-03  8959   0.107E-01    0.266E-01
RMM:  22    -0.150315719211E+03   -0.30417E-01   -0.17654E-03  8479   0.929E-02    0.198E-01
RMM:  23    -0.150331241129E+03   -0.15522E-01   -0.16235E-03  8739   0.817E-02    0.111E-01
RMM:  24    -0.150335571577E+03   -0.43304E-02   -0.84864E-04  9274   0.531E-02    0.841E-02
RMM:  25    -0.150336941206E+03   -0.13696E-02   -0.45283E-04  9588   0.397E-02    0.611E-02
RMM:  26    -0.150337022628E+03   -0.81422E-04   -0.14864E-04  9119   0.231E-02    0.533E-02
RMM:  27    -0.150336861563E+03    0.16106E-03   -0.53607E-05  8641   0.185E-02    0.474E-02
RMM:  28    -0.150336849237E+03    0.12326E-04   -0.20848E-05  7599   0.107E-02    0.393E-02
RMM:  29    -0.150336978752E+03   -0.12951E-03   -0.14884E-05  7451   0.888E-03    0.352E-02
RMM:  30    -0.150337108969E+03   -0.13022E-03   -0.14197E-05  7698   0.806E-03    0.183E-02
RMM:  31    -0.150337182714E+03   -0.73745E-04   -0.10745E-05  7418   0.670E-03    0.141E-02
RMM:  32    -0.150337217214E+03   -0.34501E-04   -0.65653E-06  7104   0.663E-03    0.589E-03
RMM:  33    -0.150337229267E+03   -0.12052E-04   -0.26285E-06  5727   0.382E-03    0.549E-03
RMM:  34    -0.150337243711E+03   -0.14444E-04   -0.12860E-06  5082   0.299E-03    0.664E-03
RMM:  35    -0.150337250717E+03   -0.70058E-05   -0.49477E-07  4709   0.228E-03    0.464E-03
RMM:  36    -0.150337259333E+03   -0.86163E-05   -0.46725E-07  4725   0.177E-03    0.426E-03
RMM:  37    -0.150337264292E+03   -0.49591E-05   -0.24792E-07  4428   0.163E-03    0.311E-03
RMM:  38    -0.150337267494E+03   -0.32020E-05   -0.17558E-07  4232   0.118E-03    0.201E-03
RMM:  39    -0.150337270114E+03   -0.26203E-05   -0.14141E-07  3791   0.104E-03    0.126E-03
RMM:  40    -0.150337271550E+03   -0.14357E-05   -0.12125E-07  3858   0.992E-04    0.779E-04
RMM:  41    -0.150337272253E+03   -0.70354E-06   -0.90013E-08  3688   0.879E-04
   1 F= -.15651086E+03 E0= -.15649463E+03  d E =-.156511E+03  mag=    23.0001
       N       E                     dE             d eps       ncg     rms          rms(c)
DAV:   1    -0.150341158441E+03   -0.38869E-02   -0.47378E-01  8280   0.134E+00    0.504E-01
RMM:   2    -0.150346053660E+03   -0.48952E-02   -0.25994E-02  8166   0.707E-01    0.952E-01
RMM:   3    -0.150346158503E+03   -0.10484E-03   -0.16415E-02 10313   0.338E-01    0.710E-01
RMM:   4    -0.150345308447E+03    0.85006E-03   -0.23069E-03  8471   0.162E-01    0.168E-01
RMM:   5    -0.150345431994E+03   -0.12355E-03   -0.51585E-04  9140   0.639E-02    0.144E-01
RMM:   6    -0.150345410434E+03    0.21560E-04   -0.74064E-05  8956   0.294E-02    0.115E-01
RMM:   7    -0.150345322590E+03    0.87843E-04   -0.33211E-04 10100   0.389E-02    0.604E-02
RMM:   8    -0.150345363856E+03   -0.41266E-04   -0.20487E-04 10113   0.288E-02    0.350E-02
RMM:   9    -0.150345375742E+03   -0.11886E-04   -0.13737E-05  7729   0.130E-02    0.359E-02
RMM:  10    -0.150345389326E+03   -0.13585E-04   -0.86717E-06  7258   0.937E-03    0.222E-02
RMM:  11    -0.150345429018E+03   -0.39691E-04   -0.27866E-05  9150   0.105E-02    0.145E-02
RMM:  12    -0.150345459545E+03   -0.30527E-04   -0.79795E-06  7478   0.793E-03    0.469E-03
RMM:  13    -0.150345480323E+03   -0.20779E-04   -0.19792E-06  5333   0.497E-03    0.366E-03
RMM:  14    -0.150345494012E+03   -0.13688E-04   -0.68955E-07  4948   0.317E-03    0.422E-03
RMM:  15    -0.150345506932E+03   -0.12921E-04   -0.30653E-07  4859   0.207E-03    0.262E-03
RMM:  16    -0.150345521446E+03   -0.14514E-04   -0.30008E-07  4574   0.132E-03    0.154E-03
RMM:  17    -0.150345534504E+03   -0.13058E-04   -0.27102E-07  4491   0.147E-03    0.266E-03
RMM:  18    -0.150345535876E+03   -0.13718E-05   -0.12499E-07  4150   0.127E-03    0.123E-03
RMM:  19    -0.150345539017E+03   -0.31412E-05   -0.10804E-07  3936   0.879E-04    0.661E-04
RMM:  20    -0.150345541010E+03   -0.19928E-05   -0.60826E-08  3621   0.880E-04    0.450E-04
RMM:  21    -0.150345544818E+03   -0.38087E-05   -0.94488E-08  3331   0.732E-04    0.446E-04
RMM:  22    -0.150345546887E+03   -0.20684E-05   -0.78109E-08  3615   0.857E-04    0.267E-04
RMM:  23    -0.150345547965E+03   -0.10778E-05   -0.64012E-08  3353   0.712E-04    0.217E-04
RMM:  24    -0.150345548503E+03   -0.53807E-06   -0.37852E-08  3062   0.723E-04
   2 F= -.15651889E+03 E0= -.15650259E+03  d E =-.802949E-02  mag=    23.0000
       N       E                     dE             d eps       ncg     rms          rms(c)
DAV:   1    -0.150317284981E+03    0.28263E-01   -0.42536E+00  8320   0.401E+00    0.151E+00
RMM:   2    -0.150364275892E+03   -0.46991E-01   -0.23687E-01  8146   0.214E+00    0.302E+00
RMM:   3    -0.150361873628E+03    0.24023E-02   -0.15211E-01 10347   0.103E+00    0.195E+00
RMM:   4    -0.150356293880E+03    0.55797E-02   -0.20492E-02  8549   0.464E-01    0.506E-01
RMM:   5    -0.150356387168E+03   -0.93288E-04   -0.37733E-03  9273   0.190E-01    0.429E-01
RMM:   6    -0.150356119847E+03    0.26732E-03   -0.80267E-04  9274   0.894E-02    0.336E-01
RMM:   7    -0.150355648881E+03    0.47097E-03   -0.37802E-03 10233   0.137E-01    0.213E-01
RMM:   8    -0.150355967713E+03   -0.31883E-03   -0.13615E-03 10394   0.852E-02    0.113E-01
RMM:   9    -0.150356007476E+03   -0.39763E-04   -0.87182E-05  8265   0.338E-02    0.806E-02
RMM:  10    -0.150356120574E+03   -0.11310E-03   -0.15242E-04  9240   0.310E-02    0.475E-02
RMM:  11    -0.150356264453E+03   -0.14388E-03   -0.12377E-04  9909   0.214E-02    0.359E-02
RMM:  12    -0.150356395906E+03   -0.13145E-03   -0.27053E-05  9369   0.144E-02    0.166E-02
RMM:  13    -0.150356475458E+03   -0.79552E-04   -0.73254E-06  6726   0.738E-03    0.943E-03
RMM:  14    -0.150356573226E+03   -0.97768E-04   -0.26796E-06  5510   0.503E-03    0.832E-03
RMM:  15    -0.150356637538E+03   -0.64312E-04   -0.16925E-06  5110   0.430E-03    0.848E-03
RMM:  16    -0.150356693263E+03   -0.55724E-04   -0.13741E-06  5061   0.376E-03    0.405E-03
RMM:  17    -0.150356745589E+03   -0.52327E-04   -0.15482E-06  5197   0.312E-03    0.515E-03
RMM:  18    -0.150356773298E+03   -0.27709E-04   -0.91825E-07  4797   0.292E-03    0.424E-03
RMM:  19    -0.150356788371E+03   -0.15073E-04   -0.65400E-07  4594   0.237E-03    0.214E-03
RMM:  20    -0.150356799026E+03   -0.10655E-04   -0.43711E-07  4390   0.193E-03    0.154E-03
RMM:  21    -0.150356813783E+03   -0.14758E-04   -0.56729E-07  4439   0.167E-03    0.112E-03
RMM:  22    -0.150356822009E+03   -0.82255E-05   -0.42879E-07  4356   0.180E-03    0.109E-03
RMM:  23    -0.150356825604E+03   -0.35951E-05   -0.33227E-07  4222   0.153E-03    0.701E-04
RMM:  24    -0.150356827089E+03   -0.14850E-05   -0.18793E-07  3805   0.134E-03    0.454E-04
RMM:  25    -0.150356828542E+03   -0.14533E-05   -0.14888E-07  3531   0.981E-04    0.324E-04
RMM:  26    -0.150356829371E+03   -0.82864E-06   -0.89978E-08  3466   0.991E-04
   3 F= -.15652943E+03 E0= -.15651330E+03  d E =-.185686E-01  mag=    23.0000
       N       E                     dE             d eps       ncg     rms          rms(c)
DAV:   1    -0.150350529588E+03    0.62990E-02   -0.14811E+00  8320   0.234E+00    0.896E-01
RMM:   2    -0.150357883930E+03   -0.73543E-02   -0.50990E-02  8042   0.995E-01    0.571E-01
RMM:   3    -0.150367858355E+03   -0.99744E-02   -0.40676E-02 10433   0.497E-01    0.146E+00
RMM:   4    -0.150361501339E+03    0.63570E-02   -0.90792E-03  8315   0.304E-01    0.436E-01
RMM:   5    -0.150361972406E+03   -0.47107E-03   -0.18009E-03  9061   0.146E-01    0.295E-01
RMM:   6    -0.150361882975E+03    0.89431E-04   -0.43873E-04  9061   0.649E-02    0.217E-01
RMM:   7    -0.150361788380E+03    0.94595E-04   -0.16923E-04  9139   0.382E-02    0.167E-01
RMM:   8    -0.150361860876E+03   -0.72496E-04   -0.17493E-03 10921   0.849E-02    0.121E-01
RMM:   9    -0.150361951002E+03   -0.90127E-04   -0.18327E-04 10263   0.383E-02    0.492E-02
RMM:  10    -0.150362012171E+03   -0.61169E-04   -0.22015E-05  8010   0.156E-02    0.371E-02
RMM:  11    -0.150362098906E+03   -0.86734E-04   -0.77394E-05  9519   0.178E-02    0.221E-02
RMM:  12    -0.150362213223E+03   -0.11432E-03   -0.46972E-05  9730   0.149E-02    0.132E-02
RMM:  13    -0.150362241465E+03   -0.28241E-04   -0.39822E-06  5851   0.648E-03    0.145E-02
RMM:  14    -0.150362262992E+03   -0.21527E-04   -0.10837E-06  5000   0.451E-03    0.582E-03
RMM:  15    -0.150362309415E+03   -0.46424E-04   -0.12443E-06  4979   0.255E-03    0.555E-03
RMM:  16    -0.150362373334E+03   -0.63918E-04   -0.84934E-07  5018   0.278E-03    0.699E-03
RMM:  17    -0.150362415646E+03   -0.42312E-04   -0.10211E-06  4980   0.270E-03    0.332E-03
RMM:  18    -0.150362435672E+03   -0.20026E-04   -0.66967E-07  4842   0.248E-03    0.224E-03
RMM:  19    -0.150362449254E+03   -0.13582E-04   -0.49772E-07  4637   0.205E-03    0.183E-03
RMM:  20    -0.150362465171E+03   -0.15918E-04   -0.45055E-07  4441   0.184E-03    0.117E-03
RMM:  21    -0.150362479052E+03   -0.13881E-04   -0.52894E-07  4373   0.169E-03    0.126E-03
RMM:  22    -0.150362483766E+03   -0.47141E-05   -0.31513E-07  4252   0.171E-03    0.788E-04
RMM:  23    -0.150362485482E+03   -0.17152E-05   -0.19725E-07  3715   0.118E-03    0.992E-04
RMM:  24    -0.150362487091E+03   -0.16091E-05   -0.13823E-07  3647   0.113E-03    0.329E-04
RMM:  25    -0.150362487995E+03   -0.90390E-06   -0.10469E-07  3460   0.901E-04
   4 F= -.15653560E+03 E0= -.15652021E+03  d E =-.617532E-02  mag=    23.0000
       N       E                     dE             d eps       ncg     rms          rms(c)
DAV:   1    -0.150356873505E+03    0.56136E-02   -0.80896E-01  8288   0.173E+00    0.650E-01
RMM:   2    -0.150360963479E+03   -0.40900E-02   -0.27806E-02  8020   0.739E-01    0.468E-01
RMM:   3    -0.150367167368E+03   -0.62039E-02   -0.23909E-02 10527   0.385E-01    0.120E+00
RMM:   4    -0.150362497598E+03    0.46698E-02   -0.56512E-03  8285   0.234E-01    0.291E-01
RMM:   5    -0.150363068433E+03   -0.57084E-03   -0.98028E-04  9201   0.103E-01    0.201E-01
RMM:   6    -0.150363027937E+03    0.40496E-04   -0.20446E-04  9106   0.453E-02    0.149E-01
RMM:   7    -0.150362969165E+03    0.58772E-04   -0.11325E-04  9238   0.308E-02    0.115E-01
RMM:   8    -0.150362986763E+03   -0.17598E-04   -0.84308E-04 10617   0.565E-02    0.731E-02
RMM:   9    -0.150363049572E+03   -0.62809E-04   -0.10325E-04 10269   0.280E-02    0.365E-02
RMM:  10    -0.150363088892E+03   -0.39321E-04   -0.10587E-05  7729   0.122E-02    0.249E-02
RMM:  11    -0.150363156970E+03   -0.68078E-04   -0.55223E-05  9704   0.141E-02    0.137E-02
RMM:  12    -0.150363220475E+03   -0.63505E-04   -0.14659E-05  8314   0.107E-02    0.114E-02
RMM:  13    -0.150363233032E+03   -0.12557E-04   -0.24199E-06  5358   0.571E-03    0.621E-03
RMM:  14    -0.150363254981E+03   -0.21949E-04   -0.66781E-07  4953   0.359E-03    0.364E-03
RMM:  15    -0.150363287081E+03   -0.32100E-04   -0.61030E-07  4944   0.183E-03    0.351E-03
RMM:  16    -0.150363324972E+03   -0.37891E-04   -0.46984E-07  4641   0.186E-03    0.451E-03
RMM:  17    -0.150363348676E+03   -0.23704E-04   -0.44708E-07  4584   0.194E-03    0.228E-03
RMM:  18    -0.150363363992E+03   -0.15317E-04   -0.44109E-07  4664   0.165E-03    0.150E-03
RMM:  19    -0.150363372112E+03   -0.81198E-05   -0.26356E-07  4508   0.173E-03    0.890E-04
RMM:  20    -0.150363381742E+03   -0.96297E-05   -0.28143E-07  4284   0.126E-03    0.144E-03
RMM:  21    -0.150363388869E+03   -0.71272E-05   -0.20082E-07  4131   0.142E-03    0.713E-04
RMM:  22    -0.150363394207E+03   -0.53382E-05   -0.23913E-07  3756   0.107E-03    0.789E-04
RMM:  23    -0.150363395333E+03   -0.11252E-05   -0.10507E-07  3685   0.121E-03    0.620E-04
RMM:  24    -0.150363396638E+03   -0.13051E-05   -0.90507E-08  3046   0.695E-04    0.171E-04
RMM:  25    -0.150363397738E+03   -0.11000E-05   -0.67201E-08  3350   0.880E-04    0.181E-04
RMM:  26    -0.150363398203E+03   -0.46485E-06   -0.58448E-08  3284   0.682E-04
   5 F= -.15653689E+03 E0= -.15652203E+03  d E =-.746359E-02  mag=    23.0000
       N       E                     dE             d eps       ncg     rms          rms(c)
DAV:   1    -0.150356858513E+03    0.65392E-02   -0.14585E+00  8232   0.244E+00    0.915E-01
RMM:   2    -0.150368105275E+03   -0.11247E-01   -0.72311E-02  7988   0.123E+00    0.136E+00
RMM:   3    -0.150373508023E+03   -0.54027E-02   -0.56759E-02 10529   0.636E-01    0.145E+00
RMM:   4    -0.150368133396E+03    0.53746E-02   -0.85410E-03  8321   0.319E-01    0.391E-01
RMM:   5    -0.150368722035E+03   -0.58864E-03   -0.23084E-03  9272   0.149E-01    0.343E-01
RMM:   6    -0.150368628525E+03    0.93510E-04   -0.37550E-04  9193   0.624E-02    0.242E-01
RMM:   7    -0.150368491532E+03    0.13699E-03   -0.18664E-04  9338   0.323E-02    0.192E-01
RMM:   8    -0.150368428404E+03    0.63128E-04   -0.17030E-03 10562   0.847E-02    0.848E-02
RMM:   9    -0.150368531466E+03   -0.10306E-03   -0.23419E-04 10333   0.399E-02    0.580E-02
RMM:  10    -0.150368547236E+03   -0.15770E-04   -0.14487E-05  8014   0.155E-02    0.444E-02
RMM:  11    -0.150368581592E+03   -0.34356E-04   -0.51538E-05  9497   0.144E-02    0.240E-02
RMM:  12    -0.150368666100E+03   -0.84508E-04   -0.54902E-05  9911   0.181E-02    0.582E-02
RMM:  13    -0.150368687637E+03   -0.21537E-04   -0.10375E-05  7579   0.106E-02    0.121E-02
RMM:  14    -0.150368712700E+03   -0.25063E-04   -0.24910E-06  5460   0.548E-03    0.865E-03
RMM:  15    -0.150368740016E+03   -0.27316E-04   -0.70658E-07  4958   0.297E-03    0.580E-03
RMM:  16    -0.150368762528E+03   -0.22512E-04   -0.42768E-07  4950   0.224E-03    0.334E-03
RMM:  17    -0.150368786018E+03   -0.23490E-04   -0.57066E-07  4894   0.185E-03    0.459E-03
RMM:  18    -0.150368803309E+03   -0.17291E-04   -0.46881E-07  4851   0.232E-03    0.191E-03
RMM:  19    -0.150368814281E+03   -0.10972E-04   -0.39494E-07  4550   0.176E-03    0.268E-03
RMM:  20    -0.150368817961E+03   -0.36794E-05   -0.19307E-07  4245   0.169E-03    0.142E-03
RMM:  21    -0.150368824142E+03   -0.61817E-05   -0.18869E-07  3990   0.941E-04    0.184E-03
RMM:  22    -0.150368829293E+03   -0.51504E-05   -0.10995E-07  3902   0.118E-03    0.494E-04
RMM:  23    -0.150368832725E+03   -0.34321E-05   -0.11926E-07  3503   0.766E-04    0.888E-04
RMM:  24    -0.150368834595E+03   -0.18696E-05   -0.60815E-08  3459   0.930E-04    0.509E-04
RMM:  25    -0.150368837216E+03   -0.26216E-05   -0.11458E-07  3421   0.697E-04    0.251E-04
RMM:  26    -0.150368838293E+03   -0.10773E-05   -0.71095E-08  3617   0.874E-04    0.265E-04
RMM:  27    -0.150368838598E+03   -0.30511E-06   -0.39330E-08  3066   0.643E-04
   6 F= -.15654315E+03 E0= -.15652903E+03  d E =-.625986E-02  mag=    23.0000
       N       E                     dE             d eps       ncg     rms          rms(c)
DAV:   1    -0.150349116889E+03    0.19721E-01   -0.28413E+00  8120   0.341E+00    0.126E+00
RMM:   2    -0.150370538233E+03   -0.21421E-01   -0.14009E-01  7954   0.173E+00    0.191E+00
RMM:   3    -0.150380943922E+03   -0.10406E-01   -0.10995E-01 10591   0.892E-01    0.196E+00
RMM:   4    -0.150371039256E+03    0.99047E-02   -0.17248E-02  8300   0.447E-01    0.562E-01
RMM:   5    -0.150371840539E+03   -0.80128E-03   -0.41981E-03  9302   0.200E-01    0.444E-01
RMM:   6    -0.150371667263E+03    0.17328E-03   -0.67558E-04  9169   0.852E-02    0.315E-01
RMM:   7    -0.150371428624E+03    0.23864E-03   -0.30283E-04  9278   0.419E-02    0.256E-01
RMM:   8    -0.150371254694E+03    0.17393E-03   -0.35155E-03 10808   0.115E-01    0.128E-01
RMM:   9    -0.150371376243E+03   -0.12155E-03   -0.31921E-04 10429   0.500E-02    0.856E-02
RMM:  10    -0.150371396786E+03   -0.20542E-04   -0.22115E-05  8547   0.180E-02    0.664E-02
RMM:  11    -0.150371452251E+03   -0.55465E-04   -0.54519E-05  9715   0.155E-02    0.453E-02
RMM:  12    -0.150371573214E+03   -0.12096E-03   -0.85145E-05 10026   0.212E-02    0.832E-02
RMM:  13    -0.150371624064E+03   -0.50849E-04   -0.22885E-05  8845   0.147E-02    0.150E-02
RMM:  14    -0.150371665374E+03   -0.41311E-04   -0.55115E-06  6177   0.714E-03    0.944E-03
RMM:  15    -0.150371708653E+03   -0.43278E-04   -0.12055E-06  5002   0.419E-03    0.735E-03
RMM:  16    -0.150371741291E+03   -0.32638E-04   -0.74393E-07  4967   0.281E-03    0.509E-03
RMM:  17    -0.150371789518E+03   -0.48228E-04   -0.12443E-06  5035   0.268E-03    0.517E-03
RMM:  18    -0.150371820564E+03   -0.31046E-04   -0.10383E-06  4981   0.330E-03    0.394E-03
RMM:  19    -0.150371831525E+03   -0.10960E-04   -0.62711E-07  4942   0.278E-03    0.193E-03
RMM:  20    -0.150371844481E+03   -0.12957E-04   -0.47846E-07  4423   0.199E-03    0.178E-03
RMM:  21    -0.150371853411E+03   -0.89295E-05   -0.33734E-07  4330   0.179E-03    0.133E-03
RMM:  22    -0.150371861237E+03   -0.78260E-05   -0.32133E-07  4236   0.142E-03    0.934E-04
RMM:  23    -0.150371867522E+03   -0.62849E-05   -0.34453E-07  4395   0.149E-03    0.719E-04
RMM:  24    -0.150371869366E+03   -0.18448E-05   -0.20003E-07  3990   0.138E-03    0.621E-04
RMM:  25    -0.150371870489E+03   -0.11229E-05   -0.14941E-07  3537   0.102E-03    0.411E-04
RMM:  26    -0.150371870897E+03   -0.40768E-06   -0.82421E-08  3440   0.994E-04
   7 F= -.15654732E+03 E0= -.15653330E+03  d E =-.104249E-01  mag=    23.0000
       N       E                     dE             d eps       ncg     rms          rms(c)
DAV:   1    -0.150359934074E+03    0.11936E-01   -0.20740E+00  8232   0.293E+00    0.114E+00
RMM:   2    -0.150374390860E+03   -0.14457E-01   -0.99622E-02  8187   0.136E+00    0.140E+00
RMM:   3    -0.150388833455E+03   -0.14443E-01   -0.76682E-02 10324   0.762E-01    0.203E+00
RMM:   4    -0.150376784731E+03    0.12049E-01   -0.17809E-02  8354   0.439E-01    0.531E-01
RMM:   5    -0.150378036005E+03   -0.12513E-02   -0.39620E-03  9216   0.192E-01    0.427E-01
RMM:   6    -0.150377888395E+03    0.14761E-03   -0.69170E-04  9170   0.915E-02    0.257E-01
RMM:   7    -0.150377672834E+03    0.21556E-03   -0.28070E-04  9285   0.397E-02    0.206E-01
RMM:   8    -0.150377514443E+03    0.15839E-03   -0.27881E-03 10761   0.111E-01    0.137E-01
RMM:   9    -0.150377595132E+03   -0.80688E-04   -0.23722E-04 10153   0.459E-02    0.723E-02
RMM:  10    -0.150377621307E+03   -0.26175E-04   -0.27153E-05  8654   0.181E-02    0.687E-02
RMM:  11    -0.150377670102E+03   -0.48795E-04   -0.41997E-05  9411   0.154E-02    0.445E-02
RMM:  12    -0.150377795405E+03   -0.12530E-03   -0.96363E-05 10170   0.201E-02    0.428E-02
RMM:  13    -0.150377878144E+03   -0.82739E-04   -0.10959E-05  7685   0.109E-02    0.134E-02
RMM:  14    -0.150377925216E+03   -0.47071E-04   -0.28172E-06  5680   0.692E-03    0.798E-03
RMM:  15    -0.150377957158E+03   -0.31942E-04   -0.10239E-06  4993   0.319E-03    0.466E-03
RMM:  16    -0.150378029246E+03   -0.72089E-04   -0.11545E-06  5070   0.250E-03    0.427E-03
RMM:  17    -0.150378082565E+03   -0.53318E-04   -0.12007E-06  5057   0.276E-03    0.328E-03
RMM:  18    -0.150378111605E+03   -0.29040E-04   -0.92013E-07  4964   0.304E-03    0.247E-03
RMM:  19    -0.150378131652E+03   -0.20048E-04   -0.77442E-07  4649   0.237E-03    0.168E-03
RMM:  20    -0.150378148115E+03   -0.16463E-04   -0.62476E-07  4471   0.224E-03    0.189E-03
RMM:  21    -0.150378159003E+03   -0.10888E-04   -0.54542E-07  4408   0.190E-03    0.137E-03
RMM:  22    -0.150378165439E+03   -0.64365E-05   -0.44746E-07  4352   0.180E-03    0.991E-04
RMM:  23    -0.150378168164E+03   -0.27242E-05   -0.31918E-07  4191   0.155E-03    0.712E-04
RMM:  24    -0.150378169776E+03   -0.16127E-05   -0.25530E-07  3882   0.134E-03    0.914E-04
RMM:  25    -0.150378170236E+03   -0.45927E-06   -0.13359E-07  3561   0.119E-03
   8 F= -.15655465E+03 E0= -.15654069E+03  d E =-.733128E-02  mag=    23.0000
       N       E                     dE             d eps       ncg     rms          rms(c)
DAV:   1    -0.150365641886E+03    0.12528E-01   -0.15486E+00  8208   0.254E+00    0.979E-01
RMM:   2    -0.150376701474E+03   -0.11060E-01   -0.74426E-02  8166   0.118E+00    0.126E+00
RMM:   3    -0.150386788959E+03   -0.10087E-01   -0.57887E-02 10347   0.658E-01    0.174E+00
RMM:   4    -0.150378136568E+03    0.86524E-02   -0.12786E-02  8332   0.373E-01    0.458E-01
RMM:   5    -0.150379129280E+03   -0.99271E-03   -0.28792E-03  9218   0.165E-01    0.351E-01
RMM:   6    -0.150379017367E+03    0.11191E-03   -0.48498E-04  9114   0.761E-02    0.217E-01
RMM:   7    -0.150378846608E+03    0.17076E-03   -0.22080E-04  9258   0.349E-02    0.174E-01
RMM:   8    -0.150378718368E+03    0.12824E-03   -0.18719E-03 10604   0.912E-02    0.118E-01
RMM:   9    -0.150378793172E+03   -0.74804E-04   -0.21320E-04 10430   0.403E-02    0.690E-02
RMM:  10    -0.150378813864E+03   -0.20692E-04   -0.19194E-05  8095   0.162E-02    0.680E-02
RMM:  11    -0.150378848235E+03   -0.34371E-04   -0.29459E-05  9219   0.137E-02    0.393E-02
RMM:  12    -0.150378954929E+03   -0.10669E-03   -0.85125E-05 10170   0.185E-02    0.306E-02
RMM:  13    -0.150379025618E+03   -0.70689E-04   -0.72281E-06  7391   0.946E-03    0.107E-02
RMM:  14    -0.150379064500E+03   -0.38882E-04   -0.20779E-06  5350   0.605E-03    0.774E-03
RMM:  15    -0.150379092297E+03   -0.27796E-04   -0.85267E-07  4981   0.309E-03    0.422E-03
RMM:  16    -0.150379152188E+03   -0.59891E-04   -0.10232E-06  5016   0.248E-03    0.421E-03
RMM:  17    -0.150379194192E+03   -0.42004E-04   -0.10101E-06  5014   0.267E-03    0.251E-03
RMM:  18    -0.150379216697E+03   -0.22505E-04   -0.75148E-07  4912   0.282E-03    0.189E-03
RMM:  19    -0.150379233014E+03   -0.16317E-04   -0.66178E-07  4496   0.209E-03    0.152E-03
RMM:  20    -0.150379244745E+03   -0.11731E-04   -0.47053E-07  4436   0.207E-03    0.127E-03
RMM:  21    -0.150379252963E+03   -0.82180E-05   -0.44051E-07  4291   0.162E-03    0.874E-04
RMM:  22    -0.150379257785E+03   -0.48218E-05   -0.33175E-07  4239   0.164E-03    0.845E-04
RMM:  23    -0.150379260141E+03   -0.23558E-05   -0.27083E-07  4076   0.133E-03    0.598E-04
RMM:  24    -0.150379261242E+03   -0.11013E-05   -0.17929E-07  3759   0.127E-03    0.518E-04
RMM:  25    -0.150379261596E+03   -0.35364E-06   -0.10156E-07  3370   0.960E-04
   9 F= -.15655663E+03 E0= -.15654279E+03  d E =-.931121E-02  mag=    23.0000
       N       E                     dE             d eps       ncg     rms          rms(c)
DAV:   1    -0.150365923925E+03    0.13337E-01   -0.22449E+00  8240   0.296E+00    0.118E+00
RMM:   2    -0.150376628675E+03   -0.10705E-01   -0.92797E-02  8325   0.129E+00    0.833E-01
RMM:   3    -0.150394048349E+03   -0.17420E-01   -0.66620E-02 10438   0.662E-01    0.193E+00
RMM:   4    -0.150382492706E+03    0.11556E-01   -0.15188E-02  8249   0.413E-01    0.634E-01
RMM:   5    -0.150383288431E+03   -0.79572E-03   -0.38417E-03  9082   0.201E-01    0.432E-01
RMM:   6    -0.150383174486E+03    0.11395E-03   -0.78941E-04  9078   0.986E-02    0.256E-01
RMM:   7    -0.150383045130E+03    0.12936E-03   -0.29018E-04  9221   0.397E-02    0.214E-01
RMM:   8    -0.150383025787E+03    0.19343E-04   -0.17308E-03 10510   0.987E-02    0.180E-01
RMM:   9    -0.150383177876E+03   -0.15209E-03   -0.54023E-04 10302   0.527E-02    0.103E-01
RMM:  10    -0.150383207457E+03   -0.29581E-04   -0.41269E-05  8688   0.248E-02    0.698E-02
RMM:  11    -0.150383270768E+03   -0.63311E-04   -0.36522E-05  8465   0.200E-02    0.303E-02
RMM:  12    -0.150383398566E+03   -0.12780E-03   -0.10643E-04  9190   0.181E-02    0.242E-02
RMM:  13    -0.150383512943E+03   -0.11438E-03   -0.29779E-05  9524   0.155E-02    0.115E-02
RMM:  14    -0.150383541533E+03   -0.28590E-04   -0.26436E-06  5496   0.592E-03    0.147E-02
RMM:  15    -0.150383561014E+03   -0.19480E-04   -0.10943E-06  4966   0.367E-03    0.521E-03
RMM:  16    -0.150383620936E+03   -0.59922E-04   -0.16693E-06  5019   0.304E-03    0.419E-03
RMM:  17    -0.150383675723E+03   -0.54787E-04   -0.96591E-07  4985   0.360E-03    0.375E-03
RMM:  18    -0.150383701219E+03   -0.25496E-04   -0.71755E-07  4745   0.223E-03    0.313E-03
RMM:  19    -0.150383721638E+03   -0.20419E-04   -0.57616E-07  4864   0.218E-03    0.166E-03
RMM:  20    -0.150383735534E+03   -0.13896E-04   -0.48735E-07  4578   0.184E-03    0.169E-03
RMM:  21    -0.150383751042E+03   -0.15508E-04   -0.51728E-07  4475   0.195E-03    0.215E-03
RMM:  22    -0.150383759158E+03   -0.81153E-05   -0.41349E-07  4341   0.175E-03    0.147E-03
RMM:  23    -0.150383764148E+03   -0.49902E-05   -0.39284E-07  4327   0.155E-03    0.670E-04
RMM:  24    -0.150383765277E+03   -0.11290E-05   -0.19611E-07  4080   0.146E-03    0.636E-04
RMM:  25    -0.150383766220E+03   -0.94324E-06   -0.15036E-07  3619   0.963E-04
  10 F= -.15656225E+03 E0= -.15654874E+03  d E =-.562387E-02  mag=    23.0000
       N       E                     dE             d eps       ncg     rms          rms(c)
DAV:   1    -0.150307997053E+03    0.75768E-01   -0.96926E+00  7984   0.616E+00    0.236E+00
RMM:   2    -0.150354876960E+03   -0.46880E-01   -0.38606E-01  8246   0.266E+00    0.137E+00
RMM:   3    -0.150410541400E+03   -0.55664E-01   -0.26185E-01 10456   0.128E+00    0.304E+00
RMM:   4    -0.150387182030E+03    0.23359E-01   -0.51611E-02  8424   0.755E-01    0.144E+00
RMM:   5    -0.150385193607E+03    0.19884E-02   -0.14216E-02  8955   0.400E-01    0.802E-01
RMM:   6    -0.150384576103E+03    0.61750E-03   -0.28712E-03  8700   0.189E-01    0.515E-01
RMM:   7    -0.150384122230E+03    0.45387E-03   -0.11819E-03  9168   0.787E-02    0.444E-01
RMM:   8    -0.150383767191E+03    0.35504E-03   -0.56347E-03 10408   0.181E-01    0.359E-01
RMM:   9    -0.150384508800E+03   -0.74161E-03   -0.35066E-03 10300   0.123E-01    0.379E-01
RMM:  10    -0.150384492109E+03    0.16691E-04   -0.31005E-04  9343   0.640E-02    0.144E-01
RMM:  11    -0.150384621922E+03   -0.12981E-03   -0.16278E-04  8670   0.376E-02    0.898E-02
RMM:  12    -0.150384909273E+03   -0.28735E-03   -0.43151E-04  9557   0.384E-02    0.656E-02
RMM:  13    -0.150385246693E+03   -0.33742E-03   -0.15859E-04 10130   0.294E-02    0.392E-02
RMM:  14    -0.150385332433E+03   -0.85740E-04   -0.94441E-06  7535   0.115E-02    0.296E-02
RMM:  15    -0.150385409638E+03   -0.77204E-04   -0.49531E-06  7184   0.625E-03    0.111E-02
RMM:  16    -0.150385619826E+03   -0.21019E-03   -0.46035E-06  6689   0.572E-03    0.708E-03
RMM:  17    -0.150385752695E+03   -0.13287E-03   -0.36534E-06  6085   0.416E-03    0.416E-03
RMM:  18    -0.150385825396E+03   -0.72701E-04   -0.21042E-06  5401   0.413E-03    0.296E-03
RMM:  19    -0.150385868505E+03   -0.43109E-04   -0.15078E-06  5192   0.311E-03    0.200E-03
RMM:  20    -0.150385927460E+03   -0.58955E-04   -0.16261E-06  5130   0.324E-03    0.188E-03
RMM:  21    -0.150385953949E+03   -0.26489E-04   -0.11905E-06  4890   0.290E-03    0.179E-03
RMM:  22    -0.150385968436E+03   -0.14487E-04   -0.88684E-07  4578   0.250E-03    0.896E-04
RMM:  23    -0.150385973765E+03   -0.53292E-05   -0.55060E-07  4534   0.219E-03    0.779E-04
RMM:  24    -0.150385977321E+03   -0.35555E-05   -0.40447E-07  4324   0.172E-03    0.794E-04
RMM:  25    -0.150385979195E+03   -0.18742E-05   -0.27889E-07  4246   0.155E-03    0.310E-04
RMM:  26    -0.150385980283E+03   -0.10881E-05   -0.16087E-07  3744   0.121E-03    0.415E-04
RMM:  27    -0.150385980946E+03   -0.66262E-06   -0.10970E-07  3583   0.983E-04
  11 F= -.15656674E+03 E0= -.15655468E+03  d E =-.101143E-01  mag=    23.0000
       N       E                     dE             d eps       ncg     rms          rms(c)
DAV:   1    -0.150382249787E+03    0.37305E-02   -0.97563E-01  8240   0.198E+00    0.738E-01
RMM:   2    -0.150388543657E+03   -0.62939E-02   -0.46805E-02  8194   0.948E-01    0.957E-01
RMM:   3    -0.150393795967E+03   -0.52523E-02   -0.35861E-02 10442   0.500E-01    0.133E+00
RMM:   4    -0.150389065533E+03    0.47304E-02   -0.60250E-03  8355   0.270E-01    0.371E-01
RMM:   5    -0.150389691559E+03   -0.62603E-03   -0.19133E-03  9184   0.141E-01    0.238E-01
RMM:   6    -0.150389650010E+03    0.41549E-04   -0.30492E-04  9312   0.488E-02    0.185E-01
RMM:   7    -0.150389583931E+03    0.66079E-04   -0.12631E-04  9348   0.238E-02    0.166E-01
RMM:   8    -0.150389514093E+03    0.69838E-04   -0.58465E-04 10397   0.608E-02    0.852E-02
RMM:   9    -0.150389596145E+03   -0.82051E-04   -0.30846E-04 10224   0.369E-02    0.914E-02
RMM:  10    -0.150389595317E+03    0.82780E-06   -0.23159E-05  8073   0.184E-02    0.302E-02
RMM:  11    -0.150389624182E+03   -0.28865E-04   -0.13634E-05  7584   0.105E-02    0.313E-02
RMM:  12    -0.150389672864E+03   -0.48682E-04   -0.48093E-05  9501   0.133E-02    0.330E-02
RMM:  13    -0.150389705289E+03   -0.32425E-04   -0.93868E-06  7631   0.116E-02    0.948E-03
RMM:  14    -0.150389721204E+03   -0.15915E-04   -0.26375E-06  5692   0.536E-03    0.868E-03
RMM:  15    -0.150389736732E+03   -0.15527E-04   -0.58776E-07  4966   0.327E-03    0.474E-03
RMM:  16    -0.150389760906E+03   -0.24175E-04   -0.53370E-07  4949   0.173E-03    0.243E-03
RMM:  17    -0.150389776399E+03   -0.15493E-04   -0.30922E-07  4746   0.153E-03    0.138E-03
RMM:  18    -0.150389787252E+03   -0.10853E-04   -0.29951E-07  4677   0.152E-03    0.165E-03
RMM:  19    -0.150389794897E+03   -0.76443E-05   -0.26033E-07  4514   0.150E-03    0.205E-03
RMM:  20    -0.150389799908E+03   -0.50118E-05   -0.21488E-07  4377   0.138E-03    0.136E-03
RMM:  21    -0.150389803441E+03   -0.35330E-05   -0.17205E-07  4094   0.119E-03    0.121E-03
RMM:  22    -0.150389805974E+03   -0.25329E-05   -0.15205E-07  3704   0.107E-03    0.100E-03
RMM:  23    -0.150389806938E+03   -0.96324E-06   -0.10338E-07  3741   0.986E-04
  12 F= -.15657113E+03 E0= -.15655990E+03  d E =-.438644E-02  mag=    23.0000
       N       E                     dE             d eps       ncg     rms          rms(c)
DAV:   1    -0.150329344718E+03    0.60461E-01   -0.87747E+00  7968   0.593E+00    0.210E+00
RMM:   2    -0.150382472638E+03   -0.53128E-01   -0.40375E-01  8204   0.278E+00    0.235E+00
RMM:   3    -0.150434722000E+03   -0.52249E-01   -0.31391E-01 10340   0.151E+00    0.382E+00
RMM:   4    -0.150394525158E+03    0.40197E-01   -0.64527E-02  8584   0.817E-01    0.102E+00
RMM:   5    -0.150397984719E+03   -0.34596E-02   -0.14868E-02  9205   0.397E-01    0.646E-01
RMM:   6    -0.150397408901E+03    0.57582E-03   -0.28275E-03  9231   0.139E-01    0.523E-01
RMM:   7    -0.150396980052E+03    0.42885E-03   -0.10913E-03  9955   0.731E-02    0.462E-01
RMM:   8    -0.150396433924E+03    0.54613E-03   -0.55045E-03 10434   0.179E-01    0.290E-01
RMM:   9    -0.150396924281E+03   -0.49036E-03   -0.32142E-03 10364   0.128E-01    0.334E-01
RMM:  10    -0.150396965830E+03   -0.41548E-04   -0.32033E-04  9223   0.638E-02    0.132E-01
RMM:  11    -0.150396989290E+03   -0.23460E-04   -0.18948E-04  8931   0.320E-02    0.122E-01
RMM:  12    -0.150397093233E+03   -0.10394E-03   -0.45618E-04 10036   0.431E-02    0.728E-02
RMM:  13    -0.150397248461E+03   -0.15523E-03   -0.81945E-05  9899   0.258E-02    0.429E-02
RMM:  14    -0.150397330927E+03   -0.82466E-04   -0.18095E-05  7920   0.113E-02    0.203E-02
RMM:  15    -0.150397448053E+03   -0.11713E-03   -0.47286E-06  6375   0.834E-03    0.107E-02
RMM:  16    -0.150397565948E+03   -0.11790E-03   -0.58554E-06  6995   0.539E-03    0.664E-03
RMM:  17    -0.150397627018E+03   -0.61070E-04   -0.23585E-06  5458   0.483E-03    0.368E-03
RMM:  18    -0.150397675269E+03   -0.48251E-04   -0.15930E-06  5220   0.348E-03    0.209E-03
RMM:  19    -0.150397708783E+03   -0.33514E-04   -0.11040E-06  5090   0.281E-03    0.214E-03
RMM:  20    -0.150397729865E+03   -0.21082E-04   -0.84398E-07  4746   0.244E-03    0.130E-03
RMM:  21    -0.150397742453E+03   -0.12588E-04   -0.72360E-07  4847   0.210E-03    0.666E-04
RMM:  22    -0.150397748265E+03   -0.58127E-05   -0.41670E-07  4452   0.196E-03    0.694E-04
RMM:  23    -0.150397753591E+03   -0.53260E-05   -0.46129E-07  4324   0.155E-03    0.480E-04
RMM:  24    -0.150397755658E+03   -0.20668E-05   -0.24511E-07  4204   0.159E-03    0.341E-04
RMM:  25    -0.150397756386E+03   -0.72762E-06   -0.14795E-07  3629   0.109E-03
  13 F= -.15658072E+03 E0= -.15657271E+03  d E =-.139809E-01  mag=    23.0000
       N       E                     dE             d eps       ncg     rms          rms(c)
DAV:   1    -0.150113117794E+03    0.28464E+00   -0.35064E+01  7904   0.119E+01    0.397E+00
RMM:   2    -0.150298490010E+03   -0.18537E+00   -0.15450E+00  8113   0.552E+00    0.296E+00
RMM:   3    -0.150516993736E+03   -0.21850E+00   -0.11790E+00 10449   0.287E+00    0.683E+00
RMM:   4    -0.150387426716E+03    0.12957E+00   -0.24873E-01  8457   0.161E+00    0.199E+00
RMM:   5    -0.150392559068E+03   -0.51324E-02   -0.43591E-02  9303   0.652E-01    0.121E+00
RMM:   6    -0.150389312326E+03    0.32467E-02   -0.82415E-03  8796   0.270E-01    0.108E+00
RMM:   7    -0.150384832970E+03    0.44794E-02   -0.96014E-03  9567   0.208E-01    0.779E-01
RMM:   8    -0.150386115235E+03   -0.12823E-02   -0.38323E-02 10425   0.385E-01    0.500E-01
RMM:   9    -0.150387200375E+03   -0.10851E-02   -0.46900E-03 10375   0.201E-01    0.346E-01
RMM:  10    -0.150386646633E+03    0.55374E-03   -0.50762E-04  8829   0.716E-02    0.294E-01
RMM:  11    -0.150386000931E+03    0.64570E-03   -0.17246E-03  9698   0.956E-02    0.189E-01
RMM:  12    -0.150386083286E+03   -0.82354E-04   -0.34953E-03 10303   0.112E-01    0.545E-02
RMM:  13    -0.150386383027E+03   -0.29974E-03   -0.26806E-04  7982   0.474E-02    0.643E-02
RMM:  14    -0.150386599928E+03   -0.21690E-03   -0.50100E-05  8970   0.226E-02    0.547E-02
RMM:  15    -0.150386881991E+03   -0.28206E-03   -0.39199E-05  9594   0.135E-02    0.248E-02
RMM:  16    -0.150387064657E+03   -0.18267E-03   -0.54507E-05 10230   0.165E-02    0.839E-03
RMM:  17    -0.150387220067E+03   -0.15541E-03   -0.50640E-06  6332   0.667E-03    0.711E-03
RMM:  18    -0.150387340645E+03   -0.12058E-03   -0.22090E-06  5381   0.495E-03    0.651E-03
RMM:  19    -0.150387399501E+03   -0.58856E-04   -0.17034E-06  5213   0.331E-03    0.401E-03
RMM:  20    -0.150387435530E+03   -0.36029E-04   -0.90316E-07  4927   0.301E-03    0.290E-03
RMM:  21    -0.150387469034E+03   -0.33505E-04   -0.98659E-07  4891   0.243E-03    0.200E-03
RMM:  22    -0.150387504411E+03   -0.35377E-04   -0.12459E-06  5016   0.267E-03    0.160E-03
RMM:  23    -0.150387517414E+03   -0.13003E-04   -0.75022E-07  4708   0.276E-03    0.969E-04
RMM:  24    -0.150387523921E+03   -0.65071E-05   -0.48335E-07  4421   0.198E-03    0.113E-03
RMM:  25    -0.150387533765E+03   -0.98443E-05   -0.54178E-07  4363   0.188E-03    0.112E-03
RMM:  26    -0.150387538041E+03   -0.42753E-05   -0.41076E-07  4298   0.177E-03    0.452E-04
RMM:  27    -0.150387539408E+03   -0.13671E-05   -0.27128E-07  4308   0.153E-03    0.328E-04
RMM:  28    -0.150387540283E+03   -0.87546E-06   -0.16425E-07  3696   0.120E-03
  14 F= -.15657364E+03 E0= -.15657125E+03  d E =-.689795E-02  mag=    23.0000
       N       E                     dE             d eps       ncg     rms          rms(c)
DAV:   1    -0.150258295668E+03    0.12924E+00   -0.17867E+01  7936   0.850E+00    0.270E+00
RMM:   2    -0.150359358126E+03   -0.10106E+00   -0.80254E-01  7972   0.410E+00    0.275E+00
RMM:   3    -0.150466115004E+03   -0.10676E+00   -0.63635E-01 10644   0.202E+00    0.525E+00
RMM:   4    -0.150398214660E+03    0.67900E-01   -0.12158E-01  8428   0.112E+00    0.167E+00
RMM:   5    -0.150401067064E+03   -0.28524E-02   -0.20685E-02  9208   0.503E-01    0.804E-01
RMM:   6    -0.150398823781E+03    0.22433E-02   -0.53407E-03  9023   0.179E-01    0.655E-01
RMM:   7    -0.150396895732E+03    0.19280E-02   -0.70207E-03 10017   0.177E-01    0.444E-01
RMM:   8    -0.150397582544E+03   -0.68681E-03   -0.97936E-03 10324   0.198E-01    0.215E-01
RMM:   9    -0.150398135938E+03   -0.55339E-03   -0.85578E-04 10260   0.891E-02    0.274E-01
RMM:  10    -0.150398110518E+03    0.25420E-04   -0.17863E-04  9035   0.468E-02    0.146E-01
RMM:  11    -0.150398079992E+03    0.30526E-04   -0.57716E-04  9719   0.521E-02    0.161E-01
RMM:  12    -0.150398326731E+03   -0.24674E-03   -0.89797E-04 10222   0.605E-02    0.757E-02
RMM:  13    -0.150398413894E+03   -0.87163E-04   -0.47850E-05  8139   0.237E-02    0.374E-02
RMM:  14    -0.150398597659E+03   -0.18376E-03   -0.15221E-05  8048   0.132E-02    0.354E-02
RMM:  15    -0.150398748407E+03   -0.15075E-03   -0.15680E-05  8547   0.104E-02    0.192E-02
RMM:  16    -0.150398812857E+03   -0.64450E-04   -0.32277E-06  5526   0.658E-03    0.102E-02
RMM:  17    -0.150398897070E+03   -0.84213E-04   -0.17066E-06  5226   0.369E-03    0.935E-03
RMM:  18    -0.150398990712E+03   -0.93641E-04   -0.22402E-06  5422   0.390E-03    0.262E-03
RMM:  19    -0.150399052511E+03   -0.61799E-04   -0.17741E-06  5169   0.342E-03    0.305E-03
RMM:  20    -0.150399079128E+03   -0.26617E-04   -0.90522E-07  4996   0.330E-03    0.256E-03
RMM:  21    -0.150399110819E+03   -0.31691E-04   -0.90381E-07  4600   0.233E-03    0.197E-03
RMM:  22    -0.150399133836E+03   -0.23017E-04   -0.78412E-07  4746   0.240E-03    0.137E-03
RMM:  23    -0.150399146461E+03   -0.12625E-04   -0.64914E-07  4645   0.211E-03    0.873E-04
RMM:  24    -0.150399155138E+03   -0.86768E-05   -0.52875E-07  4477   0.199E-03    0.627E-04
RMM:  25    -0.150399158196E+03   -0.30581E-05   -0.32601E-07  4121   0.166E-03    0.618E-04
RMM:  26    -0.150399160009E+03   -0.18134E-05   -0.23118E-07  3727   0.132E-03    0.365E-04
RMM:  27    -0.150399160924E+03   -0.91494E-06   -0.14312E-07  3643   0.116E-03
  15 F= -.15658305E+03 E0= -.15657700E+03  d E =-.163014E-01  mag=    23.0000
       N       E                     dE             d eps       ncg     rms          rms(c)
DAV:   1    -0.150390350771E+03    0.88092E-02   -0.22852E+00  8208   0.302E+00    0.103E+00
RMM:   2    -0.150402847366E+03   -0.12497E-01   -0.90337E-02  8088   0.134E+00    0.853E-01
RMM:   3    -0.150419827764E+03   -0.16980E-01   -0.75542E-02 10499   0.714E-01    0.212E+00
RMM:   4    -0.150406966196E+03    0.12862E-01   -0.17092E-02  8375   0.421E-01    0.425E-01
RMM:   5    -0.150408622286E+03   -0.16561E-02   -0.28529E-03  9277   0.165E-01    0.285E-01
RMM:   6    -0.150408449063E+03    0.17322E-03   -0.56134E-04  9011   0.714E-02    0.250E-01
RMM:   7    -0.150408130758E+03    0.31831E-03   -0.93204E-04  9866   0.666E-02    0.156E-01
RMM:   8    -0.150408262073E+03   -0.13131E-03   -0.18883E-03 10257   0.834E-02    0.120E-01
RMM:   9    -0.150408284242E+03   -0.22170E-04   -0.13694E-04  9556   0.409E-02    0.822E-02
RMM:  10    -0.150408304206E+03   -0.19964E-04   -0.45909E-05  8521   0.205E-02    0.701E-02
RMM:  11    -0.150408343638E+03   -0.39431E-04   -0.94026E-05  9362   0.224E-02    0.408E-02
RMM:  12    -0.150408463330E+03   -0.11969E-03   -0.15715E-04 10197   0.236E-02    0.145E-02
RMM:  13    -0.150408509259E+03   -0.45930E-04   -0.11116E-05  7363   0.991E-03    0.110E-02
RMM:  14    -0.150408564537E+03   -0.55278E-04   -0.22959E-06  5313   0.475E-03    0.906E-03
RMM:  15    -0.150408625601E+03   -0.61063E-04   -0.18056E-06  5096   0.420E-03    0.516E-03
RMM:  16    -0.150408662246E+03   -0.36645E-04   -0.30775E-06  5647   0.413E-03    0.366E-03
RMM:  17    -0.150408680254E+03   -0.18008E-04   -0.10104E-06  4972   0.432E-03    0.228E-03
RMM:  18    -0.150408699008E+03   -0.18755E-04   -0.85774E-07  4973   0.257E-03    0.182E-03
RMM:  19    -0.150408712664E+03   -0.13656E-04   -0.45532E-07  4743   0.253E-03    0.132E-03
RMM:  20    -0.150408720943E+03   -0.82787E-05   -0.41539E-07  4579   0.153E-03    0.776E-04
RMM:  21    -0.150408726734E+03   -0.57911E-05   -0.29319E-07  4209   0.157E-03    0.699E-04
RMM:  22    -0.150408729817E+03   -0.30831E-05   -0.24057E-07  4123   0.127E-03    0.394E-04
RMM:  23    -0.150408731627E+03   -0.18102E-05   -0.16702E-07  3918   0.123E-03    0.482E-04
RMM:  24    -0.150408732858E+03   -0.12306E-05   -0.13039E-07  3521   0.957E-04    0.262E-04
RMM:  25    -0.150408733383E+03   -0.52521E-06   -0.78752E-08  3465   0.936E-04
  16 F= -.15659295E+03 E0= -.15658864E+03  d E =-.990417E-02  mag=    23.0000
       N       E                     dE             d eps       ncg     rms          rms(c)
DAV:   1    -0.150333245687E+03    0.75487E-01   -0.10402E+01  7912   0.646E+00    0.217E+00
RMM:   2    -0.150388405275E+03   -0.55160E-01   -0.40617E-01  8084   0.283E+00    0.144E+00
RMM:   3    -0.150450757320E+03   -0.62352E-01   -0.30974E-01 10526   0.142E+00    0.361E+00
RMM:   4    -0.150415039627E+03    0.35718E-01   -0.64663E-02  8385   0.819E-01    0.101E+00
RMM:   5    -0.150417322104E+03   -0.22825E-02   -0.10986E-02  9257   0.330E-01    0.600E-01
RMM:   6    -0.150416140996E+03    0.11811E-02   -0.24202E-03  8861   0.143E-01    0.537E-01
RMM:   7    -0.150414702678E+03    0.14383E-02   -0.91602E-03 10125   0.193E-01    0.245E-01
RMM:   8    -0.150415638127E+03   -0.93545E-03   -0.44300E-03 10142   0.135E-01    0.187E-01
RMM:   9    -0.150415564383E+03    0.73743E-04   -0.34580E-04  8403   0.599E-02    0.128E-01
RMM:  10    -0.150415644982E+03   -0.80599E-04   -0.87887E-04  9291   0.557E-02    0.673E-02
RMM:  11    -0.150415978741E+03   -0.33376E-03   -0.50030E-04  9693   0.458E-02    0.719E-02
RMM:  12    -0.150416070153E+03   -0.91413E-04   -0.70033E-05  9692   0.260E-02    0.257E-02
RMM:  13    -0.150416191842E+03   -0.12169E-03   -0.16387E-05  7734   0.111E-02    0.286E-02
RMM:  14    -0.150416306768E+03   -0.11493E-03   -0.91158E-06  7360   0.797E-03    0.232E-02
RMM:  15    -0.150416540343E+03   -0.23358E-03   -0.10336E-05  7652   0.822E-03    0.113E-02
RMM:  16    -0.150416656896E+03   -0.11655E-03   -0.14461E-05  7760   0.775E-03    0.549E-03
RMM:  17    -0.150416703315E+03   -0.46419E-04   -0.35732E-06  6240   0.728E-03    0.348E-03
RMM:  18    -0.150416760813E+03   -0.57498E-04   -0.19284E-06  5305   0.402E-03    0.366E-03
RMM:  19    -0.150416797399E+03   -0.36586E-04   -0.11186E-06  5073   0.292E-03    0.197E-03
RMM:  20    -0.150416823600E+03   -0.26202E-04   -0.10624E-06  5049   0.237E-03    0.123E-03
RMM:  21    -0.150416839131E+03   -0.15530E-04   -0.60845E-07  4684   0.231E-03    0.106E-03
RMM:  22    -0.150416850015E+03   -0.10884E-04   -0.58977E-07  4353   0.183E-03    0.846E-04
RMM:  23    -0.150416856905E+03   -0.68894E-05   -0.48672E-07  4295   0.186E-03    0.675E-04
RMM:  24    -0.150416859611E+03   -0.27066E-05   -0.35233E-07  4173   0.162E-03    0.392E-04
RMM:  25    -0.150416860906E+03   -0.12953E-05   -0.21798E-07  3888   0.137E-03    0.431E-04
RMM:  26    -0.150416861551E+03   -0.64424E-06   -0.13986E-07  3587   0.108E-03
  17 F= -.15660176E+03 E0= -.15660013E+03  d E =-.187168E-01  mag=    23.0000
       N       E                     dE             d eps       ncg     rms          rms(c)
DAV:   1    -0.150404630204E+03    0.12231E-01   -0.21515E+00  8312   0.290E+00    0.104E+00
RMM:   2    -0.150415956497E+03   -0.11326E-01   -0.60338E-02  8194   0.105E+00    0.528E-01
RMM:   3    -0.150422913596E+03   -0.69571E-02   -0.36102E-02 10149   0.458E-01    0.462E-01
RMM:   4    -0.150423329662E+03   -0.41607E-03   -0.56020E-03  8825   0.226E-01    0.599E-01
RMM:   5    -0.150422257305E+03    0.10724E-02   -0.12292E-03  8549   0.126E-01    0.217E-01
RMM:   6    -0.150422154462E+03    0.10284E-03   -0.63758E-04  8882   0.583E-02    0.181E-01
RMM:   7    -0.150422218006E+03   -0.63545E-04   -0.16976E-03 10016   0.812E-02    0.712E-02
RMM:   8    -0.150422368066E+03   -0.15006E-03   -0.19703E-04 10403   0.375E-02    0.608E-02
RMM:   9    -0.150422428743E+03   -0.60677E-04   -0.21935E-05  8336   0.155E-02    0.388E-02
RMM:  10    -0.150422550709E+03   -0.12197E-03   -0.13387E-04  9910   0.229E-02    0.224E-02
RMM:  11    -0.150422669417E+03   -0.11871E-03   -0.50704E-05 10123   0.154E-02    0.864E-03
RMM:  12    -0.150422740020E+03   -0.70603E-04   -0.23343E-06  5172   0.551E-03    0.875E-03
RMM:  13    -0.150422771399E+03   -0.31379E-04   -0.97549E-07  5072   0.434E-03    0.503E-03
RMM:  14    -0.150422821078E+03   -0.49679E-04   -0.11950E-06  4977   0.257E-03    0.296E-03
RMM:  15    -0.150422894848E+03   -0.73770E-04   -0.95202E-07  5016   0.280E-03    0.351E-03
RMM:  16    -0.150422951742E+03   -0.56894E-04   -0.12197E-06  4888   0.277E-03    0.182E-03
RMM:  17    -0.150422981408E+03   -0.29666E-04   -0.89445E-07  4916   0.262E-03    0.153E-03
RMM:  18    -0.150422998793E+03   -0.17385E-04   -0.62534E-07  4684   0.238E-03    0.147E-03
RMM:  19    -0.150423021453E+03   -0.22660E-04   -0.82500E-07  4517   0.209E-03    0.143E-03
RMM:  20    -0.150423035639E+03   -0.14186E-04   -0.60789E-07  4401   0.234E-03    0.100E-03
RMM:  21    -0.150423040037E+03   -0.43977E-05   -0.41203E-07  4249   0.176E-03    0.544E-04
RMM:  22    -0.150423043140E+03   -0.31031E-05   -0.31100E-07  4142   0.154E-03    0.468E-04
RMM:  23    -0.150423044614E+03   -0.14739E-05   -0.22525E-07  4047   0.138E-03    0.401E-04
RMM:  24    -0.150423045194E+03   -0.58057E-06   -0.14691E-07  3741   0.116E-03
  18 F= -.15660820E+03 E0= -.15660707E+03  d E =-.643531E-02  mag=    23.0000
       N       E                     dE             d eps       ncg     rms          rms(c)
DAV:   1    -0.150409885096E+03    0.13160E-01   -0.17068E+00  8184   0.259E+00    0.924E-01
RMM:   2    -0.150418764986E+03   -0.88799E-02   -0.47322E-02  8175   0.929E-01    0.454E-01
RMM:   3    -0.150424101432E+03   -0.53364E-02   -0.28143E-02  9993   0.399E-01    0.279E-01
RMM:   4    -0.150424244987E+03   -0.14355E-03   -0.31633E-03  9098   0.160E-01    0.346E-01
RMM:   5    -0.150423934993E+03    0.30999E-03   -0.55289E-04  8770   0.855E-02    0.192E-01
RMM:   6    -0.150423762893E+03    0.17210E-03   -0.45479E-04  9032   0.491E-02    0.151E-01
RMM:   7    -0.150423824238E+03   -0.61345E-04   -0.14584E-03 10184   0.707E-02    0.634E-02
RMM:   8    -0.150423938146E+03   -0.11391E-03   -0.12683E-04 10404   0.322E-02    0.522E-02
RMM:   9    -0.150423990553E+03   -0.52407E-04   -0.18523E-05  8190   0.136E-02    0.327E-02
RMM:  10    -0.150424090475E+03   -0.99922E-04   -0.10445E-04  9878   0.198E-02    0.209E-02
RMM:  11    -0.150424185842E+03   -0.95367E-04   -0.37008E-05 10019   0.138E-02    0.105E-02
RMM:  12    -0.150424252939E+03   -0.67097E-04   -0.31512E-06  5435   0.568E-03    0.758E-03
RMM:  13    -0.150424283427E+03   -0.30488E-04   -0.88338E-07  5058   0.418E-03    0.372E-03
RMM:  14    -0.150424319323E+03   -0.35896E-04   -0.77023E-07  4966   0.228E-03    0.275E-03
RMM:  15    -0.150424373645E+03   -0.54322E-04   -0.68933E-07  4959   0.239E-03    0.234E-03
RMM:  16    -0.150424431585E+03   -0.57940E-04   -0.11590E-06  4805   0.243E-03    0.204E-03
RMM:  17    -0.150424457942E+03   -0.26357E-04   -0.73458E-07  4807   0.253E-03    0.106E-03
RMM:  18    -0.150424470132E+03   -0.12190E-04   -0.48156E-07  4513   0.203E-03    0.985E-04
RMM:  19    -0.150424490139E+03   -0.20007E-04   -0.66432E-07  4439   0.185E-03    0.131E-03
RMM:  20    -0.150424503770E+03   -0.13631E-04   -0.58518E-07  4390   0.209E-03    0.647E-04
RMM:  21    -0.150424507318E+03   -0.35476E-05   -0.37675E-07  4220   0.179E-03    0.525E-04
RMM:  22    -0.150424509406E+03   -0.20877E-05   -0.27612E-07  3950   0.141E-03    0.304E-04
RMM:  23    -0.150424510332E+03   -0.92604E-06   -0.17603E-07  3758   0.130E-03
  19 F= -.15660988E+03 E0= -.15660909E+03  d E =-.811966E-02  mag=    23.0000
       N       E                     dE             d eps       ncg     rms          rms(c)
DAV:   1    -0.150416418707E+03    0.80907E-02   -0.15429E+00  8200   0.257E+00    0.820E-01
RMM:   2    -0.150426933583E+03   -0.10515E-01   -0.67798E-02  8042   0.118E+00    0.108E+00
RMM:   3    -0.150433574393E+03   -0.66408E-02   -0.52597E-02 10465   0.622E-01    0.131E+00
RMM:   4    -0.150429033729E+03    0.45407E-02   -0.81098E-03  8325   0.311E-01    0.285E-01
RMM:   5    -0.150429725672E+03   -0.69194E-03   -0.20975E-03 10073   0.110E-01    0.215E-01
RMM:   6    -0.150429502747E+03    0.22292E-03   -0.26121E-04  9265   0.398E-02    0.170E-01
RMM:   7    -0.150429481639E+03    0.21109E-04   -0.21482E-03 10260   0.794E-02    0.732E-02
RMM:   8    -0.150429550691E+03   -0.69052E-04   -0.26754E-04 10447   0.425E-02    0.558E-02
RMM:   9    -0.150429536761E+03    0.13929E-04   -0.16508E-05  8174   0.147E-02    0.461E-02
RMM:  10    -0.150429539867E+03   -0.31056E-05   -0.93104E-05  8641   0.179E-02    0.348E-02
RMM:  11    -0.150429583613E+03   -0.43746E-04   -0.97531E-05 10016   0.229E-02    0.186E-02
RMM:  12    -0.150429603552E+03   -0.19939E-04   -0.11554E-05  8185   0.964E-03    0.960E-03
RMM:  13    -0.150429618152E+03   -0.14600E-04   -0.10875E-06  5121   0.495E-03    0.696E-03
RMM:  14    -0.150429631899E+03   -0.13747E-04   -0.56655E-07  4966   0.243E-03    0.574E-03
RMM:  15    -0.150429657968E+03   -0.26069E-04   -0.67018E-07  4964   0.218E-03    0.436E-03
RMM:  16    -0.150429697552E+03   -0.39584E-04   -0.73568E-07  4985   0.254E-03    0.473E-03
RMM:  17    -0.150429706931E+03   -0.93795E-05   -0.59788E-07  4938   0.248E-03    0.152E-03
RMM:  18    -0.150429711167E+03   -0.42363E-05   -0.59587E-07  4940   0.212E-03    0.132E-03
RMM:  19    -0.150429715029E+03   -0.38618E-05   -0.29137E-07  4685   0.230E-03    0.135E-03
RMM:  20    -0.150429720463E+03   -0.54336E-05   -0.24219E-07  4179   0.131E-03    0.886E-04
RMM:  21    -0.150429725959E+03   -0.54962E-05   -0.14282E-07  4161   0.146E-03    0.547E-04
RMM:  22    -0.150429728657E+03   -0.26984E-05   -0.11059E-07  3526   0.838E-04    0.531E-04
RMM:  23    -0.150429730924E+03   -0.22665E-05   -0.72386E-08  3541   0.944E-04    0.366E-04
RMM:  24    -0.150429732766E+03   -0.18424E-05   -0.10131E-07  3720   0.755E-04    0.204E-04
RMM:  25    -0.150429733571E+03   -0.80502E-06   -0.50900E-08  3517   0.876E-04
  20 F= -.15661550E+03 E0= -.15661478E+03  d E =-.561430E-02  mag=    23.0000
       N       E                     dE             d eps       ncg     rms          rms(c)
DAV:   1    -0.150419077415E+03    0.10655E-01   -0.13927E+00  8192   0.244E+00    0.780E-01
RMM:   2    -0.150428658064E+03   -0.95806E-02   -0.61299E-02  8043   0.112E+00    0.104E+00
RMM:   3    -0.150434395123E+03   -0.57371E-02   -0.47406E-02 10461   0.591E-01    0.123E+00
RMM:   4    -0.150430447560E+03    0.39476E-02   -0.71506E-03  8311   0.294E-01    0.270E-01
RMM:   5    -0.150431063948E+03   -0.61639E-03   -0.19261E-03 10072   0.104E-01    0.205E-01
RMM:   6    -0.150430865724E+03    0.19822E-03   -0.24003E-04  9250   0.374E-02    0.163E-01
RMM:   7    -0.150430839534E+03    0.26189E-04   -0.18327E-03 10251   0.735E-02    0.792E-02
RMM:   8    -0.150430899429E+03   -0.59895E-04   -0.26190E-04 10265   0.412E-02    0.531E-02
RMM:   9    -0.150430895379E+03    0.40500E-05   -0.16288E-05  8040   0.161E-02    0.460E-02
RMM:  10    -0.150430899488E+03   -0.41090E-05   -0.83221E-05  8469   0.168E-02    0.366E-02
RMM:  11    -0.150430940119E+03   -0.40630E-04   -0.95155E-05  9941   0.226E-02    0.186E-02
RMM:  12    -0.150430961011E+03   -0.20892E-04   -0.11775E-05  8255   0.972E-03    0.884E-03
RMM:  13    -0.150430975579E+03   -0.14569E-04   -0.10673E-06  5101   0.506E-03    0.669E-03
RMM:  14    -0.150430987457E+03   -0.11877E-04   -0.52903E-07  4965   0.238E-03    0.526E-03
RMM:  15    -0.150431009552E+03   -0.22096E-04   -0.53144E-07  4961   0.198E-03    0.392E-03
RMM:  16    -0.150431047492E+03   -0.37940E-04   -0.64415E-07  4983   0.227E-03    0.455E-03
RMM:  17    -0.150431055345E+03   -0.78531E-05   -0.40477E-07  4816   0.225E-03    0.141E-03
RMM:  18    -0.150431061318E+03   -0.59729E-05   -0.57318E-07  4929   0.174E-03    0.112E-03
RMM:  19    -0.150431064632E+03   -0.33133E-05   -0.21460E-07  4677   0.212E-03    0.108E-03
RMM:  20    -0.150431069473E+03   -0.48411E-05   -0.21871E-07  4169   0.106E-03    0.800E-04
RMM:  21    -0.150431075177E+03   -0.57044E-05   -0.11281E-07  4147   0.135E-03    0.562E-04
RMM:  22    -0.150431078227E+03   -0.30496E-05   -0.10210E-07  3345   0.743E-04    0.501E-04
RMM:  23    -0.150431079987E+03   -0.17601E-05   -0.56220E-08  3408   0.889E-04    0.312E-04
RMM:  24    -0.150431081898E+03   -0.19113E-05   -0.89396E-08  3349   0.658E-04    0.164E-04
RMM:  25    -0.150431082786E+03   -0.88754E-06   -0.55645E-08  3487   0.819E-04
  21 F= -.15661721E+03 E0= -.15661656E+03  d E =-.733050E-02  mag=    23.0000
       N       E                     dE             d eps       ncg     rms          rms(c)
DAV:   1    -0.150417891925E+03    0.13190E-01   -0.18803E+00  8120   0.277E+00    0.946E-01
RMM:   2    -0.150428416032E+03   -0.10524E-01   -0.68292E-02  8240   0.110E+00    0.780E-01
RMM:   3    -0.150440157078E+03   -0.11741E-01   -0.50264E-02 10296   0.615E-01    0.164E+00
RMM:   4    -0.150431982694E+03    0.81744E-02   -0.12711E-02  8433   0.377E-01    0.375E-01
RMM:   5    -0.150433111844E+03   -0.11291E-02   -0.24640E-03  9825   0.125E-01    0.234E-01
RMM:   6    -0.150432825380E+03    0.28646E-03   -0.35620E-04  9182   0.494E-02    0.167E-01
RMM:   7    -0.150432815095E+03    0.10285E-04   -0.25448E-03 10377   0.871E-02    0.734E-02
RMM:   8    -0.150432845293E+03   -0.30198E-04   -0.16737E-04 10145   0.413E-02    0.557E-02
RMM:   9    -0.150432853473E+03   -0.81800E-05   -0.14587E-05  7917   0.138E-02    0.450E-02
RMM:  10    -0.150432893201E+03   -0.39728E-04   -0.98640E-05  9323   0.200E-02    0.388E-02
RMM:  11    -0.150432944122E+03   -0.50922E-04   -0.80307E-05 10123   0.199E-02    0.205E-02
RMM:  12    -0.150432989071E+03   -0.44948E-04   -0.11246E-05  8013   0.875E-03    0.116E-02
RMM:  13    -0.150433019490E+03   -0.30419E-04   -0.20671E-06  5122   0.657E-03    0.533E-03
RMM:  14    -0.150433046135E+03   -0.26646E-04   -0.69906E-07  4967   0.321E-03    0.418E-03
RMM:  15    -0.150433085938E+03   -0.39803E-04   -0.90787E-07  4972   0.248E-03    0.270E-03
RMM:  16    -0.150433132778E+03   -0.46840E-04   -0.10875E-06  5057   0.263E-03    0.189E-03
RMM:  17    -0.150433142487E+03   -0.97089E-05   -0.45295E-07  4687   0.248E-03    0.191E-03
RMM:  18    -0.150433149264E+03   -0.67764E-05   -0.43277E-07  4832   0.163E-03    0.131E-03
RMM:  19    -0.150433157132E+03   -0.78684E-05   -0.30230E-07  4620   0.187E-03    0.988E-04
RMM:  20    -0.150433165290E+03   -0.81585E-05   -0.34347E-07  4323   0.143E-03    0.132E-03
RMM:  21    -0.150433170090E+03   -0.47999E-05   -0.20523E-07  4148   0.158E-03    0.624E-04
RMM:  22    -0.150433172866E+03   -0.27762E-05   -0.20517E-07  3684   0.103E-03    0.598E-04
RMM:  23    -0.150433174160E+03   -0.12931E-05   -0.12837E-07  3977   0.122E-03    0.285E-04
RMM:  24    -0.150433174803E+03   -0.64303E-06   -0.10969E-07  3838   0.845E-04
  22 F= -.15662073E+03 E0= -.15662008E+03  d E =-.351746E-02  mag=    23.0000
       N       E                     dE             d eps       ncg     rms          rms(c)
DAV:   1    -0.150431953608E+03    0.12206E-02   -0.12281E-01  8136   0.709E-01    0.242E-01
RMM:   2    -0.150432610324E+03   -0.65672E-03   -0.44696E-03  8192   0.286E-01    0.226E-01
RMM:   3    -0.150433402070E+03   -0.79175E-03   -0.33405E-03 10299   0.160E-01    0.431E-01
RMM:   4    -0.150432794230E+03    0.60784E-03   -0.75356E-04  8119   0.975E-02    0.876E-02
RMM:   5    -0.150432926606E+03   -0.13238E-03   -0.17447E-04  9369   0.325E-02    0.588E-02
RMM:   6    -0.150432910670E+03    0.15936E-04   -0.20257E-05  8206   0.123E-02    0.458E-02
RMM:   7    -0.150432901961E+03    0.87093E-05   -0.17128E-04 10333   0.235E-02    0.217E-02
RMM:   8    -0.150432905096E+03   -0.31349E-05   -0.14381E-05  8069   0.118E-02    0.157E-02
RMM:   9    -0.150432908870E+03   -0.37737E-05   -0.16083E-06  5118   0.709E-03    0.132E-02
RMM:  10    -0.150432914810E+03   -0.59403E-05   -0.39606E-06  6654   0.498E-03    0.132E-02
RMM:  11    -0.150432921829E+03   -0.70191E-05   -0.60951E-06  7169   0.570E-03    0.823E-03
RMM:  12    -0.150432930232E+03   -0.84032E-05   -0.33424E-06  5804   0.578E-03    0.532E-03
RMM:  13    -0.150432933807E+03   -0.35747E-05   -0.12956E-06  4845   0.420E-03    0.226E-03
RMM:  14    -0.150432936410E+03   -0.26030E-05   -0.46766E-07  4766   0.298E-03    0.185E-03
RMM:  15    -0.150432939149E+03   -0.27396E-05   -0.15344E-07  4195   0.170E-03    0.154E-03
RMM:  16    -0.150432944617E+03   -0.54671E-05   -0.16199E-07  4585   0.120E-03    0.118E-03
RMM:  17    -0.150432950116E+03   -0.54990E-05   -0.15044E-07  4109   0.104E-03    0.895E-04
RMM:  18    -0.150432951163E+03   -0.10475E-05   -0.61624E-08  3762   0.977E-04    0.521E-04
RMM:  19    -0.150432951686E+03   -0.52333E-06   -0.42148E-08  2938   0.638E-04
  23 F= -.15662087E+03 E0= -.15662022E+03  d E =-.365578E-02  mag=    23.0000
       N       E                     dE             d eps       ncg     rms          rms(c)
DAV:   1    -0.150427638346E+03    0.53128E-02   -0.73027E-01  8016   0.174E+00    0.561E-01
RMM:   2    -0.150432305635E+03   -0.46673E-02   -0.29814E-02  8125   0.764E-01    0.731E-01
RMM:   3    -0.150435409033E+03   -0.31034E-02   -0.22647E-02 10383   0.414E-01    0.891E-01
RMM:   4    -0.150433153623E+03    0.22554E-02   -0.36202E-03  8251   0.216E-01    0.200E-01
RMM:   5    -0.150433503051E+03   -0.34943E-03   -0.10023E-03  9854   0.761E-02    0.141E-01
RMM:   6    -0.150433412254E+03    0.90797E-04   -0.88795E-05  9219   0.260E-02    0.116E-01
RMM:   7    -0.150433336082E+03    0.76172E-04   -0.69313E-04 10205   0.465E-02    0.541E-02
RMM:   8    -0.150433389159E+03   -0.53077E-04   -0.20798E-04 10130   0.323E-02    0.389E-02
RMM:   9    -0.150433401934E+03   -0.12774E-04   -0.11154E-05  7778   0.120E-02    0.303E-02
RMM:  10    -0.150433432074E+03   -0.30140E-04   -0.26802E-05  8513   0.108E-02    0.267E-02
RMM:  11    -0.150433487461E+03   -0.55387E-04   -0.44207E-05 10040   0.161E-02    0.166E-02
RMM:  12    -0.150433527948E+03   -0.40487E-04   -0.74160E-06  7434   0.818E-03    0.863E-03
RMM:  13    -0.150433547173E+03   -0.19225E-04   -0.16181E-06  5165   0.500E-03    0.508E-03
RMM:  14    -0.150433571875E+03   -0.24703E-04   -0.69442E-07  4966   0.309E-03    0.404E-03
RMM:  15    -0.150433597961E+03   -0.26086E-04   -0.40069E-07  4859   0.229E-03    0.281E-03
RMM:  16    -0.150433646786E+03   -0.48825E-04   -0.11667E-06  4963   0.203E-03    0.145E-03
RMM:  17    -0.150433661002E+03   -0.14216E-04   -0.46830E-07  4673   0.240E-03    0.101E-03
RMM:  18    -0.150433667223E+03   -0.62215E-05   -0.36379E-07  4469   0.164E-03    0.784E-04
RMM:  19    -0.150433671712E+03   -0.44886E-05   -0.18446E-07  4191   0.164E-03    0.596E-04
RMM:  20    -0.150433679731E+03   -0.80196E-05   -0.26842E-07  4134   0.106E-03    0.691E-04
RMM:  21    -0.150433684498E+03   -0.47665E-05   -0.15665E-07  4047   0.130E-03    0.342E-04
RMM:  22    -0.150433686263E+03   -0.17650E-05   -0.13618E-07  3922   0.951E-04    0.280E-04
RMM:  23    -0.150433686784E+03   -0.52085E-06   -0.63149E-08  3484   0.984E-04
  24 F= -.15662303E+03 E0= -.15662238E+03  d E =-.216255E-02  mag=    23.0000
       N       E                     dE             d eps       ncg     rms          rms(c)
DAV:   1    -0.150421540675E+03    0.12146E-01   -0.13811E+00  8120   0.239E+00    0.773E-01
RMM:   2    -0.150430366959E+03   -0.88263E-02   -0.56293E-02  8141   0.105E+00    0.988E-01
RMM:   3    -0.150436370302E+03   -0.60033E-02   -0.42826E-02 10381   0.570E-01    0.124E+00
RMM:   4    -0.150432067927E+03    0.43024E-02   -0.72582E-03  8323   0.300E-01    0.282E-01
RMM:   5    -0.150432679597E+03   -0.61167E-03   -0.18615E-03  9932   0.105E-01    0.194E-01
RMM:   6    -0.150432512558E+03    0.16704E-03   -0.17285E-04  9261   0.361E-02    0.159E-01
RMM:   7    -0.150432402213E+03    0.11034E-03   -0.14431E-03 10244   0.666E-02    0.707E-02
RMM:   8    -0.150432504327E+03   -0.10211E-03   -0.34618E-04 10207   0.425E-02    0.523E-02
RMM:   9    -0.150432517889E+03   -0.13562E-04   -0.16649E-05  8117   0.145E-02    0.421E-02
RMM:  10    -0.150432555122E+03   -0.37233E-04   -0.41953E-05  8864   0.136E-02    0.367E-02
RMM:  11    -0.150432648971E+03   -0.93849E-04   -0.94041E-05 10236   0.217E-02    0.221E-02
RMM:  12    -0.150432711531E+03   -0.62560E-04   -0.15176E-05  8941   0.111E-02    0.124E-02
RMM:  13    -0.150432741802E+03   -0.30271E-04   -0.24235E-06  5246   0.565E-03    0.677E-03
RMM:  14    -0.150432780685E+03   -0.38883E-04   -0.71639E-07  4999   0.357E-03    0.583E-03
RMM:  15    -0.150432831309E+03   -0.50624E-04   -0.69636E-07  4967   0.227E-03    0.399E-03
RMM:  16    -0.150432904953E+03   -0.73644E-04   -0.16761E-06  5162   0.252E-03    0.196E-03
RMM:  17    -0.150432925538E+03   -0.20585E-04   -0.70610E-07  4918   0.285E-03    0.117E-03
RMM:  18    -0.150432935663E+03   -0.10124E-04   -0.57971E-07  4871   0.216E-03    0.101E-03
RMM:  19    -0.150432945460E+03   -0.97977E-05   -0.34028E-07  4433   0.215E-03    0.828E-04
RMM:  20    -0.150432959668E+03   -0.14207E-04   -0.46488E-07  4309   0.146E-03    0.688E-04
RMM:  21    -0.150432965927E+03   -0.62594E-05   -0.24781E-07  4236   0.169E-03    0.405E-04
RMM:  22    -0.150432969425E+03   -0.34975E-05   -0.24977E-07  4295   0.115E-03    0.462E-04
RMM:  23    -0.150432970725E+03   -0.13003E-05   -0.12205E-07  4084   0.130E-03    0.210E-04
RMM:  24    -0.150432971769E+03   -0.10437E-05   -0.97698E-08  3178   0.746E-04    0.257E-04
RMM:  25    -0.150432972189E+03   -0.42011E-06   -0.47262E-08  3148   0.866E-04
  25 F= -.15662427E+03 E0= -.15662362E+03  d E =-.340134E-02  mag=    23.0000
       N       E                     dE             d eps       ncg     rms          rms(c)
DAV:   1    -0.150428454608E+03    0.45172E-02   -0.71640E-01  8256   0.169E+00    0.559E-01
RMM:   2    -0.150432574735E+03   -0.41201E-02   -0.27336E-02  8112   0.716E-01    0.636E-01
RMM:   3    -0.150436269216E+03   -0.36945E-02   -0.21305E-02 10499   0.395E-01    0.967E-01
RMM:   4    -0.150433495730E+03    0.27735E-02   -0.39495E-03  8219   0.215E-01    0.189E-01
RMM:   5    -0.150433970044E+03   -0.47431E-03   -0.85346E-04  9624   0.740E-02    0.140E-01
RMM:   6    -0.150433895200E+03    0.74845E-04   -0.15037E-04  9222   0.299E-02    0.104E-01
RMM:   7    -0.150433928406E+03   -0.33206E-04   -0.75059E-04 10142   0.482E-02    0.546E-02
RMM:   8    -0.150433936879E+03   -0.84737E-05   -0.69212E-05 10280   0.252E-02    0.326E-02
RMM:   9    -0.150433934145E+03    0.27345E-05   -0.45770E-06  5723   0.815E-03    0.292E-02
RMM:  10    -0.150433925930E+03    0.82150E-05   -0.29706E-05  8281   0.103E-02    0.228E-02
RMM:  11    -0.150433927972E+03   -0.20422E-05   -0.22932E-05  9348   0.139E-02    0.138E-02
RMM:  12    -0.150433931195E+03   -0.32226E-05   -0.53970E-06  6328   0.642E-03    0.617E-03
RMM:  13    -0.150433933160E+03   -0.19653E-05   -0.99333E-07  4977   0.509E-03    0.456E-03
RMM:  14    -0.150433934820E+03   -0.16599E-05   -0.21521E-07  4923   0.165E-03    0.346E-03
RMM:  15    -0.150433937382E+03   -0.25619E-05   -0.13695E-07  4649   0.121E-03    0.204E-03
RMM:  16    -0.150433938762E+03   -0.13806E-05   -0.14578E-07  4743   0.122E-03    0.155E-03
RMM:  17    -0.150433939166E+03   -0.40337E-06   -0.16484E-07  4512   0.121E-03
  26 F= -.15662570E+03 E0= -.15662516E+03  d E =-.142964E-02  mag=    23.0000
       N       E                     dE             d eps       ncg     rms          rms(c)
DAV:   1    -0.150431822561E+03    0.21162E-02   -0.27776E-01  8392   0.105E+00    0.348E-01
RMM:   2    -0.150433400273E+03   -0.15777E-02   -0.10641E-02  8105   0.449E-01    0.404E-01
RMM:   3    -0.150434798270E+03   -0.13980E-02   -0.82448E-03 10494   0.245E-01    0.591E-01
RMM:   4    -0.150433759816E+03    0.10385E-02   -0.14805E-03  8150   0.133E-01    0.116E-01
RMM:   5    -0.150433952288E+03   -0.19247E-03   -0.32576E-04  9450   0.462E-02    0.867E-02
RMM:   6    -0.150433925057E+03    0.27231E-04   -0.56844E-05  9030   0.186E-02    0.653E-02
RMM:   7    -0.150433943481E+03   -0.18424E-04   -0.29804E-04 10107   0.306E-02    0.318E-02
RMM:   8    -0.150433947678E+03   -0.41974E-05   -0.26510E-05  9380   0.168E-02    0.200E-02
RMM:   9    -0.150433947176E+03    0.50255E-06   -0.20888E-06  5327   0.651E-03
  27 F= -.15662599E+03 E0= -.15662551E+03  d E =-.172154E-02  mag=    23.0000
       N       E                     dE             d eps       ncg     rms          rms(c)
DAV:   1    -0.150429094307E+03    0.48534E-02   -0.81957E-01  8208   0.182E+00    0.570E-01
RMM:   2    -0.150434233079E+03   -0.51388E-02   -0.33308E-02  8078   0.791E-01    0.805E-01
RMM:   3    -0.150436828757E+03   -0.25957E-02   -0.24919E-02 10502   0.429E-01    0.857E-01
RMM:   4    -0.150434883070E+03    0.19457E-02   -0.34600E-03  8291   0.208E-01    0.183E-01
RMM:   5    -0.150435145816E+03   -0.26275E-03   -0.98513E-04  9921   0.750E-02    0.142E-01
RMM:   6    -0.150435031834E+03    0.11398E-03   -0.11995E-04  9386   0.270E-02    0.112E-01
RMM:   7    -0.150434988206E+03    0.43628E-04   -0.81608E-04 10168   0.499E-02    0.530E-02
RMM:   8    -0.150435030538E+03   -0.42332E-04   -0.11329E-04 10090   0.283E-02    0.368E-02
RMM:   9    -0.150435048669E+03   -0.18131E-04   -0.62758E-06  6278   0.979E-03    0.323E-02
RMM:  10    -0.150435090851E+03   -0.42182E-04   -0.24900E-05  8372   0.102E-02    0.275E-02
RMM:  11    -0.150435160806E+03   -0.69954E-04   -0.48430E-05 10161   0.161E-02    0.179E-02
RMM:  12    -0.150435207640E+03   -0.46834E-04   -0.74960E-06  7542   0.797E-03    0.562E-03
RMM:  13    -0.150435228904E+03   -0.21263E-04   -0.98257E-07  5030   0.499E-03    0.376E-03
RMM:  14    -0.150435251835E+03   -0.22931E-04   -0.41174E-07  4966   0.221E-03    0.318E-03
RMM:  15    -0.150435295939E+03   -0.44104E-04   -0.60689E-07  4861   0.176E-03    0.244E-03
RMM:  16    -0.150435343892E+03   -0.47954E-04   -0.92742E-07  4876   0.207E-03    0.176E-03
RMM:  17    -0.150435353888E+03   -0.99956E-05   -0.45054E-07  4659   0.235E-03    0.932E-04
RMM:  18    -0.150435360828E+03   -0.69405E-05   -0.48552E-07  4758   0.161E-03    0.801E-04
RMM:  19    -0.150435369149E+03   -0.83209E-05   -0.26728E-07  4425   0.198E-03    0.649E-04
RMM:  20    -0.150435376809E+03   -0.76601E-05   -0.31428E-07  4219   0.119E-03    0.533E-04
RMM:  21    -0.150435380887E+03   -0.40773E-05   -0.16433E-07  4098   0.145E-03    0.371E-04
RMM:  22    -0.150435383402E+03   -0.25155E-05   -0.18208E-07  3767   0.924E-04    0.200E-04
RMM:  23    -0.150435384287E+03   -0.88476E-06   -0.83658E-08  3691   0.114E-03
  28 F= -.15662717E+03 E0= -.15662675E+03  d E =-.117707E-02  mag=    23.0000
       N       E                     dE             d eps       ncg     rms          rms(c)
DAV:   1    -0.150433070607E+03    0.23128E-02   -0.35275E-01  8240   0.119E+00    0.372E-01
RMM:   2    -0.150435200818E+03   -0.21302E-02   -0.14149E-02  8071   0.517E-01    0.512E-01
RMM:   3    -0.150436396099E+03   -0.11953E-02   -0.10509E-02 10492   0.279E-01    0.567E-01
RMM:   4    -0.150435510488E+03    0.88561E-03   -0.14498E-03  8216   0.137E-01    0.118E-01
RMM:   5    -0.150435638267E+03   -0.12778E-03   -0.42785E-04  9779   0.492E-02    0.931E-02
RMM:   6    -0.150435583488E+03    0.54779E-04   -0.50859E-05  9131   0.178E-02    0.734E-02
RMM:   7    -0.150435555490E+03    0.27998E-04   -0.35196E-04 10108   0.329E-02    0.284E-02
RMM:   8    -0.150435578797E+03   -0.23307E-04   -0.46400E-05  9897   0.184E-02    0.235E-02
RMM:   9    -0.150435593272E+03   -0.14476E-04   -0.32511E-06  5587   0.758E-03    0.197E-02
RMM:  10    -0.150435625575E+03   -0.32303E-04   -0.18430E-05  7908   0.801E-03    0.128E-02
RMM:  11    -0.150435659203E+03   -0.33628E-04   -0.11723E-05  7957   0.112E-02    0.846E-03
RMM:  12    -0.150435678176E+03   -0.18973E-04   -0.48566E-06  6353   0.645E-03    0.312E-03
RMM:  13    -0.150435687305E+03   -0.91284E-05   -0.87153E-07  4962   0.468E-03    0.265E-03
RMM:  14    -0.150435696957E+03   -0.96521E-05   -0.21643E-07  4790   0.161E-03    0.238E-03
RMM:  15    -0.150435715779E+03   -0.18823E-04   -0.23617E-07  4550   0.120E-03    0.192E-03
RMM:  16    -0.150435745023E+03   -0.29244E-04   -0.52816E-07  4680   0.143E-03    0.153E-03
RMM:  17    -0.150435752391E+03   -0.73672E-05   -0.22704E-07  4522   0.161E-03    0.989E-04
RMM:  18    -0.150435753601E+03   -0.12103E-05   -0.16551E-07  4296   0.116E-03    0.544E-04
RMM:  19    -0.150435758131E+03   -0.45296E-05   -0.18169E-07  4399   0.125E-03    0.575E-04
RMM:  20    -0.150435761574E+03   -0.34431E-05   -0.12584E-07  4196   0.123E-03    0.416E-04
RMM:  21    -0.150435764517E+03   -0.29433E-05   -0.98524E-08  3641   0.923E-04    0.399E-04
RMM:  22    -0.150435766473E+03   -0.19556E-05   -0.80476E-08  3473   0.877E-04    0.267E-04
RMM:  23    -0.150435767227E+03   -0.75433E-06   -0.56475E-08  3289   0.795E-04
  29 F= -.15662738E+03 E0= -.15662699E+03  d E =-.138454E-02  mag=    23.0000
       N       E                     dE             d eps       ncg     rms          rms(c)
DAV:   1    -0.150432228601E+03    0.35379E-02   -0.63180E-01  8192   0.158E+00    0.501E-01
RMM:   2    -0.150435673603E+03   -0.34450E-02   -0.24348E-02  8183   0.658E-01    0.563E-01
RMM:   3    -0.150438628103E+03   -0.29545E-02   -0.17852E-02 10477   0.363E-01    0.862E-01
RMM:   4    -0.150436397214E+03    0.22309E-02   -0.33435E-03  8262   0.198E-01    0.166E-01
RMM:   5    -0.150436794130E+03   -0.39692E-03   -0.78830E-04  9816   0.666E-02    0.128E-01
RMM:   6    -0.150436746284E+03    0.47846E-04   -0.82083E-05  9246   0.230E-02    0.103E-01
RMM:   7    -0.150436759841E+03   -0.13557E-04   -0.68975E-04 10369   0.456E-02    0.486E-02
RMM:   8    -0.150436786062E+03   -0.26221E-04   -0.91987E-05  9976   0.274E-02    0.346E-02
RMM:   9    -0.150436782517E+03    0.35454E-05   -0.68763E-06  6665   0.108E-02    0.287E-02
RMM:  10    -0.150436775775E+03    0.67422E-05   -0.18328E-05  7823   0.867E-03    0.233E-02
RMM:  11    -0.150436776052E+03   -0.27756E-06   -0.28263E-05  9434   0.128E-02    0.163E-02
RMM:  12    -0.150436779655E+03   -0.36024E-05   -0.67879E-06  7459   0.789E-03    0.841E-03
RMM:  13    -0.150436782588E+03   -0.29331E-05   -0.24040E-06  5517   0.574E-03    0.408E-03
RMM:  14    -0.150436785166E+03   -0.25780E-05   -0.48891E-07  4940   0.273E-03    0.296E-03
RMM:  15    -0.150436788915E+03   -0.37490E-05   -0.14592E-07  4774   0.180E-03    0.195E-03
RMM:  16    -0.150436794527E+03   -0.56122E-05   -0.18026E-07  4511   0.107E-03    0.147E-03
RMM:  17    -0.150436795531E+03   -0.10040E-05   -0.87914E-08  4377   0.108E-03    0.678E-04
RMM:  18    -0.150436796172E+03   -0.64092E-06   -0.96912E-08  4245   0.876E-04
  30 F= -.15662819E+03 E0= -.15662782E+03  d E =-.813351E-03  mag=    23.0000
       N       E                     dE             d eps       ncg     rms          rms(c)
DAV:   1    -0.150433843581E+03    0.29519E-02   -0.46727E-01  8112   0.136E+00    0.432E-01
RMM:   2    -0.150436392670E+03   -0.25491E-02   -0.17968E-02  8164   0.567E-01    0.493E-01
RMM:   3    -0.150438547743E+03   -0.21551E-02   -0.13295E-02 10488   0.313E-01    0.737E-01
RMM:   4    -0.150436924760E+03    0.16230E-02   -0.24665E-03  8230   0.170E-01    0.143E-01
RMM:   5    -0.150437217843E+03   -0.29308E-03   -0.57817E-04  9778   0.574E-02    0.111E-01
RMM:   6    -0.150437182102E+03    0.35742E-04   -0.61846E-05  9117   0.200E-02    0.878E-02
RMM:   7    -0.150437195673E+03   -0.13571E-04   -0.51384E-04 10392   0.395E-02    0.399E-02
RMM:   8    -0.150437215212E+03   -0.19539E-04   -0.62154E-05  9906   0.228E-02    0.293E-02
RMM:   9    -0.150437213344E+03    0.18678E-05   -0.49506E-06  5897   0.936E-03    0.238E-02
RMM:  10    -0.150437209882E+03    0.34625E-05   -0.13484E-05  7661   0.746E-03    0.191E-02
RMM:  11    -0.150437211387E+03   -0.15050E-05   -0.20879E-05  9076   0.112E-02    0.130E-02
RMM:  12    -0.150437214052E+03   -0.26652E-05   -0.37073E-06  6209   0.699E-03    0.727E-03
RMM:  13    -0.150437216334E+03   -0.22820E-05   -0.17721E-06  5355   0.448E-03    0.371E-03
RMM:  14    -0.150437218588E+03   -0.22547E-05   -0.41232E-07  4863   0.276E-03    0.275E-03
RMM:  15    -0.150437221625E+03   -0.30366E-05   -0.13605E-07  4590   0.171E-03    0.185E-03
RMM:  16    -0.150437226204E+03   -0.45790E-05   -0.13891E-07  4475   0.103E-03    0.117E-03
RMM:  17    -0.150437227570E+03   -0.13659E-05   -0.71418E-08  4188   0.910E-04    0.796E-04
RMM:  18    -0.150437228105E+03   -0.53464E-06   -0.72953E-08  4143   0.838E-04
  31 F= -.15662843E+03 E0= -.15662808E+03  d E =-.105607E-02  mag=    23.0000
       N       E                     dE             d eps       ncg     rms          rms(c)
DAV:   1    -0.150435420020E+03    0.18076E-02   -0.26136E-01  8080   0.105E+00    0.333E-01
RMM:   2    -0.150437352643E+03   -0.19326E-02   -0.11667E-02  8094   0.473E-01    0.540E-01
RMM:   3    -0.150437915413E+03   -0.56277E-03   -0.82615E-03 10400   0.253E-01    0.451E-01
RMM:   4    -0.150437498785E+03    0.41663E-03   -0.11266E-03  8295   0.118E-01    0.105E-01
RMM:   5    -0.150437604459E+03   -0.10567E-03   -0.33502E-04 10101   0.431E-02    0.805E-02
RMM:   6    -0.150437576720E+03    0.27739E-04   -0.38049E-05  8712   0.152E-02    0.644E-02
RMM:   7    -0.150437586340E+03   -0.96200E-05   -0.29470E-04 10233   0.313E-02    0.294E-02
RMM:   8    -0.150437597301E+03   -0.10961E-04   -0.39173E-05  9777   0.176E-02    0.230E-02
RMM:   9    -0.150437597477E+03   -0.17532E-06   -0.28491E-06  5537   0.726E-03
  32 F= -.15662891E+03 E0= -.15662854E+03  d E =-.480487E-03  mag=    23.0000
       N       E                     dE             d eps       ncg     rms          rms(c)
DAV:   1    -0.150437475497E+03    0.12180E-03   -0.12800E-02  8352   0.233E-01    0.806E-02
RMM:   2    -0.150437574946E+03   -0.99448E-04   -0.74054E-04  8491   0.111E-01    0.150E-01
RMM:   3    -0.150437576177E+03   -0.12318E-05   -0.46382E-04 10199   0.596E-02    0.939E-02
RMM:   4    -0.150437575687E+03    0.49053E-06   -0.61609E-05  8105   0.271E-02    0.240E-02
RMM:   5    -0.150437583865E+03   -0.81785E-05   -0.18317E-05  7227   0.104E-02    0.174E-02
RMM:   6    -0.150437583952E+03   -0.86482E-07   -0.23101E-06  5544   0.660E-03
  33 F= -.15662892E+03 E0= -.15662855E+03  d E =-.491055E-03  mag=    23.0000
       N       E                     dE             d eps       ncg     rms          rms(c)
DAV:   1    -0.150434236656E+03    0.33472E-02   -0.39044E-01  8032   0.125E+00    0.423E-01
RMM:   2    -0.150436278997E+03   -0.20423E-02   -0.12618E-02  8125   0.484E-01    0.283E-01
RMM:   3    -0.150438599144E+03   -0.23201E-02   -0.93548E-03 10490   0.254E-01    0.601E-01
RMM:   4    -0.150437446008E+03    0.11531E-02   -0.18216E-03  8290   0.147E-01    0.171E-01
RMM:   5    -0.150437618980E+03   -0.17297E-03   -0.38480E-04  9541   0.531E-02    0.100E-01
RMM:   6    -0.150437581165E+03    0.37815E-04   -0.67116E-05  9216   0.221E-02    0.764E-02
RMM:   7    -0.150437598569E+03   -0.17404E-04   -0.35648E-04 10140   0.339E-02    0.481E-02
RMM:   8    -0.150437614961E+03   -0.16392E-04   -0.65301E-05  9893   0.230E-02    0.269E-02
RMM:   9    -0.150437617917E+03   -0.29556E-05   -0.54352E-06  5719   0.776E-03    0.218E-02
RMM:  10    -0.150437619014E+03   -0.10972E-05   -0.34970E-06  6217   0.504E-03    0.201E-02
RMM:  11    -0.150437629423E+03   -0.10409E-04   -0.26956E-05  9541   0.111E-02    0.141E-02
RMM:  12    -0.150437640093E+03   -0.10670E-04   -0.11906E-05  8174   0.992E-03    0.564E-03
RMM:  13    -0.150437645536E+03   -0.54430E-05   -0.15552E-06  5228   0.546E-03    0.289E-03
RMM:  14    -0.150437647950E+03   -0.24141E-05   -0.39716E-07  4951   0.266E-03    0.198E-03
RMM:  15    -0.150437651405E+03   -0.34552E-05   -0.11856E-07  4677   0.141E-03    0.158E-03
RMM:  16    -0.150437659694E+03   -0.82881E-05   -0.32786E-07  4634   0.127E-03    0.156E-03
RMM:  17    -0.150437663026E+03   -0.33322E-05   -0.95115E-08  4322   0.139E-03    0.115E-03
RMM:  18    -0.150437664976E+03   -0.19504E-05   -0.64757E-08  3168   0.693E-04    0.564E-04
RMM:  19    -0.150437665700E+03   -0.72421E-06   -0.54017E-08  3693   0.795E-04
  34 F= -.15662936E+03 E0= -.15662900E+03  d E =-.440445E-03  mag=    23.0000
