CrCl3 2x2 + Ni S1 top-Cl (D3, U=0) (a_2x
   1.00000000000000     
    12.0925489970493256    0.0000000000000000    0.0000000000000000
    -6.0462744985246628   10.4724546279527502    0.0000000000000000
     0.0000000000000000    0.0000000000000000   20.0000000000000000
   Cr   Cl   Ni
     8    24     1
Direct
     0.1708434066440001    0.3452160936987839    0.4995741103008257
     0.3296740338401520    0.1774442901156189    0.4982322328907371
     0.6703259661598477    0.3477702562754527    0.4982322328907371
     0.8420070637973529    0.1742052830456590    0.5047137280552575
     0.1579929362026470    0.8321982192482847    0.5047137280552575
     0.3328116382638530    0.6757437595386888    0.5037762381237711
     0.6671883617361467    0.8429321212748216    0.5037762381237711
     0.8291565933560001    0.6743726870548057    0.4995741103008257
     0.1780937299309070    0.5138955208241121    0.4346105280952109
     0.5000000000000000    0.1731388546365607    0.4375062128607108
     0.3227502985345870    0.3407881898991779    0.4283133360632368
     0.3283990639138556    0.5094412822626996    0.5681534374822851
     0.0071118963814236    0.3325882117671633    0.5706919639138828
     0.1777451200889723    0.1899143396793096    0.5683443739589127
     0.6772497014654133    0.5180378913645909    0.4283133360632368
     0.0030575002123406    0.1864547769951063    0.4333142755205814
     0.8289029855645456    0.3276214696620052    0.4371166437399420
     0.8222548799110279    0.5121692195903443    0.5683443739589127
     0.5000000000000000    0.2983463206973648    0.5804787239159663
     0.7020490478800674    0.1855162570903793    0.5869751300629871
     0.1710970144354548    0.9987184840974670    0.4371166437399420
     0.5000000000000000    0.6913725214983345    0.4352750174087536
     0.3235683936830422    0.8354554301150564    0.4397650177911143
     0.2979509521199327    0.9834672092103118    0.5869751300629871
     0.9928881036185763    0.8254763153857398    0.5706919639138828
     0.1700874505393136    0.6743012545069940    0.5706397549213862
     0.6764316063169575    0.0118870364320139    0.4397650177911143
     0.9969424997876595    0.6833972767827657    0.4333142755205814
     0.8219062700690932    0.8358017908932053    0.4346105280952109
     0.8299125494606863    0.0042138039676731    0.5706397549213862
     0.5000000000000000    0.8350045857245950    0.5727301875236037
     0.6716009360861447    0.6810422183488372    0.5681534374822851
     0.5000000000000000    0.1024169298842703    0.5648545097106236
 
  0.00000000E+00  0.00000000E+00  0.00000000E+00
  0.00000000E+00  0.00000000E+00  0.00000000E+00
  0.00000000E+00  0.00000000E+00  0.00000000E+00
  0.00000000E+00  0.00000000E+00  0.00000000E+00
  0.00000000E+00  0.00000000E+00  0.00000000E+00
  0.00000000E+00  0.00000000E+00  0.00000000E+00
  0.00000000E+00  0.00000000E+00  0.00000000E+00
  0.00000000E+00  0.00000000E+00  0.00000000E+00
  0.00000000E+00  0.00000000E+00  0.00000000E+00
  0.00000000E+00  0.00000000E+00  0.00000000E+00
  0.00000000E+00  0.00000000E+00  0.00000000E+00
  0.00000000E+00  0.00000000E+00  0.00000000E+00
  0.00000000E+00  0.00000000E+00  0.00000000E+00
  0.00000000E+00  0.00000000E+00  0.00000000E+00
  0.00000000E+00  0.00000000E+00  0.00000000E+00
  0.00000000E+00  0.00000000E+00  0.00000000E+00
  0.00000000E+00  0.00000000E+00  0.00000000E+00
  0.00000000E+00  0.00000000E+00  0.00000000E+00
  0.00000000E+00  0.00000000E+00  0.00000000E+00
  0.00000000E+00  0.00000000E+00  0.00000000E+00
  0.00000000E+00  0.00000000E+00  0.00000000E+00
  0.00000000E+00  0.00000000E+00  0.00000000E+00
  0.00000000E+00  0.00000000E+00  0.00000000E+00
  0.00000000E+00  0.00000000E+00  0.00000000E+00
  0.00000000E+00  0.00000000E+00  0.00000000E+00
  0.00000000E+00  0.00000000E+00  0.00000000E+00
  0.00000000E+00  0.00000000E+00  0.00000000E+00
  0.00000000E+00  0.00000000E+00  0.00000000E+00
  0.00000000E+00  0.00000000E+00  0.00000000E+00
  0.00000000E+00  0.00000000E+00  0.00000000E+00
  0.00000000E+00  0.00000000E+00  0.00000000E+00
  0.00000000E+00  0.00000000E+00  0.00000000E+00
  0.00000000E+00  0.00000000E+00  0.00000000E+00
