CrCl3 2x2 + Ni S1 top-Cl (D3, U=0) (a_2x
   1.0000000000000000     
    12.0925489970493256    0.0000000000000000    0.0000000000000000
    -6.0462744985246628   10.4724546279527502    0.0000000000000000
     0.0000000000000000    0.0000000000000000   20.0000000000000000
   Cr   Cl   Ni
     8    24     1
Direct
  0.1651958573660409  0.3397764044757526  0.5003203111647248
  0.3308410871928119  0.1762765665619667  0.5006244141103854
  0.6691589128071878  0.3454354793691407  0.5006244141103854
  0.8342908445550302  0.1691597067202274  0.5027478293246063
  0.1657091554449694  0.8348688621651830  0.5027478293246063
  0.3333612351245619  0.6709966639051657  0.5036247151562383
  0.6666387648754379  0.8376354287805896  0.5036247151562383
  0.8348041426339590  0.6745805471097259  0.5003203111647248
  0.1791715062696920  0.5084032493907755  0.4356822255548668
  0.5000000000000000  0.1893960572725817  0.4352031278741444
  0.3210115951139436  0.3311356725763680  0.4340383277422071
  0.3190373455846690  0.5029829782869196  0.5691231302380574
  0.0011300066004354  0.3272523542870611  0.5675665889069822
  0.1752106809567354  0.1845954699751246  0.5669285546012139
  0.6789884048860567  0.5101240774624245  0.4340383277422071
  0.0017868298024733  0.1858691082542275  0.4330771264910136
  0.8172826038379634  0.3215156675807916  0.4363813372971352
  0.8247893190432646  0.5093847890183891  0.5669285546012139
  0.5000000000000000  0.3274617019944032  0.5714216792393764
  0.6972093805398214  0.1924312206551649  0.5828243431578596
  0.1827173961620366  0.0042330637428280  0.4363813372971352
  0.5000000000000000  0.6816705949245695  0.4383189040642590
  0.3268077048948882  0.8299891540581528  0.4393282801077496
  0.3027906194601786 -0.0047781598846563  0.5828243431578596
 -0.0011300066004354  0.8261223476866262  0.5675665889069822
  0.1754222648928122  0.6784404629601820  0.5688007347727347
  0.6731922951051127  0.0031814491632648  0.4393282801077496
 -0.0017868298024733  0.6840822784517543  0.4330771264910136
  0.8208284937303082  0.8292317431210839  0.4356822255548668
  0.8245777351071880  0.0030181980673695  0.5688007347727347
  0.5000000000000000  0.8238449686009269  0.5715193120302023
  0.6809626544153305  0.6839456327022501  0.5691231302380574
  0.5000000000000000  0.1380861621318619  0.5806873328003898

  0.00000000E+00  0.00000000E+00  0.00000000E+00
  0.00000000E+00  0.00000000E+00  0.00000000E+00
  0.00000000E+00  0.00000000E+00  0.00000000E+00
  0.00000000E+00  0.00000000E+00  0.00000000E+00
  0.00000000E+00  0.00000000E+00  0.00000000E+00
  0.00000000E+00  0.00000000E+00  0.00000000E+00
  0.00000000E+00  0.00000000E+00  0.00000000E+00
  0.00000000E+00  0.00000000E+00  0.00000000E+00
  0.00000000E+00  0.00000000E+00  0.00000000E+00
  0.00000000E+00  0.00000000E+00  0.00000000E+00
  0.00000000E+00  0.00000000E+00  0.00000000E+00
  0.00000000E+00  0.00000000E+00  0.00000000E+00
  0.00000000E+00  0.00000000E+00  0.00000000E+00
  0.00000000E+00  0.00000000E+00  0.00000000E+00
  0.00000000E+00  0.00000000E+00  0.00000000E+00
  0.00000000E+00  0.00000000E+00  0.00000000E+00
  0.00000000E+00  0.00000000E+00  0.00000000E+00
  0.00000000E+00  0.00000000E+00  0.00000000E+00
  0.00000000E+00  0.00000000E+00  0.00000000E+00
  0.00000000E+00  0.00000000E+00  0.00000000E+00
  0.00000000E+00  0.00000000E+00  0.00000000E+00
  0.00000000E+00  0.00000000E+00  0.00000000E+00
  0.00000000E+00  0.00000000E+00  0.00000000E+00
  0.00000000E+00  0.00000000E+00  0.00000000E+00
  0.00000000E+00  0.00000000E+00  0.00000000E+00
  0.00000000E+00  0.00000000E+00  0.00000000E+00
  0.00000000E+00  0.00000000E+00  0.00000000E+00
  0.00000000E+00  0.00000000E+00  0.00000000E+00
  0.00000000E+00  0.00000000E+00  0.00000000E+00
  0.00000000E+00  0.00000000E+00  0.00000000E+00
  0.00000000E+00  0.00000000E+00  0.00000000E+00
  0.00000000E+00  0.00000000E+00  0.00000000E+00
  0.00000000E+00  0.00000000E+00  0.00000000E+00
