Cr8Cl24                                 
   1.0000000000000000     
    12.2092962264999993    0.0000000000000000    0.0000000000000000
    -6.0854095134000001   10.5847228971000007    0.0000000000000000
     0.0000000000000000    0.0000000000000000   17.6887664794999999
   Cr   Cl   Fe   H 
     8    24     1     1
Direct
  0.1529425315454649  0.3360436612014498  0.3386232434834754
  0.1578401658345747  0.8440578324338418  0.3300755077003161
  0.6706622791818047  0.3421212524956224  0.3330078797890820
  0.6626115555788061  0.8477340000183343  0.3377108815969943
  0.8280240843974868  0.1741113670640864  0.3300587061930729
  0.8314889022039779  0.6787383546266861  0.3377456748770487
  0.3198237753413465  0.1689977874186847  0.3386300102809972
  0.3259886223564885  0.6868545744203794  0.3329933007407310
  0.1713650634996097  0.5022373685245929  0.2627087240501171
  0.1667920673137408  0.0151713710040925  0.2585116592085618
  0.6578040729843274  0.5139585308638525  0.2682085607918442
  0.6713299772760711  0.0025048316518315  0.2562850130974323
  0.3236926222698255  0.3398064135020448  0.2675148861827730
  0.3028197494602872  0.8418228903037858  0.2460298182128736
  0.8257992293985527  0.3191687774328311  0.2460717037660032
  0.8155381752634309  0.8316903668107779  0.2624779621405223
 -0.0009135343952849  0.1830534627040883  0.2584751118075069
  0.9862202363690988  0.6873883365573030  0.2563114031250929
  0.4860462208802635  0.1873850911591610  0.2627568428638977
  0.4978182409881208  0.6739964536035179  0.2682092105282405
  0.9877985051698477  0.3279020050536209  0.4099536056483903
  0.9943696992593933  0.8347965447704992  0.4108497967050873
  0.4740955821836392  0.3185591390229438  0.4260865613348013
  0.4992480048865869  0.8385865172683152  0.4125884802767493
  0.3024673127171583  0.4902959714956061  0.4260899535558496
  0.3116568385683582  0.0038434541005955  0.4099628765739126
  0.8222790825849742  0.5153967017120460  0.4126574791022503
  0.8187207438058239  0.0105901354944905  0.4108051280459337
  0.1591552815297445  0.1753235755573872  0.4126144036017805
  0.1661052233523602  0.6928070104666495  0.4088398894013556
  0.6767861869424684  0.1823643441922971  0.4088655128869394
  0.6782840697242919  0.6945029953150699  0.4200763169694893
  0.4864716111943135  0.5026263805382328  0.3674752389905511
  0.4941980673330497  0.5102267812152622  0.4539687324702791

  0.00000000E+00  0.00000000E+00  0.00000000E+00
  0.00000000E+00  0.00000000E+00  0.00000000E+00
  0.00000000E+00  0.00000000E+00  0.00000000E+00
  0.00000000E+00  0.00000000E+00  0.00000000E+00
  0.00000000E+00  0.00000000E+00  0.00000000E+00
  0.00000000E+00  0.00000000E+00  0.00000000E+00
  0.00000000E+00  0.00000000E+00  0.00000000E+00
  0.00000000E+00  0.00000000E+00  0.00000000E+00
  0.00000000E+00  0.00000000E+00  0.00000000E+00
  0.00000000E+00  0.00000000E+00  0.00000000E+00
  0.00000000E+00  0.00000000E+00  0.00000000E+00
  0.00000000E+00  0.00000000E+00  0.00000000E+00
  0.00000000E+00  0.00000000E+00  0.00000000E+00
  0.00000000E+00  0.00000000E+00  0.00000000E+00
  0.00000000E+00  0.00000000E+00  0.00000000E+00
  0.00000000E+00  0.00000000E+00  0.00000000E+00
  0.00000000E+00  0.00000000E+00  0.00000000E+00
  0.00000000E+00  0.00000000E+00  0.00000000E+00
  0.00000000E+00  0.00000000E+00  0.00000000E+00
  0.00000000E+00  0.00000000E+00  0.00000000E+00
  0.00000000E+00  0.00000000E+00  0.00000000E+00
  0.00000000E+00  0.00000000E+00  0.00000000E+00
  0.00000000E+00  0.00000000E+00  0.00000000E+00
  0.00000000E+00  0.00000000E+00  0.00000000E+00
  0.00000000E+00  0.00000000E+00  0.00000000E+00
  0.00000000E+00  0.00000000E+00  0.00000000E+00
  0.00000000E+00  0.00000000E+00  0.00000000E+00
  0.00000000E+00  0.00000000E+00  0.00000000E+00
  0.00000000E+00  0.00000000E+00  0.00000000E+00
  0.00000000E+00  0.00000000E+00  0.00000000E+00
  0.00000000E+00  0.00000000E+00  0.00000000E+00
  0.00000000E+00  0.00000000E+00  0.00000000E+00
  0.00000000E+00  0.00000000E+00  0.00000000E+00
  0.00000000E+00  0.00000000E+00  0.00000000E+00
