       N       E                     dE             d eps       ncg     rms          rms(c)
DAV:   1     0.214026481328E+04    0.21403E+04   -0.65570E+04  8080   0.924E+02
DAV:   2     0.397911149226E+03   -0.17424E+04   -0.16260E+04  9536   0.247E+02
DAV:   3    -0.121149076535E+03   -0.51906E+03   -0.50438E+03 11696   0.138E+02
DAV:   4    -0.157822315761E+03   -0.36673E+02   -0.36040E+02 11872   0.504E+01
DAV:   5    -0.158562105154E+03   -0.73979E+00   -0.73566E+00 12288   0.911E+00    0.439E+01
DAV:   6    -0.150361781292E+03    0.82003E+01   -0.16087E+02 12960   0.719E+01    0.544E+01
DAV:   7    -0.149936411293E+03    0.42537E+00   -0.56382E+01 11352   0.522E+01    0.305E+01
DAV:   8    -0.147984323150E+03    0.19521E+01   -0.11085E+01 14160   0.316E+01    0.179E+01
DAV:   9    -0.148402006763E+03   -0.41768E+00   -0.44622E+00 12712   0.186E+01    0.972E+00
DAV:  10    -0.148669437991E+03   -0.26743E+00   -0.12254E+00 12376   0.638E+00    0.607E+00
DAV:  11    -0.148770457747E+03   -0.10102E+00   -0.76005E-01 11952   0.746E+00    0.331E+00
DAV:  12    -0.148907007546E+03   -0.13655E+00   -0.22075E-01 11712   0.377E+00    0.194E+00
DAV:  13    -0.148972765003E+03   -0.65757E-01   -0.61808E-02 11552   0.187E+00    0.100E+00
DAV:  14    -0.149030153932E+03   -0.57389E-01   -0.23038E-02 11384   0.958E-01    0.578E-01
DAV:  15    -0.149061946945E+03   -0.31793E-01   -0.62480E-03 10456   0.404E-01    0.319E-01
DAV:  16    -0.149089429133E+03   -0.27482E-01   -0.20404E-03 13168   0.223E-01    0.155E-01
DAV:  17    -0.149116207364E+03   -0.26778E-01   -0.74285E-04 12040   0.152E-01    0.992E-02
DAV:  18    -0.149133121154E+03   -0.16914E-01   -0.31422E-04 10408   0.610E-02    0.696E-02
DAV:  19    -0.149148359237E+03   -0.15238E-01   -0.20393E-04 10512   0.453E-02    0.470E-02
DAV:  20    -0.149156449942E+03   -0.80907E-02   -0.16062E-04 11280   0.445E-02    0.305E-02
DAV:  21    -0.149159987283E+03   -0.35373E-02   -0.84889E-05 10656   0.267E-02    0.234E-02
DAV:  22    -0.149162213994E+03   -0.22267E-02   -0.89266E-05 10328   0.236E-02    0.168E-02
DAV:  23    -0.149163067052E+03   -0.85306E-03   -0.58474E-05 10216   0.208E-02    0.118E-02
DAV:  24    -0.149163237276E+03   -0.17022E-03   -0.21422E-05 10024   0.127E-02    0.905E-03
DAV:  25    -0.149163302666E+03   -0.65390E-04   -0.20702E-05  9320   0.134E-02    0.679E-03
DAV:  26    -0.149163374547E+03   -0.71882E-04   -0.25188E-05  9544   0.105E-02    0.582E-03
DAV:  27    -0.149163450953E+03   -0.76405E-04   -0.16396E-05  8272   0.880E-03    0.483E-03
DAV:  28    -0.149163542264E+03   -0.91312E-04   -0.63680E-06  7008   0.615E-03    0.358E-03
DAV:  29    -0.149163641300E+03   -0.99036E-04   -0.72036E-06  7024   0.588E-03    0.299E-03
DAV:  30    -0.149163717991E+03   -0.76691E-04   -0.89840E-06  7408   0.613E-03    0.239E-03
DAV:  31    -0.149163727856E+03   -0.98650E-05   -0.30572E-06  6632   0.422E-03    0.203E-03
DAV:  32    -0.149163727767E+03    0.89229E-07   -0.79739E-07  5536   0.254E-03
   1 F= -.15535542E+03 E0= -.15535526E+03  d E =-.155355E+03  mag=    28.9999
       N       E                     dE             d eps       ncg     rms          rms(c)
DAV:   1    -0.149047377520E+03    0.11635E+00   -0.19913E+01  7944   0.864E+00    0.341E+00
DAV:   2    -0.149223939484E+03   -0.17656E+00   -0.78867E-01 11176   0.335E+00    0.201E+00
DAV:   3    -0.149251816792E+03   -0.27877E-01   -0.41504E-02 11408   0.115E+00    0.792E-01
DAV:   4    -0.149248304479E+03    0.35123E-02   -0.62837E-03 12176   0.438E-01    0.518E-01
DAV:   5    -0.149246243047E+03    0.20614E-02   -0.44134E-03 11368   0.180E-01    0.278E-01
DAV:   6    -0.149247987423E+03   -0.17444E-02   -0.15367E-03 11072   0.122E-01    0.103E-01
DAV:   7    -0.149250857505E+03   -0.28701E-02   -0.44701E-04 11920   0.115E-01    0.702E-02
DAV:   8    -0.149253032799E+03   -0.21753E-02   -0.13721E-04 10112   0.437E-02    0.570E-02
DAV:   9    -0.149255656805E+03   -0.26240E-02   -0.14969E-04 11288   0.330E-02    0.381E-02
DAV:  10    -0.149258053433E+03   -0.23966E-02   -0.19764E-04 10968   0.300E-02    0.235E-02
DAV:  11    -0.149259556612E+03   -0.15032E-02   -0.12405E-04 10488   0.243E-02    0.184E-02
DAV:  12    -0.149260639584E+03   -0.10830E-02   -0.13244E-04 10800   0.237E-02    0.162E-02
DAV:  13    -0.149261501241E+03   -0.86166E-03   -0.34737E-04  9992   0.364E-02    0.999E-03
DAV:  14    -0.149261313358E+03    0.18788E-03   -0.12726E-04 10328   0.228E-02    0.655E-03
DAV:  15    -0.149261315581E+03   -0.22235E-05   -0.16567E-05  8008   0.951E-03    0.472E-03
DAV:  16    -0.149261330262E+03   -0.14681E-04   -0.69052E-06  6360   0.529E-03    0.306E-03
DAV:  17    -0.149261363777E+03   -0.33515E-04   -0.84542E-06  6592   0.537E-03    0.228E-03
DAV:  18    -0.149261414368E+03   -0.50591E-04   -0.19432E-06  6248   0.353E-03    0.183E-03
DAV:  19    -0.149261454536E+03   -0.40169E-04   -0.61073E-07  5704   0.222E-03    0.156E-03
DAV:  20    -0.149261489977E+03   -0.35441E-04   -0.50940E-07  5888   0.202E-03    0.125E-03
DAV:  21    -0.149261537790E+03   -0.47813E-04   -0.16787E-06  6200   0.281E-03    0.108E-03
DAV:  22    -0.149261560150E+03   -0.22360E-04   -0.87198E-07  6256   0.238E-03    0.806E-04
DAV:  23    -0.149261571282E+03   -0.11132E-04   -0.49284E-07  5776   0.195E-03    0.678E-04
DAV:  24    -0.149261574961E+03   -0.36785E-05   -0.28475E-07  5304   0.167E-03    0.474E-04
DAV:  25    -0.149261577184E+03   -0.22237E-05   -0.21153E-07  5672   0.123E-03    0.377E-04
DAV:  26    -0.149261578094E+03   -0.90922E-06   -0.14115E-07  5144   0.114E-03
   2 F= -.15545133E+03 E0= -.15545127E+03  d E =-.959044E-01  mag=    29.0000
       N       E                     dE             d eps       ncg     rms          rms(c)
DAV:   1    -0.149206761566E+03    0.54816E-01   -0.62925E+00  7920   0.485E+00    0.193E+00
DAV:   2    -0.149261029497E+03   -0.54268E-01   -0.22555E-01 11176   0.170E+00    0.100E+00
DAV:   3    -0.149270897563E+03   -0.98681E-02   -0.13026E-02 11264   0.575E-01    0.409E-01
DAV:   4    -0.149269585229E+03    0.13123E-02   -0.16827E-03 12120   0.185E-01    0.269E-01
DAV:   5    -0.149268813436E+03    0.77179E-03   -0.11147E-03 11584   0.103E-01    0.153E-01
DAV:   6    -0.149269415418E+03   -0.60198E-03   -0.46794E-04 10464   0.715E-02    0.495E-02
DAV:   7    -0.149270557914E+03   -0.11425E-02   -0.13618E-04 11072   0.501E-02    0.359E-02
DAV:   8    -0.149271463846E+03   -0.90593E-03   -0.36467E-05 10288   0.170E-02    0.271E-02
DAV:   9    -0.149272501276E+03   -0.10374E-02   -0.42517E-05 10792   0.161E-02    0.186E-02
DAV:  10    -0.149273417877E+03   -0.91660E-03   -0.49403E-05 10200   0.148E-02    0.122E-02
DAV:  11    -0.149274088226E+03   -0.67035E-03   -0.40513E-05  9624   0.129E-02    0.937E-03
DAV:  12    -0.149274569895E+03   -0.48167E-03   -0.43512E-05  9744   0.134E-02    0.832E-03
DAV:  13    -0.149274881664E+03   -0.31177E-03   -0.84271E-05  9448   0.173E-02    0.527E-03
DAV:  14    -0.149274796603E+03    0.85061E-04   -0.31866E-05  9296   0.113E-02    0.380E-03
DAV:  15    -0.149274773747E+03    0.22857E-04   -0.36838E-06  6584   0.456E-03    0.269E-03
DAV:  16    -0.149274787736E+03   -0.13989E-04   -0.16991E-06  5408   0.290E-03    0.205E-03
DAV:  17    -0.149274806515E+03   -0.18779E-04   -0.16866E-06  5816   0.283E-03    0.149E-03
DAV:  18    -0.149274829012E+03   -0.22497E-04   -0.15672E-06  5976   0.256E-03    0.111E-03
DAV:  19    -0.149274845885E+03   -0.16873E-04   -0.52385E-07  5416   0.190E-03    0.129E-03
DAV:  20    -0.149274858906E+03   -0.13021E-04   -0.18760E-07  5280   0.145E-03    0.799E-04
DAV:  21    -0.149274873636E+03   -0.14730E-04   -0.20363E-07  5696   0.120E-03    0.768E-04
DAV:  22    -0.149274893255E+03   -0.19619E-04   -0.59942E-07  5984   0.172E-03    0.665E-04
DAV:  23    -0.149274905026E+03   -0.11771E-04   -0.50796E-07  5984   0.185E-03    0.713E-04
DAV:  24    -0.149274906822E+03   -0.17957E-05   -0.20751E-07  5184   0.158E-03    0.306E-04
DAV:  25    -0.149274907895E+03   -0.10738E-05   -0.12645E-07  5048   0.930E-04    0.319E-04
DAV:  26    -0.149274908364E+03   -0.46812E-06   -0.68507E-08  5096   0.887E-04
   3 F= -.15546363E+03 E0= -.15546360E+03  d E =-.108204E+00  mag=    29.0000
       N       E                     dE             d eps       ncg     rms          rms(c)
DAV:   1    -0.149270446638E+03    0.44613E-02   -0.35172E+00  7920   0.380E+00    0.126E+00
DAV:   2    -0.149297578490E+03   -0.27132E-01   -0.22296E-01 11016   0.150E+00    0.622E-01
DAV:   3    -0.149301628299E+03   -0.40498E-02   -0.68817E-03 10944   0.323E-01    0.340E-01
DAV:   4    -0.149301138902E+03    0.48940E-03   -0.72792E-04 11864   0.972E-02    0.246E-01
DAV:   5    -0.149300570980E+03    0.56792E-03   -0.89609E-04 11416   0.922E-02    0.142E-01
DAV:   6    -0.149300586707E+03   -0.15727E-04   -0.40203E-04 11296   0.564E-02    0.462E-02
DAV:   7    -0.149300806140E+03   -0.21943E-03   -0.42446E-05 11320   0.244E-02    0.324E-02
DAV:   8    -0.149301067027E+03   -0.26089E-03   -0.17309E-05 11520   0.153E-02    0.198E-02
DAV:   9    -0.149301315551E+03   -0.24852E-03   -0.11567E-05 10240   0.101E-02    0.117E-02
DAV:  10    -0.149301491423E+03   -0.17587E-03   -0.71515E-06  8680   0.698E-03    0.637E-03
DAV:  11    -0.149301653436E+03   -0.16201E-03   -0.64005E-06  7248   0.615E-03    0.489E-03
DAV:  12    -0.149301784531E+03   -0.13110E-03   -0.75089E-06  8088   0.564E-03    0.393E-03
DAV:  13    -0.149301873305E+03   -0.88773E-04   -0.69895E-06  7416   0.532E-03    0.308E-03
DAV:  14    -0.149301913404E+03   -0.40100E-04   -0.62265E-06  7112   0.527E-03    0.244E-03
DAV:  15    -0.149301913819E+03   -0.41429E-06   -0.30046E-06  6520   0.389E-03
   4 F= -.15548916E+03 E0= -.15548914E+03  d E =-.255267E-01  mag=    29.0000
       N       E                     dE             d eps       ncg     rms          rms(c)
DAV:   1    -0.149252988848E+03    0.48925E-01   -0.72168E+00  7928   0.544E+00    0.180E+00
DAV:   2    -0.149309339157E+03   -0.56350E-01   -0.45791E-01 11072   0.216E+00    0.904E-01
DAV:   3    -0.149317269561E+03   -0.79304E-02   -0.13771E-02 10808   0.457E-01    0.474E-01
DAV:   4    -0.149316310223E+03    0.95934E-03   -0.15144E-03 11760   0.134E-01    0.343E-01
DAV:   5    -0.149315335873E+03    0.97435E-03   -0.18308E-03 11424   0.131E-01    0.197E-01
DAV:   6    -0.149315412874E+03   -0.77000E-04   -0.80017E-04 11296   0.804E-02    0.638E-02
DAV:   7    -0.149315802957E+03   -0.39008E-03   -0.84510E-05 11224   0.346E-02    0.458E-02
DAV:   8    -0.149316252642E+03   -0.44968E-03   -0.35077E-05 11544   0.208E-02    0.278E-02
DAV:   9    -0.149316672207E+03   -0.41957E-03   -0.24833E-05 11112   0.142E-02    0.165E-02
DAV:  10    -0.149316961755E+03   -0.28955E-03   -0.15153E-05  9760   0.955E-03    0.903E-03
DAV:  11    -0.149317239063E+03   -0.27731E-03   -0.14596E-05  8416   0.870E-03    0.701E-03
DAV:  12    -0.149317451676E+03   -0.21261E-03   -0.14753E-05  8864   0.793E-03    0.580E-03
DAV:  13    -0.149317611566E+03   -0.15989E-03   -0.19062E-05  8440   0.849E-03    0.428E-03
DAV:  14    -0.149317663915E+03   -0.52348E-04   -0.14224E-05  8024   0.783E-03    0.297E-03
DAV:  15    -0.149317657451E+03    0.64637E-05   -0.44960E-06  6856   0.459E-03    0.225E-03
DAV:  16    -0.149317656157E+03    0.12944E-05   -0.14378E-06  5720   0.313E-03    0.169E-03
DAV:  17    -0.149317657851E+03   -0.16941E-05   -0.10092E-06  5488   0.229E-03    0.146E-03
DAV:  18    -0.149317660188E+03   -0.23373E-05   -0.60526E-07  5400   0.184E-03    0.107E-03
DAV:  19    -0.149317662462E+03   -0.22743E-05   -0.57632E-07  5272   0.157E-03    0.724E-04
DAV:  20    -0.149317667080E+03   -0.46170E-05   -0.30349E-07  5400   0.124E-03    0.689E-04
DAV:  21    -0.149317671128E+03   -0.40480E-05   -0.10692E-07  5560   0.101E-03    0.479E-04
DAV:  22    -0.149317673307E+03   -0.21796E-05   -0.11228E-07  5264   0.932E-04    0.408E-04
DAV:  23    -0.149317674059E+03   -0.75161E-06   -0.71702E-08  5008   0.770E-04
   5 F= -.15550279E+03 E0= -.15550279E+03  d E =-.391622E-01  mag=    29.0000
       N       E                     dE             d eps       ncg     rms          rms(c)
DAV:   1    -0.149306514869E+03    0.11158E-01   -0.39174E+00  7904   0.403E+00    0.134E+00
DAV:   2    -0.149334217435E+03   -0.27703E-01   -0.23895E-01 11016   0.163E+00    0.655E-01
DAV:   3    -0.149337147986E+03   -0.29306E-02   -0.85254E-03 10720   0.456E-01    0.382E-01
DAV:   4    -0.149336424156E+03    0.72383E-03   -0.96713E-04 12096   0.159E-01    0.265E-01
DAV:   5    -0.149335535908E+03    0.88825E-03   -0.65425E-04  9744   0.651E-02    0.174E-01
DAV:   6    -0.149335400517E+03    0.13539E-03   -0.71855E-04 10656   0.657E-02    0.506E-02
DAV:   7    -0.149335910839E+03   -0.51032E-03   -0.95384E-05 10728   0.312E-02    0.302E-02
DAV:   8    -0.149336470101E+03   -0.55926E-03   -0.19024E-05 11112   0.147E-02    0.191E-02
DAV:   9    -0.149336923688E+03   -0.45359E-03   -0.79151E-06  9104   0.767E-03    0.117E-02
DAV:  10    -0.149337436385E+03   -0.51270E-03   -0.11777E-05  8848   0.770E-03    0.542E-03
DAV:  11    -0.149337762460E+03   -0.32608E-03   -0.62956E-06  8744   0.587E-03    0.464E-03
DAV:  12    -0.149337947056E+03   -0.18460E-03   -0.28979E-06  7376   0.363E-03    0.356E-03
DAV:  13    -0.149338102155E+03   -0.15510E-03   -0.32860E-06  7320   0.366E-03    0.259E-03
DAV:  14    -0.149338219147E+03   -0.11699E-03   -0.41526E-06  7744   0.393E-03    0.167E-03
DAV:  15    -0.149338264895E+03   -0.45747E-04   -0.24895E-06  6592   0.312E-03    0.123E-03
DAV:  16    -0.149338268653E+03   -0.37588E-05   -0.89095E-07  6264   0.253E-03    0.125E-03
DAV:  17    -0.149338268414E+03    0.23900E-06   -0.30794E-07  5440   0.196E-03
   6 F= -.15552362E+03 E0= -.15552362E+03  d E =-.208313E-01  mag=    29.0000
       N       E                     dE             d eps       ncg     rms          rms(c)
DAV:   1    -0.149265001144E+03    0.73268E-01   -0.10516E+01  7904   0.660E+00    0.218E+00
DAV:   2    -0.149340827086E+03   -0.75826E-01   -0.64305E-01 11160   0.268E+00    0.108E+00
DAV:   3    -0.149348399034E+03   -0.75719E-02   -0.22289E-02 10632   0.730E-01    0.623E-01
DAV:   4    -0.149346806207E+03    0.15928E-02   -0.25219E-03 12384   0.252E-01    0.435E-01
DAV:   5    -0.149344952498E+03    0.18537E-02   -0.15549E-03  9624   0.994E-02    0.294E-01
DAV:   6    -0.149344450919E+03    0.50158E-03   -0.20382E-03  9672   0.107E-01    0.891E-02
DAV:   7    -0.149345535466E+03   -0.10845E-02   -0.33571E-04 10760   0.597E-02    0.525E-02
DAV:   8    -0.149346720388E+03   -0.11849E-02   -0.55532E-05 11200   0.270E-02    0.336E-02
DAV:   9    -0.149347557789E+03   -0.83740E-03   -0.21179E-05 11168   0.131E-02    0.196E-02
DAV:  10    -0.149348677119E+03   -0.11193E-02   -0.36068E-05 10008   0.140E-02    0.988E-03
DAV:  11    -0.149349192033E+03   -0.51491E-03   -0.13249E-05  9912   0.931E-03    0.831E-03
DAV:  12    -0.149349641442E+03   -0.44941E-03   -0.11479E-05  8904   0.732E-03    0.630E-03
DAV:  13    -0.149350044954E+03   -0.40351E-03   -0.16955E-05  8856   0.775E-03    0.405E-03
DAV:  14    -0.149350237432E+03   -0.19248E-03   -0.11160E-05  8360   0.598E-03    0.261E-03
DAV:  15    -0.149350284918E+03   -0.47486E-04   -0.60734E-06  7120   0.440E-03    0.221E-03
DAV:  16    -0.149350278884E+03    0.60336E-05   -0.15894E-06  6368   0.293E-03    0.183E-03
DAV:  17    -0.149350274077E+03    0.48077E-05   -0.59765E-07  5664   0.243E-03    0.132E-03
DAV:  18    -0.149350274623E+03   -0.54682E-06   -0.31406E-07  5248   0.158E-03
   7 F= -.15553598E+03 E0= -.15553598E+03  d E =-.331922E-01  mag=    29.0000
       N       E                     dE             d eps       ncg     rms          rms(c)
DAV:   1    -0.149307603121E+03    0.42671E-01   -0.62290E+00  7920   0.500E+00    0.183E+00
DAV:   2    -0.149356085719E+03   -0.48483E-01   -0.28887E-01 11064   0.197E+00    0.921E-01
DAV:   3    -0.149365500463E+03   -0.94147E-02   -0.14768E-02 10720   0.681E-01    0.469E-01
DAV:   4    -0.149365325588E+03    0.17487E-03   -0.12438E-03 11992   0.185E-01    0.302E-01
DAV:   5    -0.149365368308E+03   -0.42719E-04   -0.91835E-04 10464   0.810E-02    0.210E-01
DAV:   6    -0.149365707325E+03   -0.33902E-03   -0.97256E-04 11288   0.868E-02    0.659E-02
DAV:   7    -0.149365795210E+03   -0.87885E-04   -0.11839E-04 11376   0.471E-02    0.368E-02
DAV:   8    -0.149365859504E+03   -0.64294E-04   -0.29613E-05 11112   0.172E-02    0.242E-02
DAV:   9    -0.149365933341E+03   -0.73836E-04   -0.25452E-05  8536   0.124E-02    0.155E-02
DAV:  10    -0.149366012239E+03   -0.78899E-04   -0.39278E-05  9728   0.155E-02    0.951E-03
DAV:  11    -0.149366045866E+03   -0.33627E-04   -0.11438E-05  7776   0.831E-03    0.839E-03
DAV:  12    -0.149366068923E+03   -0.23057E-04   -0.87596E-06  6448   0.627E-03    0.674E-03
DAV:  13    -0.149366096528E+03   -0.27605E-04   -0.38568E-05  8288   0.132E-02    0.426E-03
DAV:  14    -0.149366103057E+03   -0.65285E-05   -0.20308E-05  8648   0.984E-03    0.323E-03
DAV:  15    -0.149366106878E+03   -0.38213E-05   -0.22886E-06  6264   0.424E-03    0.208E-03
DAV:  16    -0.149366107272E+03   -0.39398E-06   -0.22367E-06  5664   0.319E-03
   8 F= -.15555431E+03 E0= -.15555431E+03  d E =-.183248E-01  mag=    29.0000
       N       E                     dE             d eps       ncg     rms          rms(c)
DAV:   1    -0.149136045851E+03    0.23006E+00   -0.25212E+01  7904   0.101E+01    0.370E+00
DAV:   2    -0.149342219012E+03   -0.20617E+00   -0.11703E+00 10968   0.362E+00    0.178E+00
DAV:   3    -0.149376688621E+03   -0.34470E-01   -0.52985E-02 10112   0.109E+00    0.948E-01
DAV:   4    -0.149375985253E+03    0.70337E-03   -0.42912E-03 13104   0.337E-01    0.640E-01
DAV:   5    -0.149375990150E+03   -0.48977E-05   -0.27677E-03 10720   0.144E-01    0.455E-01
DAV:   6    -0.149376943735E+03   -0.95358E-03   -0.35706E-03 11088   0.158E-01    0.140E-01
DAV:   7    -0.149377204556E+03   -0.26082E-03   -0.53583E-04 12000   0.107E-01    0.692E-02
DAV:   8    -0.149377368328E+03   -0.16377E-03   -0.10085E-04 11472   0.335E-02    0.451E-02
DAV:   9    -0.149377544249E+03   -0.17592E-03   -0.69011E-05 11576   0.250E-02    0.294E-02
DAV:  10    -0.149377738171E+03   -0.19392E-03   -0.94450E-05 10872   0.264E-02    0.173E-02
DAV:  11    -0.149377836781E+03   -0.98609E-04   -0.40760E-05 10088   0.154E-02    0.140E-02
DAV:  12    -0.149377902231E+03   -0.65451E-04   -0.30328E-05  8168   0.124E-02    0.111E-02
DAV:  13    -0.149377967494E+03   -0.65263E-04   -0.93953E-05 10368   0.225E-02    0.678E-03
DAV:  14    -0.149377988844E+03   -0.21350E-04   -0.28448E-05  9384   0.125E-02    0.471E-03
DAV:  15    -0.149377995857E+03   -0.70137E-05   -0.82753E-06  7032   0.659E-03    0.309E-03
DAV:  16    -0.149377998376E+03   -0.25189E-05   -0.40806E-06  6352   0.437E-03    0.184E-03
DAV:  17    -0.149378000765E+03   -0.23890E-05   -0.11778E-06  5672   0.264E-03    0.135E-03
DAV:  18    -0.149378002820E+03   -0.20544E-05   -0.32198E-07  5128   0.176E-03    0.116E-03
DAV:  19    -0.149378004513E+03   -0.16932E-05   -0.11563E-07  5184   0.114E-03    0.787E-04
DAV:  20    -0.149378006047E+03   -0.15342E-05   -0.21033E-07  5296   0.125E-03    0.603E-04
DAV:  21    -0.149378007470E+03   -0.14232E-05   -0.25597E-07  5600   0.121E-03    0.460E-04
DAV:  22    -0.149378008005E+03   -0.53431E-06   -0.53120E-08  5216   0.898E-04
   9 F= -.15557099E+03 E0= -.15557099E+03  d E =-.350091E-01  mag=    29.0000
       N       E                     dE             d eps       ncg     rms          rms(c)
DAV:   1    -0.149359339609E+03    0.18668E-01   -0.24509E+00  7920   0.322E+00    0.121E+00
DAV:   2    -0.149379048480E+03   -0.19709E-01   -0.10045E-01 11184   0.115E+00    0.614E-01
DAV:   3    -0.149384955782E+03   -0.59073E-02   -0.58119E-03 11192   0.430E-01    0.277E-01
DAV:   4    -0.149384794434E+03    0.16135E-03   -0.49087E-04 12128   0.103E-01    0.180E-01
DAV:   5    -0.149384727667E+03    0.66766E-04   -0.39178E-04 10808   0.553E-02    0.119E-01
DAV:   6    -0.149384866864E+03   -0.13920E-03   -0.30113E-04 11272   0.513E-02    0.371E-02
DAV:   7    -0.149385009338E+03   -0.14247E-03   -0.39271E-05 11104   0.255E-02    0.259E-02
DAV:   8    -0.149385126624E+03   -0.11729E-03   -0.10752E-05  9944   0.111E-02    0.169E-02
DAV:   9    -0.149385221092E+03   -0.94468E-04   -0.48232E-06  7136   0.685E-03    0.109E-02
DAV:  10    -0.149385354680E+03   -0.13359E-03   -0.13887E-05  9264   0.927E-03    0.577E-03
DAV:  11    -0.149385402053E+03   -0.47373E-04   -0.35720E-06  7112   0.562E-03    0.505E-03
DAV:  12    -0.149385440300E+03   -0.38247E-04   -0.26422E-06  6576   0.443E-03    0.416E-03
DAV:  13    -0.149385474596E+03   -0.34295E-04   -0.44081E-06  6864   0.479E-03    0.329E-03
DAV:  14    -0.149385490552E+03   -0.15957E-04   -0.34431E-06  6536   0.418E-03    0.163E-03
DAV:  15    -0.149385493926E+03   -0.33733E-05   -0.13796E-06  5976   0.327E-03    0.154E-03
DAV:  16    -0.149385494851E+03   -0.92543E-06   -0.35502E-07  5256   0.211E-03
  10 F= -.15558135E+03 E0= -.15558135E+03  d E =-.103577E-01  mag=    29.0000
       N       E                     dE             d eps       ncg     rms          rms(c)
DAV:   1    -0.149372918144E+03    0.12576E-01   -0.12569E+00  7912   0.231E+00    0.866E-01
DAV:   2    -0.149382807121E+03   -0.98890E-02   -0.51752E-02 11024   0.833E-01    0.443E-01
DAV:   3    -0.149386024608E+03   -0.32175E-02   -0.30441E-03 11296   0.317E-01    0.198E-01
DAV:   4    -0.149385930198E+03    0.94410E-04   -0.24960E-04 12040   0.723E-02    0.128E-01
DAV:   5    -0.149385876462E+03    0.53736E-04   -0.20870E-04 10808   0.399E-02    0.833E-02
DAV:   6    -0.149385950218E+03   -0.73756E-04   -0.15330E-04 11256   0.377E-02    0.267E-02
DAV:   7    -0.149386034268E+03   -0.84050E-04   -0.19304E-05 11144   0.181E-02    0.188E-02
DAV:   8    -0.149386106205E+03   -0.71937E-04   -0.45900E-06  7480   0.757E-03    0.126E-02
DAV:   9    -0.149386168659E+03   -0.62454E-04   -0.41327E-06  7168   0.600E-03    0.787E-03
DAV:  10    -0.149386246550E+03   -0.77891E-04   -0.67014E-06  7664   0.676E-03    0.426E-03
DAV:  11    -0.149386276517E+03   -0.29967E-04   -0.21524E-06  6312   0.450E-03    0.354E-03
DAV:  12    -0.149386303834E+03   -0.27317E-04   -0.20719E-06  6272   0.423E-03    0.297E-03
DAV:  13    -0.149386324236E+03   -0.20402E-04   -0.29886E-06  6600   0.416E-03    0.214E-03
DAV:  14    -0.149386330471E+03   -0.62351E-05   -0.12595E-06  5976   0.303E-03    0.145E-03
DAV:  15    -0.149386332496E+03   -0.20253E-05   -0.75223E-07  5432   0.235E-03    0.970E-04
DAV:  16    -0.149386333104E+03   -0.60734E-06   -0.29934E-07  5184   0.183E-03
  11 F= -.15558323E+03 E0= -.15558323E+03  d E =-.122393E-01  mag=    29.0000
       N       E                     dE             d eps       ncg     rms          rms(c)
DAV:   1    -0.149376520006E+03    0.98125E-02   -0.17462E+00  7984   0.270E+00    0.886E-01
DAV:   2    -0.149389468594E+03   -0.12949E-01   -0.11024E-01 11032   0.117E+00    0.448E-01
DAV:   3    -0.149391549126E+03   -0.20805E-02   -0.32985E-03 11000   0.318E-01    0.258E-01
DAV:   4    -0.149391439246E+03    0.10988E-03   -0.32420E-04 11848   0.869E-02    0.187E-01
DAV:   5    -0.149391378117E+03    0.61129E-04   -0.27912E-04  9432   0.402E-02    0.132E-01
DAV:   6    -0.149391458617E+03   -0.80501E-04   -0.33049E-04 10968   0.440E-02    0.369E-02
DAV:   7    -0.149391485619E+03   -0.27002E-04   -0.37926E-05 10880   0.220E-02    0.145E-02
DAV:   8    -0.149391499665E+03   -0.14046E-04   -0.37160E-06  6976   0.910E-03    0.114E-02
DAV:   9    -0.149391507813E+03   -0.81476E-05   -0.14587E-06  5272   0.518E-03    0.797E-03
DAV:  10    -0.149391520947E+03   -0.13134E-04   -0.29768E-06  6248   0.485E-03    0.391E-03
DAV:  11    -0.149391527391E+03   -0.64438E-05   -0.17434E-06  5592   0.413E-03    0.274E-03
DAV:  12    -0.149391531354E+03   -0.39634E-05   -0.10819E-06  5384   0.355E-03    0.240E-03
DAV:  13    -0.149391533624E+03   -0.22699E-05   -0.78197E-07  5304   0.261E-03    0.187E-03
DAV:  14    -0.149391535225E+03   -0.16006E-05   -0.65016E-07  5328   0.223E-03    0.127E-03
DAV:  15    -0.149391536207E+03   -0.98259E-06   -0.10297E-06  5488   0.224E-03
  12 F= -.15559032E+03 E0= -.15559032E+03  d E =-.708980E-02  mag=    29.0000
       N       E                     dE             d eps       ncg     rms          rms(c)
DAV:   1    -0.149349608824E+03    0.41926E-01   -0.50673E+00  7976   0.459E+00    0.151E+00
DAV:   2    -0.149387968657E+03   -0.38360E-01   -0.31941E-01 11032   0.198E+00    0.756E-01
DAV:   3    -0.149393326131E+03   -0.53575E-02   -0.94692E-03 11016   0.528E-01    0.441E-01
DAV:   4    -0.149393024952E+03    0.30118E-03   -0.93468E-04 12016   0.147E-01    0.320E-01
DAV:   5    -0.149392845764E+03    0.17919E-03   -0.76841E-04  9432   0.668E-02    0.228E-01
DAV:   6    -0.149393027769E+03   -0.18200E-03   -0.95760E-04 10904   0.744E-02    0.659E-02
DAV:   7    -0.149393088686E+03   -0.60917E-04   -0.10967E-04 10936   0.386E-02    0.243E-02
DAV:   8    -0.149393119988E+03   -0.31301E-04   -0.12030E-05  9672   0.161E-02    0.184E-02
DAV:   9    -0.149393138679E+03   -0.18691E-04   -0.32681E-06  6856   0.756E-03    0.133E-02
DAV:  10    -0.149393168197E+03   -0.29518E-04   -0.83646E-06  8464   0.769E-03    0.615E-03
DAV:  11    -0.149393183626E+03   -0.15429E-04   -0.37856E-06  6632   0.555E-03    0.417E-03
DAV:  12    -0.149393191718E+03   -0.80920E-05   -0.16314E-06  5928   0.374E-03    0.361E-03
DAV:  13    -0.149393196473E+03   -0.47544E-05   -0.11270E-06  5288   0.307E-03    0.313E-03
DAV:  14    -0.149393201597E+03   -0.51240E-05   -0.29607E-06  6016   0.394E-03    0.173E-03
DAV:  15    -0.149393204038E+03   -0.24409E-05   -0.24131E-06  5784   0.352E-03    0.142E-03
DAV:  16    -0.149393205296E+03   -0.12588E-05   -0.43993E-07  5376   0.217E-03    0.115E-03
DAV:  17    -0.149393205635E+03   -0.33823E-06   -0.92605E-08  4952   0.114E-03
  13 F= -.15559499E+03 E0= -.15559499E+03  d E =-.117581E-01  mag=    29.0000
       N       E                     dE             d eps       ncg     rms          rms(c)
DAV:   1    -0.149387772974E+03    0.54323E-02   -0.10056E+00  7912   0.209E+00    0.779E-01
DAV:   2    -0.149396101314E+03   -0.83283E-02   -0.52923E-02 11384   0.821E-01    0.384E-01
DAV:   3    -0.149398134917E+03   -0.20336E-02   -0.25166E-03 11088   0.255E-01    0.190E-01
DAV:   4    -0.149398065436E+03    0.69482E-04   -0.22209E-04 12040   0.722E-02    0.128E-01
DAV:   5    -0.149398044881E+03    0.20554E-04   -0.17933E-04 10120   0.347E-02    0.808E-02
DAV:   6    -0.149398109858E+03   -0.64976E-04   -0.15520E-04 10712   0.358E-02    0.275E-02
DAV:   7    -0.149398137089E+03   -0.27231E-04   -0.20692E-05 11664   0.204E-02    0.180E-02
DAV:   8    -0.149398155781E+03   -0.18692E-04   -0.32246E-06  7528   0.734E-03    0.112E-02
DAV:   9    -0.149398168191E+03   -0.12410E-04   -0.17452E-06  5904   0.564E-03    0.701E-03
DAV:  10    -0.149398177771E+03   -0.95802E-05   -0.26062E-06  6520   0.676E-03    0.505E-03
DAV:  11    -0.149398180708E+03   -0.29371E-05   -0.13035E-06  5768   0.476E-03    0.267E-03
DAV:  12    -0.149398182744E+03   -0.20356E-05   -0.52408E-07  5136   0.343E-03    0.222E-03
DAV:  13    -0.149398185002E+03   -0.22579E-05   -0.37639E-07  5656   0.222E-03    0.146E-03
DAV:  14    -0.149398186687E+03   -0.16848E-05   -0.23805E-07  5128   0.168E-03    0.107E-03
DAV:  15    -0.149398188393E+03   -0.17060E-05   -0.26385E-07  5472   0.156E-03    0.760E-04
DAV:  16    -0.149398189546E+03   -0.11536E-05   -0.13570E-07  5208   0.121E-03    0.502E-04
DAV:  17    -0.149398190434E+03   -0.88799E-06   -0.94415E-08  5104   0.909E-04
  14 F= -.15559917E+03 E0= -.15559917E+03  d E =-.417702E-02  mag=    29.0000
       N       E                     dE             d eps       ncg     rms          rms(c)
DAV:   1    -0.149397445557E+03    0.74399E-03   -0.13099E-01  8008   0.754E-01    0.281E-01
DAV:   2    -0.149398459700E+03   -0.10141E-02   -0.68816E-03 11272   0.299E-01    0.139E-01
DAV:   3    -0.149398780320E+03   -0.32062E-03   -0.33462E-04 11120   0.952E-02    0.691E-02
DAV:   4    -0.149398771083E+03    0.92370E-05   -0.28773E-05 12136   0.261E-02    0.461E-02
DAV:   5    -0.149398770519E+03    0.56318E-06   -0.24056E-05 10184   0.127E-02    0.289E-02
DAV:   6    -0.149398782468E+03   -0.11948E-04   -0.20601E-05 10512   0.137E-02    0.101E-02
DAV:   7    -0.149398788164E+03   -0.56966E-05   -0.20955E-06  6664   0.812E-03    0.601E-03
DAV:   8    -0.149398792697E+03   -0.45330E-05   -0.10280E-06  5544   0.462E-03    0.456E-03
DAV:   9    -0.149398794961E+03   -0.22633E-05   -0.61409E-07  5528   0.310E-03    0.300E-03
DAV:  10    -0.149398796016E+03   -0.10550E-05   -0.31071E-07  5040   0.292E-03    0.207E-03
DAV:  11    -0.149398797122E+03   -0.11063E-05   -0.22296E-07  5480   0.176E-03    0.117E-03
DAV:  12    -0.149398797880E+03   -0.75841E-06   -0.14671E-07  5192   0.162E-03
  15 F= -.15559948E+03 E0= -.15559948E+03  d E =-.449208E-02  mag=    29.0000
       N       E                     dE             d eps       ncg     rms          rms(c)
DAV:   1    -0.149396753265E+03    0.20439E-02   -0.65096E-01  7912   0.166E+00    0.590E-01
DAV:   2    -0.149401560951E+03   -0.48077E-02   -0.41026E-02 11312   0.778E-01    0.311E-01
DAV:   3    -0.149402384069E+03   -0.82312E-03   -0.14519E-03 11144   0.239E-01    0.178E-01
DAV:   4    -0.149402325994E+03    0.58076E-04   -0.13732E-04 12024   0.609E-02    0.124E-01
DAV:   5    -0.149402284235E+03    0.41759E-04   -0.11068E-04  9864   0.263E-02    0.860E-02
DAV:   6    -0.149402313351E+03   -0.29116E-04   -0.12493E-04 11400   0.360E-02    0.241E-02
DAV:   7    -0.149402348498E+03   -0.35146E-04   -0.13938E-05 11272   0.163E-02    0.109E-02
DAV:   8    -0.149402373348E+03   -0.24851E-04   -0.10484E-06  5784   0.530E-03    0.775E-03
DAV:   9    -0.149402397547E+03   -0.24198E-04   -0.77708E-07  5728   0.317E-03    0.539E-03
DAV:  10    -0.149402424026E+03   -0.26480E-04   -0.90806E-07  6096   0.332E-03    0.309E-03
DAV:  11    -0.149402434935E+03   -0.10909E-04   -0.61576E-07  5288   0.319E-03    0.163E-03
DAV:  12    -0.149402445746E+03   -0.10811E-04   -0.54084E-07  5584   0.255E-03    0.155E-03
DAV:  13    -0.149402451994E+03   -0.62484E-05   -0.33294E-07  5272   0.210E-03    0.947E-04
DAV:  14    -0.149402457614E+03   -0.56198E-05   -0.27335E-07  5536   0.154E-03    0.912E-04
DAV:  15    -0.149402463121E+03   -0.55067E-05   -0.32136E-07  5760   0.154E-03    0.575E-04
DAV:  16    -0.149402464910E+03   -0.17889E-05   -0.19204E-07  5264   0.127E-03    0.528E-04
DAV:  17    -0.149402465707E+03   -0.79778E-06   -0.13231E-07  5096   0.101E-03
  16 F= -.15560192E+03 E0= -.15560192E+03  d E =-.244185E-02  mag=    29.0000
       N       E                     dE             d eps       ncg     rms          rms(c)
DAV:   1    -0.149397701687E+03    0.47632E-02   -0.80832E-01  7920   0.185E+00    0.657E-01
DAV:   2    -0.149403709699E+03   -0.60080E-02   -0.50871E-02 11224   0.865E-01    0.346E-01
DAV:   3    -0.149404690281E+03   -0.98058E-03   -0.17973E-03 11160   0.265E-01    0.198E-01
DAV:   4    -0.149404620458E+03    0.69823E-04   -0.16955E-04 12008   0.678E-02    0.138E-01
DAV:   5    -0.149404570499E+03    0.49960E-04   -0.13620E-04  9872   0.292E-02    0.960E-02
DAV:   6    -0.149404606895E+03   -0.36396E-04   -0.15472E-04 11408   0.396E-02    0.270E-02
DAV:   7    -0.149404648592E+03   -0.41697E-04   -0.17291E-05 11400   0.181E-02    0.121E-02
DAV:   8    -0.149404677843E+03   -0.29251E-04   -0.12732E-06  5784   0.590E-03    0.858E-03
DAV:   9    -0.149404706220E+03   -0.28377E-04   -0.93991E-07  5832   0.351E-03    0.599E-03
DAV:  10    -0.149404737698E+03   -0.31478E-04   -0.11011E-06  6104   0.368E-03    0.344E-03
DAV:  11    -0.149404750701E+03   -0.13004E-04   -0.75535E-07  5344   0.355E-03    0.180E-03
DAV:  12    -0.149404763330E+03   -0.12629E-04   -0.65095E-07  5728   0.280E-03    0.170E-03
DAV:  13    -0.149404770803E+03   -0.74728E-05   -0.40260E-07  5320   0.231E-03    0.104E-03
DAV:  14    -0.149404777275E+03   -0.64719E-05   -0.31904E-07  5528   0.169E-03    0.991E-04
DAV:  15    -0.149404784104E+03   -0.68294E-05   -0.39558E-07  5840   0.168E-03    0.632E-04
DAV:  16    -0.149404786249E+03   -0.21443E-05   -0.23449E-07  5320   0.142E-03    0.580E-04
DAV:  17    -0.149404787197E+03   -0.94815E-06   -0.16075E-07  5072   0.112E-03
  17 F= -.15560285E+03 E0= -.15560285E+03  d E =-.336588E-02  mag=    29.0000
       N       E                     dE             d eps       ncg     rms          rms(c)
DAV:   1    -0.149400232634E+03    0.45536E-02   -0.72949E-01  7912   0.176E+00    0.613E-01
DAV:   2    -0.149405646629E+03   -0.54140E-02   -0.38915E-02 10744   0.670E-01    0.294E-01
DAV:   3    -0.149406851203E+03   -0.12046E-02   -0.12759E-03 10976   0.178E-01    0.145E-01
DAV:   4    -0.149406822189E+03    0.29014E-04   -0.13605E-04 11576   0.538E-02    0.104E-01
DAV:   5    -0.149406828641E+03   -0.64523E-05   -0.11995E-04 10528   0.311E-02    0.711E-02
DAV:   6    -0.149406862931E+03   -0.34290E-04   -0.92953E-05 11176   0.246E-02    0.169E-02
DAV:   7    -0.149406871471E+03   -0.85396E-05   -0.91790E-06  9984   0.117E-02    0.950E-03
DAV:   8    -0.149406878532E+03   -0.70609E-05   -0.12221E-06  5376   0.512E-03    0.670E-03
DAV:   9    -0.149406883974E+03   -0.54418E-05   -0.66245E-07  5304   0.334E-03    0.402E-03
DAV:  10    -0.149406891605E+03   -0.76316E-05   -0.96902E-07  5744   0.347E-03    0.277E-03
DAV:  11    -0.149406895575E+03   -0.39699E-05   -0.63696E-07  5400   0.351E-03    0.157E-03
DAV:  12    -0.149406897493E+03   -0.19179E-05   -0.29062E-07  5024   0.233E-03    0.141E-03
DAV:  13    -0.149406899910E+03   -0.24166E-05   -0.16680E-07  5496   0.163E-03    0.901E-04
DAV:  14    -0.149406902304E+03   -0.23938E-05   -0.17760E-07  5640   0.123E-03    0.621E-04
DAV:  15    -0.149406903806E+03   -0.15024E-05   -0.15564E-07  5568   0.113E-03    0.508E-04
DAV:  16    -0.149406904184E+03   -0.37783E-06   -0.63037E-08  5096   0.919E-04
  18 F= -.15560465E+03 E0= -.15560465E+03  d E =-.179686E-02  mag=    29.0000
       N       E                     dE             d eps       ncg     rms          rms(c)
DAV:   1    -0.149400276250E+03    0.66276E-02   -0.84351E-01  7920   0.189E+00    0.659E-01
DAV:   2    -0.149406564772E+03   -0.62885E-02   -0.45004E-02 10768   0.720E-01    0.316E-01
DAV:   3    -0.149407936723E+03   -0.13720E-02   -0.14682E-03 10944   0.190E-01    0.156E-01
DAV:   4    -0.149407903292E+03    0.33431E-04   -0.15707E-04 11616   0.574E-02    0.112E-01
DAV:   5    -0.149407908762E+03   -0.54700E-05   -0.13745E-04 10512   0.333E-02    0.767E-02
DAV:   6    -0.149407947054E+03   -0.38292E-04   -0.10794E-04 11128   0.264E-02    0.183E-02
DAV:   7    -0.149407956689E+03   -0.96346E-05   -0.10873E-05 10568   0.127E-02    0.102E-02
DAV:   8    -0.149407964566E+03   -0.78778E-05   -0.12826E-06  5480   0.527E-03    0.708E-03
DAV:   9    -0.149407970669E+03   -0.61030E-05   -0.73432E-07  5400   0.354E-03    0.431E-03
DAV:  10    -0.149407979374E+03   -0.87043E-05   -0.11121E-06  5784   0.368E-03    0.288E-03
DAV:  11    -0.149407983819E+03   -0.44455E-05   -0.72589E-07  5424   0.376E-03    0.171E-03
DAV:  12    -0.149407985983E+03   -0.21637E-05   -0.32888E-07  5016   0.248E-03    0.152E-03
DAV:  13    -0.149407988663E+03   -0.26796E-05   -0.18605E-07  5536   0.172E-03    0.954E-04
DAV:  14    -0.149407991608E+03   -0.29453E-05   -0.22255E-07  5672   0.137E-03    0.652E-04
DAV:  15    -0.149407993189E+03   -0.15811E-05   -0.17612E-07  5608   0.124E-03    0.569E-04
DAV:  16    -0.149407993583E+03   -0.39388E-06   -0.67900E-08  5152   0.994E-04
  19 F= -.15560531E+03 E0= -.15560531E+03  d E =-.246261E-02  mag=    29.0000
       N       E                     dE             d eps       ncg     rms          rms(c)
DAV:   1    -0.149405103146E+03    0.28900E-02   -0.38867E-01  7920   0.126E+00    0.466E-01
DAV:   2    -0.149407932734E+03   -0.28296E-02   -0.14870E-02 10848   0.452E-01    0.241E-01
DAV:   3    -0.149409040012E+03   -0.11073E-02   -0.83127E-04 11128   0.164E-01    0.102E-01
DAV:   4    -0.149409033956E+03    0.60564E-05   -0.73456E-05 11872   0.421E-02    0.667E-02
DAV:   5    -0.149409065682E+03   -0.31726E-04   -0.61971E-05 10184   0.219E-02    0.421E-02
DAV:   6    -0.149409114450E+03   -0.48768E-04   -0.34282E-05 11152   0.155E-02    0.106E-02
DAV:   7    -0.149409124467E+03   -0.10016E-04   -0.28169E-06  7072   0.784E-03    0.673E-03
DAV:   8    -0.149409129855E+03   -0.53884E-05   -0.11670E-06  5728   0.456E-03    0.551E-03
DAV:   9    -0.149409133592E+03   -0.37374E-05   -0.73982E-07  5400   0.345E-03    0.315E-03
DAV:  10    -0.149409139131E+03   -0.55387E-05   -0.68021E-07  5912   0.318E-03    0.220E-03
DAV:  11    -0.149409142453E+03   -0.33221E-05   -0.39192E-07  5296   0.266E-03    0.103E-03
DAV:  12    -0.149409144964E+03   -0.25106E-05   -0.24338E-07  5336   0.182E-03    0.103E-03
DAV:  13    -0.149409146593E+03   -0.16295E-05   -0.13793E-07  5080   0.129E-03    0.632E-04
DAV:  14    -0.149409148516E+03   -0.19225E-05   -0.21261E-07  5864   0.125E-03    0.453E-04
DAV:  15    -0.149409149182E+03   -0.66610E-06   -0.12405E-07  5320   0.970E-04
  20 F= -.15560657E+03 E0= -.15560657E+03  d E =-.125461E-02  mag=    29.0000
       N       E                     dE             d eps       ncg     rms          rms(c)
DAV:   1    -0.149393708899E+03    0.15440E-01   -0.16193E+00  7904   0.258E+00    0.950E-01
DAV:   2    -0.149406292576E+03   -0.12584E-01   -0.61361E-02 10656   0.884E-01    0.478E-01
DAV:   3    -0.149410275264E+03   -0.39827E-02   -0.33037E-03 11008   0.305E-01    0.207E-01
DAV:   4    -0.149410263379E+03    0.11885E-04   -0.28265E-04 12112   0.843E-02    0.137E-01
DAV:   5    -0.149410387603E+03   -0.12422E-03   -0.23858E-04 10200   0.439E-02    0.887E-02
DAV:   6    -0.149410545003E+03   -0.15740E-03   -0.14839E-04 10912   0.313E-02    0.215E-02
DAV:   7    -0.149410574945E+03   -0.29942E-04   -0.15858E-05 11016   0.172E-02    0.144E-02
DAV:   8    -0.149410588521E+03   -0.13576E-04   -0.23815E-06  6832   0.658E-03    0.974E-03
DAV:   9    -0.149410600097E+03   -0.11576E-04   -0.13356E-06  5608   0.482E-03    0.615E-03
DAV:  10    -0.149410617238E+03   -0.17141E-04   -0.27646E-06  6344   0.478E-03    0.327E-03
DAV:  11    -0.149410623652E+03   -0.64140E-05   -0.93631E-07  5504   0.411E-03    0.212E-03
DAV:  12    -0.149410628159E+03   -0.45072E-05   -0.40561E-07  5280   0.251E-03    0.179E-03
DAV:  13    -0.149410634366E+03   -0.62070E-05   -0.48721E-07  5976   0.222E-03    0.121E-03
DAV:  14    -0.149410639717E+03   -0.53509E-05   -0.64931E-07  5872   0.209E-03    0.909E-04
DAV:  15    -0.149410641683E+03   -0.19663E-05   -0.35093E-07  5504   0.163E-03    0.749E-04
DAV:  16    -0.149410642167E+03   -0.48343E-06   -0.10094E-07  5184   0.117E-03
  21 F= -.15560769E+03 E0= -.15560769E+03  d E =-.237731E-02  mag=    29.0000
       N       E                     dE             d eps       ncg     rms          rms(c)
DAV:   1    -0.149407366165E+03    0.32755E-02   -0.37773E-01  8000   0.126E+00    0.418E-01
DAV:   2    -0.149410000210E+03   -0.26340E-02   -0.20282E-02 10984   0.478E-01    0.207E-01
DAV:   3    -0.149410819292E+03   -0.81908E-03   -0.67242E-04 11008   0.126E-01    0.100E-01
DAV:   4    -0.149410791180E+03    0.28112E-04   -0.68526E-05 11840   0.380E-02    0.724E-02
DAV:   5    -0.149410786356E+03    0.48232E-05   -0.69230E-05 10672   0.232E-02    0.479E-02
DAV:   6    -0.149410816885E+03   -0.30529E-04   -0.46148E-05 10808   0.170E-02    0.104E-02
DAV:   7    -0.149410843320E+03   -0.26435E-04   -0.44752E-06  8312   0.764E-03    0.669E-03
DAV:   8    -0.149410859790E+03   -0.16470E-04   -0.87521E-07  5304   0.442E-03    0.506E-03
DAV:   9    -0.149410868940E+03   -0.91492E-05   -0.47598E-07  5096   0.326E-03    0.319E-03
DAV:  10    -0.149410882684E+03   -0.13744E-04   -0.63121E-07  5888   0.257E-03    0.191E-03
DAV:  11    -0.149410892015E+03   -0.93315E-05   -0.41612E-07  5288   0.264E-03    0.127E-03
DAV:  12    -0.149410898044E+03   -0.60289E-05   -0.31018E-07  5360   0.196E-03    0.913E-04
DAV:  13    -0.149410901422E+03   -0.33780E-05   -0.18097E-07  5056   0.158E-03    0.714E-04
DAV:  14    -0.149410905011E+03   -0.35893E-05   -0.15859E-07  5440   0.110E-03    0.469E-04
DAV:  15    -0.149410908162E+03   -0.31511E-05   -0.16385E-07  5616   0.110E-03    0.389E-04
DAV:  16    -0.149410908964E+03   -0.80182E-06   -0.86075E-08  5048   0.915E-04
  22 F= -.15560856E+03 E0= -.15560856E+03  d E =-.872743E-03  mag=    29.0000
       N       E                     dE             d eps       ncg     rms          rms(c)
DAV:   1    -0.149408350454E+03    0.25577E-02   -0.26110E-01  7944   0.105E+00    0.347E-01
DAV:   2    -0.149410125820E+03   -0.17754E-02   -0.14010E-02 10824   0.397E-01    0.172E-01
DAV:   3    -0.149410726458E+03   -0.60064E-03   -0.46611E-04 10960   0.106E-01    0.835E-02
DAV:   4    -0.149410706083E+03    0.20375E-04   -0.47608E-05 11832   0.318E-02    0.602E-02
DAV:   5    -0.149410702891E+03    0.31926E-05   -0.47846E-05 10592   0.193E-02    0.398E-02
DAV:   6    -0.149410726236E+03   -0.23345E-04   -0.31964E-05 10744   0.141E-02    0.864E-03
DAV:   7    -0.149410746690E+03   -0.20454E-04   -0.28867E-06  7192   0.636E-03    0.544E-03
DAV:   8    -0.149410760028E+03   -0.13338E-04   -0.82214E-07  5288   0.421E-03    0.444E-03
DAV:   9    -0.149410766971E+03   -0.69429E-05   -0.46180E-07  5016   0.307E-03    0.269E-03
DAV:  10    -0.149410776350E+03   -0.93789E-05   -0.43021E-07  5616   0.236E-03    0.180E-03
DAV:  11    -0.149410783778E+03   -0.74279E-05   -0.33042E-07  5320   0.226E-03    0.111E-03
DAV:  12    -0.149410789691E+03   -0.59135E-05   -0.27540E-07  5664   0.178E-03    0.779E-04
DAV:  13    -0.149410792428E+03   -0.27364E-05   -0.15863E-07  5040   0.141E-03    0.538E-04
DAV:  14    -0.149410794864E+03   -0.24362E-05   -0.11850E-07  5184   0.101E-03    0.435E-04
DAV:  15    -0.149410796646E+03   -0.17823E-05   -0.97035E-08  5336   0.905E-04    0.302E-04
DAV:  16    -0.149410797434E+03   -0.78802E-06   -0.65681E-08  4992   0.729E-04
  23 F= -.15560876E+03 E0= -.15560876E+03  d E =-.106872E-02  mag=    29.0000
       N       E                     dE             d eps       ncg     rms          rms(c)
DAV:   1    -0.149409694534E+03    0.11021E-02   -0.15299E-01  8088   0.808E-01    0.280E-01
DAV:   2    -0.149410712511E+03   -0.10180E-02   -0.80608E-03 10696   0.329E-01    0.145E-01
DAV:   3    -0.149411103752E+03   -0.39124E-03   -0.33763E-04 11128   0.108E-01    0.718E-02
DAV:   4    -0.149411098781E+03    0.49719E-05   -0.29158E-05 11760   0.280E-02    0.490E-02
DAV:   5    -0.149411109224E+03   -0.10443E-04   -0.24945E-05  9408   0.130E-02    0.327E-02
DAV:   6    -0.149411131407E+03   -0.22184E-04   -0.21706E-05 11032   0.124E-02    0.802E-03
DAV:   7    -0.149411134829E+03   -0.34219E-05   -0.17264E-06  6184   0.582E-03    0.461E-03
DAV:   8    -0.149411136220E+03   -0.13906E-05   -0.60135E-07  5232   0.399E-03    0.398E-03
DAV:   9    -0.149411136752E+03   -0.53198E-06   -0.33450E-07  5056   0.234E-03
  24 F= -.15560927E+03 E0= -.15560927E+03  d E =-.512689E-03  mag=    29.0000
       N       E                     dE             d eps       ncg     rms          rms(c)
DAV:   1    -0.149408665659E+03    0.24706E-02   -0.28507E-01  7920   0.110E+00    0.383E-01
DAV:   2    -0.149410659185E+03   -0.19935E-02   -0.15008E-02 10880   0.447E-01    0.196E-01
DAV:   3    -0.149411309013E+03   -0.64983E-03   -0.62518E-04 11072   0.146E-01    0.978E-02
DAV:   4    -0.149411299110E+03    0.99031E-05   -0.54144E-05 11856   0.383E-02    0.666E-02
DAV:   5    -0.149411312393E+03   -0.13284E-04   -0.46412E-05  9664   0.178E-02    0.445E-02
DAV:   6    -0.149411347799E+03   -0.35405E-04   -0.40003E-05 10952   0.167E-02    0.110E-02
DAV:   7    -0.149411353112E+03   -0.53129E-05   -0.37388E-06  7856   0.795E-03    0.671E-03
DAV:   8    -0.149411355347E+03   -0.22357E-05   -0.72927E-07  5328   0.456E-03    0.519E-03
DAV:   9    -0.149411356459E+03   -0.11119E-05   -0.39066E-07  5032   0.262E-03    0.345E-03
DAV:  10    -0.149411358295E+03   -0.18356E-05   -0.37663E-07  5400   0.264E-03    0.202E-03
DAV:  11    -0.149411359351E+03   -0.10566E-05   -0.33530E-07  5176   0.221E-03    0.129E-03
DAV:  12    -0.149411360133E+03   -0.78162E-06   -0.16872E-07  5264   0.192E-03
  25 F= -.15560968E+03 E0= -.15560968E+03  d E =-.922693E-03  mag=    29.0000
       N       E                     dE             d eps       ncg     rms          rms(c)
DAV:   1    -0.149400213563E+03    0.11146E-01   -0.11394E+00  7904   0.220E+00    0.763E-01
DAV:   2    -0.149408679025E+03   -0.84655E-02   -0.59639E-02 10912   0.878E-01    0.386E-01
DAV:   3    -0.149410844167E+03   -0.21651E-02   -0.24339E-03 11064   0.278E-01    0.195E-01
DAV:   4    -0.149410809905E+03    0.34262E-04   -0.20971E-04 11832   0.753E-02    0.134E-01
DAV:   5    -0.149410837265E+03   -0.27360E-04   -0.18265E-04  9680   0.356E-02    0.905E-02
DAV:   6    -0.149410940246E+03   -0.10298E-03   -0.16082E-04 10712   0.319E-02    0.220E-02
DAV:   7    -0.149410955439E+03   -0.15193E-04   -0.17041E-05 10576   0.159E-02    0.131E-02
DAV:   8    -0.149410960815E+03   -0.53759E-05   -0.18416E-06  6240   0.699E-03    0.987E-03
DAV:   9    -0.149410963383E+03   -0.25673E-05   -0.84660E-07  5104   0.428E-03    0.658E-03
DAV:  10    -0.149410968345E+03   -0.49629E-05   -0.14565E-06  5936   0.470E-03    0.375E-03
DAV:  11    -0.149410970316E+03   -0.19704E-05   -0.10482E-06  5432   0.434E-03    0.243E-03
DAV:  12    -0.149410972212E+03   -0.18965E-05   -0.42186E-07  5360   0.313E-03    0.201E-03
DAV:  13    -0.149410973662E+03   -0.14499E-05   -0.30567E-07  5344   0.207E-03    0.141E-03
DAV:  14    -0.149410974605E+03   -0.94285E-06   -0.15658E-07  5232   0.158E-03
  26 F= -.15560944E+03 E0= -.15560944E+03  d E =-.682696E-03  mag=    29.0000
       N       E                     dE             d eps       ncg     rms          rms(c)
DAV:   1    -0.149406269181E+03    0.47045E-02   -0.53986E-01  7952   0.152E+00    0.527E-01
DAV:   2    -0.149410153333E+03   -0.38842E-02   -0.28849E-02 11112   0.644E-01    0.284E-01
DAV:   3    -0.149411277485E+03   -0.11242E-02   -0.11952E-03 11168   0.217E-01    0.136E-01
DAV:   4    -0.149411258037E+03    0.19448E-04   -0.11132E-04 11864   0.529E-02    0.922E-02
DAV:   5    -0.149411285816E+03   -0.27778E-04   -0.89637E-05  9720   0.244E-02    0.601E-02
DAV:   6    -0.149411341088E+03   -0.55272E-04   -0.72794E-05 11368   0.254E-02    0.154E-02
DAV:   7    -0.149411349189E+03   -0.81017E-05   -0.70249E-06  9208   0.109E-02    0.945E-03
DAV:   8    -0.149411352093E+03   -0.29040E-05   -0.82357E-07  5304   0.510E-03    0.712E-03
DAV:   9    -0.149411353575E+03   -0.14815E-05   -0.52452E-07  4912   0.318E-03    0.444E-03
DAV:  10    -0.149411355691E+03   -0.21157E-05   -0.66724E-07  5264   0.349E-03    0.286E-03
DAV:  11    -0.149411356498E+03   -0.80778E-06   -0.51266E-07  5096   0.311E-03
  27 F= -.15560976E+03 E0= -.15560976E+03  d E =-.100077E-02  mag=    29.0000
       N       E                     dE             d eps       ncg     rms          rms(c)
DAV:   1    -0.149409547936E+03    0.18078E-02   -0.24570E-01  7936   0.101E+00    0.342E-01
DAV:   2    -0.149411234033E+03   -0.16861E-02   -0.15387E-02 11136   0.431E-01    0.170E-01
DAV:   3    -0.149411563103E+03   -0.32907E-03   -0.43781E-04 11112   0.121E-01    0.962E-02
DAV:   4    -0.149411551234E+03    0.11869E-04   -0.40601E-05 11920   0.310E-02    0.685E-02
DAV:   5    -0.149411551985E+03   -0.75114E-06   -0.37497E-05 10120   0.156E-02    0.469E-02
DAV:   6    -0.149411572846E+03   -0.20861E-04   -0.39251E-05 11120   0.189E-02    0.134E-02
DAV:   7    -0.149411577468E+03   -0.46218E-05   -0.39241E-06  7680   0.900E-03    0.626E-03
DAV:   8    -0.149411580014E+03   -0.25454E-05   -0.71956E-07  5248   0.451E-03    0.412E-03
DAV:   9    -0.149411581055E+03   -0.10414E-05   -0.32233E-07  4976   0.247E-03    0.296E-03
DAV:  10    -0.149411581842E+03   -0.78742E-06   -0.21568E-07  5112   0.219E-03
  28 F= -.15561036E+03 E0= -.15561036E+03  d E =-.600337E-03  mag=    29.0000
