CrCl3 2x2 + H S3 top-Cr (D3, U=0) (a_2x2
   1.0000000000000000     
    12.0925489970493256    0.0000000000000000    0.0000000000000000
    -6.0462744985246628   10.4724546279527502    0.0000000000000000
     0.0000000000000000    0.0000000000000000   20.0000000000000000
   Cr   Cl   H 
     8    24     1
Direct
  0.1641949472705603  0.3331602342917162  0.4985176284120840
  0.3314559729866056  0.1679789539076763  0.4990588062152022
  0.6666666666666714  0.3333333333333286  0.5085558926152541
  0.8320210460923236  0.1634770190789365  0.4990588062152022
  0.1689652870211771  0.8358050527294396  0.4985176284120840
  0.3333333333333286  0.6666666666666714  0.4993391683889421
  0.6668397657082838  0.8310347129788159  0.4985176284120840
  0.8365229809210634  0.6685440270133943  0.4990588062152022
  0.1754498539797101  0.5011592863489447  0.4320448648324541
  0.5026243836974429  0.1809843196804672  0.4366072288744563
  0.3199611939235162  0.3225554339816512  0.4306543577597734
  0.3196759404476245  0.4987542499184443  0.5669023576650427
  0.9974758229921831  0.3196557632343242  0.5672262929679153
  0.1720445535577727  0.1750630192195735  0.5651762682705975
  0.6783599359830315  0.4973756163025571  0.4366072288744563
  0.9986019675629733  0.1787098181551841  0.4301170601006652
  0.8190156803195255  0.3216400640169685  0.4366072288744563
  0.8378022938938073  0.5095118719633682  0.5681706171863400
  0.4904881280366321  0.3282904219304466  0.5681706171863400
  0.6717095780695536  0.1621977061061925  0.5681706171863400
  0.1801078505922109  0.0013980324370269  0.4301170601006652
  0.4988407136510554  0.6742905676307654  0.4320448648324541
  0.3257094323692345  0.8245501460202902  0.4320448648324541
  0.3221799402421410  0.0025241770078168  0.5672262929679153
  0.0030184656618007  0.8279554464422272  0.5651762682705975
  0.1790783094708268  0.6803240595523753  0.5669023576650427
  0.6774445660183487  0.9974057599418652  0.4306543577597734
  0.0025942400581349  0.6800388060764835  0.4306543577597734
  0.8212901818448158  0.8198921494077891  0.4301170601006652
  0.8249369807804267  0.9969815343381995  0.5651762682705975
  0.5012457500815557  0.8209216905291733  0.5669023576650427
  0.6803442367656759  0.6778200597578592  0.5672262929679153
  0.6666666666666714  0.3333333333333286  0.5861784921422404

  0.00000000E+00  0.00000000E+00  0.00000000E+00
  0.00000000E+00  0.00000000E+00  0.00000000E+00
  0.00000000E+00  0.00000000E+00  0.00000000E+00
  0.00000000E+00  0.00000000E+00  0.00000000E+00
  0.00000000E+00  0.00000000E+00  0.00000000E+00
  0.00000000E+00  0.00000000E+00  0.00000000E+00
  0.00000000E+00  0.00000000E+00  0.00000000E+00
  0.00000000E+00  0.00000000E+00  0.00000000E+00
  0.00000000E+00  0.00000000E+00  0.00000000E+00
  0.00000000E+00  0.00000000E+00  0.00000000E+00
  0.00000000E+00  0.00000000E+00  0.00000000E+00
  0.00000000E+00  0.00000000E+00  0.00000000E+00
  0.00000000E+00  0.00000000E+00  0.00000000E+00
  0.00000000E+00  0.00000000E+00  0.00000000E+00
  0.00000000E+00  0.00000000E+00  0.00000000E+00
  0.00000000E+00  0.00000000E+00  0.00000000E+00
  0.00000000E+00  0.00000000E+00  0.00000000E+00
  0.00000000E+00  0.00000000E+00  0.00000000E+00
  0.00000000E+00  0.00000000E+00  0.00000000E+00
  0.00000000E+00  0.00000000E+00  0.00000000E+00
  0.00000000E+00  0.00000000E+00  0.00000000E+00
  0.00000000E+00  0.00000000E+00  0.00000000E+00
  0.00000000E+00  0.00000000E+00  0.00000000E+00
  0.00000000E+00  0.00000000E+00  0.00000000E+00
  0.00000000E+00  0.00000000E+00  0.00000000E+00
  0.00000000E+00  0.00000000E+00  0.00000000E+00
  0.00000000E+00  0.00000000E+00  0.00000000E+00
  0.00000000E+00  0.00000000E+00  0.00000000E+00
  0.00000000E+00  0.00000000E+00  0.00000000E+00
  0.00000000E+00  0.00000000E+00  0.00000000E+00
  0.00000000E+00  0.00000000E+00  0.00000000E+00
  0.00000000E+00  0.00000000E+00  0.00000000E+00
  0.00000000E+00  0.00000000E+00  0.00000000E+00
