       N       E                     dE             d eps       ncg     rms          rms(c)
DAV:   1     0.210542242482E+04    0.21054E+04   -0.61698E+04  2968   0.918E+02
DAV:   2     0.425382580330E+03   -0.16800E+04   -0.15715E+04  3560   0.245E+02
DAV:   3    -0.107805991525E+03   -0.53319E+03   -0.51527E+03  4160   0.140E+02
DAV:   4    -0.152564695905E+03   -0.44759E+02   -0.44130E+02  4512   0.568E+01
DAV:   5    -0.153270210243E+03   -0.70551E+00   -0.69996E+00  4424   0.102E+01    0.419E+01
DAV:   6    -0.145164137478E+03    0.81061E+01   -0.15608E+02  4608   0.651E+01    0.399E+01
DAV:   7    -0.141892614065E+03    0.32715E+01   -0.28400E+01  4072   0.560E+01    0.207E+01
DAV:   8    -0.142238260538E+03   -0.34565E+00   -0.66115E+00  4432   0.137E+01    0.103E+01
DAV:   9    -0.142276375159E+03   -0.38115E-01   -0.17575E+00  4464   0.129E+01    0.645E+00
DAV:  10    -0.142295555586E+03   -0.19180E-01   -0.45719E-01  4256   0.573E+00    0.235E+00
DAV:  11    -0.142398220923E+03   -0.10267E+00   -0.97800E-02  4160   0.206E+00    0.741E-01
DAV:  12    -0.142463060084E+03   -0.64839E-01   -0.14020E-02  4240   0.849E-01    0.444E-01
DAV:  13    -0.142532059959E+03   -0.69000E-01   -0.86775E-03  4176   0.548E-01    0.274E-01
DAV:  14    -0.142551596707E+03   -0.19537E-01   -0.18050E-03  4200   0.229E-01    0.123E-01
DAV:  15    -0.142555290694E+03   -0.36940E-02   -0.24371E-04  4120   0.785E-02    0.879E-02
DAV:  16    -0.142559859823E+03   -0.45691E-02   -0.15483E-04  3936   0.353E-02    0.581E-02
DAV:  17    -0.142567869140E+03   -0.80093E-02   -0.34526E-04  3616   0.526E-02    0.357E-02
DAV:  18    -0.142569837001E+03   -0.19679E-02   -0.72842E-05  3776   0.243E-02    0.282E-02
DAV:  19    -0.142571460212E+03   -0.16232E-02   -0.46031E-05  3824   0.214E-02    0.188E-02
DAV:  20    -0.142572938426E+03   -0.14782E-02   -0.73856E-05  3224   0.158E-02    0.137E-02
DAV:  21    -0.142573452293E+03   -0.51387E-03   -0.23573E-05  3424   0.104E-02    0.955E-03
DAV:  22    -0.142573691936E+03   -0.23964E-03   -0.12565E-05  3000   0.671E-03    0.402E-03
DAV:  23    -0.142573767858E+03   -0.75922E-04   -0.41829E-06  2832   0.445E-03    0.275E-03
DAV:  24    -0.142573796574E+03   -0.28715E-04   -0.62174E-07  2056   0.320E-03    0.217E-03
DAV:  25    -0.142573819994E+03   -0.23421E-04   -0.59204E-07  2032   0.286E-03    0.164E-03
DAV:  26    -0.142573833970E+03   -0.13976E-04   -0.51645E-07  2008   0.211E-03    0.141E-03
DAV:  27    -0.142573844425E+03   -0.10454E-04   -0.29003E-07  1960   0.208E-03    0.107E-03
DAV:  28    -0.142573850932E+03   -0.65074E-05   -0.21275E-07  1912   0.132E-03    0.784E-04
DAV:  29    -0.142573857505E+03   -0.65733E-05   -0.17397E-07  1928   0.122E-03    0.794E-04
DAV:  30    -0.142573865184E+03   -0.76785E-05   -0.21262E-07  1944   0.119E-03    0.816E-04
DAV:  31    -0.142573867940E+03   -0.27568E-05   -0.11549E-07  1664   0.112E-03    0.490E-04
DAV:  32    -0.142573869370E+03   -0.14292E-05   -0.70534E-08  1632   0.735E-04    0.346E-04
DAV:  33    -0.142573870889E+03   -0.15195E-05   -0.40586E-08  1616   0.646E-04    0.256E-04
DAV:  34    -0.142573872660E+03   -0.17712E-05   -0.32956E-08  1584   0.417E-04    0.180E-04
DAV:  35    -0.142573873528E+03   -0.86774E-06   -0.17070E-08  1624   0.391E-04
   1 F= -.14836913E+03 E0= -.14836913E+03  d E =-.148369E+03  mag=    23.0001
       N       E                     dE             d eps       ncg     rms          rms(c)
DAV:   1    -0.142604258938E+03   -0.30386E-01   -0.12502E+01  2880   0.719E+00    0.253E+00
DAV:   2    -0.142696056614E+03   -0.91798E-01   -0.10595E+00  4120   0.443E+00    0.178E+00
DAV:   3    -0.142691774797E+03    0.42818E-02   -0.27887E-02  4280   0.112E+00    0.939E-01
DAV:   4    -0.142689962618E+03    0.18122E-02   -0.30517E-03  4288   0.234E-01    0.760E-01
DAV:   5    -0.142688321705E+03    0.16409E-02   -0.68484E-03  4144   0.246E-01    0.439E-01
DAV:   6    -0.142688405817E+03   -0.84112E-04   -0.19619E-03  4200   0.311E-01    0.154E-01
DAV:   7    -0.142688491000E+03   -0.85183E-04   -0.31876E-04  4184   0.146E-01    0.794E-02
DAV:   8    -0.142688635198E+03   -0.14420E-03   -0.52546E-05  4352   0.531E-02    0.775E-02
DAV:   9    -0.142688910414E+03   -0.27522E-03   -0.20536E-05  3648   0.150E-02    0.534E-02
DAV:  10    -0.142689080915E+03   -0.17050E-03   -0.13666E-05  3968   0.921E-03    0.324E-02
DAV:  11    -0.142689233141E+03   -0.15223E-03   -0.44330E-06  2912   0.103E-02    0.137E-02
DAV:  12    -0.142689358304E+03   -0.12516E-03   -0.38039E-06  2600   0.495E-03    0.588E-03
DAV:  13    -0.142689495526E+03   -0.13722E-03   -0.21612E-06  2480   0.390E-03    0.155E-03
DAV:  14    -0.142689567355E+03   -0.71828E-04   -0.68706E-07  2104   0.321E-03    0.211E-03
DAV:  15    -0.142689646956E+03   -0.79601E-04   -0.12368E-06  2240   0.252E-03    0.277E-03
DAV:  16    -0.142689709185E+03   -0.62229E-04   -0.11239E-06  2288   0.258E-03    0.183E-03
DAV:  17    -0.142689748482E+03   -0.39297E-04   -0.84447E-07  2152   0.213E-03    0.164E-03
DAV:  18    -0.142689758102E+03   -0.96198E-05   -0.35777E-07  1928   0.209E-03    0.555E-04
DAV:  19    -0.142689767197E+03   -0.90951E-05   -0.39657E-07  1984   0.144E-03    0.602E-04
DAV:  20    -0.142689771115E+03   -0.39180E-05   -0.25764E-07  1968   0.153E-03    0.347E-04
DAV:  21    -0.142689771647E+03   -0.53193E-06   -0.14140E-07  1672   0.106E-03
   2 F= -.14846937E+03 E0= -.14846937E+03  d E =-.100237E+00  mag=    23.0000
       N       E                     dE             d eps       ncg     rms          rms(c)
DAV:   1    -0.142646565924E+03    0.43205E-01   -0.13567E+01  2880   0.748E+00    0.263E+00
DAV:   2    -0.142745416125E+03   -0.98850E-01   -0.11383E+00  4112   0.460E+00    0.186E+00
DAV:   3    -0.142740731299E+03    0.46848E-02   -0.29977E-02  4280   0.117E+00    0.961E-01
DAV:   4    -0.142738748164E+03    0.19831E-02   -0.33299E-03  4304   0.242E-01    0.778E-01
DAV:   5    -0.142737018285E+03    0.17299E-02   -0.69824E-03  4160   0.252E-01    0.459E-01
DAV:   6    -0.142737080242E+03   -0.61957E-04   -0.20425E-03  4160   0.314E-01    0.163E-01
DAV:   7    -0.142737166160E+03   -0.85918E-04   -0.35983E-04  4104   0.151E-01    0.801E-02
DAV:   8    -0.142737322696E+03   -0.15654E-03   -0.60121E-05  4344   0.561E-02    0.790E-02
DAV:   9    -0.142737608529E+03   -0.28583E-03   -0.20145E-05  3576   0.152E-02    0.553E-02
DAV:  10    -0.142737793485E+03   -0.18496E-03   -0.14402E-05  3872   0.914E-03    0.341E-02
DAV:  11    -0.142737959913E+03   -0.16643E-03   -0.54869E-06  3256   0.110E-02    0.142E-02
DAV:  12    -0.142738090708E+03   -0.13079E-03   -0.26784E-06  2448   0.496E-03    0.592E-03
DAV:  13    -0.142738232920E+03   -0.14221E-03   -0.27022E-06  2600   0.386E-03    0.173E-03
DAV:  14    -0.142738313811E+03   -0.80891E-04   -0.70192E-07  2096   0.332E-03    0.213E-03
DAV:  15    -0.142738394715E+03   -0.80904E-04   -0.11205E-06  2200   0.257E-03    0.258E-03
DAV:  16    -0.142738449728E+03   -0.55013E-04   -0.81832E-07  2112   0.240E-03    0.244E-03
DAV:  17    -0.142738497413E+03   -0.47685E-04   -0.12795E-06  2312   0.240E-03    0.171E-03
DAV:  18    -0.142738513817E+03   -0.16404E-04   -0.34925E-07  1952   0.184E-03    0.926E-04
DAV:  19    -0.142738530022E+03   -0.16205E-04   -0.58548E-07  2128   0.176E-03    0.731E-04
DAV:  20    -0.142738533554E+03   -0.35318E-05   -0.27740E-07  1896   0.171E-03    0.447E-04
DAV:  21    -0.142738534245E+03   -0.69146E-06   -0.16006E-07  1672   0.108E-03
   3 F= -.14850158E+03 E0= -.14850158E+03  d E =-.132457E+00  mag=    23.0000
       N       E                     dE             d eps       ncg     rms          rms(c)
DAV:   1    -0.142737708029E+03    0.82553E-03   -0.25933E-02  3016   0.326E-01    0.123E-01
DAV:   2    -0.142737888776E+03   -0.18075E-03   -0.21020E-03  4080   0.198E-01    0.799E-02
DAV:   3    -0.142737884332E+03    0.44440E-05   -0.60224E-05  4248   0.543E-02    0.445E-02
DAV:   4    -0.142737879721E+03    0.46110E-05   -0.51412E-06  3136   0.112E-02    0.352E-02
DAV:   5    -0.142737873756E+03    0.59649E-05   -0.16612E-05  3760   0.109E-02    0.221E-02
DAV:   6    -0.142737873568E+03    0.18853E-06   -0.36291E-06  2616   0.140E-02
   4 F= -.14850165E+03 E0= -.14850165E+03  d E =-.132523E+00  mag=    23.0000
       N       E                     dE             d eps       ncg     rms          rms(c)
DAV:   1    -0.142735408608E+03    0.24651E-02   -0.58692E-01  2880   0.163E+00    0.573E-01
DAV:   2    -0.142739408230E+03   -0.39996E-02   -0.30839E-02  4032   0.693E-01    0.326E-01
DAV:   3    -0.142740219813E+03   -0.81158E-03   -0.20216E-03  4312   0.287E-01    0.159E-01
DAV:   4    -0.142739825318E+03    0.39449E-03   -0.22678E-04  4368   0.112E-01    0.110E-01
DAV:   5    -0.142739363524E+03    0.46179E-03   -0.17614E-04  4112   0.666E-02    0.712E-02
DAV:   6    -0.142738955571E+03    0.40795E-03   -0.14143E-04  4080   0.427E-02    0.278E-02
DAV:   7    -0.142739117957E+03   -0.16239E-03   -0.27377E-05  3896   0.176E-02    0.194E-02
DAV:   8    -0.142739407828E+03   -0.28987E-03   -0.52570E-06  3056   0.764E-03    0.117E-02
DAV:   9    -0.142739731444E+03   -0.32362E-03   -0.48140E-06  3096   0.696E-03    0.630E-03
DAV:  10    -0.142740014968E+03   -0.28352E-03   -0.27401E-06  2736   0.479E-03    0.346E-03
DAV:  11    -0.142740208506E+03   -0.19354E-03   -0.13514E-06  2248   0.328E-03    0.277E-03
DAV:  12    -0.142740457105E+03   -0.24860E-03   -0.28126E-06  2632   0.382E-03    0.217E-03
DAV:  13    -0.142740663760E+03   -0.20666E-03   -0.23390E-06  2616   0.314E-03    0.161E-03
DAV:  14    -0.142740823761E+03   -0.16000E-03   -0.22908E-06  2656   0.312E-03    0.105E-03
DAV:  15    -0.142740870917E+03   -0.47156E-04   -0.50535E-07  2064   0.200E-03    0.737E-04
DAV:  16    -0.142740904279E+03   -0.33362E-04   -0.55099E-07  2056   0.185E-03    0.819E-04
DAV:  17    -0.142740922059E+03   -0.17780E-04   -0.48647E-07  1976   0.190E-03    0.442E-04
DAV:  18    -0.142740930217E+03   -0.81571E-05   -0.38419E-07  1856   0.165E-03    0.400E-04
DAV:  19    -0.142740932179E+03   -0.19626E-05   -0.21396E-07  1680   0.143E-03    0.182E-04
DAV:  20    -0.142740933305E+03   -0.11259E-05   -0.14205E-07  1656   0.952E-04    0.155E-04
DAV:  21    -0.142740933872E+03   -0.56657E-06   -0.86654E-08  1672   0.872E-04
   5 F= -.14850406E+03 E0= -.14850406E+03  d E =-.241310E-02  mag=    23.0000
       N       E                     dE             d eps       ncg     rms          rms(c)
DAV:   1    -0.142740804123E+03    0.12918E-03   -0.11318E-02  2936   0.226E-01    0.797E-02
DAV:   2    -0.142740850642E+03   -0.46518E-04   -0.57991E-04  4024   0.925E-02    0.435E-02
DAV:   3    -0.142740882388E+03   -0.31746E-04   -0.38366E-05  4256   0.385E-02    0.220E-02
DAV:   4    -0.142740865420E+03    0.16968E-04   -0.31218E-06  2784   0.153E-02    0.157E-02
DAV:   5    -0.142740839218E+03    0.26202E-04   -0.55186E-06  3520   0.101E-02    0.103E-02
DAV:   6    -0.142740805300E+03    0.33919E-04   -0.24627E-06  2392   0.554E-03    0.403E-03
DAV:   7    -0.142740809913E+03   -0.46138E-05   -0.83142E-07  1784   0.419E-03    0.257E-03
DAV:   8    -0.142740821051E+03   -0.11137E-04   -0.30802E-07  1744   0.265E-03    0.224E-03
DAV:   9    -0.142740838786E+03   -0.17735E-04   -0.25344E-07  1784   0.187E-03    0.145E-03
DAV:  10    -0.142740851533E+03   -0.12747E-04   -0.15754E-07  1680   0.154E-03    0.110E-03
DAV:  11    -0.142740861303E+03   -0.97696E-05   -0.12899E-07  1688   0.141E-03    0.882E-04
DAV:  12    -0.142740874461E+03   -0.13158E-04   -0.16848E-07  1824   0.958E-04    0.610E-04
DAV:  13    -0.142740884136E+03   -0.96749E-05   -0.11272E-07  1688   0.108E-03    0.413E-04
DAV:  14    -0.142740892209E+03   -0.80734E-05   -0.11714E-07  1752   0.873E-04    0.386E-04
DAV:  15    -0.142740898401E+03   -0.61913E-05   -0.10173E-07  1768   0.873E-04    0.321E-04
DAV:  16    -0.142740902971E+03   -0.45704E-05   -0.93274E-08  1688   0.754E-04    0.259E-04
DAV:  17    -0.142740907629E+03   -0.46583E-05   -0.10502E-07  1832   0.775E-04    0.254E-04
DAV:  18    -0.142740910130E+03   -0.25010E-05   -0.95574E-08  1736   0.800E-04    0.188E-04
DAV:  19    -0.142740910483E+03   -0.35316E-06   -0.51125E-08  1680   0.687E-04
   6 F= -.14850413E+03 E0= -.14850413E+03  d E =-.247986E-02  mag=    23.0000
       N       E                     dE             d eps       ncg     rms          rms(c)
DAV:   1    -0.142740332354E+03    0.57778E-03   -0.16174E-01  2880   0.840E-01    0.240E-01
DAV:   2    -0.142741446402E+03   -0.11140E-02   -0.10757E-02  4056   0.338E-01    0.125E-01
DAV:   3    -0.142741628671E+03   -0.18227E-03   -0.28354E-04  4112   0.109E-01    0.745E-02
DAV:   4    -0.142741609665E+03    0.19007E-04   -0.41798E-05  4312   0.407E-02    0.535E-02
DAV:   5    -0.142741586736E+03    0.22928E-04   -0.39505E-05  4000   0.253E-02    0.375E-02
DAV:   6    -0.142741573980E+03    0.12757E-04   -0.28490E-05  4080   0.184E-02    0.102E-02
DAV:   7    -0.142741581858E+03   -0.78788E-05   -0.26802E-06  2288   0.712E-03    0.564E-03
DAV:   8    -0.142741593155E+03   -0.11296E-04   -0.98490E-07  1768   0.458E-03    0.334E-03
DAV:   9    -0.142741603582E+03   -0.10427E-04   -0.59638E-07  1768   0.300E-03    0.278E-03
DAV:  10    -0.142741610376E+03   -0.67945E-05   -0.25933E-07  1648   0.244E-03    0.169E-03
DAV:  11    -0.142741621856E+03   -0.11480E-04   -0.19266E-07  1800   0.168E-03    0.134E-03
DAV:  12    -0.142741634837E+03   -0.12981E-04   -0.21345E-07  1848   0.200E-03    0.924E-04
DAV:  13    -0.142741639848E+03   -0.50113E-05   -0.14956E-07  1672   0.126E-03    0.475E-04
DAV:  14    -0.142741642616E+03   -0.27678E-05   -0.79584E-08  1624   0.892E-04    0.415E-04
DAV:  15    -0.142741645759E+03   -0.31427E-05   -0.53621E-08  1640   0.696E-04    0.288E-04
DAV:  16    -0.142741652788E+03   -0.70293E-05   -0.10782E-07  1840   0.732E-04    0.316E-04
DAV:  17    -0.142741655863E+03   -0.30753E-05   -0.73383E-08  1656   0.842E-04    0.242E-04
DAV:  18    -0.142741656038E+03   -0.17445E-06   -0.34033E-08  1680   0.582E-04
   7 F= -.14850523E+03 E0= -.14850523E+03  d E =-.109685E-02  mag=    23.0000
       N       E                     dE             d eps       ncg     rms          rms(c)
DAV:   1    -0.142736166643E+03    0.54892E-02   -0.69334E-01  2880   0.174E+00    0.496E-01
DAV:   2    -0.142741162277E+03   -0.49956E-02   -0.46018E-02  4080   0.697E-01    0.255E-01
DAV:   3    -0.142741768077E+03   -0.60580E-03   -0.11773E-03  4112   0.213E-01    0.153E-01
DAV:   4    -0.142741700559E+03    0.67518E-04   -0.17130E-04  4312   0.795E-02    0.111E-01
DAV:   5    -0.142741637925E+03    0.62634E-04   -0.16588E-04  4152   0.531E-02    0.786E-02
DAV:   6    -0.142741605398E+03    0.32528E-04   -0.12273E-04  4112   0.391E-02    0.214E-02
DAV:   7    -0.142741632226E+03   -0.26828E-04   -0.14733E-05  4040   0.152E-02    0.106E-02
DAV:   8    -0.142741664323E+03   -0.32097E-04   -0.13544E-06  2200   0.630E-03    0.585E-03
DAV:   9    -0.142741701561E+03   -0.37238E-04   -0.11588E-06  1952   0.497E-03    0.501E-03
DAV:  10    -0.142741727734E+03   -0.26173E-04   -0.81649E-07  1768   0.379E-03    0.269E-03
DAV:  11    -0.142741764900E+03   -0.37166E-04   -0.11410E-06  2088   0.334E-03    0.224E-03
DAV:  12    -0.142741782867E+03   -0.17966E-04   -0.48611E-07  1712   0.333E-03    0.132E-03
DAV:  13    -0.142741802693E+03   -0.19826E-04   -0.36037E-07  1856   0.189E-03    0.110E-03
DAV:  14    -0.142741817345E+03   -0.14652E-04   -0.25647E-07  1712   0.162E-03    0.735E-04
DAV:  15    -0.142741829791E+03   -0.12445E-04   -0.22616E-07  1760   0.130E-03    0.613E-04
DAV:  16    -0.142741839521E+03   -0.97309E-05   -0.17912E-07  1768   0.124E-03    0.514E-04
DAV:  17    -0.142741845862E+03   -0.63405E-05   -0.14608E-07  1648   0.111E-03    0.363E-04
DAV:  18    -0.142741853073E+03   -0.72115E-05   -0.17231E-07  1944   0.987E-04    0.351E-04
DAV:  19    -0.142741855643E+03   -0.25698E-05   -0.10257E-07  1664   0.960E-04    0.264E-04
DAV:  20    -0.142741857510E+03   -0.18671E-05   -0.81084E-08  1672   0.686E-04    0.184E-04
DAV:  21    -0.142741858910E+03   -0.14001E-05   -0.62549E-08  1648   0.687E-04    0.200E-04
DAV:  22    -0.142741859873E+03   -0.96271E-06   -0.61419E-08  1792   0.569E-04
   8 F= -.14850615E+03 E0= -.14850615E+03  d E =-.202085E-02  mag=    23.0000
       N       E                     dE             d eps       ncg     rms          rms(c)
DAV:   1    -0.142741295940E+03    0.56297E-03   -0.14090E-01  2880   0.767E-01    0.217E-01
DAV:   2    -0.142742258544E+03   -0.96260E-03   -0.10610E-02  4080   0.382E-01    0.120E-01
DAV:   3    -0.142742292497E+03   -0.33953E-04   -0.40773E-04  4176   0.152E-01    0.794E-02
DAV:   4    -0.142742275022E+03    0.17476E-04   -0.49326E-05  4280   0.657E-02    0.529E-02
DAV:   5    -0.142742267319E+03    0.77027E-05   -0.27813E-05  3920   0.139E-02    0.375E-02
DAV:   6    -0.142742267004E+03    0.31548E-06   -0.24514E-05  4200   0.151E-02    0.123E-02
DAV:   7    -0.142742268040E+03   -0.10368E-05   -0.31062E-06  2568   0.912E-03    0.499E-03
DAV:   8    -0.142742269397E+03   -0.13569E-05   -0.11305E-06  1784   0.493E-03    0.414E-03
DAV:   9    -0.142742271202E+03   -0.18049E-05   -0.50377E-07  1680   0.259E-03    0.319E-03
DAV:  10    -0.142742272876E+03   -0.16743E-05   -0.17882E-07  1632   0.237E-03    0.237E-03
DAV:  11    -0.142742275536E+03   -0.26592E-05   -0.11288E-07  1592   0.118E-03    0.146E-03
DAV:  12    -0.142742278864E+03   -0.33289E-05   -0.98706E-08  1664   0.136E-03    0.899E-04
DAV:  13    -0.142742280693E+03   -0.18287E-05   -0.68508E-08  1680   0.113E-03    0.422E-04
DAV:  14    -0.142742281465E+03   -0.77183E-06   -0.35486E-08  1664   0.693E-04
   9 F= -.14850696E+03 E0= -.14850696E+03  d E =-.808015E-03  mag=    23.0000
       N       E                     dE             d eps       ncg     rms          rms(c)
DAV:   1    -0.142739206264E+03    0.30744E-02   -0.42240E-01  2880   0.133E+00    0.376E-01
DAV:   2    -0.142742129287E+03   -0.29230E-02   -0.31762E-02  4048   0.660E-01    0.206E-01
DAV:   3    -0.142742205674E+03   -0.76386E-04   -0.12164E-03  4176   0.261E-01    0.137E-01
DAV:   4    -0.142742153310E+03    0.52363E-04   -0.14756E-04  4288   0.113E-01    0.915E-02
DAV:   5    -0.142742125496E+03    0.27814E-04   -0.83185E-05  3928   0.242E-02    0.648E-02
DAV:   6    -0.142742122846E+03    0.26498E-05   -0.73438E-05  4216   0.262E-02    0.213E-02
DAV:   7    -0.142742127668E+03   -0.48220E-05   -0.12014E-05  4064   0.158E-02    0.811E-03
DAV:   8    -0.142742131755E+03   -0.40865E-05   -0.14284E-06  2040   0.623E-03    0.636E-03
DAV:   9    -0.142742137228E+03   -0.54734E-05   -0.62418E-07  1640   0.313E-03    0.445E-03
DAV:  10    -0.142742145034E+03   -0.78056E-05   -0.38790E-07  1720   0.324E-03    0.249E-03
DAV:  11    -0.142742150885E+03   -0.58513E-05   -0.42341E-07  1776   0.275E-03    0.136E-03
DAV:  12    -0.142742156963E+03   -0.60779E-05   -0.35847E-07  1728   0.201E-03    0.107E-03
DAV:  13    -0.142742160297E+03   -0.33338E-05   -0.13518E-07  1656   0.168E-03    0.681E-04
DAV:  14    -0.142742162970E+03   -0.26734E-05   -0.69943E-08  1632   0.946E-04    0.496E-04
DAV:  15    -0.142742167553E+03   -0.45830E-05   -0.90610E-08  1720   0.843E-04    0.421E-04
DAV:  16    -0.142742170388E+03   -0.28349E-05   -0.73691E-08  1656   0.830E-04    0.330E-04
DAV:  17    -0.142742171425E+03   -0.10373E-05   -0.48155E-08  1680   0.700E-04    0.219E-04
DAV:  18    -0.142742172125E+03   -0.69937E-06   -0.32046E-08  1648   0.503E-04
  10 F= -.14850752E+03 E0= -.14850752E+03  d E =-.136362E-02  mag=    23.0000
       N       E                     dE             d eps       ncg     rms          rms(c)
DAV:   1    -0.142741930421E+03    0.24100E-03   -0.67303E-02  2888   0.538E-01    0.173E-01
DAV:   2    -0.142742428610E+03   -0.49819E-03   -0.51763E-03  4080   0.306E-01    0.108E-01
DAV:   3    -0.142742448068E+03   -0.19458E-04   -0.25654E-04  4256   0.138E-01    0.610E-02
DAV:   4    -0.142742437186E+03    0.10882E-04   -0.25206E-05  4200   0.491E-02    0.419E-02
DAV:   5    -0.142742433710E+03    0.34762E-05   -0.17118E-05  3776   0.105E-02    0.289E-02
DAV:   6    -0.142742437007E+03   -0.32968E-05   -0.12825E-05  4160   0.148E-02    0.812E-03
DAV:   7    -0.142742438881E+03   -0.18748E-05   -0.10128E-06  1888   0.630E-03    0.409E-03
DAV:   8    -0.142742440371E+03   -0.14896E-05   -0.55352E-07  1704   0.453E-03    0.331E-03
DAV:   9    -0.142742441671E+03   -0.12997E-05   -0.30365E-07  1656   0.198E-03    0.297E-03
DAV:  10    -0.142742442340E+03   -0.66954E-06   -0.12833E-07  1656   0.213E-03
  11 F= -.14850784E+03 E0= -.14850784E+03  d E =-.320925E-03  mag=    23.0000
