CrCl3 2x2 + H S3 top-Cr (D3, U=0) (a_2x2
   1.00000000000000     
    12.0925489970493256    0.0000000000000000    0.0000000000000000
    -6.0462744985246628   10.4724546279527502    0.0000000000000000
     0.0000000000000000    0.0000000000000000   20.0000000000000000
   Cr   Cl   H 
     8    24     1
Direct
     0.1641657804882952    0.3329858403483733    0.4985879819318523
     0.3312446496540083    0.1680510893631623    0.4989431959016641
     0.6666666666666714    0.3333333333333286    0.5099674655860543
     0.8319489106368376    0.1631935602908601    0.4989431959016641
     0.1688200598600923    0.8358342195117049    0.4985879819318523
     0.3333333333333286    0.6666666666666714    0.4995587000631592
     0.6670141596516267    0.8311799401399005    0.4985879819318523
     0.8368064397091398    0.6687553503459918    0.4989431959016641
     0.1774408213829912    0.5011102532288779    0.4333443163782517
     0.5034707343021552    0.1830215618231292    0.4383615706829582
     0.3173447911321693    0.3201050153130900    0.4314200390199560
     0.3183648132640106    0.4986096762926122    0.5656827027294677
     0.9975235675642387    0.3177697785859848    0.5660462179402042
     0.1737911316324399    0.1767514893085638    0.5640886141290014
     0.6795508275209811    0.4965292656978448    0.4383615706829582
     0.9987043554102379    0.1803676408775680    0.4312927618704990
     0.8169784381768638    0.3204491724790188    0.4383615706829582
     0.8377084724347656    0.5106111724838607    0.5657878013726643
     0.4893888275161393    0.3270972999509049    0.5657878013726643
     0.6729027000490951    0.1622915275652344    0.5657878013726643
     0.1816632854673301    0.0012956445897621    0.4312927618704990
     0.4988897467711220    0.6763305681541133    0.4333443163782517
     0.3236694318458867    0.8225591786170088    0.4333443163782517
     0.3202462110217462    0.0024764324357613    0.5660462179402042
     0.0029603576761239    0.8262088683675600    0.5640886141290014
     0.1802448630286017    0.6816351867359894    0.5656827027294677
     0.6798949846869101    0.9972397758190793    0.4314200390199560
     0.0027602241809207    0.6826552088678307    0.4314200390199560
     0.8196323591224320    0.8183367145326700    0.4312927618704990
     0.8232485106914362    0.9970396423238761    0.5640886141290014
     0.5013903237073877    0.8197551369713983    0.5656827027294677
     0.6822302214140152    0.6797537889782538    0.5660462179402042
     0.6666666666666714    0.3333333333333286    0.5873082284812380
 
  0.00000000E+00  0.00000000E+00  0.00000000E+00
  0.00000000E+00  0.00000000E+00  0.00000000E+00
  0.00000000E+00  0.00000000E+00  0.00000000E+00
  0.00000000E+00  0.00000000E+00  0.00000000E+00
  0.00000000E+00  0.00000000E+00  0.00000000E+00
  0.00000000E+00  0.00000000E+00  0.00000000E+00
  0.00000000E+00  0.00000000E+00  0.00000000E+00
  0.00000000E+00  0.00000000E+00  0.00000000E+00
  0.00000000E+00  0.00000000E+00  0.00000000E+00
  0.00000000E+00  0.00000000E+00  0.00000000E+00
  0.00000000E+00  0.00000000E+00  0.00000000E+00
  0.00000000E+00  0.00000000E+00  0.00000000E+00
  0.00000000E+00  0.00000000E+00  0.00000000E+00
  0.00000000E+00  0.00000000E+00  0.00000000E+00
  0.00000000E+00  0.00000000E+00  0.00000000E+00
  0.00000000E+00  0.00000000E+00  0.00000000E+00
  0.00000000E+00  0.00000000E+00  0.00000000E+00
  0.00000000E+00  0.00000000E+00  0.00000000E+00
  0.00000000E+00  0.00000000E+00  0.00000000E+00
  0.00000000E+00  0.00000000E+00  0.00000000E+00
  0.00000000E+00  0.00000000E+00  0.00000000E+00
  0.00000000E+00  0.00000000E+00  0.00000000E+00
  0.00000000E+00  0.00000000E+00  0.00000000E+00
  0.00000000E+00  0.00000000E+00  0.00000000E+00
  0.00000000E+00  0.00000000E+00  0.00000000E+00
  0.00000000E+00  0.00000000E+00  0.00000000E+00
  0.00000000E+00  0.00000000E+00  0.00000000E+00
  0.00000000E+00  0.00000000E+00  0.00000000E+00
  0.00000000E+00  0.00000000E+00  0.00000000E+00
  0.00000000E+00  0.00000000E+00  0.00000000E+00
  0.00000000E+00  0.00000000E+00  0.00000000E+00
  0.00000000E+00  0.00000000E+00  0.00000000E+00
  0.00000000E+00  0.00000000E+00  0.00000000E+00
