CrCl3 2x2 + H S3 top-Cr (D3, U=0) (a_2x2
    1.000000000000000     
    12.0925489970493256    0.0000000000000000    0.0000000000000000
    -6.0462744985246628   10.4724546279527502    0.0000000000000000
     0.0000000000000000    0.0000000000000000   20.0000000000000000
   Cr   Cl   H 
     8    24     1
Direct
     0.1666626227493647    0.3332866066921881    0.4999368901150922
     0.3335122985872485    0.1666091556295620    0.4997825901025211
     0.6666666666666714    0.3333333333333286    0.5012252753487043
     0.8333908443704380    0.1669031429577007    0.4997825901025211
     0.1666239839428376    0.8333373772506353    0.4999368901150922
     0.3333333333333286    0.6666666666666714    0.4999399325608849
     0.6667133933078119    0.8333760160571624    0.4999368901150922
     0.8330968570422993    0.6664877014127515    0.4997825901025211
     0.1795165742875384    0.5000154291916292    0.4332333302475974
     0.4997193461393405    0.1793207848170762    0.4331524818368481
     0.3204998243965350    0.3205132887234516    0.4332502056833159
     0.3205271703251938    0.4999968604427394    0.5668035243841857
     0.0000060433794297    0.3205416026369128    0.5668264392473051
     0.1794034772158038    0.1794747228412781    0.5668215988145644
     0.6796014386777357    0.5002806538606595    0.4331524818368481
     0.0000441098757914    0.1794752076462541    0.4332373089873846
     0.8206792151829237    0.3203985613222644    0.4331524818368481
     0.8236589372378272    0.5032365638293859    0.5666252465064385
     0.4967634361706142    0.3204223734084414    0.5666252465064385
     0.6795776265915586    0.1763410627621728    0.5666252465064385
     0.1794310977704628    0.9999558901242086    0.4332373089873846
     0.4999845708083708    0.6795011450959092    0.4332333302475974
     0.3204988549040908    0.8204834257124616    0.4332333302475974
     0.3205355592574831    0.9999939566205702    0.5668264392473051
     0.0000712456254743    0.8205965227841961    0.5668215988145644
     0.1794696901175457    0.6794728296748063    0.5668035243841857
     0.6794867112765484    0.9999865356730834    0.4332502056833159
     0.0000134643269166    0.6795001756034650    0.4332502056833159
     0.8205247923537459    0.8205689022295373    0.4332373089873846
     0.8205252771587219    0.9999287543745258    0.5668215988145644
     0.5000031395572606    0.8205303098824543    0.5668035243841857
     0.6794583973630871    0.6794644407425169    0.5668264392473051
     0.6666666666666714    0.3333333333333286    0.5773259443146523
 
  0.00000000E+00  0.00000000E+00  0.00000000E+00
  0.00000000E+00  0.00000000E+00  0.00000000E+00
  0.00000000E+00  0.00000000E+00  0.00000000E+00
  0.00000000E+00  0.00000000E+00  0.00000000E+00
  0.00000000E+00  0.00000000E+00  0.00000000E+00
  0.00000000E+00  0.00000000E+00  0.00000000E+00
  0.00000000E+00  0.00000000E+00  0.00000000E+00
  0.00000000E+00  0.00000000E+00  0.00000000E+00
  0.00000000E+00  0.00000000E+00  0.00000000E+00
  0.00000000E+00  0.00000000E+00  0.00000000E+00
  0.00000000E+00  0.00000000E+00  0.00000000E+00
  0.00000000E+00  0.00000000E+00  0.00000000E+00
  0.00000000E+00  0.00000000E+00  0.00000000E+00
  0.00000000E+00  0.00000000E+00  0.00000000E+00
  0.00000000E+00  0.00000000E+00  0.00000000E+00
  0.00000000E+00  0.00000000E+00  0.00000000E+00
  0.00000000E+00  0.00000000E+00  0.00000000E+00
  0.00000000E+00  0.00000000E+00  0.00000000E+00
  0.00000000E+00  0.00000000E+00  0.00000000E+00
  0.00000000E+00  0.00000000E+00  0.00000000E+00
  0.00000000E+00  0.00000000E+00  0.00000000E+00
  0.00000000E+00  0.00000000E+00  0.00000000E+00
  0.00000000E+00  0.00000000E+00  0.00000000E+00
  0.00000000E+00  0.00000000E+00  0.00000000E+00
  0.00000000E+00  0.00000000E+00  0.00000000E+00
  0.00000000E+00  0.00000000E+00  0.00000000E+00
  0.00000000E+00  0.00000000E+00  0.00000000E+00
  0.00000000E+00  0.00000000E+00  0.00000000E+00
  0.00000000E+00  0.00000000E+00  0.00000000E+00
  0.00000000E+00  0.00000000E+00  0.00000000E+00
  0.00000000E+00  0.00000000E+00  0.00000000E+00
  0.00000000E+00  0.00000000E+00  0.00000000E+00
  0.00000000E+00  0.00000000E+00  0.00000000E+00
