 running   16 mpi-ranks, with    1 threads/rank, on    1 nodes
 distrk:  each k-point on   16 cores,    1 groups
 distr:  one band on    4 cores,    4 groups
 vasp.6.5.1 10Mar25 (build Jan 13 2026 20:43:53) complex                         
 POSCAR found type information on POSCAR CrClH 
 POSCAR found :  3 types and      33 ions
 scaLAPACK will be used
 LDA part: xc-table for (Slater+PW92), standard interpolation
 POSCAR, INCAR and KPOINTS ok, starting setup
 FFT: planning ... GRIDC
 FFT: planning ... GRID_SOFT
 FFT: planning ... GRID
 WAVECAR not read
 entering main loop
       N       E                     dE             d eps       ncg     rms          rms(c)
DAV:   1     0.207120707113E+04    0.20712E+04   -0.61668E+04  2960   0.918E+02
DAV:   2     0.408180261699E+03   -0.16630E+04   -0.15419E+04  3472   0.248E+02
DAV:   3    -0.127102812605E+03   -0.53528E+03   -0.51863E+03  4216   0.139E+02
DAV:   4    -0.173826615057E+03   -0.46724E+02   -0.46007E+02  4496   0.582E+01
DAV:   5    -0.174585338268E+03   -0.75872E+00   -0.74428E+00  4488   0.101E+01    0.423E+01
