Cr8Cl24
   1.0000000000000000
    12.2092962264999993    0.0000000000000000    0.0000000000000000
    -6.0854095134000001   10.5847228971000007    0.0000000000000000
     0.0000000000000000    0.0000000000000000   17.6887664794999999
   Cr   Cl   Fe   H
     8    24     1     1
Direct
     0.1524981581957747    0.3355031914478940    0.3339076864968631
     0.1586671108560760    0.8412673618351452    0.3302111748444666
     0.6640017277688939    0.3413324939113067    0.3342749095019987
     0.6588748275956849    0.8474026226736352    0.3342393252910579
     0.8250814270214281    0.1747959789149448    0.3302112173705226
     0.8312690115007005    0.6750366476691414    0.3342648279682767
     0.3193526517440614    0.1686707224272519    0.3339135433225958
     0.3251738530097722    0.6801503546056118    0.3342412473438286
     0.1745490780499356    0.5082423117996847    0.2611986000840301
     0.1715342380175568    0.0056198269586944    0.2543324520767090
     0.6647298942952188    0.5083855197636548    0.2651387150518292
     0.6733871847936311    0.0101795384678334    0.2546260117761031
     0.3178818404905475    0.3340459218752401    0.2642670086400435
     0.3102829171123803    0.8280646402272653    0.2545362726842725
     0.8119115087465592    0.3264751251616574    0.2545759044252012
     0.8096343866275033    0.8257794152728493    0.2613459576562012
     0.9894484681899028    0.1877110589498046    0.2543271660518670
     0.9940078089167903    0.6895331640349777    0.2546608341474445
     0.4920950224466708    0.1907371904595662    0.2612105528370398
     0.4922282175135639    0.6807731847669266    0.2651528069873956
     0.9885846263745361    0.3257189921307531    0.4076857604563298
     0.9952342749045592    0.8288540052377342    0.4078863197121326
     0.4916727069879681    0.3237289858011925    0.4171698970840196
     0.4918237298468860    0.8354024739290601    0.4086731637393312
     0.3075322824553435    0.5077974901833568    0.4171592819735425
     0.3095880840985646    0.0047525404991254    0.4076836451723998
     0.8192677059397884    0.5079899192022792    0.4087153407844779
     0.8126468406163578    0.0113775315839297    0.4078854798842907
     0.1642192646478982    0.1803836697234878    0.4084279724437099
     0.1713421067651780    0.6904405824291659    0.4079578195967476
     0.6742273206072773    0.1874369406121155    0.4079594187729768
     0.6769916323478000    0.6931130922508254    0.4175228496773388
     0.4928268649184641    0.5090122377569684    0.4019687062153484
     0.4927634735967147    0.5089495474369239    0.4859082059295964

  0.00000000E+00  0.00000000E+00  0.00000000E+00
  0.00000000E+00  0.00000000E+00  0.00000000E+00
  0.00000000E+00  0.00000000E+00  0.00000000E+00
  0.00000000E+00  0.00000000E+00  0.00000000E+00
  0.00000000E+00  0.00000000E+00  0.00000000E+00
  0.00000000E+00  0.00000000E+00  0.00000000E+00
  0.00000000E+00  0.00000000E+00  0.00000000E+00
  0.00000000E+00  0.00000000E+00  0.00000000E+00
  0.00000000E+00  0.00000000E+00  0.00000000E+00
  0.00000000E+00  0.00000000E+00  0.00000000E+00
  0.00000000E+00  0.00000000E+00  0.00000000E+00
  0.00000000E+00  0.00000000E+00  0.00000000E+00
  0.00000000E+00  0.00000000E+00  0.00000000E+00
  0.00000000E+00  0.00000000E+00  0.00000000E+00
  0.00000000E+00  0.00000000E+00  0.00000000E+00
  0.00000000E+00  0.00000000E+00  0.00000000E+00
  0.00000000E+00  0.00000000E+00  0.00000000E+00
  0.00000000E+00  0.00000000E+00  0.00000000E+00
  0.00000000E+00  0.00000000E+00  0.00000000E+00
  0.00000000E+00  0.00000000E+00  0.00000000E+00
  0.00000000E+00  0.00000000E+00  0.00000000E+00
  0.00000000E+00  0.00000000E+00  0.00000000E+00
  0.00000000E+00  0.00000000E+00  0.00000000E+00
  0.00000000E+00  0.00000000E+00  0.00000000E+00
  0.00000000E+00  0.00000000E+00  0.00000000E+00
  0.00000000E+00  0.00000000E+00  0.00000000E+00
  0.00000000E+00  0.00000000E+00  0.00000000E+00
  0.00000000E+00  0.00000000E+00  0.00000000E+00
  0.00000000E+00  0.00000000E+00  0.00000000E+00
  0.00000000E+00  0.00000000E+00  0.00000000E+00
  0.00000000E+00  0.00000000E+00  0.00000000E+00
  0.00000000E+00  0.00000000E+00  0.00000000E+00
  0.00000000E+00  0.00000000E+00  0.00000000E+00
  0.00000000E+00  0.00000000E+00  0.00000000E+00