CrCl3 2x2 + Ni S2 hollow (D3, U=0) (a_2x
   1.0000000000000000     
    12.0925489970493256    0.0000000000000000    0.0000000000000000
    -6.0462744985246628   10.4724546279527502    0.0000000000000000
     0.0000000000000000    0.0000000000000000   20.0000000000000000
   Cr   Cl   Ni
     8    24     1
Direct
  0.1641233820978625  0.3303886183854599  0.5003123015125833
  0.3303886183854599  0.1641233820978625  0.5003123015125833
  0.6696113816145400  0.3337347637123884  0.5003123015125833
  0.8333333333333286  0.1666666666666714  0.4992188645831195
  0.1666666666666714  0.8333333333333286  0.4992188645831195
  0.3337347637123884  0.6696113816145400  0.5003123015125833
  0.6662652362876116  0.8358766179021376  0.5003123015125833
  0.8358766179021376  0.6662652362876116  0.5003123015125833
  0.1800966867447265  0.5000000000000000  0.4355270186792586
  0.5000000000000000  0.1800966867447265  0.4355270186792586
  0.3220262688707319  0.3220262688707319  0.4349383052990257
  0.3219301965401422  0.5000000000000000  0.5717350436652411
 -0.0006072115336654  0.3205858243669865  0.5665935199351889
  0.1759681904904229  0.1759681904904229  0.5669966389653779
  0.6779737311292680  0.5000000000000000  0.4349383052990257
 -0.0021373555623419  0.1763954067619161  0.4327631293892826
  0.8236045932380839  0.3214672376757421  0.4327631293892826
  0.8240318095095771  0.5000000000000000  0.5669966389653779
  0.5000000000000000  0.3219301965401422  0.5717350436652411
  0.6794141756330134  0.1788069640993482  0.5665935199351889
  0.1763954067619161 -0.0021373555623419  0.4327631293892826
  0.5000000000000000  0.6779737311292680  0.4349383052990257
  0.3214672376757421  0.8236045932380839  0.4327631293892826
  0.3205858243669865 -0.0006072115336654  0.5665935199351889
  0.0006072115336654  0.8211930359006520  0.5665935199351889
  0.1788069640993482  0.6794141756330134  0.5665935199351889
  0.6785327623242580  0.0021373555623419  0.4327631293892826
  0.0021373555623419  0.6785327623242580  0.4327631293892826
  0.8199033132552735  0.8199033132552735  0.4355270186792586
  0.8211930359006520  0.0006072115336654  0.5665935199351889
  0.5000000000000000  0.8240318095095771  0.5669966389653779
  0.6780698034598578  0.6780698034598578  0.5717350436652411
  0.5000000000000000  0.5000000000000000  0.5709575459847218

  0.00000000E+00  0.00000000E+00  0.00000000E+00
  0.00000000E+00  0.00000000E+00  0.00000000E+00
  0.00000000E+00  0.00000000E+00  0.00000000E+00
  0.00000000E+00  0.00000000E+00  0.00000000E+00
  0.00000000E+00  0.00000000E+00  0.00000000E+00
  0.00000000E+00  0.00000000E+00  0.00000000E+00
  0.00000000E+00  0.00000000E+00  0.00000000E+00
  0.00000000E+00  0.00000000E+00  0.00000000E+00
  0.00000000E+00  0.00000000E+00  0.00000000E+00
  0.00000000E+00  0.00000000E+00  0.00000000E+00
  0.00000000E+00  0.00000000E+00  0.00000000E+00
  0.00000000E+00  0.00000000E+00  0.00000000E+00
  0.00000000E+00  0.00000000E+00  0.00000000E+00
  0.00000000E+00  0.00000000E+00  0.00000000E+00
  0.00000000E+00  0.00000000E+00  0.00000000E+00
  0.00000000E+00  0.00000000E+00  0.00000000E+00
  0.00000000E+00  0.00000000E+00  0.00000000E+00
  0.00000000E+00  0.00000000E+00  0.00000000E+00
  0.00000000E+00  0.00000000E+00  0.00000000E+00
  0.00000000E+00  0.00000000E+00  0.00000000E+00
  0.00000000E+00  0.00000000E+00  0.00000000E+00
  0.00000000E+00  0.00000000E+00  0.00000000E+00
  0.00000000E+00  0.00000000E+00  0.00000000E+00
  0.00000000E+00  0.00000000E+00  0.00000000E+00
  0.00000000E+00  0.00000000E+00  0.00000000E+00
  0.00000000E+00  0.00000000E+00  0.00000000E+00
  0.00000000E+00  0.00000000E+00  0.00000000E+00
  0.00000000E+00  0.00000000E+00  0.00000000E+00
  0.00000000E+00  0.00000000E+00  0.00000000E+00
  0.00000000E+00  0.00000000E+00  0.00000000E+00
  0.00000000E+00  0.00000000E+00  0.00000000E+00
  0.00000000E+00  0.00000000E+00  0.00000000E+00
  0.00000000E+00  0.00000000E+00  0.00000000E+00
