 running on   64 total cores
 distrk:  each k-point on   64 cores,    1 groups
 distr:  one band on    8 cores,    8 groups
 vasp.6.2.0 18Jan21 (build Jul 28 2023 11:58:00) complex                         
 POSCAR found type information on POSCAR CrClNi
 POSCAR found :  3 types and      33 ions
 scaLAPACK will be used
 LDA part: xc-table for Pade appr. of Perdew
 POSCAR, INCAR and KPOINTS ok, starting setup
 FFT: planning ...
 WAVECAR not read
 entering main loop
       N       E                     dE             d eps       ncg     rms          rms(c)
DAV:   1     0.212105654926E+04    0.21211E+04   -0.64996E+04  3096   0.914E+02
DAV:   2     0.411043540213E+03   -0.17100E+04   -0.15856E+04  3592   0.246E+02
DAV:   3    -0.128733449985E+03   -0.53978E+03   -0.52265E+03  4384   0.138E+02
DAV:   4    -0.174070479961E+03   -0.45337E+02   -0.44714E+02  4640   0.572E+01
DAV:   5    -0.174840935118E+03   -0.77046E+00   -0.76558E+00  4680   0.959E+00    0.422E+01
DAV:   6    -0.193682546898E+03   -0.18842E+02   -0.24456E+02  4416   0.650E+01    0.838E+01
DAV:   7    -0.168818198409E+03    0.24864E+02   -0.27305E+01  4872   0.520E+01    0.389E+01
DAV:   8    -0.162569800937E+03    0.62484E+01   -0.21052E+01  4952   0.263E+01    0.209E+01
DAV:   9    -0.158935432134E+03    0.36344E+01   -0.95732E+00  4600   0.348E+01    0.102E+01
DAV:  10    -0.158519481856E+03    0.41595E+00   -0.46364E+00  4832   0.122E+01    0.753E+00
DAV:  11    -0.158660211105E+03   -0.14073E+00   -0.10167E+00  4408   0.483E+00    0.397E+00
DAV:  12    -0.158904730250E+03   -0.24452E+00   -0.28620E-01  4440   0.234E+00    0.271E+00
DAV:  13    -0.159104969235E+03   -0.20024E+00   -0.20895E-01  4408   0.149E+00    0.304E+00
DAV:  14    -0.159086331307E+03    0.18638E-01   -0.14876E-01  4384   0.102E+00    0.179E+00
DAV:  15    -0.159181686008E+03   -0.95355E-01   -0.80844E-02  4408   0.559E-01    0.266E+00
DAV:  16    -0.159266491867E+03   -0.84806E-01   -0.32482E-02  4336   0.591E-01    0.131E+00
DAV:  17    -0.159367668829E+03   -0.10118E+00   -0.27654E-02  4136   0.335E-01    0.239E-01
DAV:  18    -0.159425373703E+03   -0.57705E-01   -0.44344E-03  3888   0.230E-01    0.344E-01
DAV:  19    -0.159493459006E+03   -0.68085E-01   -0.29849E-03  3672   0.123E-01    0.998E-02
DAV:  20    -0.159558707374E+03   -0.65248E-01   -0.24434E-03  3720   0.865E-02    0.311E-01
DAV:  21    -0.159593369747E+03   -0.34662E-01   -0.98548E-04  4144   0.846E-02    0.117E-01
DAV:  22    -0.159613705709E+03   -0.20336E-01   -0.49548E-04  3712   0.417E-02    0.403E-02
DAV:  23    -0.159626725777E+03   -0.13020E-01   -0.26707E-04  3496   0.319E-02    0.275E-02
DAV:  24    -0.159634685072E+03   -0.79593E-02   -0.26009E-04  3472   0.248E-02    0.217E-02
DAV:  25    -0.159636267148E+03   -0.15821E-02   -0.43190E-05  3752   0.120E-02    0.233E-02
DAV:  26    -0.159636886073E+03   -0.61893E-03   -0.19349E-05  3488   0.867E-03    0.313E-03
DAV:  27    -0.159637045866E+03   -0.15979E-03   -0.56578E-06  3128   0.506E-03    0.422E-03
DAV:  28    -0.159637089868E+03   -0.44001E-04   -0.14159E-06  2480   0.266E-03    0.298E-03
DAV:  29    -0.159637106541E+03   -0.16674E-04   -0.60648E-07  2232   0.198E-03    0.955E-04
DAV:  30    -0.159637119480E+03   -0.12939E-04   -0.50857E-07  2200   0.167E-03    0.285E-03
DAV:  31    -0.159637127562E+03   -0.80823E-05   -0.23441E-07  1984   0.142E-03    0.187E-03
DAV:  32    -0.159637138360E+03   -0.10797E-04   -0.41406E-07  2160   0.125E-03    0.130E-03
DAV:  33    -0.159637146548E+03   -0.81884E-05   -0.30152E-07  2160   0.143E-03    0.619E-04
DAV:  34    -0.159637148529E+03   -0.19810E-05   -0.13343E-07  2008   0.112E-03    0.625E-04
DAV:  35    -0.159637150119E+03   -0.15900E-05   -0.74392E-08  1880   0.790E-04    0.500E-04
DAV:  36    -0.159637151665E+03   -0.15456E-05   -0.47761E-08  1880   0.588E-04    0.454E-04
DAV:  37    -0.159637152139E+03   -0.47409E-06   -0.21313E-08  1904   0.476E-04
   1 F= -.16583793E+03 E0= -.16583793E+03  d E =-.165838E+03  mag=    24.0000
 curvature:   0.00 expect dE= 0.000E+00 dE for cont linesearch  0.000E+00
 trial: gam= 0.00000 g(F)=  0.303E+00 g(S)=  0.000E+00 ort = 0.000E+00 (trialstep = 0.100E+01)
 search vector abs. value=  0.303E+00
 bond charge predicted
       N       E                     dE             d eps       ncg     rms          rms(c)
DAV:   1    -0.159630029152E+03    0.71225E-02   -0.36661E+01  3064   0.106E+01    0.342E+00
DAV:   2    -0.160130501738E+03   -0.50047E+00   -0.36829E+00  4664   0.540E+00    0.788E+00
DAV:   3    -0.159946468656E+03    0.18403E+00   -0.26465E+00  4472   0.694E+00    0.974E+00
DAV:   4    -0.159829425952E+03    0.11704E+00   -0.85048E-01  4800   0.218E+00    0.117E+00
DAV:   5    -0.159831843283E+03   -0.24173E-02   -0.22721E-02  4088   0.429E-01    0.103E+00
DAV:   6    -0.159830255056E+03    0.15882E-02   -0.49392E-02  5016   0.503E-01    0.133E+00
DAV:   7    -0.159827777760E+03    0.24773E-02   -0.66265E-03  4560   0.353E-01    0.853E-01
DAV:   8    -0.159828222773E+03   -0.44501E-03   -0.27468E-03  4648   0.220E-01    0.381E-01
DAV:   9    -0.159830436846E+03   -0.22141E-02   -0.46167E-04  4552   0.710E-02    0.245E-01
DAV:  10    -0.159834449445E+03   -0.40126E-02   -0.73632E-04  4600   0.628E-02    0.616E-02
DAV:  11    -0.159838006226E+03   -0.35568E-02   -0.28079E-04  4048   0.324E-02    0.692E-02
DAV:  12    -0.159840198147E+03   -0.21919E-02   -0.72015E-05  3848   0.276E-02    0.222E-02
DAV:  13    -0.159842205260E+03   -0.20071E-02   -0.22525E-05  3296   0.935E-03    0.141E-02
DAV:  14    -0.159844233683E+03   -0.20284E-02   -0.26843E-05  3304   0.894E-03    0.723E-03
DAV:  15    -0.159845643509E+03   -0.14098E-02   -0.19891E-05  3240   0.674E-03    0.709E-03
DAV:  16    -0.159846835413E+03   -0.11919E-02   -0.24402E-05  3168   0.679E-03    0.467E-03
DAV:  17    -0.159847502677E+03   -0.66726E-03   -0.23346E-05  3144   0.625E-03    0.199E-03
DAV:  18    -0.159847578818E+03   -0.76141E-04   -0.25933E-06  2936   0.306E-03    0.166E-03
DAV:  19    -0.159847593674E+03   -0.14857E-04   -0.56385E-07  2288   0.196E-03    0.182E-03
DAV:  20    -0.159847596393E+03   -0.27191E-05   -0.21876E-07  1976   0.147E-03    0.936E-04
DAV:  21    -0.159847599766E+03   -0.33721E-05   -0.23352E-07  2032   0.967E-04    0.605E-04
DAV:  22    -0.159847601452E+03   -0.16865E-05   -0.12464E-07  1976   0.101E-03    0.210E-04
DAV:  23    -0.159847602023E+03   -0.57063E-06   -0.71286E-08  1896   0.681E-04
   2 F= -.16604850E+03 E0= -.16604850E+03  d E =-.210569E+00  mag=    24.0000
 trial-energy change:   -0.210569  1 .order   -0.211277   -0.302880   -0.119673
 step:   1.6797(harm=  1.6532)  dis= 0.06790  next Energy=  -166.088950 (dE=-0.251E+00)
 bond charge predicted
       N       E                     dE             d eps       ncg     rms          rms(c)
DAV:   1    -0.159790076000E+03    0.57525E-01   -0.16849E+01  3048   0.723E+00    0.229E+00
DAV:   2    -0.159999264004E+03   -0.20919E+00   -0.15436E+00  4576   0.344E+00    0.574E+00
DAV:   3    -0.159939081092E+03    0.60183E-01   -0.14007E+00  4376   0.446E+00    0.624E+00
DAV:   4    -0.159879297226E+03    0.59784E-01   -0.31323E-01  4736   0.153E+00    0.780E-01
DAV:   5    -0.159879896349E+03   -0.59912E-03   -0.15243E-02  4368   0.316E-01    0.657E-01
DAV:   6    -0.159878718741E+03    0.11776E-02   -0.21201E-02  4944   0.388E-01    0.922E-01
DAV:   7    -0.159877656550E+03    0.10622E-02   -0.31907E-03  4656   0.251E-01    0.488E-01
DAV:   8    -0.159878051637E+03   -0.39509E-03   -0.15852E-03  4760   0.147E-01    0.151E-01
DAV:   9    -0.159879465400E+03   -0.14138E-02   -0.20799E-04  4328   0.442E-02    0.847E-02
DAV:  10    -0.159881721665E+03   -0.22563E-02   -0.15582E-04  4056   0.273E-02    0.310E-02
DAV:  11    -0.159883495646E+03   -0.17740E-02   -0.65523E-05  3976   0.217E-02    0.336E-02
DAV:  12    -0.159884490642E+03   -0.99500E-03   -0.14052E-05  3880   0.139E-02    0.193E-02
DAV:  13    -0.159885501452E+03   -0.10108E-02   -0.11099E-05  3424   0.765E-03    0.875E-03
DAV:  14    -0.159886635131E+03   -0.11337E-02   -0.15453E-05  3160   0.640E-03    0.743E-03
DAV:  15    -0.159887445612E+03   -0.81048E-03   -0.11237E-05  3216   0.536E-03    0.454E-03
DAV:  16    -0.159888056782E+03   -0.61117E-03   -0.11367E-05  3104   0.454E-03    0.279E-03
DAV:  17    -0.159888375673E+03   -0.31889E-03   -0.99677E-06  3128   0.410E-03    0.186E-03
DAV:  18    -0.159888413457E+03   -0.37784E-04   -0.91597E-07  2520   0.210E-03    0.112E-03
DAV:  19    -0.159888421440E+03   -0.79830E-05   -0.41109E-07  2104   0.173E-03    0.107E-03
DAV:  20    -0.159888424523E+03   -0.30832E-05   -0.27779E-07  2016   0.135E-03    0.283E-04
DAV:  21    -0.159888426132E+03   -0.16087E-05   -0.18621E-07  1944   0.109E-03    0.334E-04
DAV:  22    -0.159888426762E+03   -0.63053E-06   -0.89479E-08  1912   0.858E-04
   3 F= -.16608914E+03 E0= -.16608914E+03  d E =-.251209E+00  mag=    24.0000
 curvature:  -0.83 expect dE=-0.766E-01 dE for cont linesearch -0.203E-06
 trial: gam= 0.30567 g(F)=  0.929E-01 g(S)=  0.000E+00 ort = 0.273E-03 (trialstep = 0.114E+01)
 search vector abs. value=  0.121E+00
 bond charge predicted
       N       E                     dE             d eps       ncg     rms          rms(c)
DAV:   1    -0.159890265551E+03   -0.18394E-02   -0.24759E+01  3040   0.801E+00    0.242E+00
DAV:   2    -0.160200765334E+03   -0.31050E+00   -0.20444E+00  4768   0.491E+00    0.750E+00
DAV:   3    -0.159970924138E+03    0.22984E+00   -0.13047E+00  4480   0.516E+00    0.285E+00
DAV:   4    -0.159964949907E+03    0.59742E-02   -0.10623E-01  4896   0.117E+00    0.706E-01
DAV:   5    -0.159963653429E+03    0.12965E-02   -0.62786E-03  4528   0.243E-01    0.678E-01
DAV:   6    -0.159960578998E+03    0.30744E-02   -0.11270E-02  5040   0.338E-01    0.509E-01
DAV:   7    -0.159959794884E+03    0.78411E-03   -0.21367E-03  4384   0.155E-01    0.378E-01
DAV:   8    -0.159960573720E+03   -0.77884E-03   -0.69755E-04  4856   0.104E-01    0.171E-01
DAV:   9    -0.159961857410E+03   -0.12837E-02   -0.19332E-04  4488   0.476E-02    0.104E-01
DAV:  10    -0.159963104265E+03   -0.12469E-02   -0.82771E-05  4560   0.269E-02    0.382E-02
DAV:  11    -0.159964370769E+03   -0.12665E-02   -0.43026E-05  3976   0.159E-02    0.162E-02
DAV:  12    -0.159965445315E+03   -0.10745E-02   -0.18953E-05  3728   0.136E-02    0.685E-03
DAV:  13    -0.159966324226E+03   -0.87891E-03   -0.11526E-05  3632   0.859E-03    0.543E-03
DAV:  14    -0.159966714116E+03   -0.38989E-03   -0.31269E-06  2872   0.413E-03    0.361E-03
DAV:  15    -0.159967223622E+03   -0.50951E-03   -0.80529E-06  3040   0.401E-03    0.425E-03
DAV:  16    -0.159967669531E+03   -0.44591E-03   -0.11762E-05  3112   0.496E-03    0.226E-03
DAV:  17    -0.159967773427E+03   -0.10390E-03   -0.18694E-06  2704   0.255E-03    0.838E-04
DAV:  18    -0.159967835633E+03   -0.62207E-04   -0.22255E-06  2696   0.217E-03    0.805E-04
DAV:  19    -0.159967844204E+03   -0.85710E-05   -0.22584E-07  2160   0.118E-03    0.670E-04
DAV:  20    -0.159967847080E+03   -0.28761E-05   -0.18141E-07  2032   0.967E-04    0.546E-04
DAV:  21    -0.159967847548E+03   -0.46807E-06   -0.11069E-07  1928   0.968E-04
   4 F= -.16617152E+03 E0= -.16617152E+03  d E =-.823776E-01  mag=    24.0000
 trial-energy change:   -0.082378  1 .order   -0.082594   -0.105571   -0.059617
 step:   2.7165(harm=  2.6096)  dis= 0.05078  next Energy=  -166.212414 (dE=-0.123E+00)
 bond charge predicted
       N       E                     dE             d eps       ncg     rms          rms(c)
DAV:   1    -0.159849106173E+03    0.11874E+00   -0.48517E+01  3040   0.113E+01    0.327E+00
DAV:   2    -0.160332567641E+03   -0.48346E+00   -0.29226E+00  4712   0.650E+00    0.861E+00
DAV:   3    -0.160024441164E+03    0.30813E+00   -0.20631E+00  4488   0.715E+00    0.446E+00
DAV:   4    -0.160000219423E+03    0.24222E-01   -0.20372E-01  5016   0.183E+00    0.115E+00
DAV:   5    -0.159997173145E+03    0.30463E-02   -0.12909E-02  4456   0.352E-01    0.834E-01
DAV:   6    -0.159991688825E+03    0.54843E-02   -0.12904E-02  5008   0.389E-01    0.621E-01
DAV:   7    -0.159990021221E+03    0.16676E-02   -0.40173E-03  4376   0.228E-01    0.436E-01
DAV:   8    -0.159991737221E+03   -0.17160E-02   -0.65511E-04  4680   0.124E-01    0.237E-01
DAV:   9    -0.159993986971E+03   -0.22498E-02   -0.36486E-04  4640   0.654E-02    0.109E-01
DAV:  10    -0.159996469083E+03   -0.24821E-02   -0.11741E-04  4616   0.365E-02    0.405E-02
DAV:  11    -0.159998512561E+03   -0.20435E-02   -0.47443E-05  4376   0.240E-02    0.181E-02
DAV:  12    -0.159999857854E+03   -0.13453E-02   -0.17900E-05  4048   0.135E-02    0.199E-02
DAV:  13    -0.160001566615E+03   -0.17088E-02   -0.23638E-05  3536   0.122E-02    0.684E-03
DAV:  14    -0.160002403342E+03   -0.83673E-03   -0.91209E-06  3432   0.585E-03    0.689E-03
DAV:  15    -0.160003074401E+03   -0.67106E-03   -0.74968E-06  3120   0.462E-03    0.349E-03
DAV:  16    -0.160003943923E+03   -0.86952E-03   -0.22606E-05  3072   0.617E-03    0.453E-03
DAV:  17    -0.160004255555E+03   -0.31163E-03   -0.91626E-06  3432   0.511E-03    0.223E-03
DAV:  18    -0.160004320014E+03   -0.64458E-04   -0.13345E-06  2528   0.239E-03    0.838E-04
DAV:  19    -0.160004334415E+03   -0.14401E-04   -0.50243E-07  2192   0.165E-03    0.763E-04
DAV:  20    -0.160004339115E+03   -0.47008E-05   -0.34472E-07  2144   0.154E-03    0.457E-04
DAV:  21    -0.160004340071E+03   -0.95598E-06   -0.21254E-07  1976   0.125E-03
   5 F= -.16621163E+03 E0= -.16621163E+03  d E =-.122485E+00  mag=    24.0000
 curvature:  -1.69 expect dE=-0.912E-01 dE for cont linesearch -0.144E-04
 trial: gam= 0.57916 g(F)=  0.538E-01 g(S)=  0.000E+00 ort =-0.101E-02 (trialstep = 0.145E+01)
 search vector abs. value=  0.934E-01
 bond charge predicted
       N       E                     dE             d eps       ncg     rms          rms(c)
DAV:   1    -0.159950437574E+03    0.53902E-01   -0.32855E+01  3040   0.875E+00    0.229E+00
DAV:   2    -0.160092315245E+03   -0.14188E+00   -0.11922E+00  4368   0.380E+00    0.407E+00
DAV:   3    -0.160158775717E+03   -0.66460E-01   -0.10113E+00  4880   0.367E+00    0.809E+00
DAV:   4    -0.160037263113E+03    0.12151E+00   -0.31356E-01  4712   0.193E+00    0.752E-01
DAV:   5    -0.160045893684E+03   -0.86306E-02   -0.11046E-02  3928   0.234E-01    0.557E-01
DAV:   6    -0.160049347202E+03   -0.34535E-02   -0.20343E-02  4560   0.479E-01    0.137E+00
DAV:   7    -0.160044507970E+03    0.48392E-02   -0.72996E-03  4680   0.315E-01    0.379E-01
DAV:   8    -0.160045031582E+03   -0.52361E-03   -0.11096E-03  4880   0.898E-02    0.934E-02
DAV:   9    -0.160045594362E+03   -0.56278E-03   -0.91384E-05  4256   0.340E-02    0.962E-02
DAV:  10    -0.160046062370E+03   -0.46801E-03   -0.67283E-05  4576   0.283E-02    0.320E-02
DAV:  11    -0.160046482611E+03   -0.42024E-03   -0.15212E-05  4072   0.135E-02    0.133E-02
DAV:  12    -0.160046903682E+03   -0.42107E-03   -0.69847E-06  3208   0.684E-03    0.578E-03
DAV:  13    -0.160047158394E+03   -0.25471E-03   -0.19464E-06  2552   0.452E-03    0.326E-03
DAV:  14    -0.160047404634E+03   -0.24624E-03   -0.27222E-06  2800   0.361E-03    0.277E-03
DAV:  15    -0.160047614404E+03   -0.20977E-03   -0.17033E-06  2520   0.258E-03    0.215E-03
DAV:  16    -0.160047785524E+03   -0.17112E-03   -0.17238E-06  2512   0.263E-03    0.171E-03
DAV:  17    -0.160047950543E+03   -0.16502E-03   -0.28986E-06  2864   0.289E-03    0.102E-03
DAV:  18    -0.160048022763E+03   -0.72220E-04   -0.83104E-07  2328   0.165E-03    0.750E-04
DAV:  19    -0.160048059026E+03   -0.36262E-04   -0.50409E-07  2160   0.163E-03    0.570E-04
DAV:  20    -0.160048086146E+03   -0.27121E-04   -0.72742E-07  2312   0.178E-03    0.705E-04
DAV:  21    -0.160048094433E+03   -0.82864E-05   -0.31318E-07  2032   0.157E-03    0.636E-04
DAV:  22    -0.160048098787E+03   -0.43545E-05   -0.30597E-07  2016   0.120E-03    0.379E-04
DAV:  23    -0.160048099409E+03   -0.62150E-06   -0.13768E-07  1928   0.121E-03
   6 F= -.16626301E+03 E0= -.16626301E+03  d E =-.513801E-01  mag=    24.0000
 trial-energy change:   -0.051380  1 .order   -0.051365   -0.077339   -0.025391
 step:   2.1618(harm=  2.1618)  dis= 0.03351  next Energy=  -166.269199 (dE=-0.576E-01)
 bond charge predicted
       N       E                     dE             d eps       ncg     rms          rms(c)
DAV:   1    -0.160028750237E+03    0.19349E-01   -0.77287E+00  3040   0.417E+00    0.110E+00
DAV:   2    -0.160052503797E+03   -0.23754E-01   -0.23075E-01  4272   0.155E+00    0.126E+00
DAV:   3    -0.160085798743E+03   -0.33295E-01   -0.18053E-01  4920   0.150E+00    0.427E+00
DAV:   4    -0.160047104501E+03    0.38694E-01   -0.90000E-02  4608   0.105E+00    0.451E-01
DAV:   5    -0.160049553041E+03   -0.24485E-02   -0.36757E-03  4168   0.128E-01    0.260E-01
DAV:   6    -0.160050513245E+03   -0.96020E-03   -0.49340E-03  4480   0.229E-01    0.653E-01
DAV:   7    -0.160049203944E+03    0.13093E-02   -0.22658E-03  4488   0.168E-01    0.111E-01
DAV:   8    -0.160049447467E+03   -0.24352E-03   -0.22779E-04  4392   0.389E-02    0.300E-02
DAV:   9    -0.160049629896E+03   -0.18243E-03   -0.19579E-05  4248   0.169E-02    0.194E-02
DAV:  10    -0.160049804555E+03   -0.17466E-03   -0.45327E-06  3240   0.948E-03    0.129E-02
DAV:  11    -0.160049963259E+03   -0.15870E-03   -0.44936E-06  3256   0.597E-03    0.635E-03
DAV:  12    -0.160050085448E+03   -0.12219E-03   -0.10099E-06  2320   0.333E-03    0.277E-03
DAV:  13    -0.160050177994E+03   -0.92546E-04   -0.83258E-07  2168   0.338E-03    0.230E-03
DAV:  14    -0.160050239095E+03   -0.61101E-04   -0.72637E-07  2152   0.284E-03    0.185E-03
DAV:  15    -0.160050315218E+03   -0.76123E-04   -0.10946E-06  2344   0.244E-03    0.170E-03
DAV:  16    -0.160050433729E+03   -0.11851E-03   -0.23409E-06  2680   0.276E-03    0.142E-03
DAV:  17    -0.160050474371E+03   -0.40641E-04   -0.51002E-07  2224   0.175E-03    0.741E-04
DAV:  18    -0.160050500403E+03   -0.26032E-04   -0.45227E-07  2160   0.143E-03    0.692E-04
DAV:  19    -0.160050512002E+03   -0.11599E-04   -0.25186E-07  2040   0.145E-03    0.487E-04
DAV:  20    -0.160050521831E+03   -0.98292E-05   -0.30522E-07  2104   0.108E-03    0.343E-04
DAV:  21    -0.160050526708E+03   -0.48768E-05   -0.22085E-07  2008   0.121E-03    0.410E-04
DAV:  22    -0.160050527279E+03   -0.57068E-06   -0.11003E-07  1936   0.931E-04
   7 F= -.16626904E+03 E0= -.16626904E+03  d E =-.574123E-01  mag=    24.0000
 curvature:  -1.89 expect dE=-0.307E-01 dE for cont linesearch -0.284E-05
 trial: gam= 0.26195 g(F)=  0.162E-01 g(S)=  0.000E+00 ort =-0.374E-03 (trialstep = 0.159E+01)
 search vector abs. value=  0.224E-01
 bond charge predicted
       N       E                     dE             d eps       ncg     rms          rms(c)
DAV:   1    -0.160028832897E+03    0.21694E-01   -0.85944E+00  3040   0.487E+00    0.135E+00
DAV:   2    -0.160059431004E+03   -0.30598E-01   -0.23066E-01  4232   0.156E+00    0.137E+00
DAV:   3    -0.160097289684E+03   -0.37859E-01   -0.17655E-01  4600   0.169E+00    0.347E+00
DAV:   4    -0.160058634007E+03    0.38656E-01   -0.11079E-01  4656   0.137E+00    0.341E-01
DAV:   5    -0.160060287075E+03   -0.16531E-02   -0.46056E-03  4312   0.155E-01    0.409E-01
DAV:   6    -0.160060134421E+03    0.15265E-03   -0.39816E-03  4904   0.232E-01    0.375E-01
DAV:   7    -0.160059679205E+03    0.45522E-03   -0.14767E-03  4704   0.155E-01    0.641E-02
DAV:   8    -0.160059933648E+03   -0.25444E-03   -0.27371E-04  4744   0.503E-02    0.129E-01
DAV:   9    -0.160060216647E+03   -0.28300E-03   -0.13061E-04  4472   0.467E-02    0.208E-02
DAV:  10    -0.160060615886E+03   -0.39924E-03   -0.14075E-05  3960   0.136E-02    0.121E-02
DAV:  11    -0.160060930090E+03   -0.31420E-03   -0.44398E-06  2976   0.604E-03    0.687E-03
DAV:  12    -0.160061221233E+03   -0.29114E-03   -0.37134E-06  3008   0.466E-03    0.295E-03
DAV:  13    -0.160061414485E+03   -0.19325E-03   -0.13794E-06  2496   0.337E-03    0.361E-03
DAV:  14    -0.160061555791E+03   -0.14131E-03   -0.11277E-06  2360   0.283E-03    0.248E-03
DAV:  15    -0.160061737355E+03   -0.18156E-03   -0.30538E-06  2864   0.284E-03    0.206E-03
DAV:  16    -0.160061898895E+03   -0.16154E-03   -0.33291E-06  2824   0.264E-03    0.115E-03
DAV:  17    -0.160061929335E+03   -0.30440E-04   -0.36804E-07  2264   0.168E-03    0.116E-03
DAV:  18    -0.160061948256E+03   -0.18921E-04   -0.38775E-07  2136   0.148E-03    0.652E-04
DAV:  19    -0.160061962710E+03   -0.14454E-04   -0.61365E-07  2264   0.158E-03    0.857E-04
DAV:  20    -0.160061966280E+03   -0.35704E-05   -0.23294E-07  1984   0.139E-03    0.315E-04
DAV:  21    -0.160061967618E+03   -0.13382E-05   -0.15040E-07  1896   0.980E-04    0.476E-04
DAV:  22    -0.160061968255E+03   -0.63710E-06   -0.76566E-08  1936   0.858E-04
   8 F= -.16628677E+03 E0= -.16628677E+03  d E =-.177249E-01  mag=    24.0000
 trial-energy change:   -0.017725  1 .order   -0.017690   -0.025650   -0.009729
 step:   2.5681(harm=  2.5681)  dis= 0.01478  next Energy=  -166.289703 (dE=-0.207E-01)
 bond charge predicted
       N       E                     dE             d eps       ncg     rms          rms(c)
DAV:   1    -0.160048950479E+03    0.13017E-01   -0.32013E+00  3040   0.297E+00    0.823E-01
DAV:   2    -0.160060991975E+03   -0.12041E-01   -0.87856E-02  4224   0.976E-01    0.108E+00
DAV:   3    -0.160076350034E+03   -0.15358E-01   -0.82284E-02  4552   0.114E+00    0.239E+00
DAV:   4    -0.160059545703E+03    0.16804E-01   -0.46149E-02  4632   0.862E-01    0.195E-01
DAV:   5    -0.160060291346E+03   -0.74564E-03   -0.19953E-03  4416   0.103E-01    0.259E-01
DAV:   6    -0.160060171913E+03    0.11943E-03   -0.14050E-03  4848   0.141E-01    0.207E-01
DAV:   7    -0.160060009619E+03    0.16229E-03   -0.43154E-04  4624   0.833E-02    0.371E-02
DAV:   8    -0.160060111662E+03   -0.10204E-03   -0.91638E-05  4848   0.301E-02    0.686E-02
DAV:   9    -0.160060256077E+03   -0.14442E-03   -0.34141E-05  3968   0.245E-02    0.120E-02
DAV:  10    -0.160060449928E+03   -0.19385E-03   -0.43648E-06  2872   0.815E-03    0.699E-03
DAV:  11    -0.160060618756E+03   -0.16883E-03   -0.31227E-06  2824   0.483E-03    0.430E-03
DAV:  12    -0.160060741160E+03   -0.12240E-03   -0.12273E-06  2376   0.350E-03    0.228E-03
DAV:  13    -0.160060838949E+03   -0.97789E-04   -0.99029E-07  2296   0.286E-03    0.215E-03
DAV:  14    -0.160060908870E+03   -0.69921E-04   -0.77795E-07  2176   0.230E-03    0.218E-03
DAV:  15    -0.160060979804E+03   -0.70934E-04   -0.10498E-06  2408   0.221E-03    0.133E-03
DAV:  16    -0.160061049952E+03   -0.70148E-04   -0.12019E-06  2400   0.214E-03    0.110E-03
DAV:  17    -0.160061092013E+03   -0.42061E-04   -0.92310E-07  2336   0.207E-03    0.119E-03
DAV:  18    -0.160061102740E+03   -0.10727E-04   -0.38074E-07  2024   0.167E-03    0.473E-04
DAV:  19    -0.160061110954E+03   -0.82141E-05   -0.37714E-07  2088   0.129E-03    0.850E-04
DAV:  20    -0.160061113054E+03   -0.20998E-05   -0.17191E-07  1904   0.134E-03    0.257E-04
DAV:  21    -0.160061114238E+03   -0.11842E-05   -0.13925E-07  1920   0.787E-04    0.446E-04
DAV:  22    -0.160061114601E+03   -0.36279E-06   -0.59431E-08  1968   0.816E-04
   9 F= -.16628971E+03 E0= -.16628971E+03  d E =-.206707E-01  mag=    24.0000
 curvature:  -1.79 expect dE=-0.185E-01 dE for cont linesearch -0.194E-05
 trial: gam= 0.63848 g(F)=  0.104E-01 g(S)=  0.000E+00 ort =-0.156E-03 (trialstep = 0.179E+01)
 search vector abs. value=  0.193E-01
 bond charge predicted
       N       E                     dE             d eps       ncg     rms          rms(c)
DAV:   1    -0.160038027776E+03    0.23086E-01   -0.88373E+00  3040   0.498E+00    0.142E+00
DAV:   2    -0.160068505860E+03   -0.30478E-01   -0.31712E-01  4248   0.186E+00    0.878E-01
DAV:   3    -0.160095705779E+03   -0.27200E-01   -0.12147E-01  4656   0.125E+00    0.380E+00
DAV:   4    -0.160064517359E+03    0.31188E-01   -0.70155E-02  4592   0.105E+00    0.369E-01
DAV:   5    -0.160066659824E+03   -0.21425E-02   -0.31590E-03  4224   0.143E-01    0.356E-01
DAV:   6    -0.160066502885E+03    0.15694E-03   -0.23300E-03  4672   0.167E-01    0.284E-01
DAV:   7    -0.160066383036E+03    0.11985E-03   -0.72412E-04  4632   0.943E-02    0.595E-02
DAV:   8    -0.160066487966E+03   -0.10493E-03   -0.11444E-04  4824   0.354E-02    0.548E-02
DAV:   9    -0.160066564030E+03   -0.76064E-04   -0.33963E-05  4328   0.273E-02    0.173E-02
DAV:  10    -0.160066629373E+03   -0.65344E-04   -0.38740E-06  2560   0.100E-02    0.897E-03
DAV:  11    -0.160066696732E+03   -0.67359E-04   -0.58854E-06  3216   0.632E-03    0.556E-03
DAV:  12    -0.160066733053E+03   -0.36322E-04   -0.63427E-07  2088   0.382E-03    0.395E-03
DAV:  13    -0.160066775188E+03   -0.42135E-04   -0.51390E-07  2184   0.314E-03    0.319E-03
DAV:  14    -0.160066807028E+03   -0.31839E-04   -0.48684E-07  2120   0.237E-03    0.123E-03
DAV:  15    -0.160066834527E+03   -0.27500E-04   -0.46228E-07  2016   0.176E-03    0.128E-03
DAV:  16    -0.160066854229E+03   -0.19701E-04   -0.30362E-07  2008   0.164E-03    0.109E-03
DAV:  17    -0.160066875290E+03   -0.21062E-04   -0.36753E-07  2072   0.144E-03    0.966E-04
DAV:  18    -0.160066901363E+03   -0.26072E-04   -0.77391E-07  2336   0.172E-03    0.815E-04
DAV:  19    -0.160066905108E+03   -0.37456E-05   -0.20288E-07  1992   0.146E-03    0.493E-04
DAV:  20    -0.160066908513E+03   -0.34046E-05   -0.15115E-07  1936   0.776E-04    0.469E-04
DAV:  21    -0.160066910877E+03   -0.23638E-05   -0.86641E-08  1928   0.870E-04    0.358E-04
DAV:  22    -0.160066912994E+03   -0.21172E-05   -0.97276E-08  1912   0.605E-04    0.223E-04
DAV:  23    -0.160066913439E+03   -0.44486E-06   -0.44274E-08  1952   0.673E-04
  10 F= -.16630150E+03 E0= -.16630150E+03  d E =-.117868E-01  mag=    24.0000
 trial-energy change:   -0.011787  1 .order   -0.011802   -0.018375   -0.005229
 step:   2.5002(harm=  2.5002)  dis= 0.01525  next Energy=  -166.302553 (dE=-0.128E-01)
 bond charge predicted
       N       E                     dE             d eps       ncg     rms          rms(c)
DAV:   1    -0.160061096853E+03    0.58161E-02   -0.13943E+00  3040   0.197E+00    0.561E-01
DAV:   2    -0.160065628667E+03   -0.45318E-02   -0.48850E-02  4256   0.734E-01    0.249E-01
DAV:   3    -0.160065802001E+03   -0.17333E-03   -0.15915E-03  4408   0.174E-01    0.318E-01
DAV:   4    -0.160065585620E+03    0.21638E-03   -0.11098E-03  4792   0.139E-01    0.178E-01
DAV:   5    -0.160065524513E+03    0.61107E-04   -0.19701E-04  4664   0.543E-02    0.116E-01
DAV:   6    -0.160065459037E+03    0.65476E-04   -0.22628E-04  3904   0.387E-02    0.673E-02
DAV:   7    -0.160065468043E+03   -0.90057E-05   -0.53984E-05  4440   0.276E-02    0.236E-02
DAV:   8    -0.160065482839E+03   -0.14796E-04   -0.54546E-06  2568   0.119E-02    0.895E-03
DAV:   9    -0.160065506615E+03   -0.23776E-04   -0.27640E-06  2264   0.723E-03    0.510E-03
DAV:  10    -0.160065523741E+03   -0.17126E-04   -0.16507E-06  2064   0.461E-03    0.238E-03
DAV:  11    -0.160065532324E+03   -0.85825E-05   -0.68056E-07  1944   0.349E-03    0.182E-03
DAV:  12    -0.160065545334E+03   -0.13010E-04   -0.46940E-07  1864   0.268E-03    0.175E-03
DAV:  13    -0.160065559287E+03   -0.13954E-04   -0.31186E-07  1992   0.241E-03    0.879E-04
DAV:  14    -0.160065566000E+03   -0.67125E-05   -0.18047E-07  1944   0.140E-03    0.609E-04
DAV:  15    -0.160065571747E+03   -0.57473E-05   -0.10042E-07  1888   0.110E-03    0.633E-04
DAV:  16    -0.160065578281E+03   -0.65338E-05   -0.10118E-07  1936   0.811E-04    0.474E-04
DAV:  17    -0.160065586051E+03   -0.77700E-05   -0.13825E-07  2008   0.853E-04    0.556E-04
DAV:  18    -0.160065589530E+03   -0.34795E-05   -0.87787E-08  1928   0.874E-04    0.416E-04
DAV:  19    -0.160065590661E+03   -0.11308E-05   -0.50195E-08  1928   0.625E-04    0.240E-04
DAV:  20    -0.160065592662E+03   -0.20013E-05   -0.57202E-08  1872   0.508E-04    0.231E-04
DAV:  21    -0.160065593762E+03   -0.10996E-05   -0.41815E-08  1888   0.533E-04    0.175E-04
DAV:  22    -0.160065594113E+03   -0.35129E-06   -0.25468E-08  1888   0.417E-04
  11 F= -.16630252E+03 E0= -.16630252E+03  d E =-.128117E-01  mag=    24.0000
 curvature:  -2.35 expect dE=-0.583E-02 dE for cont linesearch -0.971E-07
 trial: gam= 0.24013 g(F)=  0.248E-02 g(S)=  0.000E+00 ort =-0.283E-04 (trialstep = 0.193E+01)
 search vector abs. value=  0.358E-02
 bond charge predicted
       N       E                     dE             d eps       ncg     rms          rms(c)
DAV:   1    -0.160056971581E+03    0.86222E-02   -0.16597E+00  3040   0.239E+00    0.745E-01
DAV:   2    -0.160065068432E+03   -0.80969E-02   -0.62004E-02  4192   0.801E-01    0.790E-01
DAV:   3    -0.160079823271E+03   -0.14755E-01   -0.70863E-02  4528   0.100E+00    0.255E+00
DAV:   4    -0.160064561895E+03    0.15261E-01   -0.39437E-02  4712   0.774E-01    0.183E-01
DAV:   5    -0.160065496445E+03   -0.93455E-03   -0.14977E-03  4160   0.885E-02    0.235E-01
DAV:   6    -0.160065102384E+03    0.39406E-03   -0.81318E-04  4680   0.102E-01    0.121E-01
DAV:   7    -0.160064834279E+03    0.26811E-03   -0.20231E-04  4344   0.470E-02    0.443E-02
DAV:   8    -0.160064999938E+03   -0.16566E-03   -0.48805E-05  4632   0.268E-02    0.324E-02
DAV:   9    -0.160065243446E+03   -0.24351E-03   -0.11647E-05  3568   0.151E-02    0.109E-02
DAV:  10    -0.160065489971E+03   -0.24653E-03   -0.25837E-06  2760   0.586E-03    0.629E-03
DAV:  11    -0.160065795380E+03   -0.30541E-03   -0.44071E-06  3112   0.456E-03    0.457E-03
DAV:  12    -0.160065965354E+03   -0.16997E-03   -0.93291E-07  2424   0.272E-03    0.358E-03
DAV:  13    -0.160066128520E+03   -0.16317E-03   -0.12605E-06  2400   0.284E-03    0.352E-03
DAV:  14    -0.160066274757E+03   -0.14624E-03   -0.15860E-06  2600   0.312E-03    0.166E-03
DAV:  15    -0.160066435942E+03   -0.16119E-03   -0.23627E-06  2720   0.260E-03    0.201E-03
DAV:  16    -0.160066509408E+03   -0.73466E-04   -0.69627E-07  2320   0.164E-03    0.211E-03
DAV:  17    -0.160066574741E+03   -0.65333E-04   -0.11403E-06  2400   0.202E-03    0.919E-04
DAV:  18    -0.160066595879E+03   -0.21138E-04   -0.42685E-07  2104   0.164E-03    0.423E-04
DAV:  19    -0.160066608539E+03   -0.12660E-04   -0.44880E-07  2208   0.139E-03    0.550E-04
DAV:  20    -0.160066611284E+03   -0.27446E-05   -0.21450E-07  1952   0.142E-03    0.286E-04
DAV:  21    -0.160066611681E+03   -0.39790E-06   -0.11014E-07  1944   0.851E-04
  12 F= -.16630499E+03 E0= -.16630499E+03  d E =-.246992E-02  mag=    24.0000
 trial-energy change:   -0.002470  1 .order   -0.002471   -0.004777   -0.000166
 step:   2.0005(harm=  2.0005)  dis= 0.00527  next Energy=  -166.304997 (dE=-0.247E-02)
 bond charge predicted
       N       E                     dE             d eps       ncg     rms          rms(c)
DAV:   1    -0.160066550788E+03    0.60495E-04   -0.21417E-03  3232   0.857E-02    0.265E-02
DAV:   2    -0.160066547398E+03    0.33904E-05   -0.76742E-05  4072   0.274E-02    0.235E-02
DAV:   3    -0.160066573497E+03   -0.26098E-04   -0.67953E-05  3648   0.321E-02    0.771E-02
DAV:   4    -0.160066553994E+03    0.19502E-04   -0.42876E-05  2768   0.268E-02    0.663E-03
DAV:   5    -0.160066556783E+03   -0.27893E-05   -0.20457E-06  1968   0.370E-03    0.796E-03
DAV:   6    -0.160066554372E+03    0.24119E-05   -0.80978E-07  1864   0.396E-03    0.352E-03
DAV:   7    -0.160066550576E+03    0.37959E-05   -0.65384E-07  1936   0.264E-03    0.473E-03
DAV:   8    -0.160066550351E+03    0.22506E-06   -0.42730E-07  1960   0.308E-03
  13 F= -.16630498E+03 E0= -.16630498E+03  d E =-.246020E-02  mag=    24.0000
 curvature:  -1.45 expect dE=-0.789E-03 dE for cont linesearch -0.181E-06
 trial: gam= 0.20718 g(F)=  0.545E-03 g(S)=  0.000E+00 ort = 0.212E-04 (trialstep = 0.194E+01)
 search vector abs. value=  0.707E-03
 bond charge predicted
       N       E                     dE             d eps       ncg     rms          rms(c)
DAV:   1    -0.160065249234E+03    0.13013E-02   -0.34046E-01  3040   0.107E+00    0.299E-01
DAV:   2    -0.160066579195E+03   -0.13300E-02   -0.13221E-02  4112   0.379E-01    0.154E-01
DAV:   3    -0.160067229807E+03   -0.65061E-03   -0.19997E-03  4760   0.178E-01    0.440E-01
DAV:   4    -0.160066712207E+03    0.51760E-03   -0.10949E-03  4904   0.131E-01    0.807E-02
DAV:   5    -0.160066695200E+03    0.17007E-04   -0.57110E-05  3744   0.173E-02    0.635E-02
DAV:   6    -0.160066576502E+03    0.11870E-03   -0.91078E-05  4304   0.280E-02    0.842E-02
DAV:   7    -0.160066529210E+03    0.47291E-04   -0.62140E-05  4560   0.299E-02    0.106E-02
DAV:   8    -0.160066552332E+03   -0.23121E-04   -0.39480E-06  2408   0.771E-03    0.101E-02
DAV:   9    -0.160066602678E+03   -0.50346E-04   -0.23238E-06  2304   0.658E-03    0.583E-03
DAV:  10    -0.160066649196E+03   -0.46518E-04   -0.11705E-06  2160   0.423E-03    0.284E-03
DAV:  11    -0.160066679279E+03   -0.30083E-04   -0.63421E-07  1960   0.283E-03    0.227E-03
DAV:  12    -0.160066703120E+03   -0.23841E-04   -0.39115E-07  1920   0.234E-03    0.121E-03
DAV:  13    -0.160066740810E+03   -0.37690E-04   -0.47817E-07  2152   0.188E-03    0.132E-03
DAV:  14    -0.160066772806E+03   -0.31996E-04   -0.45721E-07  2104   0.190E-03    0.911E-04
DAV:  15    -0.160066786993E+03   -0.14187E-04   -0.28215E-07  1960   0.160E-03    0.631E-04
DAV:  16    -0.160066802055E+03   -0.15062E-04   -0.27414E-07  1944   0.123E-03    0.594E-04
DAV:  17    -0.160066820246E+03   -0.18191E-04   -0.36940E-07  2144   0.135E-03    0.697E-04
DAV:  18    -0.160066829966E+03   -0.97200E-05   -0.32155E-07  2048   0.137E-03    0.480E-04
DAV:  19    -0.160066832608E+03   -0.26424E-05   -0.19018E-07  1928   0.118E-03    0.387E-04
DAV:  20    -0.160066833458E+03   -0.84946E-06   -0.10566E-07  1896   0.839E-04
  14 F= -.16630566E+03 E0= -.16630566E+03  d E =-.676821E-03  mag=    24.0000
 trial-energy change:   -0.000677  1 .order   -0.000667   -0.001068   -0.000266
 step:   2.5334(harm=  2.5895)  dis= 0.00241  next Energy=  -166.305700 (dE=-0.717E-03)
 bond charge predicted
       N       E                     dE             d eps       ncg     rms          rms(c)
DAV:   1    -0.160066616014E+03    0.21659E-03   -0.31163E-02  3152   0.322E-01    0.904E-02
DAV:   2    -0.160066716343E+03   -0.10033E-03   -0.12047E-03  4144   0.114E-01    0.432E-02
DAV:   3    -0.160066761271E+03   -0.44928E-04   -0.80948E-05  4528   0.368E-02    0.797E-02
DAV:   4    -0.160066741059E+03    0.20211E-04   -0.42097E-05  3616   0.264E-02    0.223E-02
DAV:   5    -0.160066735825E+03    0.52350E-05   -0.34744E-06  2264   0.713E-03    0.208E-02
DAV:   6    -0.160066708611E+03    0.27214E-04   -0.12716E-05  3888   0.863E-03    0.108E-02
DAV:   7    -0.160066705295E+03    0.33156E-05   -0.11517E-06  1976   0.419E-03    0.472E-03
DAV:   8    -0.160066709549E+03   -0.42535E-05   -0.37355E-07  1880   0.336E-03    0.327E-03
DAV:   9    -0.160066718302E+03   -0.87532E-05   -0.28667E-07  1944   0.228E-03    0.217E-03
DAV:  10    -0.160066727318E+03   -0.90162E-05   -0.24474E-07  1888   0.187E-03    0.106E-03
DAV:  11    -0.160066732336E+03   -0.50180E-05   -0.13270E-07  1928   0.123E-03    0.754E-04
DAV:  12    -0.160066737049E+03   -0.47124E-05   -0.75454E-08  1856   0.929E-04    0.616E-04
DAV:  13    -0.160066743429E+03   -0.63803E-05   -0.70962E-08  1896   0.758E-04    0.422E-04
DAV:  14    -0.160066749057E+03   -0.56278E-05   -0.72577E-08  1944   0.682E-04    0.439E-04
DAV:  15    -0.160066752509E+03   -0.34521E-05   -0.54011E-08  1912   0.643E-04    0.249E-04
DAV:  16    -0.160066755083E+03   -0.25737E-05   -0.44935E-08  1896   0.505E-04    0.222E-04
DAV:  17    -0.160066758771E+03   -0.36885E-05   -0.65612E-08  1952   0.526E-04    0.237E-04
DAV:  18    -0.160066760256E+03   -0.14852E-05   -0.41940E-08  1912   0.579E-04    0.209E-04
DAV:  19    -0.160066760765E+03   -0.50863E-06   -0.26982E-08  1912   0.414E-04
  15 F= -.16630571E+03 E0= -.16630571E+03  d E =-.722432E-03  mag=    24.0000
 curvature:  -1.65 expect dE=-0.618E-03 dE for cont linesearch -0.509E-06
 trial: gam= 0.65503 g(F)=  0.374E-03 g(S)=  0.000E+00 ort = 0.148E-04 (trialstep = 0.206E+01)
 search vector abs. value=  0.696E-03
 bond charge predicted
       N       E                     dE             d eps       ncg     rms          rms(c)
DAV:   1    -0.160065231296E+03    0.15290E-02   -0.37900E-01  3040   0.111E+00    0.294E-01
DAV:   2    -0.160066521909E+03   -0.12906E-02   -0.11968E-02  4072   0.346E-01    0.155E-01
DAV:   3    -0.160067314824E+03   -0.79291E-03   -0.15688E-03  4424   0.146E-01    0.368E-01
DAV:   4    -0.160066947838E+03    0.36699E-03   -0.89979E-04  4848   0.118E-01    0.661E-02
DAV:   5    -0.160066925015E+03    0.22822E-04   -0.46165E-05  3960   0.175E-02    0.527E-02
DAV:   6    -0.160066827007E+03    0.98008E-04   -0.11137E-04  4296   0.326E-02    0.848E-02
DAV:   7    -0.160066810608E+03    0.16400E-04   -0.63424E-05  4416   0.300E-02    0.893E-03
DAV:   8    -0.160066851554E+03   -0.40947E-04   -0.43042E-06  2360   0.691E-03    0.116E-02
DAV:   9    -0.160066900320E+03   -0.48766E-04   -0.26473E-06  2232   0.751E-03    0.615E-03
DAV:  10    -0.160066938968E+03   -0.38647E-04   -0.10061E-06  2008   0.373E-03    0.439E-03
DAV:  11    -0.160066967102E+03   -0.28135E-04   -0.60451E-07  1952   0.272E-03    0.200E-03
DAV:  12    -0.160066992318E+03   -0.25216E-04   -0.39993E-07  1904   0.217E-03    0.122E-03
DAV:  13    -0.160067027669E+03   -0.35351E-04   -0.48654E-07  2152   0.188E-03    0.142E-03
DAV:  14    -0.160067056728E+03   -0.29058E-04   -0.45643E-07  2080   0.195E-03    0.905E-04
DAV:  15    -0.160067071140E+03   -0.14413E-04   -0.29967E-07  1912   0.154E-03    0.562E-04
DAV:  16    -0.160067085708E+03   -0.14568E-04   -0.28666E-07  1960   0.123E-03    0.653E-04
DAV:  17    -0.160067100933E+03   -0.15225E-04   -0.35876E-07  2136   0.130E-03    0.634E-04
DAV:  18    -0.160067108147E+03   -0.72136E-05   -0.28290E-07  1992   0.133E-03    0.569E-04
DAV:  19    -0.160067109675E+03   -0.15286E-05   -0.15393E-07  1896   0.111E-03    0.271E-04
DAV:  20    -0.160067110092E+03   -0.41632E-06   -0.77751E-08  1944   0.731E-04
  16 F= -.16630615E+03 E0= -.16630615E+03  d E =-.446519E-03  mag=    24.0000
 trial-energy change:   -0.000447  1 .order   -0.000445   -0.000791   -0.000099
 step:   2.3593(harm=  2.3593)  dis= 0.00460  next Energy=  -166.306158 (dE=-0.452E-03)
 reached required accuracy - stopping structural energy minimisation
Note: The following floating-point exceptions are signalling: IEEE_OVERFLOW_FLAG IEEE_UNDERFLOW_FLAG IEEE_DENORMAL
Note: The following floating-point exceptions are signalling: IEEE_OVERFLOW_FLAG IEEE_UNDERFLOW_FLAG IEEE_DENORMAL
Note: The following floating-point exceptions are signalling: IEEE_OVERFLOW_FLAG IEEE_UNDERFLOW_FLAG IEEE_DENORMAL
Note: The following floating-point exceptions are signalling: IEEE_OVERFLOW_FLAG IEEE_UNDERFLOW_FLAG IEEE_DENORMAL
Note: The following floating-point exceptions are signalling: IEEE_OVERFLOW_FLAG IEEE_UNDERFLOW_FLAG IEEE_DENORMAL
Note: The following floating-point exceptions are signalling: IEEE_OVERFLOW_FLAG IEEE_UNDERFLOW_FLAG IEEE_DENORMAL
Note: The following floating-point exceptions are signalling: IEEE_OVERFLOW_FLAG IEEE_UNDERFLOW_FLAG IEEE_DENORMAL
Note: The following floating-point exceptions are signalling: IEEE_OVERFLOW_FLAG IEEE_UNDERFLOW_FLAG IEEE_DENORMAL
Note: The following floating-point exceptions are signalling: IEEE_OVERFLOW_FLAG IEEE_UNDERFLOW_FLAG IEEE_DENORMAL
Note: The following floating-point exceptions are signalling: IEEE_OVERFLOW_FLAG IEEE_UNDERFLOW_FLAG IEEE_DENORMAL
Note: The following floating-point exceptions are signalling: IEEE_OVERFLOW_FLAG IEEE_UNDERFLOW_FLAG IEEE_DENORMAL
Note: The following floating-point exceptions are signalling: IEEE_OVERFLOW_FLAG IEEE_UNDERFLOW_FLAG IEEE_DENORMAL
Note: The following floating-point exceptions are signalling: IEEE_OVERFLOW_FLAG IEEE_UNDERFLOW_FLAG IEEE_DENORMAL
Note: The following floating-point exceptions are signalling: IEEE_OVERFLOW_FLAG IEEE_UNDERFLOW_FLAG IEEE_DENORMAL
Note: The following floating-point exceptions are signalling: IEEE_OVERFLOW_FLAG IEEE_UNDERFLOW_FLAG IEEE_DENORMAL
Note: The following floating-point exceptions are signalling: IEEE_OVERFLOW_FLAG IEEE_UNDERFLOW_FLAG IEEE_DENORMAL
Note: The following floating-point exceptions are signalling: IEEE_OVERFLOW_FLAG IEEE_UNDERFLOW_FLAG IEEE_DENORMAL
Note: The following floating-point exceptions are signalling: IEEE_OVERFLOW_FLAG IEEE_UNDERFLOW_FLAG IEEE_DENORMAL
Note: The following floating-point exceptions are signalling: IEEE_OVERFLOW_FLAG IEEE_UNDERFLOW_FLAG IEEE_DENORMAL
Note: The following floating-point exceptions are signalling: IEEE_OVERFLOW_FLAG IEEE_UNDERFLOW_FLAG IEEE_DENORMAL
Note: The following floating-point exceptions are signalling: IEEE_OVERFLOW_FLAG IEEE_UNDERFLOW_FLAG IEEE_DENORMAL
Note: The following floating-point exceptions are signalling: IEEE_OVERFLOW_FLAG IEEE_UNDERFLOW_FLAG IEEE_DENORMAL
Note: The following floating-point exceptions are signalling: IEEE_OVERFLOW_FLAG IEEE_UNDERFLOW_FLAG IEEE_DENORMAL
Note: The following floating-point exceptions are signalling: IEEE_OVERFLOW_FLAG IEEE_UNDERFLOW_FLAG IEEE_DENORMAL
Note: The following floating-point exceptions are signalling: IEEE_OVERFLOW_FLAG IEEE_UNDERFLOW_FLAG IEEE_DENORMAL
Note: The following floating-point exceptions are signalling: IEEE_OVERFLOW_FLAG IEEE_UNDERFLOW_FLAG IEEE_DENORMAL
Note: The following floating-point exceptions are signalling: IEEE_OVERFLOW_FLAG IEEE_UNDERFLOW_FLAG IEEE_DENORMAL
Note: The following floating-point exceptions are signalling: IEEE_OVERFLOW_FLAG IEEE_UNDERFLOW_FLAG IEEE_DENORMAL
Note: The following floating-point exceptions are signalling: IEEE_OVERFLOW_FLAG IEEE_UNDERFLOW_FLAG IEEE_DENORMAL
Note: The following floating-point exceptions are signalling: IEEE_OVERFLOW_FLAG IEEE_UNDERFLOW_FLAG IEEE_DENORMAL
Note: The following floating-point exceptions are signalling: IEEE_OVERFLOW_FLAG IEEE_UNDERFLOW_FLAG IEEE_DENORMAL
Note: The following floating-point exceptions are signalling: IEEE_OVERFLOW_FLAG IEEE_UNDERFLOW_FLAG IEEE_DENORMAL
Note: The following floating-point exceptions are signalling: IEEE_OVERFLOW_FLAG IEEE_UNDERFLOW_FLAG IEEE_DENORMAL
Note: The following floating-point exceptions are signalling: IEEE_OVERFLOW_FLAG IEEE_UNDERFLOW_FLAG IEEE_DENORMAL
Note: The following floating-point exceptions are signalling: IEEE_OVERFLOW_FLAG IEEE_UNDERFLOW_FLAG IEEE_DENORMAL
Note: The following floating-point exceptions are signalling: IEEE_OVERFLOW_FLAG IEEE_UNDERFLOW_FLAG IEEE_DENORMAL
Note: The following floating-point exceptions are signalling: IEEE_OVERFLOW_FLAG IEEE_UNDERFLOW_FLAG IEEE_DENORMAL
Note: The following floating-point exceptions are signalling: IEEE_OVERFLOW_FLAG IEEE_UNDERFLOW_FLAG IEEE_DENORMAL
Note: The following floating-point exceptions are signalling: IEEE_OVERFLOW_FLAG IEEE_UNDERFLOW_FLAG IEEE_DENORMAL
Note: The following floating-point exceptions are signalling: IEEE_OVERFLOW_FLAG IEEE_UNDERFLOW_FLAG IEEE_DENORMAL
Note: The following floating-point exceptions are signalling: IEEE_OVERFLOW_FLAG IEEE_UNDERFLOW_FLAG IEEE_DENORMAL
Note: The following floating-point exceptions are signalling: IEEE_OVERFLOW_FLAG IEEE_UNDERFLOW_FLAG IEEE_DENORMAL
Note: The following floating-point exceptions are signalling: IEEE_OVERFLOW_FLAG IEEE_UNDERFLOW_FLAG IEEE_DENORMAL
Note: The following floating-point exceptions are signalling: IEEE_OVERFLOW_FLAG IEEE_UNDERFLOW_FLAG IEEE_DENORMAL
Note: The following floating-point exceptions are signalling: IEEE_OVERFLOW_FLAG IEEE_UNDERFLOW_FLAG IEEE_DENORMAL
Note: The following floating-point exceptions are signalling: IEEE_OVERFLOW_FLAG IEEE_UNDERFLOW_FLAG IEEE_DENORMAL
Note: The following floating-point exceptions are signalling: IEEE_OVERFLOW_FLAG IEEE_UNDERFLOW_FLAG IEEE_DENORMAL
Note: The following floating-point exceptions are signalling: IEEE_OVERFLOW_FLAG IEEE_UNDERFLOW_FLAG IEEE_DENORMAL
Note: The following floating-point exceptions are signalling: IEEE_OVERFLOW_FLAG IEEE_UNDERFLOW_FLAG IEEE_DENORMAL
Note: The following floating-point exceptions are signalling: IEEE_OVERFLOW_FLAG IEEE_UNDERFLOW_FLAG IEEE_DENORMAL
Note: The following floating-point exceptions are signalling: IEEE_OVERFLOW_FLAG IEEE_UNDERFLOW_FLAG IEEE_DENORMAL
Note: The following floating-point exceptions are signalling: IEEE_OVERFLOW_FLAG IEEE_UNDERFLOW_FLAG IEEE_DENORMAL
Note: The following floating-point exceptions are signalling: IEEE_OVERFLOW_FLAG IEEE_UNDERFLOW_FLAG IEEE_DENORMAL
Note: The following floating-point exceptions are signalling: IEEE_OVERFLOW_FLAG IEEE_UNDERFLOW_FLAG IEEE_DENORMAL
Note: The following floating-point exceptions are signalling: IEEE_OVERFLOW_FLAG IEEE_UNDERFLOW_FLAG IEEE_DENORMAL
Note: The following floating-point exceptions are signalling: IEEE_OVERFLOW_FLAG IEEE_UNDERFLOW_FLAG IEEE_DENORMAL
Note: The following floating-point exceptions are signalling: IEEE_OVERFLOW_FLAG IEEE_UNDERFLOW_FLAG IEEE_DENORMAL
Note: The following floating-point exceptions are signalling: IEEE_OVERFLOW_FLAG IEEE_UNDERFLOW_FLAG IEEE_DENORMAL
Note: The following floating-point exceptions are signalling: IEEE_OVERFLOW_FLAG IEEE_UNDERFLOW_FLAG IEEE_DENORMAL
Note: The following floating-point exceptions are signalling: IEEE_OVERFLOW_FLAG IEEE_UNDERFLOW_FLAG IEEE_DENORMAL
Note: The following floating-point exceptions are signalling: IEEE_OVERFLOW_FLAG IEEE_UNDERFLOW_FLAG IEEE_DENORMAL
Note: The following floating-point exceptions are signalling: IEEE_OVERFLOW_FLAG IEEE_UNDERFLOW_FLAG IEEE_DENORMAL
Note: The following floating-point exceptions are signalling: IEEE_OVERFLOW_FLAG IEEE_UNDERFLOW_FLAG IEEE_DENORMAL
Note: The following floating-point exceptions are signalling: IEEE_OVERFLOW_FLAG IEEE_UNDERFLOW_FLAG IEEE_DENORMAL
