CrCl3 3x3 + H S2 hollow (D3, U=0) (a=18.
   1.0000000000000000     
    18.1388234955739875    0.0000000000000000    0.0000000000000000
    -9.0694117477869938   15.7086819419291253    0.0000000000000000
     0.0000000000000000    0.0000000000000000   20.0000000000000000
   Cr   Cl   H 
    18    54     1
Direct
  0.1114670917874818  0.2223721210712496  0.5007864919117802
  0.2223721210712496  0.1114670917874818  0.5007864919117802
  0.1111591538041665  0.5550904696248443  0.5000992234710790
  0.2224283040495608  0.4442945455954146  0.5007864919117802
  0.1115761970418275  0.8894020175126511  0.5000992234710790
  0.2222028456270952  0.7775833540119521  0.5000280964888253
  0.4442945455954146  0.2224283040495608  0.5007864919117802
  0.5550904696248443  0.1111591538041665  0.5000992234710790
  0.4442383626171034  0.5551995748791896  0.5007864919117802
  0.5551995748791896  0.4442383626171034  0.5007864919117802
  0.4444638210395691  0.8887138417181857  0.5000280964888253
  0.5555075128625049  0.7772646491540132  0.5000992234710790
  0.7775833540119521  0.2222028456270952  0.5000280964888253
  0.8894020175126511  0.1115761970418275  0.5000992234710790
  0.7772646491540132  0.5555075128625049  0.5000992234710790
  0.8887138417181857  0.4444638210395691  0.5000280964888253
  0.7779528249484786  0.8890833126547122  0.5000280964888253
  0.8890833126547122  0.7779528249484786  0.5000280964888253
  0.1201304146717131  0.3333333333333357  0.4343417761953716
  0.3333333333333357  0.1201304146717131  0.4343417761953716
  0.2155432509720584  0.2155432509720584  0.4351936826773156
  0.2168199504158715  0.3333333333333357  0.5665571908204773
  0.0003656079201616  0.2146063405117096  0.5667423274830434
  0.1192196233275150  0.1192196233275150  0.5671713931102180
  0.1195418285826528  0.6662660263380095  0.4337652293303943
  0.3333333333333357  0.4511234156946131  0.4351936826773156
  0.2141801401866986  0.5465947537736990  0.4342499520882483
  0.2139663416854369  0.6663862717092502  0.5663057628631121
 -0.0000363920492149  0.5472350691364720  0.5661845529631946
  0.1190926007417878  0.4520603261549620  0.5667423274830434
  0.1200719128929653  0.0009187197463281  0.4342499520882483
  0.3333333333333357  0.7857420701816311  0.4337662173476598
  0.2142471148043888  0.8807583268894807  0.4338188994779083
  0.2146063405117096  0.0003656079201616  0.5667423274830434
  0.0002803949574139  0.8809134033095152  0.5663057628631121
  0.1194315975301923  0.7860618721476417  0.5661845529631946
  0.4511234156946131  0.3333333333333357  0.4351936826773156
  0.6662660263380095  0.1195418285826528  0.4337652293303943
  0.5465947537736990  0.2141801401866986  0.4342499520882483
  0.5474470433391493  0.3333333333333357  0.5671713931102180
  0.3333333333333357  0.2168199504158715  0.5665571908204773
  0.4520603261549620  0.1190926007417878  0.5667423274830434
  0.4524865264799727  0.6657479469203361  0.4342499520882483
  0.6657479469203361  0.4524865264799727  0.4342499520882483
  0.5465362519949514  0.5465362519949514  0.4343417761953716
  0.5475740659248763  0.6663010587465028  0.5667423274830434
  0.3333333333333357  0.5474470433391493  0.5671713931102180
  0.4498467162507998  0.4498467162507998  0.5665571908204773
  0.4524195518622826 -0.0001554545815726  0.4338188994779083
  0.6668221212482370  0.7859083397771836  0.4338188994779083
  0.5471248380840112  0.8800575310886927  0.4337652293303943
  0.5472350691364720 -0.0000363920492149  0.5661845529631946
  0.3333333333333357  0.8803199451740111  0.5663596603919607
  0.4527003249812345  0.7857532633571491  0.5663057628631121
  0.7857420701816311  0.3333333333333357  0.4337662173476598
  0.0009187197463281  0.1200719128929653  0.4342499520882483
  0.8807583268894807  0.2142471148043888  0.4338188994779083
  0.8803199451740111  0.3333333333333357  0.5663596603919607
  0.6663862717092502  0.2139663416854369  0.5663057628631121
  0.7860618721476417  0.1194315975301923  0.5661845529631946
  0.7859083397771836  0.6668221212482370  0.4338188994779083
 -0.0001554545815726  0.4524195518622826  0.4338188994779083
  0.8800575310886928  0.5471248380840112  0.4337652293303943
  0.8806047945190226  0.6667030587158792  0.5661845529631946
  0.6663010587465028  0.5475740659248763  0.5667423274830434
  0.7857532633571491  0.4527003249812345  0.5663057628631121
  0.7866091355779715  0.0004006403286548  0.4337652293303943
  0.0004006403286548  0.7866091355779716  0.4337652293303943
  0.8809245964850332  0.8809245964850332  0.4337662173476598
  0.8809134033095152  0.0002803949574139  0.5663057628631121
  0.6667030587158792  0.8806047945190226  0.5661845529631946
  0.7863467214926532  0.7863467214926532  0.5663596603919607
  0.3333333333333357  0.3333333333333357  0.5579470219054764

  0.00000000E+00  0.00000000E+00  0.00000000E+00
  0.00000000E+00  0.00000000E+00  0.00000000E+00
  0.00000000E+00  0.00000000E+00  0.00000000E+00
  0.00000000E+00  0.00000000E+00  0.00000000E+00
  0.00000000E+00  0.00000000E+00  0.00000000E+00
  0.00000000E+00  0.00000000E+00  0.00000000E+00
  0.00000000E+00  0.00000000E+00  0.00000000E+00
  0.00000000E+00  0.00000000E+00  0.00000000E+00
  0.00000000E+00  0.00000000E+00  0.00000000E+00
  0.00000000E+00  0.00000000E+00  0.00000000E+00
  0.00000000E+00  0.00000000E+00  0.00000000E+00
  0.00000000E+00  0.00000000E+00  0.00000000E+00
  0.00000000E+00  0.00000000E+00  0.00000000E+00
  0.00000000E+00  0.00000000E+00  0.00000000E+00
  0.00000000E+00  0.00000000E+00  0.00000000E+00
  0.00000000E+00  0.00000000E+00  0.00000000E+00
  0.00000000E+00  0.00000000E+00  0.00000000E+00
  0.00000000E+00  0.00000000E+00  0.00000000E+00
  0.00000000E+00  0.00000000E+00  0.00000000E+00
  0.00000000E+00  0.00000000E+00  0.00000000E+00
  0.00000000E+00  0.00000000E+00  0.00000000E+00
  0.00000000E+00  0.00000000E+00  0.00000000E+00
  0.00000000E+00  0.00000000E+00  0.00000000E+00
  0.00000000E+00  0.00000000E+00  0.00000000E+00
  0.00000000E+00  0.00000000E+00  0.00000000E+00
  0.00000000E+00  0.00000000E+00  0.00000000E+00
  0.00000000E+00  0.00000000E+00  0.00000000E+00
  0.00000000E+00  0.00000000E+00  0.00000000E+00
  0.00000000E+00  0.00000000E+00  0.00000000E+00
  0.00000000E+00  0.00000000E+00  0.00000000E+00
  0.00000000E+00  0.00000000E+00  0.00000000E+00
  0.00000000E+00  0.00000000E+00  0.00000000E+00
  0.00000000E+00  0.00000000E+00  0.00000000E+00
  0.00000000E+00  0.00000000E+00  0.00000000E+00
  0.00000000E+00  0.00000000E+00  0.00000000E+00
  0.00000000E+00  0.00000000E+00  0.00000000E+00
  0.00000000E+00  0.00000000E+00  0.00000000E+00
  0.00000000E+00  0.00000000E+00  0.00000000E+00
  0.00000000E+00  0.00000000E+00  0.00000000E+00
  0.00000000E+00  0.00000000E+00  0.00000000E+00
  0.00000000E+00  0.00000000E+00  0.00000000E+00
  0.00000000E+00  0.00000000E+00  0.00000000E+00
  0.00000000E+00  0.00000000E+00  0.00000000E+00
  0.00000000E+00  0.00000000E+00  0.00000000E+00
  0.00000000E+00  0.00000000E+00  0.00000000E+00
  0.00000000E+00  0.00000000E+00  0.00000000E+00
  0.00000000E+00  0.00000000E+00  0.00000000E+00
  0.00000000E+00  0.00000000E+00  0.00000000E+00
  0.00000000E+00  0.00000000E+00  0.00000000E+00
  0.00000000E+00  0.00000000E+00  0.00000000E+00
  0.00000000E+00  0.00000000E+00  0.00000000E+00
  0.00000000E+00  0.00000000E+00  0.00000000E+00
  0.00000000E+00  0.00000000E+00  0.00000000E+00
  0.00000000E+00  0.00000000E+00  0.00000000E+00
  0.00000000E+00  0.00000000E+00  0.00000000E+00
  0.00000000E+00  0.00000000E+00  0.00000000E+00
  0.00000000E+00  0.00000000E+00  0.00000000E+00
  0.00000000E+00  0.00000000E+00  0.00000000E+00
  0.00000000E+00  0.00000000E+00  0.00000000E+00
  0.00000000E+00  0.00000000E+00  0.00000000E+00
  0.00000000E+00  0.00000000E+00  0.00000000E+00
  0.00000000E+00  0.00000000E+00  0.00000000E+00
  0.00000000E+00  0.00000000E+00  0.00000000E+00
  0.00000000E+00  0.00000000E+00  0.00000000E+00
  0.00000000E+00  0.00000000E+00  0.00000000E+00
  0.00000000E+00  0.00000000E+00  0.00000000E+00
  0.00000000E+00  0.00000000E+00  0.00000000E+00
  0.00000000E+00  0.00000000E+00  0.00000000E+00
  0.00000000E+00  0.00000000E+00  0.00000000E+00
  0.00000000E+00  0.00000000E+00  0.00000000E+00
  0.00000000E+00  0.00000000E+00  0.00000000E+00
  0.00000000E+00  0.00000000E+00  0.00000000E+00
  0.00000000E+00  0.00000000E+00  0.00000000E+00
