 running on   64 total cores
 distrk:  each k-point on   64 cores,    1 groups
 distr:  one band on    8 cores,    8 groups
 vasp.6.2.0 18Jan21 (build Jul 28 2023 11:58:00) complex                         
 POSCAR found type information on POSCAR CrClH 
 POSCAR found :  3 types and      73 ions
 scaLAPACK will be used
 LDA part: xc-table for Pade appr. of Perdew
 POSCAR, INCAR and KPOINTS ok, starting setup
 FFT: planning ...
 WAVECAR not read
 entering main loop
       N       E                     dE             d eps       ncg     rms          rms(c)
DAV:   1     0.465489304499E+04    0.46549E+04   -0.13884E+05  6608   0.929E+02
DAV:   2     0.938758017509E+03   -0.37161E+04   -0.34460E+04  7656   0.251E+02
DAV:   3    -0.280805439390E+03   -0.12196E+04   -0.11791E+04  9424   0.142E+02
DAV:   4    -0.387863751047E+03   -0.10706E+03   -0.10534E+03  9936   0.580E+01
DAV:   5    -0.390132122848E+03   -0.22684E+01   -0.22044E+01 10032   0.117E+01    0.619E+01
DAV:   6    -0.371048107871E+03    0.19084E+02   -0.36429E+02  9432   0.650E+01    0.657E+01
DAV:   7    -0.351647081237E+03    0.19401E+02   -0.64570E+01  9200   0.633E+01    0.309E+01
DAV:   8    -0.353012109957E+03   -0.13650E+01   -0.16471E+01  9432   0.117E+01    0.160E+01
DAV:   9    -0.352345047469E+03    0.66706E+00   -0.49858E+00  9272   0.108E+01    0.857E+00
DAV:  10    -0.352153037613E+03    0.19201E+00   -0.12990E+00  9312   0.459E+00    0.384E+00
DAV:  11    -0.352260962788E+03   -0.10793E+00   -0.38156E-01  9072   0.205E+00    0.183E+00
DAV:  12    -0.352367336563E+03   -0.10637E+00   -0.13219E-01  9392   0.140E+00    0.932E-01
DAV:  13    -0.352418605801E+03   -0.51269E-01   -0.39183E-02  9248   0.598E-01    0.623E-01
DAV:  14    -0.352469487831E+03   -0.50882E-01   -0.13125E-02  9296   0.472E-01    0.357E-01
DAV:  15    -0.352502792278E+03   -0.33304E-01   -0.32472E-03  8920   0.180E-01    0.197E-01
DAV:  16    -0.352516897721E+03   -0.14105E-01   -0.86826E-04  9296   0.118E-01    0.137E-01
DAV:  17    -0.352528030098E+03   -0.11132E-01   -0.39202E-04  9256   0.566E-02    0.825E-02
DAV:  18    -0.352543600998E+03   -0.15571E-01   -0.81473E-04  7944   0.772E-02    0.731E-02
DAV:  19    -0.352545704157E+03   -0.21032E-02   -0.11353E-04  9136   0.308E-02    0.485E-02
DAV:  20    -0.352550351431E+03   -0.46473E-02   -0.22403E-04  8400   0.303E-02    0.252E-02
DAV:  21    -0.352553291258E+03   -0.29398E-02   -0.24375E-04  7736   0.215E-02    0.288E-02
DAV:  22    -0.352554003405E+03   -0.71215E-03   -0.72395E-05  8144   0.129E-02    0.203E-02
DAV:  23    -0.352554206743E+03   -0.20334E-03   -0.31839E-05  8976   0.115E-02    0.759E-03
DAV:  24    -0.352554380487E+03   -0.17374E-03   -0.44526E-06  6376   0.452E-03    0.649E-03
DAV:  25    -0.352554667641E+03   -0.28715E-03   -0.64256E-06  6784   0.582E-03    0.388E-03
DAV:  26    -0.352554761652E+03   -0.94011E-04   -0.34583E-06  6080   0.327E-03    0.248E-03
DAV:  27    -0.352554811535E+03   -0.49883E-04   -0.63857E-07  4064   0.226E-03    0.204E-03
DAV:  28    -0.352554863044E+03   -0.51508E-04   -0.80022E-07  4328   0.154E-03    0.160E-03
DAV:  29    -0.352554908934E+03   -0.45890E-04   -0.13570E-06  4936   0.163E-03    0.135E-03
DAV:  30    -0.352554921097E+03   -0.12163E-04   -0.36991E-07  4056   0.114E-03    0.998E-04
DAV:  31    -0.352554931297E+03   -0.10200E-04   -0.32384E-07  3920   0.954E-04    0.984E-04
DAV:  32    -0.352554942225E+03   -0.10928E-04   -0.49152E-07  4352   0.104E-03    0.114E-03
DAV:  33    -0.352554947815E+03   -0.55905E-05   -0.17458E-07  3608   0.100E-03    0.704E-04
DAV:  34    -0.352554954096E+03   -0.62811E-05   -0.15803E-07  3568   0.574E-04    0.549E-04
DAV:  35    -0.352554960235E+03   -0.61392E-05   -0.83193E-08  3576   0.587E-04    0.400E-04
DAV:  36    -0.352554964629E+03   -0.43932E-05   -0.71936E-08  3584   0.441E-04    0.608E-04
DAV:  37    -0.352554966727E+03   -0.20980E-05   -0.38060E-08  3576   0.397E-04    0.299E-04
DAV:  38    -0.352554967632E+03   -0.90548E-06   -0.21702E-08  3616   0.271E-04
   1 F= -.36575708E+03 E0= -.36575708E+03  d E =-.365757E+03  mag=    53.0001
 curvature:   0.00 expect dE= 0.000E+00 dE for cont linesearch  0.000E+00
 trial: gam= 0.00000 g(F)=  0.109E-01 g(S)=  0.000E+00 ort = 0.000E+00 (trialstep = 0.100E+01)
 search vector abs. value=  0.109E-01
 bond charge predicted
       N       E                     dE             d eps       ncg     rms          rms(c)
DAV:   1    -0.352547729983E+03    0.72367E-02   -0.10045E+00  6504   0.138E+00    0.708E-01
DAV:   2    -0.352554309856E+03   -0.65799E-02   -0.75029E-02  8880   0.724E-01    0.416E-01
DAV:   3    -0.352554512099E+03   -0.20224E-03   -0.23768E-03  9048   0.216E-01    0.250E-01
DAV:   4    -0.352554347140E+03    0.16496E-03   -0.25154E-04  9680   0.665E-02    0.202E-01
DAV:   5    -0.352554143580E+03    0.20356E-03   -0.35748E-04  8536   0.328E-02    0.123E-01
DAV:   6    -0.352554120035E+03    0.23545E-04   -0.13148E-04  9376   0.390E-02    0.400E-02
DAV:   7    -0.352554146016E+03   -0.25981E-04   -0.19057E-05  9384   0.139E-02    0.191E-02
DAV:   8    -0.352554201052E+03   -0.55036E-04   -0.26949E-06  5200   0.840E-03    0.168E-02
DAV:   9    -0.352554290207E+03   -0.89156E-04   -0.30732E-06  5544   0.762E-03    0.104E-02
DAV:  10    -0.352554369089E+03   -0.78881E-04   -0.54029E-06  6504   0.497E-03    0.396E-03
DAV:  11    -0.352554394391E+03   -0.25303E-04   -0.59486E-07  3648   0.179E-03    0.261E-03
DAV:  12    -0.352554450446E+03   -0.56055E-04   -0.46828E-07  4200   0.171E-03    0.190E-03
DAV:  13    -0.352554481593E+03   -0.31147E-04   -0.34469E-07  3768   0.141E-03    0.113E-03
DAV:  14    -0.352554495462E+03   -0.13870E-04   -0.19921E-07  3584   0.112E-03    0.869E-04
DAV:  15    -0.352554514437E+03   -0.18975E-04   -0.20438E-07  3800   0.844E-04    0.731E-04
DAV:  16    -0.352554548268E+03   -0.33831E-04   -0.44629E-07  4440   0.968E-04    0.910E-04
DAV:  17    -0.352554566943E+03   -0.18675E-04   -0.36716E-07  4000   0.107E-03    0.777E-04
DAV:  18    -0.352554573450E+03   -0.65069E-05   -0.22806E-07  3640   0.941E-04    0.604E-04
DAV:  19    -0.352554576032E+03   -0.25823E-05   -0.13684E-07  3608   0.669E-04    0.372E-04
DAV:  20    -0.352554579602E+03   -0.35699E-05   -0.13190E-07  3720   0.569E-04    0.508E-04
DAV:  21    -0.352554580948E+03   -0.13461E-05   -0.85197E-08  3616   0.552E-04    0.147E-04
DAV:  22    -0.352554581451E+03   -0.50236E-06   -0.53466E-08  3568   0.385E-04
   2 F= -.36576560E+03 E0= -.36576560E+03  d E =-.852605E-02  mag=    53.0000
 trial-energy change:   -0.008526  1 .order   -0.008462   -0.010875   -0.006050
 step:   2.0767(harm=  2.2538)  dis= 0.00774  next Energy=  -365.768940 (dE=-0.119E-01)
 bond charge predicted
       N       E                     dE             d eps       ncg     rms          rms(c)
DAV:   1    -0.352540817419E+03    0.13764E-01   -0.11645E+00  6488   0.149E+00    0.762E-01
DAV:   2    -0.352548473111E+03   -0.76557E-02   -0.87118E-02  8912   0.779E-01    0.447E-01
DAV:   3    -0.352548692197E+03   -0.21909E-03   -0.27545E-03  9072   0.232E-01    0.270E-01
DAV:   4    -0.352548505756E+03    0.18644E-03   -0.29161E-04  9648   0.717E-02    0.218E-01
DAV:   5    -0.352548276649E+03    0.22911E-03   -0.41388E-04  8520   0.353E-02    0.133E-01
DAV:   6    -0.352548252709E+03    0.23940E-04   -0.15403E-04  9336   0.423E-02    0.430E-02
DAV:   7    -0.352548282348E+03   -0.29639E-04   -0.22283E-05  9472   0.152E-02    0.206E-02
DAV:   8    -0.352548343357E+03   -0.61009E-04   -0.32639E-06  5488   0.901E-03    0.181E-02
DAV:   9    -0.352548442256E+03   -0.98899E-04   -0.37261E-06  5856   0.820E-03    0.113E-02
DAV:  10    -0.352548527520E+03   -0.85263E-04   -0.55206E-06  6528   0.515E-03    0.425E-03
DAV:  11    -0.352548560264E+03   -0.32744E-04   -0.72967E-07  3696   0.201E-03    0.276E-03
DAV:  12    -0.352548621682E+03   -0.61418E-04   -0.58897E-07  4288   0.189E-03    0.196E-03
DAV:  13    -0.352548653393E+03   -0.31711E-04   -0.39376E-07  3760   0.151E-03    0.113E-03
DAV:  14    -0.352548668349E+03   -0.14957E-04   -0.22318E-07  3568   0.119E-03    0.868E-04
DAV:  15    -0.352548692867E+03   -0.24518E-04   -0.27289E-07  4000   0.914E-04    0.821E-04
DAV:  16    -0.352548734932E+03   -0.42065E-04   -0.66498E-07  4576   0.112E-03    0.101E-03
DAV:  17    -0.352548750757E+03   -0.15824E-04   -0.35505E-07  3920   0.115E-03    0.730E-04
DAV:  18    -0.352548756556E+03   -0.57992E-05   -0.21601E-07  3592   0.884E-04    0.623E-04
DAV:  19    -0.352548759342E+03   -0.27861E-05   -0.13116E-07  3616   0.684E-04    0.333E-04
DAV:  20    -0.352548762690E+03   -0.33480E-05   -0.12814E-07  3752   0.551E-04    0.532E-04
DAV:  21    -0.352548763813E+03   -0.11229E-05   -0.75135E-08  3616   0.554E-04    0.106E-04
DAV:  22    -0.352548764281E+03   -0.46839E-06   -0.48631E-08  3560   0.350E-04
   3 F= -.36576936E+03 E0= -.36576936E+03  d E =-.122872E-01  mag=    53.0000
 curvature:  -1.10 expect dE=-0.413E-02 dE for cont linesearch -0.645E-04
 ZBRENT: extrapolating
 opt :   2.2401  next Energy=  -365.769429 (dE=-0.124E-01)
 bond charge predicted
       N       E                     dE             d eps       ncg     rms          rms(c)
DAV:   1    -0.352547194921E+03    0.15689E-02   -0.26809E-02  6528   0.226E-01    0.114E-01
DAV:   2    -0.352547349988E+03   -0.15507E-03   -0.20202E-03  8960   0.119E-01    0.687E-02
DAV:   3    -0.352547376786E+03   -0.26798E-04   -0.63268E-05  9032   0.353E-02    0.406E-02
DAV:   4    -0.352547369721E+03    0.70644E-05   -0.52707E-06  6840   0.109E-02    0.336E-02
DAV:   5    -0.352547358591E+03    0.11131E-04   -0.16419E-05  7896   0.660E-03    0.201E-02
DAV:   6    -0.352547356876E+03    0.17151E-05   -0.22130E-06  4488   0.653E-03    0.780E-03
DAV:   7    -0.352547358986E+03   -0.21107E-05   -0.94579E-07  3568   0.333E-03    0.479E-03
DAV:   8    -0.352547361079E+03   -0.20925E-05   -0.77002E-07  3552   0.271E-03    0.290E-03
DAV:   9    -0.352547365662E+03   -0.45831E-05   -0.48956E-07  3528   0.212E-03    0.293E-03
DAV:  10    -0.352547370418E+03   -0.47561E-05   -0.18413E-07  3592   0.136E-03    0.171E-03
DAV:  11    -0.352547374852E+03   -0.44335E-05   -0.10219E-07  3616   0.759E-04    0.123E-03
DAV:  12    -0.352547379520E+03   -0.46690E-05   -0.10832E-07  3560   0.722E-04    0.713E-04
DAV:  13    -0.352547381180E+03   -0.16596E-05   -0.54314E-08  3640   0.640E-04    0.458E-04
DAV:  14    -0.352547382080E+03   -0.90026E-06   -0.25940E-08  3584   0.432E-04
   4 F= -.36576943E+03 E0= -.36576943E+03  d E =-.123570E-01  mag=    53.0000
 curvature:  -1.11 expect dE=-0.478E-02 dE for cont linesearch -0.159E-07
 trial: gam= 0.39579 g(F)=  0.429E-02 g(S)=  0.000E+00 ort =-0.125E-04 (trialstep = 0.125E+01)
 search vector abs. value=  0.599E-02
 bond charge predicted
       N       E                     dE             d eps       ncg     rms          rms(c)
DAV:   1    -0.352538755362E+03    0.86258E-02   -0.84014E-01  6560   0.126E+00    0.523E-01
DAV:   2    -0.352543405306E+03   -0.46499E-02   -0.53612E-02  9048   0.508E-01    0.260E-01
DAV:   3    -0.352543896176E+03   -0.49087E-03   -0.13715E-03  9040   0.116E-01    0.164E-01
DAV:   4    -0.352543738022E+03    0.15815E-03   -0.12672E-04  9400   0.342E-02    0.125E-01
DAV:   5    -0.352543508419E+03    0.22960E-03   -0.12130E-04  8488   0.194E-02    0.836E-02
DAV:   6    -0.352543321220E+03    0.18720E-03   -0.13579E-04  8536   0.212E-02    0.293E-02
DAV:   7    -0.352543381942E+03   -0.60722E-04   -0.22369E-05  9192   0.118E-02    0.156E-02
DAV:   8    -0.352543519377E+03   -0.13744E-03   -0.20382E-06  5144   0.691E-03    0.105E-02
DAV:   9    -0.352543663635E+03   -0.14426E-03   -0.56835E-06  7352   0.573E-03    0.432E-03
DAV:  10    -0.352543773401E+03   -0.10977E-03   -0.10373E-06  4376   0.267E-03    0.247E-03
DAV:  11    -0.352543851144E+03   -0.77743E-04   -0.92246E-07  4368   0.250E-03    0.243E-03
DAV:  12    -0.352543939245E+03   -0.88101E-04   -0.95269E-07  4304   0.235E-03    0.163E-03
DAV:  13    -0.352544012557E+03   -0.73313E-04   -0.10735E-06  4536   0.189E-03    0.132E-03
DAV:  14    -0.352544049914E+03   -0.37357E-04   -0.45640E-07  3712   0.142E-03    0.873E-04
DAV:  15    -0.352544122876E+03   -0.72963E-04   -0.13315E-06  4864   0.122E-03    0.743E-04
DAV:  16    -0.352544155560E+03   -0.32684E-04   -0.41385E-07  4224   0.104E-03    0.641E-04
DAV:  17    -0.352544170802E+03   -0.15241E-04   -0.30871E-07  3848   0.973E-04    0.450E-04
DAV:  18    -0.352544177039E+03   -0.62371E-05   -0.19474E-07  3640   0.873E-04    0.365E-04
DAV:  19    -0.352544183538E+03   -0.64992E-05   -0.20121E-07  3800   0.678E-04    0.341E-04
DAV:  20    -0.352544186905E+03   -0.33673E-05   -0.14901E-07  3672   0.711E-04    0.305E-04
DAV:  21    -0.352544187894E+03   -0.98893E-06   -0.93158E-08  3624   0.546E-04
   5 F= -.36577345E+03 E0= -.36577345E+03  d E =-.401498E-02  mag=    53.0000
 trial-energy change:   -0.004015  1 .order   -0.003978   -0.005350   -0.002606
 step:   2.2819(harm=  2.4337)  dis= 0.00466  next Energy=  -365.774549 (dE=-0.512E-02)
 bond charge predicted
       N       E                     dE             d eps       ncg     rms          rms(c)
DAV:   1    -0.352535727257E+03    0.84596E-02   -0.57649E-01  6576   0.105E+00    0.433E-01
DAV:   2    -0.352538863945E+03   -0.31367E-02   -0.36811E-02  9000   0.421E-01    0.215E-01
DAV:   3    -0.352539225578E+03   -0.36163E-03   -0.93742E-04  9064   0.955E-02    0.136E-01
DAV:   4    -0.352539105963E+03    0.11962E-03   -0.87311E-05  9408   0.282E-02    0.103E-01
DAV:   5    -0.352538927852E+03    0.17811E-03   -0.83785E-05  8464   0.161E-02    0.690E-02
DAV:   6    -0.352538783668E+03    0.14418E-03   -0.93179E-05  8592   0.175E-02    0.242E-02
DAV:   7    -0.352538830389E+03   -0.46721E-04   -0.14989E-05  9072   0.973E-03    0.129E-02
DAV:   8    -0.352538937341E+03   -0.10695E-03   -0.12935E-06  4640   0.565E-03    0.881E-03
DAV:   9    -0.352539048940E+03   -0.11160E-03   -0.37860E-06  6112   0.483E-03    0.410E-03
DAV:  10    -0.352539134915E+03   -0.85975E-04   -0.13320E-06  4208   0.294E-03    0.226E-03
DAV:  11    -0.352539194813E+03   -0.59898E-04   -0.10074E-06  4296   0.260E-03    0.223E-03
DAV:  12    -0.352539254387E+03   -0.59574E-04   -0.71412E-07  4024   0.231E-03    0.144E-03
DAV:  13    -0.352539310877E+03   -0.56491E-04   -0.75791E-07  4200   0.165E-03    0.121E-03
DAV:  14    -0.352539351061E+03   -0.40183E-04   -0.53732E-07  4032   0.144E-03    0.103E-03
DAV:  15    -0.352539394281E+03   -0.43221E-04   -0.74269E-07  4184   0.121E-03    0.833E-04
DAV:  16    -0.352539425895E+03   -0.31614E-04   -0.55845E-07  4208   0.128E-03    0.954E-04
DAV:  17    -0.352539440846E+03   -0.14951E-04   -0.42286E-07  3832   0.115E-03    0.605E-04
DAV:  18    -0.352539449985E+03   -0.91396E-05   -0.34418E-07  3832   0.103E-03    0.679E-04
DAV:  19    -0.352539452266E+03   -0.22803E-05   -0.18115E-07  3616   0.873E-04    0.301E-04
DAV:  20    -0.352539455175E+03   -0.29095E-05   -0.15749E-07  3608   0.586E-04    0.439E-04
DAV:  21    -0.352539456700E+03   -0.15251E-05   -0.10351E-07  3608   0.657E-04    0.290E-04
DAV:  22    -0.352539457064E+03   -0.36355E-06   -0.60906E-08  3624   0.409E-04
   6 F= -.36577468E+03 E0= -.36577468E+03  d E =-.525095E-02  mag=    53.0000
 curvature:  -1.67 expect dE=-0.392E-02 dE for cont linesearch -0.197E-04
 trial: gam= 0.48333 g(F)=  0.235E-02 g(S)=  0.000E+00 ort = 0.266E-03 (trialstep = 0.145E+01)
 search vector abs. value=  0.400E-02
 bond charge predicted
       N       E                     dE             d eps       ncg     rms          rms(c)
DAV:   1    -0.352534866783E+03    0.45899E-02   -0.71305E-01  6568   0.115E+00    0.486E-01
DAV:   2    -0.352539000646E+03   -0.41339E-02   -0.49938E-02  8976   0.522E-01    0.274E-01
DAV:   3    -0.352539120941E+03   -0.12029E-03   -0.11490E-03  9016   0.139E-01    0.175E-01
DAV:   4    -0.352539027883E+03    0.93058E-04   -0.11404E-04  9552   0.400E-02    0.139E-01
DAV:   5    -0.352538878789E+03    0.14909E-03   -0.14381E-04  7440   0.190E-02    0.905E-02
DAV:   6    -0.352538822632E+03    0.56157E-04   -0.10435E-04  9264   0.248E-02    0.286E-02
DAV:   7    -0.352538846678E+03   -0.24046E-04   -0.74934E-06  8088   0.953E-03    0.135E-02
DAV:   8    -0.352538886528E+03   -0.39850E-04   -0.24372E-06  4928   0.557E-03    0.105E-02
DAV:   9    -0.352538941776E+03   -0.55247E-04   -0.10626E-06  4256   0.465E-03    0.588E-03
DAV:  10    -0.352538993425E+03   -0.51650E-04   -0.21634E-06  4784   0.269E-03    0.266E-03
DAV:  11    -0.352539019032E+03   -0.25607E-04   -0.60906E-07  3680   0.202E-03    0.200E-03
DAV:  12    -0.352539050413E+03   -0.31381E-04   -0.46531E-07  3760   0.170E-03    0.128E-03
DAV:  13    -0.352539075345E+03   -0.24932E-04   -0.31674E-07  3704   0.146E-03    0.115E-03
DAV:  14    -0.352539107178E+03   -0.31833E-04   -0.43950E-07  4352   0.116E-03    0.744E-04
DAV:  15    -0.352539120163E+03   -0.12985E-04   -0.23053E-07  3624   0.108E-03    0.656E-04
DAV:  16    -0.352539137286E+03   -0.17123E-04   -0.29189E-07  3784   0.784E-04    0.608E-04
DAV:  17    -0.352539150103E+03   -0.12817E-04   -0.22894E-07  3760   0.878E-04    0.583E-04
DAV:  18    -0.352539162155E+03   -0.12052E-04   -0.34046E-07  4248   0.783E-04    0.574E-04
DAV:  19    -0.352539166051E+03   -0.38955E-05   -0.17770E-07  3648   0.873E-04    0.383E-04
DAV:  20    -0.352539167087E+03   -0.10364E-05   -0.10212E-07  3608   0.509E-04    0.278E-04
DAV:  21    -0.352539168211E+03   -0.11243E-05   -0.68366E-08  3544   0.481E-04    0.227E-04
DAV:  22    -0.352539168863E+03   -0.65179E-06   -0.55602E-08  3568   0.365E-04
   7 F= -.36577741E+03 E0= -.36577741E+03  d E =-.272871E-02  mag=    53.0000
 trial-energy change:   -0.002729  1 .order   -0.002759   -0.003601   -0.001918
 step:   3.7738(harm=  3.1133)  dis= 0.00901  next Energy=  -365.778818 (dE=-0.413E-02)
 bond charge predicted
       N       E                     dE             d eps       ncg     rms          rms(c)
DAV:   1    -0.352524241083E+03    0.14927E-01   -0.18116E+00  6512   0.183E+00    0.772E-01
DAV:   2    -0.352534958276E+03   -0.10717E-01   -0.12712E-01  8960   0.835E-01    0.439E-01
DAV:   3    -0.352535128294E+03   -0.17002E-03   -0.29256E-03  9000   0.221E-01    0.278E-01
DAV:   4    -0.352534919589E+03    0.20871E-03   -0.29005E-04  9544   0.635E-02    0.221E-01
DAV:   5    -0.352534601091E+03    0.31850E-03   -0.36601E-04  7568   0.304E-02    0.144E-01
DAV:   6    -0.352534515343E+03    0.85749E-04   -0.26050E-04  9280   0.388E-02    0.456E-02
DAV:   7    -0.352534567875E+03   -0.52533E-04   -0.20388E-05  9448   0.152E-02    0.206E-02
DAV:   8    -0.352534647581E+03   -0.79705E-04   -0.78622E-06  8240   0.866E-03    0.158E-02
DAV:   9    -0.352534763820E+03   -0.11624E-03   -0.33153E-06  5576   0.733E-03    0.898E-03
DAV:  10    -0.352534863985E+03   -0.10016E-03   -0.73952E-06  6824   0.456E-03    0.389E-03
DAV:  11    -0.352534928352E+03   -0.64367E-04   -0.66023E-07  3936   0.195E-03    0.216E-03
DAV:  12    -0.352534979887E+03   -0.51535E-04   -0.41222E-07  4080   0.174E-03    0.184E-03
DAV:  13    -0.352535023985E+03   -0.44098E-04   -0.39068E-07  4056   0.132E-03    0.118E-03
DAV:  14    -0.352535080610E+03   -0.56624E-04   -0.67428E-07  4280   0.124E-03    0.117E-03
DAV:  15    -0.352535122825E+03   -0.42216E-04   -0.52948E-07  4120   0.136E-03    0.101E-03
DAV:  16    -0.352535159216E+03   -0.36391E-04   -0.77644E-07  4344   0.123E-03    0.913E-04
DAV:  17    -0.352535185334E+03   -0.26118E-04   -0.55618E-07  4288   0.116E-03    0.859E-04
DAV:  18    -0.352535200524E+03   -0.15190E-04   -0.54196E-07  4200   0.116E-03    0.705E-04
DAV:  19    -0.352535204057E+03   -0.35328E-05   -0.26426E-07  3656   0.103E-03    0.474E-04
DAV:  20    -0.352535205797E+03   -0.17405E-05   -0.18101E-07  3560   0.698E-04    0.475E-04
DAV:  21    -0.352535206322E+03   -0.52484E-06   -0.91851E-08  3584   0.631E-04
   8 F= -.36577825E+03 E0= -.36577825E+03  d E =-.356574E-02  mag=    53.0000
 curvature:  -2.12 expect dE=-0.312E-02 dE for cont linesearch -0.150E-03
 ZBRENT: interpolating
 opt :   3.1063  next Energy=  -365.778428 (dE=-0.374E-02)
 bond charge predicted
       N       E                     dE             d eps       ncg     rms          rms(c)
DAV:   1    -0.352535860997E+03   -0.65520E-03   -0.15015E-01  6568   0.527E-01    0.226E-01
DAV:   2    -0.352536706219E+03   -0.84522E-03   -0.10450E-02  8936   0.238E-01    0.125E-01
DAV:   3    -0.352536757882E+03   -0.51663E-04   -0.24352E-04  8960   0.641E-02    0.807E-02
DAV:   4    -0.352536735354E+03    0.22529E-04   -0.23890E-05  9584   0.185E-02    0.640E-02
DAV:   5    -0.352536694682E+03    0.40672E-04   -0.29934E-05  7216   0.863E-03    0.419E-02
DAV:   6    -0.352536678734E+03    0.15948E-04   -0.22207E-05  9224   0.116E-02    0.133E-02
DAV:   7    -0.352536684481E+03   -0.57474E-05   -0.92063E-07  3784   0.431E-03    0.718E-03
DAV:   8    -0.352536697660E+03   -0.13179E-04   -0.86234E-07  3928   0.331E-03    0.517E-03
DAV:   9    -0.352536713705E+03   -0.16045E-04   -0.52417E-07  3664   0.257E-03    0.307E-03
DAV:  10    -0.352536726553E+03   -0.12848E-04   -0.44269E-07  3824   0.158E-03    0.188E-03
DAV:  11    -0.352536734600E+03   -0.80462E-05   -0.20594E-07  3552   0.119E-03    0.152E-03
DAV:  12    -0.352536746998E+03   -0.12399E-04   -0.19666E-07  3720   0.959E-04    0.107E-03
DAV:  13    -0.352536758338E+03   -0.11340E-04   -0.16574E-07  3792   0.909E-04    0.728E-04
DAV:  14    -0.352536762247E+03   -0.39090E-05   -0.93163E-08  3624   0.725E-04    0.436E-04
DAV:  15    -0.352536766965E+03   -0.47182E-05   -0.80860E-08  3552   0.479E-04    0.371E-04
DAV:  16    -0.352536773571E+03   -0.66057E-05   -0.92622E-08  3720   0.502E-04    0.367E-04
DAV:  17    -0.352536777885E+03   -0.43138E-05   -0.91902E-08  3680   0.491E-04    0.352E-04
DAV:  18    -0.352536778519E+03   -0.63371E-06   -0.42470E-08  3672   0.444E-04
   9 F= -.36577844E+03 E0= -.36577844E+03  d E =-.375758E-02  mag=    53.0000
 curvature:  -2.51 expect dE=-0.214E-02 dE for cont linesearch -0.430E-08
 trial: gam= 0.45419 g(F)=  0.854E-03 g(S)=  0.000E+00 ort = 0.262E-05 (trialstep = 0.179E+01)
 search vector abs. value=  0.168E-02
 bond charge predicted
       N       E                     dE             d eps       ncg     rms          rms(c)
DAV:   1    -0.352532672061E+03    0.41058E-02   -0.35057E-01  6424   0.827E-01    0.384E-01
DAV:   2    -0.352534500342E+03   -0.18283E-02   -0.22344E-02  8648   0.331E-01    0.187E-01
DAV:   3    -0.352534984276E+03   -0.48393E-03   -0.94813E-04  8824   0.971E-02    0.114E-01
DAV:   4    -0.352534791101E+03    0.19318E-03   -0.67699E-05  9504   0.325E-02    0.854E-02
DAV:   5    -0.352534519362E+03    0.27174E-03   -0.54795E-05  8696   0.140E-02    0.607E-02
DAV:   6    -0.352534181047E+03    0.33831E-03   -0.87995E-05  8712   0.192E-02    0.231E-02
DAV:   7    -0.352534257444E+03   -0.76396E-04   -0.16077E-05  8928   0.920E-03    0.148E-02
DAV:   8    -0.352534430236E+03   -0.17279E-03   -0.16622E-06  4944   0.418E-03    0.101E-02
DAV:   9    -0.352534699420E+03   -0.26918E-03   -0.68129E-06  7352   0.512E-03    0.359E-03
DAV:  10    -0.352534861856E+03   -0.16244E-03   -0.13029E-06  4704   0.237E-03    0.235E-03
DAV:  11    -0.352534977232E+03   -0.11538E-03   -0.92815E-07  4328   0.222E-03    0.256E-03
DAV:  12    -0.352535071986E+03   -0.94754E-04   -0.81902E-07  4408   0.197E-03    0.156E-03
DAV:  13    -0.352535198132E+03   -0.12615E-03   -0.17580E-06  5184   0.169E-03    0.131E-03
DAV:  14    -0.352535247628E+03   -0.49496E-04   -0.28665E-07  3848   0.120E-03    0.983E-04
DAV:  15    -0.352535348328E+03   -0.10070E-03   -0.12447E-06  4584   0.121E-03    0.826E-04
DAV:  16    -0.352535413926E+03   -0.65598E-04   -0.11701E-06  5088   0.137E-03    0.651E-04
DAV:  17    -0.352535431837E+03   -0.17911E-04   -0.34196E-07  3912   0.114E-03    0.432E-04
DAV:  18    -0.352535443841E+03   -0.12005E-04   -0.35797E-07  4144   0.913E-04    0.484E-04
DAV:  19    -0.352535446791E+03   -0.29498E-05   -0.17776E-07  3608   0.940E-04    0.238E-04
DAV:  20    -0.352535447942E+03   -0.11515E-05   -0.11227E-07  3576   0.551E-04    0.240E-04
DAV:  21    -0.352535448717E+03   -0.77478E-06   -0.69404E-08  3672   0.537E-04
  10 F= -.36577919E+03 E0= -.36577919E+03  d E =-.751583E-03  mag=    53.0000
 trial-energy change:   -0.000752  1 .order   -0.000763   -0.001527    0.000002
 step:   1.7829(harm=  1.7830)  dis= 0.00259  next Energy=  -365.779194 (dE=-0.752E-03)
 bond charge predicted
       N       E                     dE             d eps       ncg     rms          rms(c)
DAV:   1    -0.352535451507E+03   -0.35646E-05   -0.48056E-07  3656   0.108E-03    0.434E-04
DAV:   2    -0.352535451586E+03   -0.78704E-07   -0.91670E-08  3600   0.857E-04
  11 F= -.36577919E+03 E0= -.36577919E+03  d E =-.751933E-03  mag=    53.0000
 curvature:  -1.75 expect dE=-0.910E-03 dE for cont linesearch -0.977E-07
 trial: gam= 0.58543 g(F)=  0.520E-03 g(S)=  0.000E+00 ort = 0.969E-05 (trialstep = 0.178E+01)
 search vector abs. value=  0.111E-02
 bond charge predicted
       N       E                     dE             d eps       ncg     rms          rms(c)
DAV:   1    -0.352533352563E+03    0.20989E-02   -0.11112E-01  6440   0.425E-01    0.186E-01
DAV:   2    -0.352534188236E+03   -0.83567E-03   -0.77468E-03  8472   0.191E-01    0.919E-02
DAV:   3    -0.352534382388E+03   -0.19415E-03   -0.29386E-04  8728   0.579E-02    0.581E-02
DAV:   4    -0.352534370213E+03    0.12175E-04   -0.21919E-05  9456   0.183E-02    0.437E-02
DAV:   5    -0.352534359445E+03    0.10767E-04   -0.16094E-05  8024   0.715E-03    0.303E-02
DAV:   6    -0.352534361917E+03   -0.24718E-05   -0.19153E-05  8736   0.929E-03    0.986E-03
DAV:   7    -0.352534377112E+03   -0.15195E-04   -0.15459E-06  4384   0.498E-03    0.495E-03
DAV:   8    -0.352534396499E+03   -0.19387E-04   -0.97062E-07  4288   0.221E-03    0.319E-03
DAV:   9    -0.352534411078E+03   -0.14579E-04   -0.42347E-07  3648   0.167E-03    0.231E-03
DAV:  10    -0.352534423134E+03   -0.12056E-04   -0.25429E-07  3576   0.141E-03    0.172E-03
DAV:  11    -0.352534432454E+03   -0.93203E-05   -0.18081E-07  3760   0.109E-03    0.121E-03
DAV:  12    -0.352534446611E+03   -0.14157E-04   -0.21819E-07  3800   0.912E-04    0.831E-04
DAV:  13    -0.352534456065E+03   -0.94531E-05   -0.15693E-07  3608   0.843E-04    0.471E-04
DAV:  14    -0.352534461275E+03   -0.52106E-05   -0.10466E-07  3544   0.652E-04    0.421E-04
DAV:  15    -0.352534463675E+03   -0.24000E-05   -0.57176E-08  3600   0.514E-04    0.250E-04
DAV:  16    -0.352534468667E+03   -0.49915E-05   -0.70362E-08  3600   0.383E-04    0.348E-04
DAV:  17    -0.352534472203E+03   -0.35366E-05   -0.58423E-08  3560   0.453E-04    0.247E-04
DAV:  18    -0.352534473261E+03   -0.10581E-05   -0.37564E-08  3624   0.348E-04    0.209E-04
DAV:  19    -0.352534473900E+03   -0.63907E-06   -0.22855E-08  3552   0.276E-04
  12 F= -.36578007E+03 E0= -.36578007E+03  d E =-.880554E-03  mag=    53.0000
 ZBRENT: can't locate minimum, use default step
 trial-energy change:   -0.000881  1 .order   -0.000877   -0.000938   -0.000816
 step:   7.1386(harm= 13.7358)  dis= 0.00699  next Energy=  -365.782805 (dE=-0.361E-02)
 bond charge predicted
       N       E                     dE             d eps       ncg     rms          rms(c)
DAV:   1    -0.352520868569E+03    0.13605E-01   -0.99931E-01  6424   0.127E+00    0.557E-01
DAV:   2    -0.352528955610E+03   -0.80870E-02   -0.69459E-02  8440   0.569E-01    0.274E-01
DAV:   3    -0.352530337105E+03   -0.13815E-02   -0.26583E-03  8768   0.175E-01    0.174E-01
DAV:   4    -0.352530288455E+03    0.48650E-04   -0.20131E-04  9496   0.565E-02    0.131E-01
DAV:   5    -0.352530254927E+03    0.33528E-04   -0.13288E-04  8352   0.203E-02    0.924E-02
DAV:   6    -0.352530302516E+03   -0.47589E-04   -0.17117E-04  8872   0.277E-02    0.308E-02
DAV:   7    -0.352530375780E+03   -0.73264E-04   -0.20367E-05  9072   0.155E-02    0.132E-02
DAV:   8    -0.352530453945E+03   -0.78165E-04   -0.42466E-06  6496   0.456E-03    0.870E-03
DAV:   9    -0.352530534913E+03   -0.80968E-04   -0.12676E-06  4712   0.337E-03    0.568E-03
DAV:  10    -0.352530617242E+03   -0.82329E-04   -0.25885E-06  5608   0.314E-03    0.324E-03
DAV:  11    -0.352530667216E+03   -0.49974E-04   -0.83626E-07  3936   0.237E-03    0.168E-03
DAV:  12    -0.352530702076E+03   -0.34861E-04   -0.45655E-07  3744   0.190E-03    0.131E-03
DAV:  13    -0.352530732226E+03   -0.30150E-04   -0.32827E-07  3792   0.138E-03    0.984E-04
DAV:  14    -0.352530768992E+03   -0.36766E-04   -0.40390E-07  4184   0.109E-03    0.792E-04
DAV:  15    -0.352530787807E+03   -0.18815E-04   -0.25578E-07  3720   0.982E-04    0.654E-04
DAV:  16    -0.352530806159E+03   -0.18352E-04   -0.26410E-07  3736   0.819E-04    0.601E-04
DAV:  17    -0.352530818528E+03   -0.12368E-04   -0.20365E-07  3728   0.856E-04    0.521E-04
DAV:  18    -0.352530830954E+03   -0.12426E-04   -0.28262E-07  3912   0.782E-04    0.575E-04
DAV:  19    -0.352530834945E+03   -0.39917E-05   -0.17878E-07  3672   0.852E-04    0.388E-04
DAV:  20    -0.352530835994E+03   -0.10483E-05   -0.99924E-08  3656   0.546E-04    0.279E-04
DAV:  21    -0.352530836982E+03   -0.98832E-06   -0.60663E-08  3560   0.451E-04
  13 F= -.36578201E+03 E0= -.36578201E+03  d E =-.281222E-02  mag=    53.0000
 curvature: -10.06 expect dE=-0.976E-02 dE for cont linesearch -0.587E-03
 ZBRENT: increasing intervall
 opt :  17.8466  next Energy=  -365.782551 (dE=-0.336E-02)
 bond charge predicted
       N       E                     dE             d eps       ncg     rms          rms(c)
DAV:   1    -0.352481861980E+03    0.48974E-01   -0.39804E+00  6416   0.255E+00    0.112E+00
DAV:   2    -0.352514013667E+03   -0.32152E-01   -0.27403E-01  8432   0.113E+00    0.542E-01
DAV:   3    -0.352518852278E+03   -0.48386E-02   -0.10599E-02  8816   0.349E-01    0.348E-01
DAV:   4    -0.352518710346E+03    0.14193E-03   -0.79685E-04  9496   0.115E-01    0.260E-01
DAV:   5    -0.352518648254E+03    0.62092E-04   -0.46847E-04  8368   0.377E-02    0.188E-01
DAV:   6    -0.352518808113E+03   -0.15986E-03   -0.66683E-04  8816   0.546E-02    0.656E-02
DAV:   7    -0.352519002943E+03   -0.19483E-03   -0.86924E-05  9096   0.320E-02    0.261E-02
DAV:   8    -0.352519202814E+03   -0.19987E-03   -0.18782E-05  8320   0.994E-03    0.170E-02
DAV:   9    -0.352519393014E+03   -0.19020E-03   -0.45185E-06  6864   0.633E-03    0.119E-02
DAV:  10    -0.352519595785E+03   -0.20277E-03   -0.69173E-06  7384   0.476E-03    0.626E-03
DAV:  11    -0.352519722443E+03   -0.12666E-03   -0.12207E-06  4640   0.275E-03    0.313E-03
DAV:  12    -0.352519820194E+03   -0.97752E-04   -0.81567E-07  4440   0.244E-03    0.218E-03
DAV:  13    -0.352519913948E+03   -0.93754E-04   -0.11015E-06  4440   0.177E-03    0.137E-03
DAV:  14    -0.352519972109E+03   -0.58161E-04   -0.53835E-07  3944   0.145E-03    0.116E-03
DAV:  15    -0.352520019440E+03   -0.47331E-04   -0.47899E-07  3984   0.118E-03    0.838E-04
DAV:  16    -0.352520085598E+03   -0.66159E-04   -0.99643E-07  4760   0.138E-03    0.928E-04
DAV:  17    -0.352520118941E+03   -0.33342E-04   -0.56576E-07  4184   0.132E-03    0.638E-04
DAV:  18    -0.352520133682E+03   -0.14741E-04   -0.41799E-07  3928   0.117E-03    0.616E-04
DAV:  19    -0.352520139939E+03   -0.62568E-05   -0.29311E-07  3672   0.102E-03    0.411E-04
DAV:  20    -0.352520142778E+03   -0.28392E-05   -0.17534E-07  3624   0.805E-04    0.356E-04
DAV:  21    -0.352520144626E+03   -0.18478E-05   -0.11014E-07  3576   0.612E-04    0.210E-04
DAV:  22    -0.352520145892E+03   -0.12661E-05   -0.69952E-08  3600   0.486E-04    0.214E-04
DAV:  23    -0.352520146531E+03   -0.63861E-06   -0.40036E-08  3584   0.383E-04
  14 F= -.36578243E+03 E0= -.36578243E+03  d E =-.323259E-02  mag=    53.0000
 curvature:  -9.33 expect dE=-0.495E-01 dE for cont linesearch -0.318E-03
 ZBRENT: bracketing found
 ZBRENT: interpolating
 opt :  13.2082  next Energy=  -365.782877 (dE=-0.368E-02)
 bond charge predicted
       N       E                     dE             d eps       ncg     rms          rms(c)
DAV:   1    -0.352518385287E+03    0.17606E-02   -0.74718E-01  6456   0.110E+00    0.477E-01
DAV:   2    -0.352524110291E+03   -0.57250E-02   -0.50595E-02  8448   0.491E-01    0.236E-01
DAV:   3    -0.352525055369E+03   -0.94508E-03   -0.17533E-03  8704   0.137E-01    0.147E-01
DAV:   4    -0.352524986562E+03    0.68807E-04   -0.13362E-04  9488   0.417E-02    0.111E-01
DAV:   5    -0.352524931852E+03    0.54711E-04   -0.12409E-04  8504   0.204E-02    0.736E-02
DAV:   6    -0.352524963097E+03   -0.31245E-04   -0.10840E-04  8984   0.229E-02    0.236E-02
DAV:   7    -0.352525022088E+03   -0.58991E-04   -0.10663E-05  8816   0.121E-02    0.109E-02
DAV:   8    -0.352525084127E+03   -0.62039E-04   -0.23245E-06  5344   0.357E-03    0.729E-03
DAV:   9    -0.352525146613E+03   -0.62486E-04   -0.11241E-06  4392   0.288E-03    0.468E-03
DAV:  10    -0.352525204457E+03   -0.57844E-04   -0.15903E-06  4968   0.273E-03    0.285E-03
DAV:  11    -0.352525235586E+03   -0.31129E-04   -0.75905E-07  3864   0.239E-03    0.155E-03
DAV:  12    -0.352525268470E+03   -0.32884E-04   -0.59099E-07  3912   0.183E-03    0.125E-03
DAV:  13    -0.352525289202E+03   -0.20733E-04   -0.34411E-07  3728   0.154E-03    0.931E-04
DAV:  14    -0.352525313321E+03   -0.24118E-04   -0.34945E-07  4016   0.102E-03    0.717E-04
DAV:  15    -0.352525325964E+03   -0.12644E-04   -0.19796E-07  3656   0.935E-04    0.558E-04
DAV:  16    -0.352525340796E+03   -0.14831E-04   -0.23663E-07  3800   0.706E-04    0.565E-04
DAV:  17    -0.352525349695E+03   -0.88996E-05   -0.14870E-07  3704   0.751E-04    0.381E-04
DAV:  18    -0.352525362548E+03   -0.12852E-04   -0.32313E-07  4216   0.661E-04    0.583E-04
DAV:  19    -0.352525364796E+03   -0.22480E-05   -0.11339E-07  3640   0.796E-04    0.213E-04
DAV:  20    -0.352525365755E+03   -0.95964E-06   -0.66524E-08  3560   0.360E-04
  15 F= -.36578284E+03 E0= -.36578284E+03  d E =-.364309E-02  mag=    53.0000
 curvature: -13.23 expect dE=-0.381E-01 dE for cont linesearch -0.760E-06
 trial: gam= 5.50333 g(F)=  0.288E-02 g(S)=  0.000E+00 ort = 0.798E-05 (trialstep = 0.123E+00)
 search vector abs. value=  0.365E-01
 bond charge predicted
       N       E                     dE             d eps       ncg     rms          rms(c)
DAV:   1    -0.352525171106E+03    0.19369E-03   -0.14415E-02  6520   0.148E-01    0.629E-02
DAV:   2    -0.352525255452E+03   -0.84346E-04   -0.90112E-04  8376   0.593E-02    0.282E-02
DAV:   3    -0.352525303004E+03   -0.47552E-04   -0.37018E-05  8464   0.186E-02    0.179E-02
DAV:   4    -0.352525299871E+03    0.31331E-05   -0.17407E-06  5080   0.579E-03    0.135E-02
DAV:   5    -0.352525296674E+03    0.31972E-05   -0.25275E-06  4912   0.287E-03    0.985E-03
DAV:   6    -0.352525293100E+03    0.35735E-05   -0.38776E-06  6232   0.326E-03    0.357E-03
DAV:   7    -0.352525296080E+03   -0.29797E-05   -0.43622E-07  3664   0.172E-03    0.179E-03
DAV:   8    -0.352525301164E+03   -0.50844E-05   -0.15670E-07  3488   0.145E-03    0.155E-03
DAV:   9    -0.352525305034E+03   -0.38696E-05   -0.11610E-07  3608   0.864E-04    0.808E-04
DAV:  10    -0.352525308574E+03   -0.35399E-05   -0.88925E-08  3552   0.746E-04    0.692E-04
DAV:  11    -0.352525311539E+03   -0.29655E-05   -0.67014E-08  3592   0.577E-04    0.396E-04
DAV:  12    -0.352525314475E+03   -0.29360E-05   -0.48360E-08  3544   0.501E-04    0.417E-04
DAV:  13    -0.352525316863E+03   -0.23882E-05   -0.35025E-08  3576   0.413E-04    0.232E-04
DAV:  14    -0.352525318183E+03   -0.13198E-05   -0.22546E-08  3576   0.297E-04    0.222E-04
DAV:  15    -0.352525319326E+03   -0.11430E-05   -0.16265E-08  3544   0.238E-04    0.147E-04
DAV:  16    -0.352525320232E+03   -0.90571E-06   -0.12137E-08  3552   0.206E-04
  16 F= -.36578319E+03 E0= -.36578319E+03  d E =-.354845E-03  mag=    53.0000
 ZBRENT: can't locate minimum, use default step
 trial-energy change:   -0.000355  1 .order   -0.000355   -0.000361   -0.000350
 step:   0.4938(harm=  4.0255)  dis= 0.00203  next Energy=  -365.788717 (dE=-0.588E-02)
 bond charge predicted
       N       E                     dE             d eps       ncg     rms          rms(c)
DAV:   1    -0.352523773100E+03    0.15462E-02   -0.12969E-01  6464   0.443E-01    0.188E-01
DAV:   2    -0.352524707790E+03   -0.93469E-03   -0.81051E-03  8296   0.178E-01    0.842E-02
DAV:   3    -0.352525004716E+03   -0.29693E-03   -0.33074E-04  8496   0.554E-02    0.537E-02
DAV:   4    -0.352524991247E+03    0.13469E-04   -0.22091E-05  9496   0.174E-02    0.387E-02
DAV:   5    -0.352524973049E+03    0.18198E-04   -0.12992E-05  7928   0.668E-03    0.281E-02
DAV:   6    -0.352524968385E+03    0.46643E-05   -0.21112E-05  8096   0.810E-03    0.915E-03
DAV:   7    -0.352524987111E+03   -0.18726E-04   -0.22569E-06  5016   0.415E-03    0.457E-03
DAV:   8    -0.352525013431E+03   -0.26320E-04   -0.66663E-07  4256   0.247E-03    0.351E-03
DAV:   9    -0.352525032111E+03   -0.18681E-04   -0.47292E-07  3648   0.203E-03    0.204E-03
DAV:  10    -0.352525056397E+03   -0.24286E-04   -0.60314E-07  4032   0.162E-03    0.149E-03
DAV:  11    -0.352525068722E+03   -0.12326E-04   -0.32180E-07  3616   0.149E-03    0.899E-04
DAV:  12    -0.352525077856E+03   -0.91333E-05   -0.17671E-07  3544   0.100E-03    0.812E-04
DAV:  13    -0.352525090155E+03   -0.12299E-04   -0.14613E-07  3672   0.806E-04    0.576E-04
DAV:  14    -0.352525103613E+03   -0.13459E-04   -0.18733E-07  3848   0.704E-04    0.709E-04
DAV:  15    -0.352525108062E+03   -0.44482E-05   -0.98427E-08  3616   0.677E-04    0.320E-04
DAV:  16    -0.352525110768E+03   -0.27067E-05   -0.62193E-08  3576   0.437E-04    0.365E-04
DAV:  17    -0.352525114844E+03   -0.40755E-05   -0.56541E-08  3536   0.424E-04    0.249E-04
DAV:  18    -0.352525120045E+03   -0.52016E-05   -0.87773E-08  3696   0.409E-04    0.354E-04
DAV:  19    -0.352525121765E+03   -0.17199E-05   -0.51580E-08  3624   0.460E-04    0.189E-04
DAV:  20    -0.352525122292E+03   -0.52673E-06   -0.30574E-08  3592   0.287E-04
  17 F= -.36578419E+03 E0= -.36578419E+03  d E =-.135735E-02  mag=    53.0000
 curvature:  -4.55 expect dE=-0.108E-01 dE for cont linesearch -0.822E-03
 ZBRENT: increasing intervall
 opt :   1.2345  next Energy=  -365.785904 (dE=-0.307E-02)
 bond charge predicted
       N       E                     dE             d eps       ncg     rms          rms(c)
DAV:   1    -0.352519063560E+03    0.60582E-02   -0.51812E-01  6432   0.885E-01    0.376E-01
DAV:   2    -0.352523089289E+03   -0.40257E-02   -0.32309E-02  8272   0.354E-01    0.168E-01
DAV:   3    -0.352524078854E+03   -0.98957E-03   -0.13019E-03  8576   0.109E-01    0.107E-01
DAV:   4    -0.352524046039E+03    0.32816E-04   -0.88234E-05  9512   0.347E-02    0.770E-02
DAV:   5    -0.352524008384E+03    0.37654E-04   -0.50117E-05  8280   0.130E-02    0.565E-02
DAV:   6    -0.352524013786E+03   -0.54016E-05   -0.81421E-05  8160   0.162E-02    0.185E-02
DAV:   7    -0.352524064342E+03   -0.50556E-04   -0.10601E-05  8320   0.840E-03    0.884E-03
DAV:   8    -0.352524125551E+03   -0.61209E-04   -0.14060E-06  4848   0.367E-03    0.607E-03
DAV:   9    -0.352524178060E+03   -0.52509E-04   -0.11437E-06  4296   0.314E-03    0.360E-03
DAV:  10    -0.352524253537E+03   -0.75477E-04   -0.26303E-06  5776   0.288E-03    0.169E-03
DAV:  11    -0.352524281354E+03   -0.27817E-04   -0.50878E-07  3688   0.187E-03    0.139E-03
DAV:  12    -0.352524297957E+03   -0.16603E-04   -0.19403E-07  3584   0.121E-03    0.105E-03
DAV:  13    -0.352524321057E+03   -0.23100E-04   -0.16363E-07  3672   0.963E-04    0.853E-04
DAV:  14    -0.352524353098E+03   -0.32041E-04   -0.28795E-07  4112   0.855E-04    0.754E-04
DAV:  15    -0.352524372173E+03   -0.19075E-04   -0.21174E-07  3704   0.866E-04    0.655E-04
DAV:  16    -0.352524380819E+03   -0.86466E-05   -0.13130E-07  3592   0.708E-04    0.441E-04
DAV:  17    -0.352524390933E+03   -0.10114E-04   -0.13858E-07  3648   0.592E-04    0.423E-04
DAV:  18    -0.352524410435E+03   -0.19502E-04   -0.37487E-07  4288   0.791E-04    0.669E-04
DAV:  19    -0.352524413134E+03   -0.26987E-05   -0.14806E-07  3624   0.925E-04    0.330E-04
DAV:  20    -0.352524414316E+03   -0.11825E-05   -0.92883E-08  3576   0.425E-04    0.333E-04
DAV:  21    -0.352524414930E+03   -0.61332E-06   -0.43803E-08  3608   0.488E-04
  18 F= -.36578589E+03 E0= -.36578589E+03  d E =-.304790E-02  mag=    53.0000
 curvature:  -9.45 expect dE=-0.185E-01 dE for cont linesearch -0.103E-02
 ZBRENT: increasing intervall
 opt :   2.7160  next Energy=  -365.787977 (dE=-0.514E-02)
 bond charge predicted
       N       E                     dE             d eps       ncg     rms          rms(c)
DAV:   1    -0.352500624082E+03    0.23790E-01   -0.20660E+00  6416   0.177E+00    0.750E-01
DAV:   2    -0.352517296177E+03   -0.16672E-01   -0.12829E-01  8296   0.702E-01    0.335E-01
DAV:   3    -0.352520711570E+03   -0.34154E-02   -0.50559E-03  8544   0.214E-01    0.213E-01
DAV:   4    -0.352520629804E+03    0.81767E-04   -0.35570E-04  9528   0.695E-02    0.153E-01
DAV:   5    -0.352520555456E+03    0.74348E-04   -0.18718E-04  8208   0.247E-02    0.114E-01
DAV:   6    -0.352520615639E+03   -0.60183E-04   -0.30747E-04  8328   0.325E-02    0.381E-02
DAV:   7    -0.352520747680E+03   -0.13204E-03   -0.42326E-05  9024   0.170E-02    0.169E-02
DAV:   8    -0.352520898304E+03   -0.15062E-03   -0.64197E-06  7512   0.750E-03    0.105E-02
DAV:   9    -0.352521035476E+03   -0.13717E-03   -0.24657E-06  5696   0.471E-03    0.608E-03
DAV:  10    -0.352521223941E+03   -0.18847E-03   -0.63765E-06  7416   0.457E-03    0.278E-03
DAV:  11    -0.352521288309E+03   -0.64368E-04   -0.71378E-07  4000   0.238E-03    0.216E-03
DAV:  12    -0.352521345039E+03   -0.56730E-04   -0.40701E-07  3856   0.154E-03    0.160E-03
DAV:  13    -0.352521413638E+03   -0.68599E-04   -0.52948E-07  4336   0.127E-03    0.130E-03
DAV:  14    -0.352521479021E+03   -0.65383E-04   -0.58498E-07  4144   0.135E-03    0.115E-03
DAV:  15    -0.352521514733E+03   -0.35712E-04   -0.41612E-07  3776   0.118E-03    0.852E-04
DAV:  16    -0.352521552266E+03   -0.37533E-04   -0.46223E-07  4208   0.110E-03    0.939E-04
DAV:  17    -0.352521584705E+03   -0.32439E-04   -0.51501E-07  4040   0.116E-03    0.836E-04
DAV:  18    -0.352521613914E+03   -0.29209E-04   -0.98374E-07  4704   0.124E-03    0.817E-04
DAV:  19    -0.352521617759E+03   -0.38454E-05   -0.22315E-07  3648   0.107E-03    0.379E-04
DAV:  20    -0.352521619888E+03   -0.21290E-05   -0.13320E-07  3616   0.557E-04    0.453E-04
DAV:  21    -0.352521621685E+03   -0.17966E-05   -0.74105E-08  3584   0.587E-04    0.220E-04
DAV:  22    -0.352521623448E+03   -0.17628E-05   -0.70042E-08  3576   0.369E-04    0.286E-04
DAV:  23    -0.352521624097E+03   -0.64976E-06   -0.33581E-08  3600   0.406E-04
  19 F= -.36578788E+03 E0= -.36578788E+03  d E =-.504251E-02  mag=    53.0000
 curvature: -19.28 expect dE=-0.444E-01 dE for cont linesearch -0.245E-03
 ZBRENT: increasing intervall
 opt :   5.6788  next Energy=  -365.786019 (dE=-0.318E-02)
 bond charge predicted
       N       E                     dE             d eps       ncg     rms          rms(c)
DAV:   1    -0.352434686613E+03    0.86937E-01   -0.81432E+00  6424   0.352E+00    0.149E+00
DAV:   2    -0.352495678563E+03   -0.60992E-01   -0.49545E-01  8304   0.138E+00    0.669E-01
DAV:   3    -0.352507448764E+03   -0.11770E-01   -0.18983E-02  8440   0.395E-01    0.420E-01
DAV:   4    -0.352507205966E+03    0.24280E-03   -0.14455E-03  9552   0.133E-01    0.304E-01
DAV:   5    -0.352507030071E+03    0.17590E-03   -0.65878E-04  8352   0.478E-02    0.230E-01
DAV:   6    -0.352507253678E+03   -0.22361E-03   -0.10832E-03  8672   0.683E-02    0.814E-02
DAV:   7    -0.352507607231E+03   -0.35355E-03   -0.16478E-04  9072   0.346E-02    0.316E-02
DAV:   8    -0.352507966768E+03   -0.35954E-03   -0.25815E-05  8824   0.160E-02    0.196E-02
DAV:   9    -0.352508268663E+03   -0.30189E-03   -0.92759E-06  8728   0.937E-03    0.119E-02
DAV:  10    -0.352508645254E+03   -0.37659E-03   -0.93210E-06  8200   0.628E-03    0.540E-03
DAV:  11    -0.352508846238E+03   -0.20098E-03   -0.20843E-06  5544   0.358E-03    0.375E-03
DAV:  12    -0.352509019386E+03   -0.17315E-03   -0.13557E-06  4880   0.280E-03    0.255E-03
DAV:  13    -0.352509153912E+03   -0.13453E-03   -0.12511E-06  4664   0.189E-03    0.169E-03
DAV:  14    -0.352509279581E+03   -0.12567E-03   -0.11777E-06  4696   0.174E-03    0.170E-03
DAV:  15    -0.352509369375E+03   -0.89794E-04   -0.77715E-07  4176   0.146E-03    0.123E-03
DAV:  16    -0.352509470772E+03   -0.10140E-03   -0.13888E-06  4976   0.163E-03    0.981E-04
DAV:  17    -0.352509550490E+03   -0.79718E-04   -0.12408E-06  4808   0.153E-03    0.103E-03
DAV:  18    -0.352509584344E+03   -0.33854E-04   -0.65246E-07  4344   0.137E-03    0.662E-04
DAV:  19    -0.352509597188E+03   -0.12844E-04   -0.41305E-07  3888   0.121E-03    0.680E-04
DAV:  20    -0.352509602118E+03   -0.49297E-05   -0.24613E-07  3608   0.994E-04    0.388E-04
DAV:  21    -0.352509605631E+03   -0.35134E-05   -0.16447E-07  3656   0.775E-04    0.412E-04
DAV:  22    -0.352509608169E+03   -0.25373E-05   -0.11932E-07  3624   0.635E-04    0.247E-04
DAV:  23    -0.352509609659E+03   -0.14901E-05   -0.77969E-08  3584   0.529E-04    0.270E-04
DAV:  24    -0.352509610191E+03   -0.53173E-06   -0.42577E-08  3600   0.401E-04
  20 F= -.36578541E+03 E0= -.36578541E+03  d E =-.256835E-02  mag=    53.0000
 curvature: 146.51 expect dE= 0.116E+01 dE for cont linesearch  0.241E-01
 ZBRENT: bracketing found
 ZBRENT: interpolating
 opt :   3.3599  next Energy=  -365.788099 (dE=-0.526E-02)
 bond charge predicted
       N       E                     dE             d eps       ncg     rms          rms(c)
DAV:   1    -0.352471996208E+03    0.37613E-01   -0.50183E+00  6416   0.277E+00    0.115E+00
DAV:   2    -0.352511097211E+03   -0.39101E-01   -0.29857E-01  8360   0.108E+00    0.504E-01
DAV:   3    -0.352518400360E+03   -0.73031E-02   -0.10123E-02  8112   0.250E-01    0.309E-01
DAV:   4    -0.352518139637E+03    0.26072E-03   -0.69584E-04  9384   0.705E-02    0.234E-01
DAV:   5    -0.352517866262E+03    0.27337E-03   -0.65807E-04  8648   0.530E-02    0.160E-01
DAV:   6    -0.352518063345E+03   -0.19708E-03   -0.59057E-04  8928   0.477E-02    0.485E-02
DAV:   7    -0.352518343679E+03   -0.28033E-03   -0.56486E-05  9080   0.237E-02    0.245E-02
DAV:   8    -0.352518644761E+03   -0.30108E-03   -0.12779E-05  8976   0.105E-02    0.141E-02
DAV:   9    -0.352518906593E+03   -0.26183E-03   -0.51878E-06  6936   0.638E-03    0.672E-03
DAV:  10    -0.352519163959E+03   -0.25737E-03   -0.65360E-06  7336   0.419E-03    0.300E-03
DAV:  11    -0.352519291914E+03   -0.12796E-03   -0.82567E-07  4504   0.239E-03    0.267E-03
DAV:  12    -0.352519377693E+03   -0.85779E-04   -0.58845E-07  4112   0.187E-03    0.189E-03
DAV:  13    -0.352519481844E+03   -0.10415E-03   -0.10272E-06  4592   0.155E-03    0.152E-03
DAV:  14    -0.352519588669E+03   -0.10683E-03   -0.11500E-06  4648   0.153E-03    0.112E-03
DAV:  15    -0.352519668439E+03   -0.79770E-04   -0.93099E-07  4560   0.138E-03    0.822E-04
DAV:  16    -0.352519706834E+03   -0.38396E-04   -0.46947E-07  4000   0.132E-03    0.705E-04
DAV:  17    -0.352519751197E+03   -0.44362E-04   -0.92028E-07  4616   0.123E-03    0.809E-04
DAV:  18    -0.352519772727E+03   -0.21530E-04   -0.48655E-07  4232   0.124E-03    0.549E-04
DAV:  19    -0.352519779884E+03   -0.71569E-05   -0.29892E-07  3680   0.989E-04    0.513E-04
DAV:  20    -0.352519783148E+03   -0.32649E-05   -0.18668E-07  3608   0.811E-04    0.286E-04
DAV:  21    -0.352519785179E+03   -0.20310E-05   -0.11373E-07  3640   0.629E-04    0.277E-04
DAV:  22    -0.352519786454E+03   -0.12748E-05   -0.73632E-08  3696   0.507E-04    0.181E-04
DAV:  23    -0.352519787575E+03   -0.11207E-05   -0.55914E-08  3616   0.406E-04    0.186E-04
DAV:  24    -0.352519787831E+03   -0.25637E-06   -0.29163E-08  3648   0.356E-04
  21 F= -.36578812E+03 E0= -.36578812E+03  d E =-.528267E-02  mag=    53.0000
 curvature:  -1.33 expect dE=-0.393E-02 dE for cont linesearch -0.124E-06
 trial: gam= 0.72935 g(F)=  0.295E-02 g(S)=  0.000E+00 ort = 0.583E-04 (trialstep = 0.771E+00)
 search vector abs. value=  0.225E-01
 bond charge predicted
       N       E                     dE             d eps       ncg     rms          rms(c)
DAV:   1    -0.352518856196E+03    0.93138E-03   -0.34899E-01  6456   0.750E-01    0.331E-01
DAV:   2    -0.352521334676E+03   -0.24785E-02   -0.21933E-02  8432   0.330E-01    0.171E-01
DAV:   3    -0.352522084085E+03   -0.74941E-03   -0.93527E-04  8672   0.108E-01    0.102E-01
DAV:   4    -0.352521992109E+03    0.91976E-04   -0.66512E-05  9600   0.350E-02    0.742E-02
DAV:   5    -0.352521872026E+03    0.12008E-03   -0.49681E-05  8392   0.130E-02    0.518E-02
DAV:   6    -0.352521769444E+03    0.10258E-03   -0.56526E-05  9040   0.158E-02    0.170E-02
DAV:   7    -0.352521832858E+03   -0.63414E-04   -0.70758E-06  7760   0.904E-03    0.936E-03
DAV:   8    -0.352521906927E+03   -0.74068E-04   -0.16142E-06  4920   0.369E-03    0.648E-03
DAV:   9    -0.352521995102E+03   -0.88175E-04   -0.11113E-06  4560   0.282E-03    0.414E-03
DAV:  10    -0.352522092236E+03   -0.97134E-04   -0.18049E-06  5016   0.243E-03    0.239E-03
DAV:  11    -0.352522145344E+03   -0.53107E-04   -0.65290E-07  3936   0.208E-03    0.153E-03
DAV:  12    -0.352522183409E+03   -0.38066E-04   -0.45779E-07  3752   0.157E-03    0.119E-03
DAV:  13    -0.352522223339E+03   -0.39930E-04   -0.40660E-07  3968   0.138E-03    0.109E-03
DAV:  14    -0.352522277823E+03   -0.54484E-04   -0.74481E-07  4528   0.118E-03    0.853E-04
DAV:  15    -0.352522308051E+03   -0.30227E-04   -0.40622E-07  3872   0.118E-03    0.827E-04
DAV:  16    -0.352522325007E+03   -0.16956E-04   -0.31022E-07  3688   0.101E-03    0.612E-04
DAV:  17    -0.352522340528E+03   -0.15522E-04   -0.30019E-07  3896   0.892E-04    0.674E-04
DAV:  18    -0.352522360207E+03   -0.19678E-04   -0.51137E-07  4352   0.980E-04    0.730E-04
DAV:  19    -0.352522365358E+03   -0.51516E-05   -0.28275E-07  3768   0.109E-03    0.416E-04
DAV:  20    -0.352522365999E+03   -0.64070E-06   -0.14378E-07  3656   0.681E-04
  22 F= -.36579010E+03 E0= -.36579010E+03  d E =-.197596E-02  mag=    53.0000
 trial-energy change:   -0.001976  1 .order   -0.001994   -0.002310   -0.001679
 step:   2.8219(harm=  2.8219)  dis= 0.00867  next Energy=  -365.792348 (dE=-0.423E-02)
 bond charge predicted
       N       E                     dE             d eps       ncg     rms          rms(c)
DAV:   1    -0.352501343446E+03    0.21022E-01   -0.24644E+00  6400   0.200E+00    0.874E-01
DAV:   2    -0.352520811075E+03   -0.19468E-01   -0.15579E-01  8440   0.879E-01    0.461E-01
DAV:   3    -0.352524850379E+03   -0.40393E-02   -0.64805E-03  8640   0.283E-01    0.270E-01
DAV:   4    -0.352524465729E+03    0.38465E-03   -0.48251E-04  9592   0.928E-02    0.197E-01
DAV:   5    -0.352524024881E+03    0.44085E-03   -0.32977E-04  8512   0.337E-02    0.138E-01
DAV:   6    -0.352523743638E+03    0.28124E-03   -0.36672E-04  9072   0.418E-02    0.465E-02
DAV:   7    -0.352524003446E+03   -0.25981E-03   -0.54726E-05  9048   0.254E-02    0.243E-02
DAV:   8    -0.352524288398E+03   -0.28495E-03   -0.11841E-05  8416   0.999E-03    0.160E-02
DAV:   9    -0.352524636877E+03   -0.34848E-03   -0.41871E-06  6592   0.648E-03    0.109E-02
DAV:  10    -0.352525054505E+03   -0.41763E-03   -0.83152E-06  7584   0.479E-03    0.529E-03
DAV:  11    -0.352525263231E+03   -0.20873E-03   -0.12040E-06  4920   0.267E-03    0.317E-03
DAV:  12    -0.352525421621E+03   -0.15839E-03   -0.11185E-06  4704   0.235E-03    0.251E-03
DAV:  13    -0.352525605800E+03   -0.18418E-03   -0.19766E-06  5192   0.210E-03    0.159E-03
DAV:  14    -0.352525772146E+03   -0.16635E-03   -0.14550E-06  5016   0.159E-03    0.140E-03
DAV:  15    -0.352525873676E+03   -0.10153E-03   -0.78562E-07  4432   0.139E-03    0.121E-03
DAV:  16    -0.352526005262E+03   -0.13159E-03   -0.21915E-06  5432   0.176E-03    0.937E-04
DAV:  17    -0.352526088237E+03   -0.82975E-04   -0.16576E-06  5248   0.150E-03    0.608E-04
DAV:  18    -0.352526103076E+03   -0.14838E-04   -0.31211E-07  3984   0.110E-03    0.409E-04
DAV:  19    -0.352526110527E+03   -0.74514E-05   -0.26679E-07  3928   0.852E-04    0.280E-04
DAV:  20    -0.352526112685E+03   -0.21581E-05   -0.13823E-07  3592   0.827E-04    0.231E-04
DAV:  21    -0.352526113710E+03   -0.10246E-05   -0.89095E-08  3544   0.518E-04    0.126E-04
DAV:  22    -0.352526114254E+03   -0.54414E-06   -0.49259E-08  3576   0.485E-04
  23 F= -.36579222E+03 E0= -.36579222E+03  d E =-.410229E-02  mag=    53.0000
 curvature: -10.58 expect dE=-0.185E-01 dE for cont linesearch -0.249E-05
 trial: gam= 0.52216 g(F)=  0.175E-02 g(S)=  0.000E+00 ort =-0.727E-04 (trialstep = 0.118E+01)
 search vector abs. value=  0.780E-02
 bond charge predicted
       N       E                     dE             d eps       ncg     rms          rms(c)
DAV:   1    -0.352525731290E+03    0.38242E-03   -0.37757E-01  6472   0.809E-01    0.354E-01
DAV:   2    -0.352528265910E+03   -0.25346E-02   -0.23727E-02  8552   0.326E-01    0.159E-01
DAV:   3    -0.352528757832E+03   -0.49192E-03   -0.77458E-04  8576   0.878E-02    0.105E-01
DAV:   4    -0.352528723073E+03    0.34759E-04   -0.65967E-05  9552   0.294E-02    0.785E-02
DAV:   5    -0.352528689410E+03    0.33663E-04   -0.36046E-05  8808   0.122E-02    0.582E-02
DAV:   6    -0.352528683299E+03    0.61116E-05   -0.59658E-05  7960   0.130E-02    0.217E-02
DAV:   7    -0.352528702274E+03   -0.18975E-04   -0.99933E-06  7640   0.737E-03    0.856E-03
DAV:   8    -0.352528731820E+03   -0.29547E-04   -0.90128E-07  4472   0.314E-03    0.622E-03
DAV:   9    -0.352528753325E+03   -0.21505E-04   -0.76228E-07  4008   0.311E-03    0.349E-03
DAV:  10    -0.352528783475E+03   -0.30150E-04   -0.16803E-06  4648   0.259E-03    0.204E-03
DAV:  11    -0.352528792592E+03   -0.91171E-05   -0.64161E-07  3640   0.243E-03    0.162E-03
DAV:  12    -0.352528799333E+03   -0.67402E-05   -0.22300E-07  3552   0.131E-03    0.121E-03
DAV:  13    -0.352528807950E+03   -0.86175E-05   -0.12472E-07  3648   0.966E-04    0.600E-04
DAV:  14    -0.352528819448E+03   -0.11497E-04   -0.16053E-07  3816   0.710E-04    0.808E-04
DAV:  15    -0.352528824948E+03   -0.55004E-05   -0.84531E-08  3608   0.699E-04    0.432E-04
DAV:  16    -0.352528828731E+03   -0.37834E-05   -0.64624E-08  3584   0.431E-04    0.375E-04
DAV:  17    -0.352528834480E+03   -0.57490E-05   -0.68660E-08  3656   0.476E-04    0.332E-04
DAV:  18    -0.352528838630E+03   -0.41494E-05   -0.73521E-08  3680   0.424E-04    0.317E-04
DAV:  19    -0.352528841011E+03   -0.23807E-05   -0.57922E-08  3616   0.422E-04    0.230E-04
DAV:  20    -0.352528841635E+03   -0.62418E-06   -0.31310E-08  3648   0.342E-04
  24 F= -.36579385E+03 E0= -.36579385E+03  d E =-.162412E-02  mag=    53.0000
 trial-energy change:   -0.001624  1 .order   -0.001629   -0.002018   -0.001241
 step:   3.3061(harm=  3.0652)  dis= 0.00752  next Energy=  -365.794932 (dE=-0.271E-02)
 bond charge predicted
       N       E                     dE             d eps       ncg     rms          rms(c)
DAV:   1    -0.352521757612E+03    0.70834E-02   -0.12213E+00  6400   0.146E+00    0.636E-01
DAV:   2    -0.352530286544E+03   -0.85289E-02   -0.76728E-02  8512   0.587E-01    0.287E-01
DAV:   3    -0.352531592409E+03   -0.13059E-02   -0.24897E-03  8656   0.158E-01    0.189E-01
DAV:   4    -0.352531497906E+03    0.94503E-04   -0.21380E-04  9568   0.535E-02    0.142E-01
DAV:   5    -0.352531413567E+03    0.84338E-04   -0.11437E-04  8824   0.216E-02    0.105E-01
DAV:   6    -0.352531404878E+03    0.86899E-05   -0.19186E-04  7992   0.236E-02    0.395E-02
DAV:   7    -0.352531451623E+03   -0.46745E-04   -0.33729E-05  9152   0.133E-02    0.153E-02
DAV:   8    -0.352531519575E+03   -0.67952E-04   -0.25311E-06  5240   0.555E-03    0.103E-02
DAV:   9    -0.352531575620E+03   -0.56045E-04   -0.24314E-06  4784   0.522E-03    0.537E-03
DAV:  10    -0.352531645409E+03   -0.69789E-04   -0.55234E-06  6792   0.409E-03    0.286E-03
DAV:  11    -0.352531663355E+03   -0.17946E-04   -0.50636E-07  3720   0.209E-03    0.258E-03
DAV:  12    -0.352531683191E+03   -0.19836E-04   -0.25338E-07  3640   0.126E-03    0.144E-03
DAV:  13    -0.352531705545E+03   -0.22354E-04   -0.21140E-07  3728   0.976E-04    0.929E-04
DAV:  14    -0.352531726245E+03   -0.20700E-04   -0.19463E-07  3872   0.995E-04    0.804E-04
DAV:  15    -0.352531739371E+03   -0.13126E-04   -0.14288E-07  3608   0.797E-04    0.650E-04
DAV:  16    -0.352531753979E+03   -0.14609E-04   -0.16176E-07  3800   0.721E-04    0.620E-04
DAV:  17    -0.352531766985E+03   -0.13006E-04   -0.18680E-07  3880   0.683E-04    0.453E-04
DAV:  18    -0.352531779223E+03   -0.12238E-04   -0.23614E-07  4088   0.722E-04    0.512E-04
DAV:  19    -0.352531783261E+03   -0.40383E-05   -0.13782E-07  3608   0.746E-04    0.256E-04
DAV:  20    -0.352531785339E+03   -0.20781E-05   -0.98072E-08  3568   0.501E-04    0.306E-04
DAV:  21    -0.352531786792E+03   -0.14523E-05   -0.65045E-08  3608   0.482E-04    0.188E-04
DAV:  22    -0.352531787765E+03   -0.97305E-06   -0.52505E-08  3672   0.350E-04
  25 F= -.36579479E+03 E0= -.36579479E+03  d E =-.256713E-02  mag=    53.0000
 curvature:  -6.88 expect dE=-0.134E-01 dE for cont linesearch -0.218E-04
 trial: gam= 1.13484 g(F)=  0.194E-02 g(S)=  0.000E+00 ort =-0.157E-03 (trialstep = 0.108E+01)
 search vector abs. value=  0.116E-01
 bond charge predicted
       N       E                     dE             d eps       ncg     rms          rms(c)
DAV:   1    -0.352529441048E+03    0.23457E-02   -0.55950E-01  6472   0.100E+00    0.404E-01
DAV:   2    -0.352532797665E+03   -0.33566E-02   -0.35357E-02  8528   0.403E-01    0.197E-01
DAV:   3    -0.352533495018E+03   -0.69735E-03   -0.12832E-03  8792   0.107E-01    0.122E-01
DAV:   4    -0.352533345915E+03    0.14910E-03   -0.83958E-05  9600   0.322E-02    0.953E-02
DAV:   5    -0.352533139412E+03    0.20650E-03   -0.57261E-05  8776   0.141E-02    0.689E-02
DAV:   6    -0.352532902654E+03    0.23676E-03   -0.92020E-05  8800   0.188E-02    0.248E-02
DAV:   7    -0.352532974690E+03   -0.72035E-04   -0.13871E-05  8960   0.109E-02    0.104E-02
DAV:   8    -0.352533114685E+03   -0.14000E-03   -0.16535E-06  5120   0.469E-03    0.690E-03
DAV:   9    -0.352533255124E+03   -0.14044E-03   -0.20521E-06  5072   0.332E-03    0.367E-03
DAV:  10    -0.352533397690E+03   -0.14257E-03   -0.21306E-06  5152   0.243E-03    0.223E-03
DAV:  11    -0.352533488114E+03   -0.90424E-04   -0.74114E-07  4168   0.212E-03    0.171E-03
DAV:  12    -0.352533563110E+03   -0.74996E-04   -0.64333E-07  4088   0.181E-03    0.157E-03
DAV:  13    -0.352533636008E+03   -0.72898E-04   -0.69682E-07  4472   0.164E-03    0.129E-03
DAV:  14    -0.352533709199E+03   -0.73191E-04   -0.95015E-07  4400   0.141E-03    0.113E-03
DAV:  15    -0.352533780926E+03   -0.71728E-04   -0.11640E-06  4800   0.147E-03    0.960E-04
DAV:  16    -0.352533820963E+03   -0.40037E-04   -0.59485E-07  4352   0.121E-03    0.681E-04
DAV:  17    -0.352533846822E+03   -0.25859E-04   -0.62232E-07  4376   0.121E-03    0.718E-04
DAV:  18    -0.352533854830E+03   -0.80077E-05   -0.36529E-07  3776   0.123E-03    0.524E-04
DAV:  19    -0.352533857818E+03   -0.29876E-05   -0.26471E-07  3736   0.866E-04    0.431E-04
DAV:  20    -0.352533858298E+03   -0.47999E-06   -0.13026E-07  3600   0.784E-04
  26 F= -.36579624E+03 E0= -.36579624E+03  d E =-.144972E-02  mag=    53.0000
 trial-energy change:   -0.001450  1 .order   -0.001439   -0.001902   -0.000977
 step:   2.0830(harm=  2.2142)  dis= 0.00680  next Energy=  -365.796704 (dE=-0.191E-02)
 bond charge predicted
       N       E                     dE             d eps       ncg     rms          rms(c)
DAV:   1    -0.352531131701E+03    0.27261E-02   -0.48834E-01  6488   0.934E-01    0.377E-01
DAV:   2    -0.352534028739E+03   -0.28970E-02   -0.30817E-02  8424   0.376E-01    0.184E-01
DAV:   3    -0.352534649677E+03   -0.62094E-03   -0.11078E-03  8744   0.992E-02    0.114E-01
DAV:   4    -0.352534514565E+03    0.13511E-03   -0.72397E-05  9560   0.296E-02    0.891E-02
DAV:   5    -0.352534323926E+03    0.19064E-03   -0.50689E-05  8768   0.132E-02    0.642E-02
DAV:   6    -0.352534110903E+03    0.21302E-03   -0.79492E-05  8848   0.174E-02    0.229E-02
DAV:   7    -0.352534175994E+03   -0.65091E-04   -0.11849E-05  8760   0.101E-02    0.970E-03
DAV:   8    -0.352534303031E+03   -0.12704E-03   -0.14251E-06  5000   0.447E-03    0.642E-03
DAV:   9    -0.352534429361E+03   -0.12633E-03   -0.18354E-06  5016   0.315E-03    0.347E-03
DAV:  10    -0.352534556567E+03   -0.12721E-03   -0.19143E-06  4960   0.231E-03    0.219E-03
DAV:  11    -0.352534637080E+03   -0.80513E-04   -0.70299E-07  4120   0.206E-03    0.159E-03
DAV:  12    -0.352534707546E+03   -0.70465E-04   -0.62311E-07  4088   0.177E-03    0.151E-03
DAV:  13    -0.352534772759E+03   -0.65214E-04   -0.64075E-07  4400   0.161E-03    0.122E-03
DAV:  14    -0.352534841108E+03   -0.68349E-04   -0.89536E-07  4360   0.137E-03    0.110E-03
DAV:  15    -0.352534903081E+03   -0.61973E-04   -0.93268E-07  4552   0.143E-03    0.107E-03
DAV:  16    -0.352534937606E+03   -0.34526E-04   -0.60617E-07  4144   0.126E-03    0.779E-04
DAV:  17    -0.352534965596E+03   -0.27990E-04   -0.81007E-07  4520   0.124E-03    0.806E-04
DAV:  18    -0.352534972515E+03   -0.69188E-05   -0.35197E-07  3776   0.122E-03    0.440E-04
DAV:  19    -0.352534974726E+03   -0.22102E-05   -0.22792E-07  3624   0.792E-04    0.445E-04
DAV:  20    -0.352534975170E+03   -0.44430E-06   -0.11260E-07  3616   0.724E-04
  27 F= -.36579677E+03 E0= -.36579676E+03  d E =-.197578E-02  mag=    53.0000
 curvature:  -7.19 expect dE=-0.490E-02 dE for cont linesearch -0.770E-05
 trial: gam= 0.13861 g(F)=  0.682E-03 g(S)=  0.000E+00 ort = 0.112E-03 (trialstep = 0.128E+01)
 search vector abs. value=  0.936E-03
 bond charge predicted
       N       E                     dE             d eps       ncg     rms          rms(c)
DAV:   1    -0.352534471916E+03    0.50281E-03   -0.12954E-01  6480   0.496E-01    0.226E-01
DAV:   2    -0.352535233491E+03   -0.76157E-03   -0.87028E-03  8992   0.211E-01    0.106E-01
DAV:   3    -0.352535355602E+03   -0.12211E-03   -0.20027E-04  9040   0.526E-02    0.672E-02
DAV:   4    -0.352535344821E+03    0.10781E-04   -0.23448E-05  9464   0.169E-02    0.496E-02
DAV:   5    -0.352535333747E+03    0.11074E-04   -0.22198E-05  7696   0.816E-03    0.318E-02
DAV:   6    -0.352535338339E+03   -0.45920E-05   -0.18363E-05  9016   0.857E-03    0.100E-02
DAV:   7    -0.352535342077E+03   -0.37385E-05   -0.12961E-06  3784   0.496E-03    0.584E-03
DAV:   8    -0.352535347334E+03   -0.52571E-05   -0.75970E-07  3808   0.318E-03    0.322E-03
DAV:   9    -0.352535351216E+03   -0.38818E-05   -0.59407E-07  3736   0.193E-03    0.208E-03
DAV:  10    -0.352535353335E+03   -0.21183E-05   -0.25472E-07  3664   0.148E-03    0.148E-03
DAV:  11    -0.352535355253E+03   -0.19186E-05   -0.10238E-07  3520   0.844E-04    0.109E-03
DAV:  12    -0.352535357235E+03   -0.19816E-05   -0.52367E-08  3576   0.677E-04    0.700E-04
DAV:  13    -0.352535359088E+03   -0.18527E-05   -0.43089E-08  3584   0.517E-04    0.534E-04
DAV:  14    -0.352535360103E+03   -0.10154E-05   -0.24813E-08  3616   0.422E-04    0.341E-04
DAV:  15    -0.352535360754E+03   -0.65137E-06   -0.14547E-08  3576   0.271E-04
  28 F= -.36579746E+03 E0= -.36579746E+03  d E =-.697758E-03  mag=    53.0000
 trial-energy change:   -0.000698  1 .order   -0.000695   -0.000891   -0.000498
 step:   2.8992(harm=  2.8992)  dis= 0.00488  next Energy=  -365.797776 (dE=-0.101E-02)
 bond charge predicted
       N       E                     dE             d eps       ncg     rms          rms(c)
DAV:   1    -0.352533864344E+03    0.14958E-02   -0.20848E-01  6472   0.630E-01    0.287E-01
DAV:   2    -0.352535123631E+03   -0.12593E-02   -0.14004E-02  8984   0.268E-01    0.135E-01
DAV:   3    -0.352535289296E+03   -0.16567E-03   -0.32308E-04  9000   0.669E-02    0.854E-02
DAV:   4    -0.352535268805E+03    0.20490E-04   -0.37759E-05  9456   0.216E-02    0.630E-02
DAV:   5    -0.352535253529E+03    0.15276E-04   -0.35792E-05  7792   0.104E-02    0.404E-02
DAV:   6    -0.352535259538E+03   -0.60088E-05   -0.29737E-05  9072   0.110E-02    0.127E-02
DAV:   7    -0.352535265222E+03   -0.56835E-05   -0.22188E-06  4600   0.633E-03    0.727E-03
DAV:   8    -0.352535273271E+03   -0.80497E-05   -0.10771E-06  3792   0.392E-03    0.401E-03
DAV:   9    -0.352535279333E+03   -0.60616E-05   -0.89621E-07  3808   0.249E-03    0.255E-03
DAV:  10    -0.352535282933E+03   -0.36004E-05   -0.42248E-07  3656   0.184E-03    0.182E-03
DAV:  11    -0.352535285951E+03   -0.30177E-05   -0.17144E-07  3544   0.110E-03    0.136E-03
DAV:  12    -0.352535289242E+03   -0.32913E-05   -0.86948E-08  3584   0.854E-04    0.866E-04
DAV:  13    -0.352535292199E+03   -0.29562E-05   -0.70629E-08  3640   0.667E-04    0.664E-04
DAV:  14    -0.352535293849E+03   -0.16502E-05   -0.42221E-08  3592   0.525E-04    0.425E-04
DAV:  15    -0.352535294831E+03   -0.98181E-06   -0.24221E-08  3600   0.350E-04
  29 F= -.36579779E+03 E0= -.36579779E+03  d E =-.102523E-02  mag=    53.0000
 curvature:  -1.95 expect dE=-0.108E-02 dE for cont linesearch -0.561E-08
 trial: gam= 0.84587 g(F)=  0.556E-03 g(S)=  0.000E+00 ort = 0.164E-05 (trialstep = 0.122E+01)
 search vector abs. value=  0.123E-02
 bond charge predicted
       N       E                     dE             d eps       ncg     rms          rms(c)
DAV:   1    -0.352534735790E+03    0.55806E-03   -0.16329E-01  6608   0.544E-01    0.211E-01
DAV:   2    -0.352535653964E+03   -0.91817E-03   -0.11106E-02  8896   0.227E-01    0.100E-01
DAV:   3    -0.352535800275E+03   -0.14631E-03   -0.17042E-04  8768   0.360E-02    0.659E-02
DAV:   4    -0.352535786439E+03    0.13837E-04   -0.20845E-05  9056   0.104E-02    0.507E-02
DAV:   5    -0.352535765423E+03    0.21015E-04   -0.26605E-05  7848   0.971E-03    0.323E-02
DAV:   6    -0.352535757581E+03    0.78426E-05   -0.20138E-05  9040   0.839E-03    0.105E-02
DAV:   7    -0.352535761478E+03   -0.38974E-05   -0.11622E-06  3808   0.420E-03    0.613E-03
DAV:   8    -0.352535769846E+03   -0.83676E-05   -0.58268E-07  3616   0.316E-03    0.337E-03
DAV:   9    -0.352535777305E+03   -0.74594E-05   -0.51399E-07  3760   0.178E-03    0.156E-03
DAV:  10    -0.352535781801E+03   -0.44958E-05   -0.23095E-07  3600   0.151E-03    0.120E-03
DAV:  11    -0.352535786180E+03   -0.43789E-05   -0.11897E-07  3536   0.964E-04    0.818E-04
DAV:  12    -0.352535791195E+03   -0.50153E-05   -0.89507E-08  3688   0.794E-04    0.648E-04
DAV:  13    -0.352535795139E+03   -0.39440E-05   -0.70956E-08  3616   0.571E-04    0.462E-04
DAV:  14    -0.352535797519E+03   -0.23800E-05   -0.43199E-08  3560   0.454E-04    0.322E-04
DAV:  15    -0.352535798659E+03   -0.11400E-05   -0.24757E-08  3616   0.326E-04    0.256E-04
DAV:  16    -0.352535800673E+03   -0.20140E-05   -0.23259E-08  3520   0.264E-04    0.197E-04
DAV:  17    -0.352535803058E+03   -0.23847E-05   -0.31115E-08  3552   0.282E-04    0.219E-04
DAV:  18    -0.352535804145E+03   -0.10871E-05   -0.21741E-08  3624   0.300E-04    0.165E-04
DAV:  19    -0.352535804622E+03   -0.47659E-06   -0.14544E-08  3560   0.216E-04
  30 F= -.36579840E+03 E0= -.36579839E+03  d E =-.608010E-03  mag=    53.0001
 trial-energy change:   -0.000608  1 .order   -0.000601   -0.000681   -0.000522
 step:   3.5334(harm=  5.2334)  dis= 0.00785  next Energy=  -365.798939 (dE=-0.115E-02)
 reached required accuracy - stopping structural energy minimisation
Note: The following floating-point exceptions are signalling: IEEE_OVERFLOW_FLAG IEEE_UNDERFLOW_FLAG IEEE_DENORMAL
Note: The following floating-point exceptions are signalling: IEEE_OVERFLOW_FLAG IEEE_UNDERFLOW_FLAG IEEE_DENORMAL
Note: The following floating-point exceptions are signalling: IEEE_OVERFLOW_FLAG IEEE_UNDERFLOW_FLAG IEEE_DENORMAL
Note: The following floating-point exceptions are signalling: IEEE_OVERFLOW_FLAG IEEE_UNDERFLOW_FLAG IEEE_DENORMAL
Note: The following floating-point exceptions are signalling: IEEE_OVERFLOW_FLAG IEEE_UNDERFLOW_FLAG IEEE_DENORMAL
Note: The following floating-point exceptions are signalling: IEEE_OVERFLOW_FLAG IEEE_UNDERFLOW_FLAG IEEE_DENORMAL
Note: The following floating-point exceptions are signalling: IEEE_OVERFLOW_FLAG IEEE_UNDERFLOW_FLAG IEEE_DENORMAL
Note: The following floating-point exceptions are signalling: IEEE_OVERFLOW_FLAG IEEE_UNDERFLOW_FLAG IEEE_DENORMAL
Note: The following floating-point exceptions are signalling: IEEE_OVERFLOW_FLAG IEEE_UNDERFLOW_FLAG IEEE_DENORMAL
Note: The following floating-point exceptions are signalling: IEEE_OVERFLOW_FLAG IEEE_UNDERFLOW_FLAG IEEE_DENORMAL
Note: The following floating-point exceptions are signalling: IEEE_OVERFLOW_FLAG IEEE_UNDERFLOW_FLAG IEEE_DENORMAL
Note: The following floating-point exceptions are signalling: IEEE_OVERFLOW_FLAG IEEE_UNDERFLOW_FLAG IEEE_DENORMAL
Note: The following floating-point exceptions are signalling: IEEE_OVERFLOW_FLAG IEEE_UNDERFLOW_FLAG IEEE_DENORMAL
Note: The following floating-point exceptions are signalling: IEEE_OVERFLOW_FLAG IEEE_UNDERFLOW_FLAG IEEE_DENORMAL
Note: The following floating-point exceptions are signalling: IEEE_OVERFLOW_FLAG IEEE_UNDERFLOW_FLAG IEEE_DENORMAL
Note: The following floating-point exceptions are signalling: IEEE_OVERFLOW_FLAG IEEE_UNDERFLOW_FLAG IEEE_DENORMAL
Note: The following floating-point exceptions are signalling: IEEE_OVERFLOW_FLAG IEEE_UNDERFLOW_FLAG IEEE_DENORMAL
Note: The following floating-point exceptions are signalling: IEEE_OVERFLOW_FLAG IEEE_UNDERFLOW_FLAG IEEE_DENORMAL
Note: The following floating-point exceptions are signalling: IEEE_OVERFLOW_FLAG IEEE_UNDERFLOW_FLAG IEEE_DENORMAL
Note: The following floating-point exceptions are signalling: IEEE_OVERFLOW_FLAG IEEE_UNDERFLOW_FLAG IEEE_DENORMAL
Note: The following floating-point exceptions are signalling: IEEE_OVERFLOW_FLAG IEEE_UNDERFLOW_FLAG IEEE_DENORMAL
Note: The following floating-point exceptions are signalling: IEEE_OVERFLOW_FLAG IEEE_UNDERFLOW_FLAG IEEE_DENORMAL
Note: The following floating-point exceptions are signalling: IEEE_OVERFLOW_FLAG IEEE_UNDERFLOW_FLAG IEEE_DENORMAL
Note: The following floating-point exceptions are signalling: IEEE_OVERFLOW_FLAG IEEE_UNDERFLOW_FLAG IEEE_DENORMAL
Note: The following floating-point exceptions are signalling: IEEE_OVERFLOW_FLAG IEEE_UNDERFLOW_FLAG IEEE_DENORMAL
Note: The following floating-point exceptions are signalling: IEEE_OVERFLOW_FLAG IEEE_UNDERFLOW_FLAG IEEE_DENORMAL
Note: The following floating-point exceptions are signalling: IEEE_OVERFLOW_FLAG IEEE_UNDERFLOW_FLAG IEEE_DENORMAL
Note: The following floating-point exceptions are signalling: IEEE_OVERFLOW_FLAG IEEE_UNDERFLOW_FLAG IEEE_DENORMAL
Note: The following floating-point exceptions are signalling: IEEE_OVERFLOW_FLAG IEEE_UNDERFLOW_FLAG IEEE_DENORMAL
Note: The following floating-point exceptions are signalling: IEEE_OVERFLOW_FLAG IEEE_UNDERFLOW_FLAG IEEE_DENORMAL
Note: The following floating-point exceptions are signalling: IEEE_OVERFLOW_FLAG IEEE_UNDERFLOW_FLAG IEEE_DENORMAL
Note: The following floating-point exceptions are signalling: IEEE_OVERFLOW_FLAG IEEE_UNDERFLOW_FLAG IEEE_DENORMAL
Note: The following floating-point exceptions are signalling: IEEE_OVERFLOW_FLAG IEEE_UNDERFLOW_FLAG IEEE_DENORMAL
Note: The following floating-point exceptions are signalling: IEEE_OVERFLOW_FLAG IEEE_UNDERFLOW_FLAG IEEE_DENORMAL
Note: The following floating-point exceptions are signalling: IEEE_OVERFLOW_FLAG IEEE_UNDERFLOW_FLAG IEEE_DENORMAL
Note: The following floating-point exceptions are signalling: IEEE_OVERFLOW_FLAG IEEE_UNDERFLOW_FLAG IEEE_DENORMAL
Note: The following floating-point exceptions are signalling: IEEE_OVERFLOW_FLAG IEEE_UNDERFLOW_FLAG IEEE_DENORMAL
Note: The following floating-point exceptions are signalling: IEEE_OVERFLOW_FLAG IEEE_UNDERFLOW_FLAG IEEE_DENORMAL
Note: The following floating-point exceptions are signalling: IEEE_OVERFLOW_FLAG IEEE_UNDERFLOW_FLAG IEEE_DENORMAL
Note: The following floating-point exceptions are signalling: IEEE_OVERFLOW_FLAG IEEE_UNDERFLOW_FLAG IEEE_DENORMAL
Note: The following floating-point exceptions are signalling: IEEE_OVERFLOW_FLAG IEEE_UNDERFLOW_FLAG IEEE_DENORMAL
Note: The following floating-point exceptions are signalling: IEEE_OVERFLOW_FLAG IEEE_UNDERFLOW_FLAG IEEE_DENORMAL
Note: The following floating-point exceptions are signalling: IEEE_OVERFLOW_FLAG IEEE_UNDERFLOW_FLAG IEEE_DENORMAL
Note: The following floating-point exceptions are signalling: IEEE_OVERFLOW_FLAG IEEE_UNDERFLOW_FLAG IEEE_DENORMAL
Note: The following floating-point exceptions are signalling: IEEE_OVERFLOW_FLAG IEEE_UNDERFLOW_FLAG IEEE_DENORMAL
Note: The following floating-point exceptions are signalling: IEEE_OVERFLOW_FLAG IEEE_UNDERFLOW_FLAG IEEE_DENORMAL
Note: The following floating-point exceptions are signalling: IEEE_OVERFLOW_FLAG IEEE_UNDERFLOW_FLAG IEEE_DENORMAL
Note: The following floating-point exceptions are signalling: IEEE_OVERFLOW_FLAG IEEE_UNDERFLOW_FLAG IEEE_DENORMAL
Note: The following floating-point exceptions are signalling: IEEE_OVERFLOW_FLAG IEEE_UNDERFLOW_FLAG IEEE_DENORMAL
Note: The following floating-point exceptions are signalling: IEEE_OVERFLOW_FLAG IEEE_UNDERFLOW_FLAG IEEE_DENORMAL
Note: The following floating-point exceptions are signalling: IEEE_OVERFLOW_FLAG IEEE_UNDERFLOW_FLAG IEEE_DENORMAL
Note: The following floating-point exceptions are signalling: IEEE_OVERFLOW_FLAG IEEE_UNDERFLOW_FLAG IEEE_DENORMAL
Note: The following floating-point exceptions are signalling: IEEE_OVERFLOW_FLAG IEEE_UNDERFLOW_FLAG IEEE_DENORMAL
Note: The following floating-point exceptions are signalling: IEEE_OVERFLOW_FLAG IEEE_UNDERFLOW_FLAG IEEE_DENORMAL
Note: The following floating-point exceptions are signalling: IEEE_OVERFLOW_FLAG IEEE_UNDERFLOW_FLAG IEEE_DENORMAL
Note: The following floating-point exceptions are signalling: IEEE_OVERFLOW_FLAG IEEE_UNDERFLOW_FLAG IEEE_DENORMAL
Note: The following floating-point exceptions are signalling: IEEE_OVERFLOW_FLAG IEEE_UNDERFLOW_FLAG IEEE_DENORMAL
Note: The following floating-point exceptions are signalling: IEEE_OVERFLOW_FLAG IEEE_UNDERFLOW_FLAG IEEE_DENORMAL
Note: The following floating-point exceptions are signalling: IEEE_OVERFLOW_FLAG IEEE_UNDERFLOW_FLAG IEEE_DENORMAL
Note: The following floating-point exceptions are signalling: IEEE_OVERFLOW_FLAG IEEE_UNDERFLOW_FLAG IEEE_DENORMAL
Note: The following floating-point exceptions are signalling: IEEE_OVERFLOW_FLAG IEEE_UNDERFLOW_FLAG IEEE_DENORMAL
Note: The following floating-point exceptions are signalling: IEEE_OVERFLOW_FLAG IEEE_UNDERFLOW_FLAG IEEE_DENORMAL
Note: The following floating-point exceptions are signalling: IEEE_OVERFLOW_FLAG IEEE_UNDERFLOW_FLAG IEEE_DENORMAL
Note: The following floating-point exceptions are signalling: IEEE_OVERFLOW_FLAG IEEE_UNDERFLOW_FLAG IEEE_DENORMAL
