       N       E                     dE             d eps       ncg     rms          rms(c)
DAV:   1     0.208814198036E+04    0.20881E+04   -0.61613E+04  2928   0.918E+02
DAV:   2     0.409697263218E+03   -0.16784E+04   -0.15668E+04  3492   0.247E+02
DAV:   3    -0.127415014409E+03   -0.53711E+03   -0.51946E+03  4188   0.138E+02
DAV:   4    -0.174593698157E+03   -0.47179E+02   -0.46382E+02  4476   0.580E+01
DAV:   5    -0.175439210320E+03   -0.84551E+00   -0.83241E+00  4404   0.987E+00    0.422E+01
DAV:   6    -0.167034698997E+03    0.84045E+01   -0.15061E+02  4224   0.660E+01    0.448E+01
DAV:   7    -0.158267469865E+03    0.87672E+01   -0.34674E+01  4128   0.751E+01    0.212E+01
DAV:   8    -0.158542570109E+03   -0.27510E+00   -0.96851E+00  4248   0.163E+01    0.122E+01
DAV:   9    -0.158231869479E+03    0.31070E+00   -0.40058E+00  4404   0.201E+01    0.847E+00
DAV:  10    -0.157810045841E+03    0.42182E+00   -0.98595E-01  4128   0.820E+00    0.237E+00
DAV:  11    -0.157917487079E+03   -0.10744E+00   -0.18885E-01  4224   0.212E+00    0.158E+00
DAV:  12    -0.157981476898E+03   -0.63990E-01   -0.32912E-02  4212   0.165E+00    0.634E-01
DAV:  13    -0.158019349655E+03   -0.37873E-01   -0.77932E-03  4356   0.588E-01    0.338E-01
DAV:  14    -0.158038839379E+03   -0.19490E-01   -0.31224E-03  4344   0.375E-01    0.177E-01
DAV:  15    -0.158047274317E+03   -0.84349E-02   -0.75344E-04  4152   0.139E-01    0.866E-02
DAV:  16    -0.158050012979E+03   -0.27387E-02   -0.18287E-04  4308   0.715E-02    0.566E-02
DAV:  17    -0.158052775815E+03   -0.27628E-02   -0.14506E-04  3624   0.349E-02    0.412E-02
DAV:  18    -0.158055432856E+03   -0.26570E-02   -0.16343E-04  3816   0.360E-02    0.312E-02
DAV:  19    -0.158057385098E+03   -0.19522E-02   -0.19604E-04  3504   0.333E-02    0.221E-02
DAV:  20    -0.158057926483E+03   -0.54138E-03   -0.53204E-05  3864   0.181E-02    0.112E-02
DAV:  21    -0.158058242418E+03   -0.31594E-03   -0.22812E-05  3468   0.150E-02    0.814E-03
DAV:  22    -0.158058381830E+03   -0.13941E-03   -0.91729E-06  3444   0.117E-02    0.391E-03
DAV:  23    -0.158058458483E+03   -0.76653E-04   -0.15756E-06  2436   0.561E-03    0.250E-03
DAV:  24    -0.158058514863E+03   -0.56380E-04   -0.12813E-06  2160   0.378E-03    0.203E-03
DAV:  25    -0.158058553850E+03   -0.38987E-04   -0.10562E-06  2124   0.262E-03    0.149E-03
DAV:  26    -0.158058567606E+03   -0.13755E-04   -0.30520E-07  1848   0.175E-03    0.113E-03
DAV:  27    -0.158058585483E+03   -0.17877E-04   -0.78651E-07  2076   0.158E-03    0.764E-04
DAV:  28    -0.158058594932E+03   -0.94495E-05   -0.44627E-07  2028   0.186E-03    0.881E-04
DAV:  29    -0.158058598826E+03   -0.38939E-05   -0.18051E-07  1800   0.159E-03    0.646E-04
DAV:  30    -0.158058602271E+03   -0.34451E-05   -0.10551E-07  1704   0.790E-04    0.320E-04
DAV:  31    -0.158058607583E+03   -0.53120E-05   -0.80274E-08  1704   0.752E-04    0.395E-04
DAV:  32    -0.158058610994E+03   -0.34106E-05   -0.57677E-08  1740   0.648E-04    0.227E-04
DAV:  33    -0.158058612977E+03   -0.19831E-05   -0.40177E-08  1692   0.561E-04    0.320E-04
DAV:  34    -0.158058614137E+03   -0.11606E-05   -0.27176E-08  1704   0.466E-04    0.162E-04
DAV:  35    -0.158058615156E+03   -0.10189E-05   -0.25403E-08  1740   0.386E-04    0.224E-04
DAV:  36    -0.158058615538E+03   -0.38197E-06   -0.13773E-08  1704   0.364E-04
   1 F= -.16384732E+03 E0= -.16384732E+03  d E =-.163847E+03  mag=    23.0001
       N       E                     dE             d eps       ncg     rms          rms(c)
DAV:   1    -0.158056060048E+03    0.25551E-02   -0.45406E-01  2904   0.135E+00    0.497E-01
DAV:   2    -0.158059157881E+03   -0.30978E-02   -0.36111E-02  4056   0.816E-01    0.318E-01
DAV:   3    -0.158059003385E+03    0.15450E-03   -0.10532E-03  4104   0.248E-01    0.183E-01
DAV:   4    -0.158058948825E+03    0.54560E-04   -0.10854E-04  4356   0.716E-02    0.153E-01
DAV:   5    -0.158058908231E+03    0.40594E-04   -0.24447E-04  3972   0.421E-02    0.879E-02
DAV:   6    -0.158058914604E+03   -0.63733E-05   -0.74575E-05  4200   0.616E-02    0.288E-02
DAV:   7    -0.158058921017E+03   -0.64133E-05   -0.14820E-05  3816   0.376E-02    0.164E-02
DAV:   8    -0.158058926824E+03   -0.58064E-05   -0.21622E-06  2532   0.177E-02    0.145E-02
DAV:   9    -0.158058936466E+03   -0.96426E-05   -0.81211E-07  1728   0.633E-03    0.115E-02
DAV:  10    -0.158058944624E+03   -0.81575E-05   -0.11919E-06  1752   0.477E-03    0.469E-03
DAV:  11    -0.158058949254E+03   -0.46300E-05   -0.87710E-07  1776   0.375E-03    0.320E-03
DAV:  12    -0.158058953095E+03   -0.38411E-05   -0.57960E-07  1776   0.338E-03    0.160E-03
DAV:  13    -0.158058956500E+03   -0.34050E-05   -0.22973E-07  1776   0.208E-03    0.120E-03
DAV:  14    -0.158058959514E+03   -0.30140E-05   -0.89731E-08  1764   0.160E-03    0.561E-04
DAV:  15    -0.158058960895E+03   -0.13812E-05   -0.54445E-08  1788   0.912E-04    0.401E-04
DAV:  16    -0.158058962210E+03   -0.13153E-05   -0.28713E-08  1764   0.688E-04    0.301E-04
DAV:  17    -0.158058963274E+03   -0.10639E-05   -0.12405E-08  1788   0.450E-04    0.270E-04
DAV:  18    -0.158058965561E+03   -0.22869E-05   -0.17735E-08  1728   0.349E-04    0.238E-04
DAV:  19    -0.158058966776E+03   -0.12145E-05   -0.10907E-08  1776   0.375E-04    0.166E-04
DAV:  20    -0.158058967220E+03   -0.44474E-06   -0.56534E-09  1776   0.266E-04
   2 F= -.16385110E+03 E0= -.16385110E+03  d E =-.377225E-02  mag=    23.0000
       N       E                     dE             d eps       ncg     rms          rms(c)
DAV:   1    -0.158054773398E+03    0.41934E-02   -0.38078E-01  2904   0.124E+00    0.454E-01
DAV:   2    -0.158057374380E+03   -0.26010E-02   -0.30361E-02  4080   0.748E-01    0.291E-01
DAV:   3    -0.158057247915E+03    0.12647E-03   -0.88298E-04  4092   0.227E-01    0.168E-01
DAV:   4    -0.158057201363E+03    0.46552E-04   -0.91310E-05  4296   0.655E-02    0.141E-01
DAV:   5    -0.158057166969E+03    0.34394E-04   -0.20583E-04  3960   0.387E-02    0.804E-02
DAV:   6    -0.158057172745E+03   -0.57763E-05   -0.62569E-05  4176   0.565E-02    0.264E-02
DAV:   7    -0.158057178590E+03   -0.58450E-05   -0.12406E-05  3672   0.345E-02    0.151E-02
DAV:   8    -0.158057184054E+03   -0.54639E-05   -0.17637E-06  2484   0.163E-02    0.134E-02
DAV:   9    -0.158057192800E+03   -0.87459E-05   -0.72525E-07  1728   0.579E-03    0.106E-02
DAV:  10    -0.158057200248E+03   -0.74479E-05   -0.10111E-06  1716   0.444E-03    0.427E-03
DAV:  11    -0.158057204488E+03   -0.42402E-05   -0.75360E-07  1788   0.346E-03    0.292E-03
DAV:  12    -0.158057208007E+03   -0.35185E-05   -0.50494E-07  1776   0.316E-03    0.144E-03
DAV:  13    -0.158057211084E+03   -0.30773E-05   -0.19808E-07  1776   0.192E-03    0.110E-03
DAV:  14    -0.158057213789E+03   -0.27056E-05   -0.78237E-08  1740   0.148E-03    0.519E-04
DAV:  15    -0.158057215059E+03   -0.12701E-05   -0.47186E-08  1788   0.872E-04    0.375E-04
DAV:  16    -0.158057216279E+03   -0.12198E-05   -0.25375E-08  1764   0.642E-04    0.280E-04
DAV:  17    -0.158057217204E+03   -0.92436E-06   -0.11006E-08  1788   0.421E-04
   3 F= -.16385247E+03 E0= -.16385247E+03  d E =-.514759E-02  mag=    23.0000
