       N       E                     dE             d eps       ncg     rms          rms(c)
DAV:   1     0.375436048822E+01    0.37544E+01   -0.33699E+02    30   0.107E+02
DAV:   2    -0.599223034790E+01   -0.97466E+01   -0.97466E+01    24   0.351E+01
DAV:   3    -0.743784514400E+01   -0.14456E+01   -0.14456E+01    36   0.160E+01
DAV:   4    -0.745669353918E+01   -0.18848E-01   -0.18848E-01    30   0.193E+00
DAV:   5    -0.745670155448E+01   -0.80153E-05   -0.80153E-05    24   0.387E-02    0.453E+00
DAV:   6    -0.700205929061E+01    0.45464E+00   -0.22934E-01    24   0.184E+00    0.248E+00
DAV:   7    -0.675388487246E+01    0.24817E+00   -0.54460E-01    36   0.288E+00    0.306E-01
DAV:   8    -0.675735960122E+01   -0.34747E-02   -0.60531E-03    48   0.259E-01    0.276E-01
DAV:   9    -0.675361160473E+01    0.37480E-02   -0.52572E-03    36   0.278E-01    0.504E-02
DAV:  10    -0.675491383643E+01   -0.13022E-02   -0.10739E-03    24   0.115E-01    0.129E-02
DAV:  11    -0.675561744962E+01   -0.70361E-03   -0.10192E-04    24   0.377E-02    0.210E-02
DAV:  12    -0.675689487151E+01   -0.12774E-02   -0.15839E-04    24   0.513E-02    0.117E-02
DAV:  13    -0.675758291098E+01   -0.68804E-03   -0.13528E-04    48   0.451E-02    0.807E-03
DAV:  14    -0.675782708762E+01   -0.24418E-03   -0.11962E-05    36   0.143E-02    0.211E-03
DAV:  15    -0.675795546136E+01   -0.12837E-03   -0.87800E-06    48   0.112E-02    0.241E-03
DAV:  16    -0.675798128831E+01   -0.25827E-04   -0.42002E-07    24   0.299E-03    0.780E-04
DAV:  17    -0.675801827083E+01   -0.36983E-04   -0.82754E-07    48   0.359E-03    0.881E-04
DAV:  18    -0.675802274468E+01   -0.44739E-05   -0.74627E-08    24   0.131E-03    0.228E-04
DAV:  19    -0.675802960150E+01   -0.68568E-05   -0.45835E-08    24   0.935E-04    0.244E-04
DAV:  20    -0.675803229967E+01   -0.26982E-05   -0.35541E-08    24   0.744E-04    0.531E-05
DAV:  21    -0.675803345843E+01   -0.11588E-05   -0.38443E-09    24   0.266E-04    0.350E-05
DAV:  22    -0.675803410978E+01   -0.65135E-06   -0.35565E-09    24   0.252E-04
   1 F= -.67605296E+01 E0= -.67605296E+01  d E =-.676053E+01  mag=    -0.0000
       N       E                     dE             d eps       ncg     rms          rms(c)
DAV:   1    -0.675262719563E+01    0.54063E-02   -0.30918E-01    24   0.349E+00    0.270E-01
DAV:   2    -0.675147692499E+01    0.11503E-02   -0.16137E-03    36   0.216E-01    0.146E-01
DAV:   3    -0.675114870163E+01    0.32822E-03   -0.12101E-03    48   0.125E-01    0.105E-02
DAV:   4    -0.675117336339E+01   -0.24662E-04   -0.30102E-06    36   0.783E-03    0.458E-03
DAV:   5    -0.675118665647E+01   -0.13293E-04   -0.22173E-06    36   0.650E-03    0.883E-04
DAV:   6    -0.675119369906E+01   -0.70426E-05   -0.46102E-07    30   0.252E-03    0.592E-04
DAV:   7    -0.675119817565E+01   -0.44766E-05   -0.82332E-07    36   0.294E-03    0.306E-04
DAV:   8    -0.675119940056E+01   -0.12249E-05   -0.22810E-08    24   0.578E-04    0.205E-04
DAV:   9    -0.675120164997E+01   -0.22494E-05   -0.17201E-07    48   0.132E-03    0.191E-04
DAV:  10    -0.675120198791E+01   -0.33794E-06   -0.80248E-09    48   0.296E-04
   2 F= -.67537663E+01 E0= -.67537663E+01  d E =0.676331E-02  mag=    -0.0000
       N       E                     dE             d eps       ncg     rms          rms(c)
DAV:   1    -0.676028740468E+01   -0.90858E-02   -0.15117E-01    24   0.242E+00    0.186E-01
DAV:   2    -0.675974742020E+01    0.53998E-03   -0.76744E-04    24   0.156E-01    0.104E-01
DAV:   3    -0.675956983998E+01    0.17758E-03   -0.66814E-04    48   0.945E-02    0.818E-03
DAV:   4    -0.675957715541E+01   -0.73154E-05   -0.21632E-06    36   0.552E-03    0.426E-03
DAV:   5    -0.675958460862E+01   -0.74532E-05   -0.12131E-06    48   0.510E-03    0.611E-04
DAV:   6    -0.675959192763E+01   -0.73190E-05   -0.44046E-07    36   0.213E-03    0.386E-04
DAV:   7    -0.675959400468E+01   -0.20770E-05   -0.98676E-08    36   0.106E-03    0.219E-04
DAV:   8    -0.675959592873E+01   -0.19240E-05   -0.17063E-08    48   0.489E-04    0.138E-04
DAV:   9    -0.675959944635E+01   -0.35176E-05   -0.18854E-07    48   0.141E-03    0.786E-05
DAV:  10    -0.675960008006E+01   -0.63371E-06   -0.48637E-09    48   0.247E-04
   3 F= -.67621091E+01 E0= -.67621091E+01  d E =-.157951E-02  mag=    -0.0000
