 vasp.6.5.1 10Mar25 (build Feb 13 2026 23:13:13) complex                        
  
 executed on             LinuxIFC date 2026.09.22  20:47:50
 running    8 mpi-ranks, with    1 threads/rank, on    1 nodes
 distrk:  each k-point on    8 cores,    1 groups
 distr:  one band on NCORE=   4 cores,    2 groups


--------------------------------------------------------------------------------------------------------


 INCAR:
   SYSTEM = Isolated H2 molecule (PBE+D3(BJ), U\=0)
   PREC = Accurate
   ENCUT = 400.0
   ISPIN = 2
   MAGMOM = 2*0.0
   ISMEAR = 0
   SIGMA = 0.01
   EDIFF = 1.0E-06
   EDIFFG = -0.005
   IBRION = 2
   NSW = 30
   ISIF = 2
   IVDW = 12
   LREAL = .FALSE.
   LWAVE = .FALSE.
   LCHARG = .FALSE.
   NCORE = 4

 POTCAR:    PAW_PBE H 15Jun2001                   
 POTCAR:    PAW_PBE H 15Jun2001                   
   SHA256 =  030f79b5d3ab3cf0e668861823c8fb652ff669f3e15e46930bd03bfd63a607b6 H/POTCAR              
   COPYR  = (c) Copyright 15Jun2001 Georg Kresse                                                    
   COPYR  = This file is part of the software VASP. Any use, copying, and all other rights are regul
   COPYR  = If you do not have a valid VASP license, you may not use, copy or distribute this file. 
   VRHFIN =H: ultrasoft test                                                                        
   LEXCH  = PE                                                                                      
   EATOM  =    12.4884 eV,    0.9179 Ry                                                             
                                                                                                    
   TITEL  = PAW_PBE H 15Jun2001                                                                     
   LULTRA =        F    use ultrasoft PP ?                                                          
   IUNSCR =        0    unscreen: 0-lin 1-nonlin 2-no                                               
   RPACOR =    0.000    partial core radius                                                         
   POMASS =    1.000; ZVAL   =    1.000    mass and valenz                                          
   RCORE  =    1.100    outmost cutoff radius                                                       
   RWIGS  =    0.700; RWIGS  =    0.370    wigner-seitz radius (au A)                               
   ENMAX  =  250.000; ENMIN  =  200.000 eV                                                          
   RCLOC  =    0.701    cutoff for local pot                                                        
   LCOR   =        T    correct aug charges                                                         
   LPAW   =        T    paw PP                                                                      
   EAUG   =  400.000                                                                                
   RMAX   =    1.123    core radius for proj-oper                                                   
   RAUG   =    1.200    factor for augmentation sphere                                              
   RDEP   =    1.112    radius for radial grids                                                     
   RDEPT  =    0.926    core radius for aug-charge                                                  
                                                                                                    
   Atomic configuration                                                                             
    2 entries                                                                                       
     n  l   j            E        occ.                                                              
     1  0  0.50        -6.4927   1.0000                                                             
     2  1  0.50        -3.4015   0.0000                                                             
   Description                                                                                      
     l       E           TYP  RCUT    TYP  RCUT                                                     
     0     -6.4927494     23  1.100                                                                 
     0      6.8029130     23  1.100                                                                 
     1     -4.0817478     23  1.100                                                                 
  local pseudopotential read in
  atomic valenz-charges read in
  non local Contribution for L=           0  read in
    real space projection operators read in
  non local Contribution for L=           0  read in
    real space projection operators read in
  non local Contribution for L=           1  read in
    real space projection operators read in
    PAW grid and wavefunctions read in
 
   number of l-projection  operators is LMAX  =           3
   number of lm-projection operators is LMMAX =           5
 
  PAW_PBE H 15Jun2001                   :
 energy of atom  1       EATOM=  -12.4884
 kinetic energy error for atom=    0.0098 (will be added to EATOM!!)
 
 
 POSCAR: Isolated H2 molecule in 15A cubic box
  positions in cartesian coordinates
  No initial velocities read in
 IVDW         = 12
 VDW_S6       =    1.0000
 VDW_S8       =    0.7875
 VDW_A1       =    0.4289
 VDW_A2       =    4.4407
 VDW_RADIUS   =   50.2022 A
 VDW_CNRADIUS =   21.1671 A


 exchange-correlation table for PE
   RHO(1)=    0.500       N(1)  =     2000
   RHO(2)=  100.500       N(2)  =     4000
 


--------------------------------------------------------------------------------------------------------


 ion  position               nearest neighbor table
   1  0.500  0.500  0.475-   2 0.74
   2  0.500  0.500  0.525-   1 0.74
 
  LATTYP: Found a simple cubic cell.
 ALAT       =    15.0000000000
  
  Lattice vectors:
  
 A1 = (  15.0000000000,   0.0000000000,   0.0000000000)
 A2 = (   0.0000000000,  15.0000000000,   0.0000000000)
 A3 = (   0.0000000000,   0.0000000000,  15.0000000000)


Analysis of symmetry for initial positions (statically):
=====================================================================
 Subroutine PRICEL returns:
 Original cell was already a primitive cell.
 

 Routine SETGRP: Setting up the symmetry group for a 
 simple cubic supercell.


 Subroutine GETGRP returns: Found 16 space group operations
 (whereof 16 operations were pure point group operations)
 out of a pool of 48 trial point group operations.


The static configuration has the point symmetry D_4h.


Analysis of symmetry for dynamics (positions and initial velocities):
=====================================================================
 Subroutine PRICEL returns:
 Original cell was already a primitive cell.
 

 Routine SETGRP: Setting up the symmetry group for a 
 simple cubic supercell.


 Subroutine GETGRP returns: Found 16 space group operations
 (whereof 16 operations were pure point group operations)
 out of a pool of 48 trial point group operations.


The dynamic configuration has the point symmetry D_4h.


Analysis of structural, dynamic, and magnetic symmetry:
=====================================================================
 Subroutine PRICEL returns:
 Original cell was already a primitive cell.
 

 Routine SETGRP: Setting up the symmetry group for a 
 simple cubic supercell.


 Subroutine GETGRP returns: Found 16 space group operations
 (whereof 16 operations were pure point group operations)
 out of a pool of 48 trial point group operations.


The overall configuration has the point symmetry D_4h.


 Subroutine INISYM returns: Found 16 space group operations
 (whereof 16 operations are pure point group operations),
 and found     1 'primitive' translations


----------------------------------------------------------------------------------------

                                     Primitive cell                                     

  volume of cell :    3375.0000

  direct lattice vectors                    reciprocal lattice vectors
    15.000000000  0.000000000  0.000000000     0.066666667  0.000000000  0.000000000
     0.000000000 15.000000000  0.000000000     0.000000000  0.066666667  0.000000000
     0.000000000  0.000000000 15.000000000     0.000000000  0.000000000  0.066666667

  length of vectors
    15.000000000 15.000000000 15.000000000     0.066666667  0.066666667  0.066666667

  position of ions in fractional coordinates (direct lattice)
     0.500000000  0.500000000  0.475286667
     0.500000000  0.500000000  0.524713333

  ion indices of the primitive-cell ions
   primitive index   ion index
                 1           1
                 2           2

----------------------------------------------------------------------------------------

 
 
 KPOINTS: K-Points Gamma-only for isolated molecul

Automatic generation of k-mesh.
 Grid dimensions read from file:
 generate k-points for:    1    1    1

 Generating k-lattice:

  Cartesian coordinates                     Fractional coordinates (reciprocal lattice)
     0.066666667  0.000000000  0.000000000     1.000000000  0.000000000  0.000000000
     0.000000000  0.066666667  0.000000000     0.000000000  1.000000000  0.000000000
     0.000000000  0.000000000  0.066666667     0.000000000  0.000000000  1.000000000

  Length of vectors
     0.066666667  0.066666667  0.066666667

  Shift w.r.t. Gamma in fractional coordinates (k-lattice)
     0.000000000  0.000000000  0.000000000

 
 Subroutine IBZKPT returns following result:
 ===========================================
 
 Found      1 irreducible k-points:
 
 Following reciprocal coordinates:
            Coordinates               Weight
  0.000000  0.000000  0.000000      1.000000
 
 Following cartesian coordinates:
            Coordinates               Weight
  0.000000  0.000000  0.000000      1.000000
 


--------------------------------------------------------------------------------------------------------




 Dimension of arrays:
   k-points           NKPTS =      1   k-points in BZ     NKDIM =      1   number of bands    NBANDS=      6
   number of dos      NEDOS =    301   number of ions     NIONS =      2
   non local maximal  LDIM  =      3   non local SUM 2l+1 LMDIM =      5
   total plane-waves  NPLWV = 941192
   max r-space proj   IRMAX =      1   max aug-charges    IRDMAX=   1555
   dimension x,y,z NGX =    98 NGY =   98 NGZ =   98
   dimension x,y,z NGXF=   196 NGYF=  196 NGZF=  196
   support grid    NGXF=   196 NGYF=  196 NGZF=  196
   ions per type =               2
   NGX,Y,Z   is equivalent  to a cutoff of  10.86, 10.86, 10.86 a.u.
   NGXF,Y,Z  is equivalent  to a cutoff of  21.72, 21.72, 21.72 a.u.

 SYSTEM =  Isolated H2 molecule (PBE+D3(BJ), U=0)  
 POSCAR =  Isolated H2 molecule in 15A cubic box   

 Startparameter for this run:
   NWRITE =      2    write-flag & timer
   PREC   = accura    normal or accurate (medium, high low for compatibility)
   ISTART =      0    job   : 0-new  1-cont  2-samecut
   ICHARG =      2    charge: 1-file 2-atom 10-const
   ISPIN  =      2    spin polarized calculation?
   LNONCOLLINEAR =      F non collinear calculations
   LSORBIT =      F    spin-orbit coupling
   INIWAV =      1    electr: 0-lowe 1-rand  2-diag
   LASPH  =      F    aspherical Exc in radial PAW
 Electronic Relaxation 1
   ENCUT  =  400.0 eV  29.40 Ry    5.42 a.u.  24.46 24.46 24.46*2*pi/ulx,y,z
   ENINI  =  400.0     initial cutoff
   ENAUG  =  400.0 eV  augmentation charge cutoff
   NELM   =     60;   NELMIN=  2; NELMDL= -5     # of ELM steps 
   EDIFF  = 0.1E-05   stopping-criterion for ELM
   LREAL  =      F    real-space projection
   NLSPLINE    = F    spline interpolate recip. space projectors
   LCOMPAT=      F    compatible to vasp.4.4
   GGA_COMPAT  = T    GGA compatible to vasp.4.4-vasp.4.6
   LMAXPAW     = -100 max onsite density
   LMAXMIX     =    2 max onsite mixed and CHGCAR
   VOSKOWN=      0    Vosko Wilk Nusair interpolation
   ROPT   =    0.00000
 Ionic relaxation
   EDIFFG = -.5E-02   stopping-criterion for IOM
   NSW    =     30    number of steps for IOM
   NBLOCK =      1;   KBLOCK =     30    inner block; outer block 
   IBRION =      2    ionic relax: 0-MD 1-quasi-New 2-CG
   NFREE  =      1    steps in history (QN), initial steepest desc. (CG)
   ISIF   =      2    stress and relaxation
   IWAVPR =     11    prediction:  0-non 1-charg 2-wave 3-comb
   ISYM   =      2    0-nonsym 1-usesym 2-fastsym
   LCORR  =      T    Harris-Foulkes like correction to forces

   POTIM  = 0.5000    time-step for ionic-motion
   TEIN   =    0.0    initial temperature
   TEBEG  =    0.0;   TEEND  =   0.0 temperature during run
   SMASS  =  -3.00    Nose mass-parameter (am)
   estimated Nose-frequenzy (Omega)   =  0.10E-29 period in steps = 0.13E+47 mass=  -0.514E-26a.u.
   SCALEE = 1.0000    scale energy and forces
   NPACO  =    256;   APACO  = 10.0  distance and # of slots for P.C.
   PSTRESS=    0.0 pullay stress

  Mass of Ions in am
   POMASS =   1.00
  Ionic Valenz
   ZVAL   =   1.00
  Atomic Wigner-Seitz radii
   RWIGS  =  -1.00
  virtual crystal weights 
   VCA    =   1.00
   NELECT =       2.0000    total number of electrons
   NUPDOWN=      -1.0000    fix difference up-down

 DOS related values:
   EMIN   =  10.00;   EMAX   =-10.00  energy-range for DOS
   EFERMI =   0.00;   METHOD = LEGACY      
   ISMEAR =     0;   SIGMA  =   0.01  broadening in eV -4-tet -1-fermi 0-gaus
   EFERMI_NEDOS =   21; number of points for ismear=-14 and -15

 Electronic relaxation 2 (details)
   IALGO  =     38    algorithm
   LDIAG  =      T    sub-space diagonalisation (order eigenvalues)
   LSUBROT=      F    optimize rotation matrix (better conditioning)
   LROBUST=      F    robust break criterion during scf (extrapolated energy error)
   ISEARCH=      0    line search for conjugate gradient (0, 1=use gradient)
   TURBO    =      0    0=normal 1=particle mesh
   IRESTART =      0    0=no restart 2=restart with 2 vectors
   NREBOOT  =      0    no. of reboots
   NMIN     =      0    reboot dimension
   EREF     =   0.00    reference energy to select bands
   IMIX   =      4    mixing-type and parameters
     AMIX     =   0.40;   BMIX     =  1.00
     AMIX_MAG =   1.60;   BMIX_MAG =  1.00
     AMIN     =   0.10
     WC   =   100.;   INIMIX=   1;  MIXPRE=   1;  MAXMIX= -45

 Intra band minimization:
   WEIMIN = 0.0010     energy-eigenvalue tresh-hold
   EBREAK =  0.42E-07  absolut break condition
   DEPER  =   0.30     relativ break condition  

   TIME   =   0.40     timestep for ELM

  volume/ion in A,a.u.               =    1687.50     11387.81
  Fermi-wavevector in a.u.,A,eV,Ry     =   0.137508  0.259852  0.257264  0.018908
  Thomas-Fermi vector in A             =   0.790710
 
 Write flags
   LWAVE        =      F    write WAVECAR
   LDOWNSAMPLE  =      F    k-point downsampling of WAVECAR
   LCHARG       =      F    write CHGCAR
   LVTOT        =      F    write LOCPOT, total local potential
   LVHAR        =      F    write LOCPOT, Hartree potential only
   WRT_POTENTIAL= false  ! write potential to hdf5 file
   LELF         =      F    write electronic localiz. function (ELF)
   LORBIT       =      0    0 simple, 1 ext, 2 COOP (PROOUT), +10 PAW based schemes


 Python interface
   PLUGINS active      =      F    recompile with -DPLUGINS to activate
 
 Dipole corrections
   LMONO      =      F    monopole corrections only (constant potential shift)
   LDIPOL     =      F    correct potential (dipole corrections)
   IDIPOL     =      0    1-x, 2-y, 3-z, 4-all directions 
   EPSILON    =  1.0000000 bulk dielectric constant
   LVACPOTAV  =      F  vacuum potentials using an averaging scheme for the charge density
   VACPOTFLAT =  0.1000000 required flatness to determine vacuum potential
 
Coulomb truncation method
  LTRUNCATE          =      F  Coulomb kernel truncation to be used

 
 Exchange correlation treatment:
   GGA     = PE    functional components
   XC_C    = 1    coefficients multiplying the functional components
   LIBXC   =     F    Libxc                    
   VOSKOWN =     0    Vosko Wilk Nusair interpolation
   LHFCALC =     F    Hartree Fock is set to
   LHFONE  =     F    Hartree Fock one center treatment
   AEXX    =    0.0000 exact exchange contribution

 Parameters of functionals:
   PE:
     No parameter
 
 Van der Waals corrections
   IVDW    =    12    specifies the selected vdW correction

 Linear response parameters
   LEPSILON=     F    determine dielectric tensor
   LRPA    =     F    only Hartree local field effects (RPA)
   LNABLA  =     F    use nabla operator in PAW spheres
   LVEL    =     F    velocity operator in full k-point grid
   CSHIFT  =0.1000    complex shift for real part using Kramers Kronig
   OMEGAMAX=  -1.0    maximum frequency
   DEG_THRESHOLD= 0.2000000E-02 threshold for treating states as degnerate
   RTIME   =   -0.100 relaxation time in fs
  (WPLASMAI=    0.000 imaginary part of plasma frequency in eV, 0.658/RTIME)
   DFIELD  = 0.0000000 0.0000000 0.0000000 field for delta impulse in time
 
  Optional k-point grid parameters
   LKPOINTS_OPT  =     F    use optional k-point grid
   KPOINTS_OPT_MODE=     1    mode for optional k-point grid
 
 Orbital magnetization related:
   ORBITALMAG=     F  switch on orbital magnetization
   LCHIMAG   =     F  perturbation theory with respect to B field
   DQ        =  0.001000  dq finite difference perturbation B field
   LLRAUG    =     F  two centre corrections for induced B field
   LBONE     =     F  B-component reconstruction in AE one-centre
   LVGVCALC  =     T  calculate vGv susceptibility
   LVGVAPPL  =     F  apply vGv susceptibility instead of pGv for G=0

 Random number generation:
   RANDOM_GENERATOR = DEFAULT
   PCG_SEED         = not used


--------------------------------------------------------------------------------------------------------


 conjugate gradient relaxation of ions
 charge density and potential will be updated during run
 spin polarized calculation
 Variant of blocked Davidson
 Davidson routine will perform the subspace rotation
 perform sub-space diagonalisation
    after iterative eigenvector-optimisation
 modified Broyden-mixing scheme, WC =      100.0
 initial mixing is a Kerker type mixing with AMIX =  0.4000 and BMIX =      1.0000
 Hartree-type preconditioning will be used
 using additional bands            5
 reciprocal scheme for non local part
 calculate Harris-corrections to forces 
   (improved forces if not selfconsistent)
 use gradient corrections 
 use of overlap-Matrix (Vanderbilt PP)
 Gauss-broadening in eV      SIGMA  =   0.01


--------------------------------------------------------------------------------------------------------


  energy-cutoff  :      400.00
  volume of cell :     3375.00
      direct lattice vectors                 reciprocal lattice vectors
    15.000000000  0.000000000  0.000000000     0.066666667  0.000000000  0.000000000
     0.000000000 15.000000000  0.000000000     0.000000000  0.066666667  0.000000000
     0.000000000  0.000000000 15.000000000     0.000000000  0.000000000  0.066666667

  length of vectors
    15.000000000 15.000000000 15.000000000     0.066666667  0.066666667  0.066666667


 
 k-points in units of 2pi/SCALE and weight: K-Points Gamma-only for isolated molecul
   0.00000000  0.00000000  0.00000000       1.000
 
 k-points in reciprocal lattice and weights: K-Points Gamma-only for isolated molecul
   0.00000000  0.00000000  0.00000000       1.000
 
 position of ions in fractional coordinates (direct lattice) 
   0.50000000  0.50000000  0.47528667
   0.50000000  0.50000000  0.52471333
 
 position of ions in cartesian coordinates  (Angst):
   7.50000000  7.50000000  7.12930000
   7.50000000  7.50000000  7.87070000
 


--------------------------------------------------------------------------------------------------------


 k-point     1 :   0.0000 0.0000 0.0000  plane waves:   61445

 maximum and minimum number of plane-waves per node :     15384    15349

 maximum number of plane-waves:     61445
 maximum index in each direction: 
   IXMAX=   24   IYMAX=   24   IZMAX=   24
   IXMIN=  -24   IYMIN=  -24   IZMIN=  -24


 parallel 3D FFT for wavefunctions:
    minimum data exchange during FFTs selected (reduces bandwidth)
 parallel 3D FFT for charge:
    minimum data exchange during FFTs selected (reduces bandwidth)


 total amount of memory used by VASP MPI-rank0   161072. kBytes
=======================================================================

   base                                    :      30000. kBytes
   nonl-proj                               :       1106. kBytes
   fftplans                                :      39505. kBytes
   grid                                    :      88984. kBytes
   one-center                              :          2. kBytes
   wavefun                                 :       1475. kBytes
 
     INWAV:  cpu time      0.0000: real time      0.0003
 Broyden mixing: mesh for mixing (old mesh)
   NGX = 49   NGY = 49   NGZ = 49
  (NGX  =196   NGY  =196   NGZ  =196)
  gives a total of 117649 points

 initial charge density was supplied:
 charge density of overlapping atoms calculated
 number of electron       2.0000000 magnetization       0.0000000
 keeping initial charge density in first step


--------------------------------------------------------------------------------------------------------


 Maximum index for augmentation-charges          166 (set IRDMAX)


--------------------------------------------------------------------------------------------------------


 First call to EWALD:  gamma=   0.118
 Maximum number of real-space cells   3x   3x   3
 Maximum number of reciprocal cells   3x   3x   3

    FEWALD:  cpu time      0.0010: real time      0.0010


--------------------------------------- Ionic step        1  -------------------------------------------




--------------------------------------- Iteration      1(   1)  ---------------------------------------


    POTLOK:  cpu time      2.4557: real time      2.4805
    SETDIJ:  cpu time      0.0128: real time      0.0129
     EDDAV:  cpu time      0.6068: real time      0.6134
       DOS:  cpu time      0.0013: real time      0.0013
    --------------------------------------------
      LOOP:  cpu time      3.0766: real time      3.1082

 eigenvalue-minimisations  :    30
 total energy-change (2. order) : 0.3754360E+01  (-0.3369888E+02)
 number of electron       2.0000000 magnetization       0.0000000
 augmentation part        2.0000000 magnetization       0.0000000

 Free energy of the ion-electron system (eV)
  ---------------------------------------------------
  alpha Z        PSCENC =         0.00288731
  Ewald energy   TEWEN  =        13.97982565
  -Hartree energ DENC   =       -23.29948508
  -exchange      EXHF   =         0.00000000
  -V(xc)+E(xc)   XCENC  =         4.35554526
  PAW double counting   =         4.26805487       -4.28581044
  entropy T*S    EENTRO =        -0.00000000
  eigenvalues    EBANDS =       -16.22392241
  atomic energy  EATOM  =        24.95726533
  Solvation  Ediel_sol  =         0.00000000
  ---------------------------------------------------
  free energy    TOTEN  =         3.75436049 eV

  energy without entropy =        3.75436049  energy(sigma->0) =        3.75436049


--------------------------------------------------------------------------------------------------------




--------------------------------------- Iteration      1(   2)  ---------------------------------------


     EDDAV:  cpu time      0.5102: real time      0.5165
       DOS:  cpu time      0.0001: real time      0.0001
    --------------------------------------------
      LOOP:  cpu time      0.5102: real time      0.5166

 eigenvalue-minimisations  :    24
 total energy-change (2. order) :-0.9746591E+01  (-0.9746591E+01)
 number of electron       2.0000000 magnetization       0.0000000
 augmentation part        2.0000000 magnetization       0.0000000

 Free energy of the ion-electron system (eV)
  ---------------------------------------------------
  alpha Z        PSCENC =         0.00288731
  Ewald energy   TEWEN  =        13.97982565
  -Hartree energ DENC   =       -23.29948508
  -exchange      EXHF   =         0.00000000
  -V(xc)+E(xc)   XCENC  =         4.35554526
  PAW double counting   =         4.26805487       -4.28581044
  entropy T*S    EENTRO =        -0.00000000
  eigenvalues    EBANDS =       -25.97051325
  atomic energy  EATOM  =        24.95726533
  Solvation  Ediel_sol  =         0.00000000
  ---------------------------------------------------
  free energy    TOTEN  =        -5.99223035 eV

  energy without entropy =       -5.99223035  energy(sigma->0) =       -5.99223035


--------------------------------------------------------------------------------------------------------




--------------------------------------- Iteration      1(   3)  ---------------------------------------


     EDDAV:  cpu time      0.6794: real time      0.6869
       DOS:  cpu time      0.0003: real time      0.0003
    --------------------------------------------
      LOOP:  cpu time      0.6797: real time      0.6872

 eigenvalue-minimisations  :    36
 total energy-change (2. order) :-0.1445615E+01  (-0.1445615E+01)
 number of electron       2.0000000 magnetization       0.0000000
 augmentation part        2.0000000 magnetization       0.0000000

 Free energy of the ion-electron system (eV)
  ---------------------------------------------------
  alpha Z        PSCENC =         0.00288731
  Ewald energy   TEWEN  =        13.97982565
  -Hartree energ DENC   =       -23.29948508
  -exchange      EXHF   =         0.00000000
  -V(xc)+E(xc)   XCENC  =         4.35554526
  PAW double counting   =         4.26805487       -4.28581044
  entropy T*S    EENTRO =        -0.00000000
  eigenvalues    EBANDS =       -27.41612804
  atomic energy  EATOM  =        24.95726533
  Solvation  Ediel_sol  =         0.00000000
  ---------------------------------------------------
  free energy    TOTEN  =        -7.43784514 eV

  energy without entropy =       -7.43784514  energy(sigma->0) =       -7.43784514


--------------------------------------------------------------------------------------------------------




--------------------------------------- Iteration      1(   4)  ---------------------------------------


     EDDAV:  cpu time      0.5870: real time      0.5939
       DOS:  cpu time      0.0003: real time      0.0003
    --------------------------------------------
      LOOP:  cpu time      0.5872: real time      0.5941

 eigenvalue-minimisations  :    30
 total energy-change (2. order) :-0.1884840E-01  (-0.1884840E-01)
 number of electron       2.0000000 magnetization       0.0000000
 augmentation part        2.0000000 magnetization       0.0000000

 Free energy of the ion-electron system (eV)
  ---------------------------------------------------
  alpha Z        PSCENC =         0.00288731
  Ewald energy   TEWEN  =        13.97982565
  -Hartree energ DENC   =       -23.29948508
  -exchange      EXHF   =         0.00000000
  -V(xc)+E(xc)   XCENC  =         4.35554526
  PAW double counting   =         4.26805487       -4.28581044
  entropy T*S    EENTRO =        -0.00000000
  eigenvalues    EBANDS =       -27.43497644
  atomic energy  EATOM  =        24.95726533
  Solvation  Ediel_sol  =         0.00000000
  ---------------------------------------------------
  free energy    TOTEN  =        -7.45669354 eV

  energy without entropy =       -7.45669354  energy(sigma->0) =       -7.45669354


--------------------------------------------------------------------------------------------------------




--------------------------------------- Iteration      1(   5)  ---------------------------------------


     EDDAV:  cpu time      0.5048: real time      0.5104
       DOS:  cpu time      0.0002: real time      0.0002
    CHARGE:  cpu time      0.4622: real time      0.4663
    MIXING:  cpu time      0.0551: real time      0.0556
    --------------------------------------------
      LOOP:  cpu time      1.0224: real time      1.0327

 eigenvalue-minimisations  :    24
 total energy-change (2. order) :-0.8015301E-05  (-0.8015302E-05)
 number of electron       1.9999992 magnetization      -0.0000000
 augmentation part        0.0466813 magnetization       0.0000000

 Broyden mixing:
  rms(total) = 0.45317E+00    rms(broyden)= 0.45301E+00
  rms(prec ) = 0.51376E+00
  weight for this iteration     100.00

 Free energy of the ion-electron system (eV)
  ---------------------------------------------------
  alpha Z        PSCENC =         0.00288731
  Ewald energy   TEWEN  =        13.97982565
  -Hartree energ DENC   =       -23.29948508
  -exchange      EXHF   =         0.00000000
  -V(xc)+E(xc)   XCENC  =         4.35554526
  PAW double counting   =         4.26805487       -4.28581044
  entropy T*S    EENTRO =        -0.00000000
  eigenvalues    EBANDS =       -27.43498445
  atomic energy  EATOM  =        24.95726533
  Solvation  Ediel_sol  =         0.00000000
  ---------------------------------------------------
  free energy    TOTEN  =        -7.45670155 eV

  energy without entropy =       -7.45670155  energy(sigma->0) =       -7.45670155


--------------------------------------------------------------------------------------------------------




--------------------------------------- Iteration      1(   6)  ---------------------------------------


    POTLOK:  cpu time      2.4448: real time      2.4663
    SETDIJ:  cpu time      0.0157: real time      0.0159
     EDDAV:  cpu time      0.5144: real time      0.5200
       DOS:  cpu time      0.0003: real time      0.0003
    CHARGE:  cpu time      0.4584: real time      0.4625
    MIXING:  cpu time      0.0530: real time      0.0536
    --------------------------------------------
      LOOP:  cpu time      3.4867: real time      3.5186

 eigenvalue-minimisations  :    24
 total energy-change (2. order) : 0.4546423E+00  (-0.2293405E-01)
 number of electron       1.9999992 magnetization       0.0000000
 augmentation part        0.0448174 magnetization      -0.0000001

 Broyden mixing:
  rms(total) = 0.24770E+00    rms(broyden)= 0.24770E+00
  rms(prec ) = 0.28377E+00
  weight for this iteration     100.00

 eigenvalues of (default mixing * dielectric matrix)
  average eigenvalue GAMMA=   2.1818
  2.1818

 Free energy of the ion-electron system (eV)
  ---------------------------------------------------
  alpha Z        PSCENC =         0.00288731
  Ewald energy   TEWEN  =        13.97982565
  -Hartree energ DENC   =       -25.82324788
  -exchange      EXHF   =         0.00000000
  -V(xc)+E(xc)   XCENC  =         4.71733455
  PAW double counting   =        11.18707910      -11.21869911
  entropy T*S    EENTRO =        -0.00000000
  eigenvalues    EBANDS =       -24.80450424
  atomic energy  EATOM  =        24.95726533
  Solvation  Ediel_sol  =         0.00000000
  ---------------------------------------------------
  free energy    TOTEN  =        -7.00205929 eV

  energy without entropy =       -7.00205929  energy(sigma->0) =       -7.00205929


--------------------------------------------------------------------------------------------------------




--------------------------------------- Iteration      1(   7)  ---------------------------------------


    POTLOK:  cpu time      2.3602: real time      2.3805
    SETDIJ:  cpu time      0.0167: real time      0.0169
     EDDAV:  cpu time      0.6731: real time      0.6803
       DOS:  cpu time      0.0003: real time      0.0003
    CHARGE:  cpu time      0.3758: real time      0.3787
    MIXING:  cpu time      0.0360: real time      0.0362
    --------------------------------------------
      LOOP:  cpu time      3.4620: real time      3.4929

 eigenvalue-minimisations  :    36
 total energy-change (2. order) : 0.2481744E+00  (-0.5446014E-01)
 number of electron       1.9999993 magnetization       0.0000000
 augmentation part        0.0418522 magnetization      -0.0000001

 Broyden mixing:
  rms(total) = 0.30555E-01    rms(broyden)= 0.30460E-01
  rms(prec ) = 0.35981E-01
  weight for this iteration     100.00

 eigenvalues of (default mixing * dielectric matrix)
  average eigenvalue GAMMA=   2.6484
  2.6484  2.6484

 Free energy of the ion-electron system (eV)
  ---------------------------------------------------
  alpha Z        PSCENC =         0.00288731
  Ewald energy   TEWEN  =        13.97982565
  -Hartree energ DENC   =       -29.67795408
  -exchange      EXHF   =         0.00000000
  -V(xc)+E(xc)   XCENC  =         5.27524650
  PAW double counting   =        24.98356696      -25.03732995
  entropy T*S    EENTRO =        -0.00000000
  eigenvalues    EBANDS =       -21.23739260
  atomic energy  EATOM  =        24.95726533
  Solvation  Ediel_sol  =         0.00000000
  ---------------------------------------------------
  free energy    TOTEN  =        -6.75388487 eV

  energy without entropy =       -6.75388487  energy(sigma->0) =       -6.75388487


--------------------------------------------------------------------------------------------------------




--------------------------------------- Iteration      1(   8)  ---------------------------------------


    POTLOK:  cpu time      2.3320: real time      2.3522
    SETDIJ:  cpu time      0.0147: real time      0.0148
     EDDAV:  cpu time      0.6336: real time      0.6397
       DOS:  cpu time      0.0002: real time      0.0002
    CHARGE:  cpu time      0.4409: real time      0.4447
    MIXING:  cpu time      0.0535: real time      0.0540
    --------------------------------------------
      LOOP:  cpu time      3.4748: real time      3.5056

 eigenvalue-minimisations  :    48
 total energy-change (2. order) :-0.3474729E-02  (-0.6053150E-03)
 number of electron       1.9999993 magnetization       0.0000000
 augmentation part        0.0420570 magnetization       0.0000002

 Broyden mixing:
  rms(total) = 0.27616E-01    rms(broyden)= 0.27614E-01
  rms(prec ) = 0.32215E-01
  weight for this iteration     100.00

 eigenvalues of (default mixing * dielectric matrix)
  average eigenvalue GAMMA=   1.9704
  2.6354  2.4389  0.8368

 Free energy of the ion-electron system (eV)
  ---------------------------------------------------
  alpha Z        PSCENC =         0.00288731
  Ewald energy   TEWEN  =        13.97982565
  -Hartree energ DENC   =       -29.58963500
  -exchange      EXHF   =         0.00000000
  -V(xc)+E(xc)   XCENC  =         5.24758240
  PAW double counting   =        23.77257292      -23.81998953
  entropy T*S    EENTRO =        -0.00000000
  eigenvalues    EBANDS =       -21.30786868
  atomic energy  EATOM  =        24.95726533
  Solvation  Ediel_sol  =         0.00000000
  ---------------------------------------------------
  free energy    TOTEN  =        -6.75735960 eV

  energy without entropy =       -6.75735960  energy(sigma->0) =       -6.75735960


--------------------------------------------------------------------------------------------------------




--------------------------------------- Iteration      1(   9)  ---------------------------------------


    POTLOK:  cpu time      2.2548: real time      2.2740
    SETDIJ:  cpu time      0.0152: real time      0.0153
     EDDAV:  cpu time      0.6644: real time      0.6716
       DOS:  cpu time      0.0019: real time      0.0019
    CHARGE:  cpu time      0.4469: real time      0.4508
    MIXING:  cpu time      0.0574: real time      0.0580
    --------------------------------------------
      LOOP:  cpu time      3.4406: real time      3.4718

 eigenvalue-minimisations  :    36
 total energy-change (2. order) : 0.3747996E-02  (-0.5257216E-03)
 number of electron       1.9999993 magnetization       0.0000000
 augmentation part        0.0417746 magnetization      -0.0000000

 Broyden mixing:
  rms(total) = 0.50394E-02    rms(broyden)= 0.50309E-02
  rms(prec ) = 0.79446E-02
  weight for this iteration     100.00

 eigenvalues of (default mixing * dielectric matrix)
  average eigenvalue GAMMA=   2.2555
  0.9791  2.9225  2.9225  2.1978

 Free energy of the ion-electron system (eV)
  ---------------------------------------------------
  alpha Z        PSCENC =         0.00288731
  Ewald energy   TEWEN  =        13.97982565
  -Hartree energ DENC   =       -30.00897898
  -exchange      EXHF   =         0.00000000
  -V(xc)+E(xc)   XCENC  =         5.30483671
  PAW double counting   =        25.22509454      -25.27467597
  entropy T*S    EENTRO =        -0.00000000
  eigenvalues    EBANDS =       -20.93986620
  atomic energy  EATOM  =        24.95726533
  Solvation  Ediel_sol  =         0.00000000
  ---------------------------------------------------
  free energy    TOTEN  =        -6.75361160 eV

  energy without entropy =       -6.75361160  energy(sigma->0) =       -6.75361160


--------------------------------------------------------------------------------------------------------




--------------------------------------- Iteration      1(  10)  ---------------------------------------


    POTLOK:  cpu time      2.2252: real time      2.2444
    SETDIJ:  cpu time      0.0158: real time      0.0159
     EDDAV:  cpu time      0.4657: real time      0.4707
       DOS:  cpu time      0.0001: real time      0.0001
    CHARGE:  cpu time      0.3164: real time      0.3187
    MIXING:  cpu time      0.0400: real time      0.0402
    --------------------------------------------
      LOOP:  cpu time      3.0632: real time      3.0901

 eigenvalue-minimisations  :    24
 total energy-change (2. order) :-0.1302232E-02  (-0.1073920E-03)
 number of electron       1.9999993 magnetization      -0.0000000
 augmentation part        0.0416936 magnetization       0.0000001

 Broyden mixing:
  rms(total) = 0.12912E-02    rms(broyden)= 0.12861E-02
  rms(prec ) = 0.26592E-02
  weight for this iteration     100.00

 eigenvalues of (default mixing * dielectric matrix)
  average eigenvalue GAMMA=   2.1898
  4.3254  2.6990  2.2876  0.9163  0.7207

 Free energy of the ion-electron system (eV)
  ---------------------------------------------------
  alpha Z        PSCENC =         0.00288731
  Ewald energy   TEWEN  =        13.97982565
  -Hartree energ DENC   =       -30.20678821
  -exchange      EXHF   =         0.00000000
  -V(xc)+E(xc)   XCENC  =         5.32286933
  PAW double counting   =        25.20509798      -25.25526733
  entropy T*S    EENTRO =        -0.00000000
  eigenvalues    EBANDS =       -20.76080390
  atomic energy  EATOM  =        24.95726533
  Solvation  Ediel_sol  =         0.00000000
  ---------------------------------------------------
  free energy    TOTEN  =        -6.75491384 eV

  energy without entropy =       -6.75491384  energy(sigma->0) =       -6.75491384


--------------------------------------------------------------------------------------------------------




--------------------------------------- Iteration      1(  11)  ---------------------------------------


    POTLOK:  cpu time      2.3500: real time      2.3712
    SETDIJ:  cpu time      0.0163: real time      0.0165
     EDDAV:  cpu time      0.3222: real time      0.3252
       DOS:  cpu time      0.0029: real time      0.0029
    CHARGE:  cpu time      0.4533: real time      0.4574
    MIXING:  cpu time      0.0588: real time      0.0594
    --------------------------------------------
      LOOP:  cpu time      3.2036: real time      3.2326

 eigenvalue-minimisations  :    24
 total energy-change (2. order) :-0.7036132E-03  (-0.1019237E-04)
 number of electron       1.9999993 magnetization       0.0000000
 augmentation part        0.0416641 magnetization      -0.0000002

 Broyden mixing:
  rms(total) = 0.20989E-02    rms(broyden)= 0.20984E-02
  rms(prec ) = 0.29705E-02
  weight for this iteration     100.00

 eigenvalues of (default mixing * dielectric matrix)
  average eigenvalue GAMMA=   2.2018
  4.2985  2.6104  2.6104  1.9810  1.0174  0.6932

 Free energy of the ion-electron system (eV)
  ---------------------------------------------------
  alpha Z        PSCENC =         0.00288731
  Ewald energy   TEWEN  =        13.97982565
  -Hartree energ DENC   =       -30.25057123
  -exchange      EXHF   =         0.00000000
  -V(xc)+E(xc)   XCENC  =         5.32705321
  PAW double counting   =        25.29702700      -25.34729568
  entropy T*S    EENTRO =        -0.00000000
  eigenvalues    EBANDS =       -20.72180904
  atomic energy  EATOM  =        24.95726533
  Solvation  Ediel_sol  =         0.00000000
  ---------------------------------------------------
  free energy    TOTEN  =        -6.75561745 eV

  energy without entropy =       -6.75561745  energy(sigma->0) =       -6.75561745


--------------------------------------------------------------------------------------------------------




--------------------------------------- Iteration      1(  12)  ---------------------------------------


    POTLOK:  cpu time      2.2245: real time      2.2436
    SETDIJ:  cpu time      0.0151: real time      0.0153
     EDDAV:  cpu time      0.4980: real time      0.5035
       DOS:  cpu time      0.0001: real time      0.0001
    CHARGE:  cpu time      0.4398: real time      0.4435
    MIXING:  cpu time      0.0611: real time      0.0617
    --------------------------------------------
      LOOP:  cpu time      3.2386: real time      3.2678

 eigenvalue-minimisations  :    24
 total energy-change (2. order) :-0.1277422E-02  (-0.1583876E-04)
 number of electron       1.9999993 magnetization       0.0000000
 augmentation part        0.0416689 magnetization      -0.0000003

 Broyden mixing:
  rms(total) = 0.11672E-02    rms(broyden)= 0.11672E-02
  rms(prec ) = 0.16973E-02
  weight for this iteration     100.00

 eigenvalues of (default mixing * dielectric matrix)
  average eigenvalue GAMMA=   2.3564
  5.1572  3.9333  2.6216  2.2072  0.9485  0.9485  0.6784

 Free energy of the ion-electron system (eV)
  ---------------------------------------------------
  alpha Z        PSCENC =         0.00288731
  Ewald energy   TEWEN  =        13.97982565
  -Hartree energ DENC   =       -30.24408313
  -exchange      EXHF   =         0.00000000
  -V(xc)+E(xc)   XCENC  =         5.32396082
  PAW double counting   =        25.29237944      -25.34249620
  entropy T*S    EENTRO =        -0.00000000
  eigenvalues    EBANDS =       -20.72663409
  atomic energy  EATOM  =        24.95726533
  Solvation  Ediel_sol  =         0.00000000
  ---------------------------------------------------
  free energy    TOTEN  =        -6.75689487 eV

  energy without entropy =       -6.75689487  energy(sigma->0) =       -6.75689487


--------------------------------------------------------------------------------------------------------




--------------------------------------- Iteration      1(  13)  ---------------------------------------


    POTLOK:  cpu time      2.3653: real time      2.3871
    SETDIJ:  cpu time      0.0166: real time      0.0168
     EDDAV:  cpu time      0.8078: real time      0.8166
       DOS:  cpu time      0.0001: real time      0.0001
    CHARGE:  cpu time      0.3179: real time      0.3201
    MIXING:  cpu time      0.0391: real time      0.0393
    --------------------------------------------
      LOOP:  cpu time      3.5466: real time      3.5800

 eigenvalue-minimisations  :    48
 total energy-change (2. order) :-0.6880395E-03  (-0.1352809E-04)
 number of electron       1.9999993 magnetization      -0.0000000
 augmentation part        0.0416868 magnetization       0.0000002

 Broyden mixing:
  rms(total) = 0.80656E-03    rms(broyden)= 0.80644E-03
  rms(prec ) = 0.10649E-02
  weight for this iteration     100.00

 eigenvalues of (default mixing * dielectric matrix)
  average eigenvalue GAMMA=   2.2726
  5.7318  3.9047  2.4697  2.2666  1.3236  1.0261  0.7892  0.6692

 Free energy of the ion-electron system (eV)
  ---------------------------------------------------
  alpha Z        PSCENC =         0.00288731
  Ewald energy   TEWEN  =        13.97982565
  -Hartree energ DENC   =       -30.21511200
  -exchange      EXHF   =         0.00000000
  -V(xc)+E(xc)   XCENC  =         5.31834213
  PAW double counting   =        25.19583072      -25.24574383
  entropy T*S    EENTRO =        -0.00000000
  eigenvalues    EBANDS =       -20.75087823
  atomic energy  EATOM  =        24.95726533
  Solvation  Ediel_sol  =         0.00000000
  ---------------------------------------------------
  free energy    TOTEN  =        -6.75758291 eV

  energy without entropy =       -6.75758291  energy(sigma->0) =       -6.75758291


--------------------------------------------------------------------------------------------------------




--------------------------------------- Iteration      1(  14)  ---------------------------------------


    POTLOK:  cpu time      2.2820: real time      2.3014
    SETDIJ:  cpu time      0.0086: real time      0.0086
     EDDAV:  cpu time      0.5483: real time      0.5540
       DOS:  cpu time      0.0003: real time      0.0003
    CHARGE:  cpu time      0.4547: real time      0.4588
    MIXING:  cpu time      0.0646: real time      0.0652
    --------------------------------------------
      LOOP:  cpu time      3.3585: real time      3.3884

 eigenvalue-minimisations  :    36
 total energy-change (2. order) :-0.2441766E-03  (-0.1196208E-05)
 number of electron       1.9999993 magnetization      -0.0000000
 augmentation part        0.0416780 magnetization      -0.0000004

 Broyden mixing:
  rms(total) = 0.21083E-03    rms(broyden)= 0.21079E-03
  rms(prec ) = 0.35973E-03
  weight for this iteration     100.00

 eigenvalues of (default mixing * dielectric matrix)
  average eigenvalue GAMMA=   2.4648
  6.8778  4.0629  3.0827  2.6080  2.1735  0.9968  0.9968  0.7263  0.6584

 Free energy of the ion-electron system (eV)
  ---------------------------------------------------
  alpha Z        PSCENC =         0.00288731
  Ewald energy   TEWEN  =        13.97982565
  -Hartree energ DENC   =       -30.22989263
  -exchange      EXHF   =         0.00000000
  -V(xc)+E(xc)   XCENC  =         5.31976434
  PAW double counting   =        25.21607212      -25.26607161
  entropy T*S    EENTRO =        -0.00000000
  eigenvalues    EBANDS =       -20.73767761
  atomic energy  EATOM  =        24.95726533
  Solvation  Ediel_sol  =         0.00000000
  ---------------------------------------------------
  free energy    TOTEN  =        -6.75782709 eV

  energy without entropy =       -6.75782709  energy(sigma->0) =       -6.75782709


--------------------------------------------------------------------------------------------------------




--------------------------------------- Iteration      1(  15)  ---------------------------------------


    POTLOK:  cpu time      2.2481: real time      2.2675
    SETDIJ:  cpu time      0.0141: real time      0.0143
     EDDAV:  cpu time      0.8188: real time      0.8277
       DOS:  cpu time      0.0001: real time      0.0001
    CHARGE:  cpu time      0.3253: real time      0.3277
    MIXING:  cpu time      0.0418: real time      0.0420
    --------------------------------------------
      LOOP:  cpu time      3.4482: real time      3.4793

 eigenvalue-minimisations  :    48
 total energy-change (2. order) :-0.1283737E-03  (-0.8780038E-06)
 number of electron       1.9999993 magnetization       0.0000000
 augmentation part        0.0416730 magnetization      -0.0000001

 Broyden mixing:
  rms(total) = 0.24121E-03    rms(broyden)= 0.24116E-03
  rms(prec ) = 0.30446E-03
  weight for this iteration     100.00

 eigenvalues of (default mixing * dielectric matrix)
  average eigenvalue GAMMA=   2.4539
  7.7220  4.4236  3.3921  2.4966  2.1940  1.0178  1.1481  0.8099  0.6801  0.6552

 Free energy of the ion-electron system (eV)
  ---------------------------------------------------
  alpha Z        PSCENC =         0.00288731
  Ewald energy   TEWEN  =        13.97982565
  -Hartree energ DENC   =       -30.23790026
  -exchange      EXHF   =         0.00000000
  -V(xc)+E(xc)   XCENC  =         5.32053351
  PAW double counting   =        25.23076409      -25.28080351
  entropy T*S    EENTRO =        -0.00000000
  eigenvalues    EBANDS =       -20.73052759
  atomic energy  EATOM  =        24.95726533
  Solvation  Ediel_sol  =         0.00000000
  ---------------------------------------------------
  free energy    TOTEN  =        -6.75795546 eV

  energy without entropy =       -6.75795546  energy(sigma->0) =       -6.75795546


--------------------------------------------------------------------------------------------------------




--------------------------------------- Iteration      1(  16)  ---------------------------------------


    POTLOK:  cpu time      2.2044: real time      2.2230
    SETDIJ:  cpu time      0.0159: real time      0.0161
     EDDAV:  cpu time      0.4935: real time      0.4989
       DOS:  cpu time      0.0003: real time      0.0003
    CHARGE:  cpu time      0.4522: real time      0.4563
    MIXING:  cpu time      0.0678: real time      0.0685
    --------------------------------------------
      LOOP:  cpu time      3.2341: real time      3.2630

 eigenvalue-minimisations  :    24
 total energy-change (2. order) :-0.2582695E-04  (-0.4200249E-07)
 number of electron       1.9999993 magnetization      -0.0000000
 augmentation part        0.0416752 magnetization       0.0000001

 Broyden mixing:
  rms(total) = 0.78048E-04    rms(broyden)= 0.78045E-04
  rms(prec ) = 0.12912E-03
  weight for this iteration     100.00

 eigenvalues of (default mixing * dielectric matrix)
  average eigenvalue GAMMA=   2.5589
  8.2773  4.8492  3.3499  2.7728  2.6029  2.1660  1.0247  0.9925  0.7905  0.6726
  0.6494

 Free energy of the ion-electron system (eV)
  ---------------------------------------------------
  alpha Z        PSCENC =         0.00288731
  Ewald energy   TEWEN  =        13.97982565
  -Hartree energ DENC   =       -30.23483268
  -exchange      EXHF   =         0.00000000
  -V(xc)+E(xc)   XCENC  =         5.32005155
  PAW double counting   =        25.22515088      -25.27516644
  entropy T*S    EENTRO =        -0.00000000
  eigenvalues    EBANDS =       -20.73316288
  atomic energy  EATOM  =        24.95726533
  Solvation  Ediel_sol  =         0.00000000
  ---------------------------------------------------
  free energy    TOTEN  =        -6.75798129 eV

  energy without entropy =       -6.75798129  energy(sigma->0) =       -6.75798129


--------------------------------------------------------------------------------------------------------




--------------------------------------- Iteration      1(  17)  ---------------------------------------


    POTLOK:  cpu time      2.3516: real time      2.3717
    SETDIJ:  cpu time      0.0113: real time      0.0114
     EDDAV:  cpu time      0.5852: real time      0.5908
       DOS:  cpu time      0.0003: real time      0.0003
    CHARGE:  cpu time      0.4455: real time      0.4494
    MIXING:  cpu time      0.0659: real time      0.0665
    --------------------------------------------
      LOOP:  cpu time      3.4598: real time      3.4902

 eigenvalue-minimisations  :    48
 total energy-change (2. order) :-0.3698252E-04  (-0.8275366E-07)
 number of electron       1.9999993 magnetization      -0.0000000
 augmentation part        0.0416773 magnetization      -0.0000000

 Broyden mixing:
  rms(total) = 0.88135E-04    rms(broyden)= 0.88114E-04
  rms(prec ) = 0.10739E-03
  weight for this iteration     100.00

 eigenvalues of (default mixing * dielectric matrix)
  average eigenvalue GAMMA=   2.5473
  8.8602  5.2232  3.7779  3.1428  2.5008  2.1719  1.0643  1.0075  0.8212  0.6819
  0.6819  0.6336

 Free energy of the ion-electron system (eV)
  ---------------------------------------------------
  alpha Z        PSCENC =         0.00288731
  Ewald energy   TEWEN  =        13.97982565
  -Hartree energ DENC   =       -30.23291608
  -exchange      EXHF   =         0.00000000
  -V(xc)+E(xc)   XCENC  =         5.31967054
  PAW double counting   =        25.21980125      -25.26979782
  entropy T*S    EENTRO =        -0.00000000
  eigenvalues    EBANDS =       -20.73475447
  atomic energy  EATOM  =        24.95726533
  Solvation  Ediel_sol  =         0.00000000
  ---------------------------------------------------
  free energy    TOTEN  =        -6.75801827 eV

  energy without entropy =       -6.75801827  energy(sigma->0) =       -6.75801827


--------------------------------------------------------------------------------------------------------




--------------------------------------- Iteration      1(  18)  ---------------------------------------


    POTLOK:  cpu time      2.3528: real time      2.3738
    SETDIJ:  cpu time      0.0107: real time      0.0108
     EDDAV:  cpu time      0.3671: real time      0.3705
       DOS:  cpu time      0.0001: real time      0.0001
    CHARGE:  cpu time      0.3771: real time      0.3801
    MIXING:  cpu time      0.0725: real time      0.0732
    --------------------------------------------
      LOOP:  cpu time      3.1804: real time      3.2086

 eigenvalue-minimisations  :    24
 total energy-change (2. order) :-0.4473854E-05  (-0.7462722E-08)
 number of electron       1.9999993 magnetization      -0.0000000
 augmentation part        0.0416765 magnetization       0.0000000

 Broyden mixing:
  rms(total) = 0.22766E-04    rms(broyden)= 0.22765E-04
  rms(prec ) = 0.38501E-04
  weight for this iteration     100.00

 eigenvalues of (default mixing * dielectric matrix)
  average eigenvalue GAMMA=   2.5375
  9.1268  5.1857  4.1544  2.8956  2.2946  2.2946  2.2382  1.0197  0.9911  0.8093
  0.6750  0.6750  0.6271

 Free energy of the ion-electron system (eV)
  ---------------------------------------------------
  alpha Z        PSCENC =         0.00288731
  Ewald energy   TEWEN  =        13.97982565
  -Hartree energ DENC   =       -30.23436566
  -exchange      EXHF   =         0.00000000
  -V(xc)+E(xc)   XCENC  =         5.31984810
  PAW double counting   =        25.22196496      -25.27197061
  entropy T*S    EENTRO =        -0.00000000
  eigenvalues    EBANDS =       -20.73347783
  atomic energy  EATOM  =        24.95726533
  Solvation  Ediel_sol  =         0.00000000
  ---------------------------------------------------
  free energy    TOTEN  =        -6.75802274 eV

  energy without entropy =       -6.75802274  energy(sigma->0) =       -6.75802274


--------------------------------------------------------------------------------------------------------




--------------------------------------- Iteration      1(  19)  ---------------------------------------


    POTLOK:  cpu time      2.2786: real time      2.2992
    SETDIJ:  cpu time      0.0140: real time      0.0142
     EDDAV:  cpu time      0.4318: real time      0.4363
       DOS:  cpu time      0.0011: real time      0.0011
    CHARGE:  cpu time      0.3148: real time      0.3171
    MIXING:  cpu time      0.0717: real time      0.0724
    --------------------------------------------
      LOOP:  cpu time      3.1121: real time      3.1403

 eigenvalue-minimisations  :    24
 total energy-change (2. order) :-0.6856818E-05  (-0.4583544E-08)
 number of electron       1.9999993 magnetization      -0.0000000
 augmentation part        0.0416760 magnetization       0.0000000

 Broyden mixing:
  rms(total) = 0.24402E-04    rms(broyden)= 0.24398E-04
  rms(prec ) = 0.31305E-04
  weight for this iteration     100.00

 eigenvalues of (default mixing * dielectric matrix)
  average eigenvalue GAMMA=   2.5699
  9.3264  5.5409  4.4412  3.3356  2.9794  2.5022  2.1628  1.0435  1.0075  0.9073
  0.7475  0.7007  0.6575  0.6255

 Free energy of the ion-electron system (eV)
  ---------------------------------------------------
  alpha Z        PSCENC =         0.00288731
  Ewald energy   TEWEN  =        13.97982565
  -Hartree energ DENC   =       -30.23508910
  -exchange      EXHF   =         0.00000000
  -V(xc)+E(xc)   XCENC  =         5.31993781
  PAW double counting   =        25.22331991      -25.27333063
  entropy T*S    EENTRO =        -0.00000000
  eigenvalues    EBANDS =       -20.73284588
  atomic energy  EATOM  =        24.95726533
  Solvation  Ediel_sol  =         0.00000000
  ---------------------------------------------------
  free energy    TOTEN  =        -6.75802960 eV

  energy without entropy =       -6.75802960  energy(sigma->0) =       -6.75802960


--------------------------------------------------------------------------------------------------------




--------------------------------------- Iteration      1(  20)  ---------------------------------------


    POTLOK:  cpu time      2.2369: real time      2.2557
    SETDIJ:  cpu time      0.0142: real time      0.0144
     EDDAV:  cpu time      0.4549: real time      0.4599
       DOS:  cpu time      0.0013: real time      0.0013
    CHARGE:  cpu time      0.3143: real time      0.3165
    MIXING:  cpu time      0.0450: real time      0.0453
    --------------------------------------------
      LOOP:  cpu time      3.0667: real time      3.0930

 eigenvalue-minimisations  :    24
 total energy-change (2. order) :-0.2698171E-05  (-0.3554106E-08)
 number of electron       1.9999993 magnetization      -0.0000000
 augmentation part        0.0416761 magnetization       0.0000000

 Broyden mixing:
  rms(total) = 0.53077E-05    rms(broyden)= 0.53075E-05
  rms(prec ) = 0.92376E-05
  weight for this iteration     100.00

 eigenvalues of (default mixing * dielectric matrix)
  average eigenvalue GAMMA=   2.5271
  9.3705  5.9470  4.4918  3.7520  2.8899  2.4727  2.1548  1.3368  1.0167  0.9756
  0.8295  0.6986  0.6986  0.6477  0.6244

 Free energy of the ion-electron system (eV)
  ---------------------------------------------------
  alpha Z        PSCENC =         0.00288731
  Ewald energy   TEWEN  =        13.97982565
  -Hartree energ DENC   =       -30.23471154
  -exchange      EXHF   =         0.00000000
  -V(xc)+E(xc)   XCENC  =         5.31988619
  PAW double counting   =        25.22285584      -25.27286412
  entropy T*S    EENTRO =        -0.00000000
  eigenvalues    EBANDS =       -20.73317697
  atomic energy  EATOM  =        24.95726533
  Solvation  Ediel_sol  =         0.00000000
  ---------------------------------------------------
  free energy    TOTEN  =        -6.75803230 eV

  energy without entropy =       -6.75803230  energy(sigma->0) =       -6.75803230


--------------------------------------------------------------------------------------------------------




--------------------------------------- Iteration      1(  21)  ---------------------------------------


    POTLOK:  cpu time      2.2215: real time      2.2406
    SETDIJ:  cpu time      0.0140: real time      0.0141
     EDDAV:  cpu time      0.4915: real time      0.4969
       DOS:  cpu time      0.0001: real time      0.0001
    CHARGE:  cpu time      0.3787: real time      0.3821
    MIXING:  cpu time      0.0964: real time      0.0973
    --------------------------------------------
      LOOP:  cpu time      3.2023: real time      3.2312

 eigenvalue-minimisations  :    24
 total energy-change (2. order) :-0.1158754E-05  (-0.3844303E-09)
 number of electron       1.9999993 magnetization      -0.0000000
 augmentation part        0.0416762 magnetization      -0.0000000

 Broyden mixing:
  rms(total) = 0.34957E-05    rms(broyden)= 0.34956E-05
  rms(prec ) = 0.54815E-05
  weight for this iteration     100.00

 eigenvalues of (default mixing * dielectric matrix)
  average eigenvalue GAMMA=   2.5512
  9.4235  6.2896  4.7172  3.8252  3.0098  2.1521  2.4901  2.4901  1.0257  0.9909
  0.9746  0.7666  0.7243  0.6705  0.6480  0.6218

 Free energy of the ion-electron system (eV)
  ---------------------------------------------------
  alpha Z        PSCENC =         0.00288731
  Ewald energy   TEWEN  =        13.97982565
  -Hartree energ DENC   =       -30.23471087
  -exchange      EXHF   =         0.00000000
  -V(xc)+E(xc)   XCENC  =         5.31988320
  PAW double counting   =        25.22282324      -25.27283120
  entropy T*S    EENTRO =        -0.00000000
  eigenvalues    EBANDS =       -20.73317612
  atomic energy  EATOM  =        24.95726533
  Solvation  Ediel_sol  =         0.00000000
  ---------------------------------------------------
  free energy    TOTEN  =        -6.75803346 eV

  energy without entropy =       -6.75803346  energy(sigma->0) =       -6.75803346


--------------------------------------------------------------------------------------------------------




--------------------------------------- Iteration      1(  22)  ---------------------------------------


    POTLOK:  cpu time      1.9937: real time      2.0102
    SETDIJ:  cpu time      0.0143: real time      0.0145
     EDDAV:  cpu time      0.3948: real time      0.3988
       DOS:  cpu time      0.0012: real time      0.0012
    --------------------------------------------
      LOOP:  cpu time      2.4040: real time      2.4246

 eigenvalue-minimisations  :    24
 total energy-change (2. order) :-0.6513527E-06  (-0.3556497E-09)
 number of electron       1.9999993 magnetization      -0.0000000
 augmentation part        0.0416762 magnetization      -0.0000000

 Free energy of the ion-electron system (eV)
  ---------------------------------------------------
  alpha Z        PSCENC =         0.00288731
  Ewald energy   TEWEN  =        13.97982565
  -Hartree energ DENC   =       -30.23471782
  -exchange      EXHF   =         0.00000000
  -V(xc)+E(xc)   XCENC  =         5.31988152
  PAW double counting   =        25.22276403      -25.27277205
  entropy T*S    EENTRO =        -0.00000000
  eigenvalues    EBANDS =       -20.73316809
  atomic energy  EATOM  =        24.95726533
  Solvation  Ediel_sol  =         0.00000000
  ---------------------------------------------------
  free energy    TOTEN  =        -6.75803411 eV

  energy without entropy =       -6.75803411  energy(sigma->0) =       -6.75803411


--------------------------------------------------------------------------------------------------------




 average (electrostatic) potential at core
  the test charge radii are     0.5201
  (the norm of the test charge is              1.0000)
       1 -41.6614       2 -41.6614
 
 
 
 E-fermi : -10.3022     XC(G=0):  -0.1259     alpha+bet : -0.0164

 val. band max:      -10.3665838879   @ k =   0.0000   0.0000   0.0000
 cond. band min:      -0.0754523248   @ k =   0.0000   0.0000   0.0000
 fundamental gap:     10.2911315631
 Fermi energy:       -10.3022112508

 spin component 1

 k-point     1 :       0.0000    0.0000    0.0000
  band No.  band energies     occupation 
      1     -10.3666      1.00000
      2      -0.0755      0.00000
      3       0.2291      0.00000
      4       0.5097      0.00000
      5       0.5132      0.00000
      6       0.5132      0.00000
 Fermi energy:       -10.3022112508

 spin component 2

 k-point     1 :       0.0000    0.0000    0.0000
  band No.  band energies     occupation 
      1     -10.3666      1.00000
      2      -0.0754      0.00000
      3       0.2293      0.00000
      4       0.5090      0.00000
      5       0.5134      0.00000
      6       0.5134      0.00000


--------------------------------------------------------------------------------------------------------


 soft charge-density along one line, spin component           1
         0         1         2         3         4         5         6         7         8         9
 total charge-density along one line
 
 soft charge-density along one line, spin component           2
         0         1         2         3         4         5         6         7         8         9
 total charge-density along one line
 
 pseudopotential strength for first ion, spin component:           1
 -2.344  -4.040   0.000  -0.002   0.000
 -4.040  -6.876   0.000  -0.006   0.000
  0.000   0.000  -0.341  -0.000   0.000
 -0.002  -0.006  -0.000  -0.334  -0.000
  0.000   0.000   0.000  -0.000  -0.341
 pseudopotential strength for first ion, spin component:           2
 -2.344  -4.040   0.000  -0.002   0.000
 -4.040  -6.876   0.000  -0.006   0.000
  0.000   0.000  -0.341  -0.000   0.000
 -0.002  -0.006  -0.000  -0.334  -0.000
  0.000   0.000   0.000  -0.000  -0.341
 total augmentation occupancy for first ion, spin component:           1
  3.150  -0.497   0.000   0.388   0.000
 -0.497   0.078   0.000  -0.061   0.000
  0.000   0.000   0.000   0.000  -0.000
  0.388  -0.061   0.000   0.048  -0.000
  0.000   0.000  -0.000  -0.000   0.000
 total augmentation occupancy for first ion, spin component:           2
 -0.000  -0.000  -0.000  -0.000   0.000
 -0.000   0.000  -0.000   0.000   0.000
  0.000   0.000  -0.000   0.000   0.000
 -0.000   0.000  -0.000  -0.000   0.000
  0.000   0.000   0.000   0.000  -0.000


------------------------ aborting loop because EDIFF is reached ----------------------------------------


    CHARGE:  cpu time      0.3741: real time      0.3771
    FORLOC:  cpu time      0.0294: real time      0.0297
    FORNL :  cpu time      0.0858: real time      0.0868
    STRESS:  cpu time      0.3750: real time      0.3791
    FORHAR:  cpu time      0.2983: real time      0.3009
    MIXING:  cpu time      0.0946: real time      0.0955
    OFIELD:  cpu time      0.0001: real time      0.0001

 ---------------------------------------------------------------------------------------------

         DFTD3 V3.0 Rev 1        
 DF pbe       
 parameters
 k1-k3        =   16.0000    1.3333   -4.0000
 Edisp (eV)   -0.00250

 E6    (eV) :    -0.0020
 E8    (eV) :    -0.0005
 % E8        : 21.27
    FORVDW:  cpu time      0.0071: real time      0.0072

  FORCE on cell =-STRESS in cart. coord.  units (eV):
  Direction    XX          YY          ZZ          XY          YZ          ZX
  --------------------------------------------------------------------------------------
  Alpha Z     0.00289     0.00289     0.00289
  Ewald      -1.81835    -1.81835    17.61653     0.00000    -0.00000    -0.00000
  Hartree     9.34051     9.34051    11.55369    -0.00000    -0.00000    -0.00000
  E(xc)      -5.99665    -5.99665    -5.77698    -0.00000     0.00000     0.00000
  Local     -17.45091   -17.45091   -30.96868    -0.00000     0.00000     0.00000
  n-local    -5.44732    -5.44732    -6.42440    -0.00000    -0.00000    -0.00000
  augment     0.27433     0.27433     0.19979     0.00000     0.00000    -0.00000
  Kinetic    20.97608    20.97608    13.89144    -0.00000     0.00000     0.00000
  Fock        0.00000     0.00000     0.00000     0.00000     0.00000     0.00000
  vdW        -0.00001    -0.00001     0.00089     0.00000    -0.00000     0.00000
  -------------------------------------------------------------------------------------
  Total      -0.11942    -0.11942     0.09516    -0.00000    -0.00000    -0.00000
  in kB      -0.05669    -0.05669     0.04518    -0.00000    -0.00000    -0.00000
  external pressure =       -0.02 kB  Pullay stress =        0.00 kB


 VOLUME and BASIS-vectors are now :
 -----------------------------------------------------------------------------
  energy-cutoff  :      400.00
  volume of cell :     3375.00
      direct lattice vectors                 reciprocal lattice vectors
    15.000000000  0.000000000  0.000000000     0.066666667  0.000000000  0.000000000
     0.000000000 15.000000000  0.000000000     0.000000000  0.066666667  0.000000000
     0.000000000  0.000000000 15.000000000     0.000000000  0.000000000  0.066666667

  length of vectors
    15.000000000 15.000000000 15.000000000     0.066666667  0.066666667  0.066666667


 FORCES acting on ions
    electron-ion (+dipol)            ewald-force                    non-local-force                 convergence-correction
 -----------------------------------------------------------------------------------------------
   0.296E-13 0.607E-13 0.207E+02   0.850E-18 0.106E-18 -.262E+02   0.852E-28 0.698E-28 0.518E+01   -.344E-14 -.911E-15 0.296E-05
   0.297E-13 0.735E-13 -.207E+02   -.372E-18 -.295E-18 0.262E+02   0.284E-28 0.978E-28 -.518E+01   -.337E-14 -.961E-15 -.296E-05
 -----------------------------------------------------------------------------------------------
   0.593E-13 0.134E-12 0.888E-13   0.479E-18 -.188E-18 0.000E+00   0.114E-27 0.168E-27 0.000E+00   -.681E-14 -.187E-14 -.357E-14
 
 
 POSITION                                       TOTAL-FORCE (eV/Angst)
 -----------------------------------------------------------------------------------
      7.50000      7.50000      7.12930        -0.000000     -0.000000     -0.334630
      7.50000      7.50000      7.87070         0.000000      0.000000      0.334630
 -----------------------------------------------------------------------------------
    total drift:                                0.000000      0.000000      0.000000


--------------------------------------------------------------------------------------------------------



  FREE ENERGIE OF THE ION-ELECTRON SYSTEM (eV)
  ---------------------------------------------------
  free  energy   TOTEN  =        -6.76052960 eV

  energy  without entropy=       -6.76052960  energy(sigma->0) =       -6.76052960
 


--------------------------------------------------------------------------------------------------------


    POTLOK:  cpu time      2.3699: real time      2.3900


--------------------------------------------------------------------------------------------------------




--------------------------------------------------------------------------------------------------------


      MLFF:  cpu time      0.0009: real time      0.0026
    WAVPRE:  cpu time      0.0586: real time      0.0595
    FEWALD:  cpu time      0.0025: real time      0.0025
    ORTHCH:  cpu time      0.0069: real time      0.0070
     LOOP+:  cpu time     64.9790: real time     65.5729


--------------------------------------- Ionic step        2  -------------------------------------------




--------------------------------------- Iteration      2(   1)  ---------------------------------------


    POTLOK:  cpu time      2.3448: real time      2.3654
    SETDIJ:  cpu time      0.0157: real time      0.0159
     EDDAV:  cpu time      0.5118: real time      0.5170
       DOS:  cpu time      0.0029: real time      0.0030
    CHARGE:  cpu time      0.4296: real time      0.4332
    MIXING:  cpu time      0.0448: real time      0.0451
    --------------------------------------------
      LOOP:  cpu time      3.3496: real time      3.3796

 eigenvalue-minimisations  :    24
 total energy-change (2. order) : 0.5406263E-02  (-0.3091838E-01)
 number of electron       1.9999992 magnetization      -0.0000000
 augmentation part        0.0397540 magnetization       0.0000004

 Broyden mixing:
  rms(total) = 0.27020E-01    rms(broyden)= 0.26985E-01
  rms(prec ) = 0.29605E-01
  weight for this iteration     100.00

 Free energy of the ion-electron system (eV)
  ---------------------------------------------------
  alpha Z        PSCENC =         0.00288731
  Ewald energy   TEWEN  =        13.16974385
  -Hartree energ DENC   =       -29.96043788
  -exchange      EXHF   =         0.00000000
  -V(xc)+E(xc)   XCENC  =         5.28616842
  PAW double counting   =        25.22269196      -25.27269989
  entropy T*S    EENTRO =        -0.00000000
  eigenvalues    EBANDS =       -20.15824629
  atomic energy  EATOM  =        24.95726533
  Solvation  Ediel_sol  =         0.00000000
  ---------------------------------------------------
  free energy    TOTEN  =        -6.75262720 eV

  energy without entropy =       -6.75262720  energy(sigma->0) =       -6.75262720


--------------------------------------------------------------------------------------------------------




--------------------------------------- Iteration      2(   2)  ---------------------------------------


    POTLOK:  cpu time      2.2388: real time      2.2577
    SETDIJ:  cpu time      0.0127: real time      0.0128
     EDDAV:  cpu time      0.5837: real time      0.5897
       DOS:  cpu time      0.0001: real time      0.0001
    CHARGE:  cpu time      0.3434: real time      0.3460
    MIXING:  cpu time      0.0610: real time      0.0614
    --------------------------------------------
      LOOP:  cpu time      3.2397: real time      3.2676

 eigenvalue-minimisations  :    36
 total energy-change (2. order) : 0.1150271E-02  (-0.1613742E-03)
 number of electron       1.9999992 magnetization      -0.0000000
 augmentation part        0.0398697 magnetization       0.0000001

 Broyden mixing:
  rms(total) = 0.14610E-01    rms(broyden)= 0.14607E-01
  rms(prec ) = 0.15955E-01
  weight for this iteration     100.00

 eigenvalues of (default mixing * dielectric matrix)
  average eigenvalue GAMMA=   2.1594
  2.1594

 Free energy of the ion-electron system (eV)
  ---------------------------------------------------
  alpha Z        PSCENC =         0.00288731
  Ewald energy   TEWEN  =        13.16974385
  -Hartree energ DENC   =       -29.81847408
  -exchange      EXHF   =         0.00000000
  -V(xc)+E(xc)   XCENC  =         5.26610733
  PAW double counting   =        24.27721854      -24.32532487
  entropy T*S    EENTRO =        -0.00000000
  eigenvalues    EBANDS =       -20.28090033
  atomic energy  EATOM  =        24.95726533
  Solvation  Ediel_sol  =         0.00000000
  ---------------------------------------------------
  free energy    TOTEN  =        -6.75147692 eV

  energy without entropy =       -6.75147692  energy(sigma->0) =       -6.75147692


--------------------------------------------------------------------------------------------------------




--------------------------------------- Iteration      2(   3)  ---------------------------------------


    POTLOK:  cpu time      2.2723: real time      2.2911
    SETDIJ:  cpu time      0.0161: real time      0.0164
     EDDAV:  cpu time      0.8538: real time      0.8627
       DOS:  cpu time      0.0002: real time      0.0002
    CHARGE:  cpu time      0.4596: real time      0.4635
    MIXING:  cpu time      0.0592: real time      0.0598
    --------------------------------------------
      LOOP:  cpu time      3.6613: real time      3.6938

 eigenvalue-minimisations  :    48
 total energy-change (2. order) : 0.3282234E-03  (-0.1210148E-03)
 number of electron       1.9999992 magnetization       0.0000000
 augmentation part        0.0399999 magnetization      -0.0000002

 Broyden mixing:
  rms(total) = 0.10482E-02    rms(broyden)= 0.10459E-02
  rms(prec ) = 0.11631E-02
  weight for this iteration     100.00

 eigenvalues of (default mixing * dielectric matrix)
  average eigenvalue GAMMA=   1.8507
  1.5763  2.1250

 Free energy of the ion-electron system (eV)
  ---------------------------------------------------
  alpha Z        PSCENC =         0.00288731
  Ewald energy   TEWEN  =        13.16974385
  -Hartree energ DENC   =       -29.65902481
  -exchange      EXHF   =         0.00000000
  -V(xc)+E(xc)   XCENC  =         5.24363441
  PAW double counting   =        23.14066087      -23.18657387
  entropy T*S    EENTRO =        -0.00000000
  eigenvalues    EBANDS =       -20.41974179
  atomic energy  EATOM  =        24.95726533
  Solvation  Ediel_sol  =         0.00000000
  ---------------------------------------------------
  free energy    TOTEN  =        -6.75114870 eV

  energy without entropy =       -6.75114870  energy(sigma->0) =       -6.75114870


--------------------------------------------------------------------------------------------------------




--------------------------------------- Iteration      2(   4)  ---------------------------------------


    POTLOK:  cpu time      2.2325: real time      2.2506
    SETDIJ:  cpu time      0.0157: real time      0.0158
     EDDAV:  cpu time      0.4924: real time      0.4970
       DOS:  cpu time      0.0002: real time      0.0002
    CHARGE:  cpu time      0.4601: real time      0.4641
    MIXING:  cpu time      0.0604: real time      0.0609
    --------------------------------------------
      LOOP:  cpu time      3.2613: real time      3.2886

 eigenvalue-minimisations  :    36
 total energy-change (2. order) :-0.2466176E-04  (-0.3010225E-06)
 number of electron       1.9999992 magnetization      -0.0000000
 augmentation part        0.0400003 magnetization       0.0000002

 Broyden mixing:
  rms(total) = 0.45791E-03    rms(broyden)= 0.45770E-03
  rms(prec ) = 0.54988E-03
  weight for this iteration     100.00

 eigenvalues of (default mixing * dielectric matrix)
  average eigenvalue GAMMA=   1.9275
  0.9886  2.1414  2.6525

 Free energy of the ion-electron system (eV)
  ---------------------------------------------------
  alpha Z        PSCENC =         0.00288731
  Ewald energy   TEWEN  =        13.16974385
  -Hartree energ DENC   =       -29.65842438
  -exchange      EXHF   =         0.00000000
  -V(xc)+E(xc)   XCENC  =         5.24374625
  PAW double counting   =        23.07810989      -23.12397234
  entropy T*S    EENTRO =        -0.00000000
  eigenvalues    EBANDS =       -20.42052928
  atomic energy  EATOM  =        24.95726533
  Solvation  Ediel_sol  =         0.00000000
  ---------------------------------------------------
  free energy    TOTEN  =        -6.75117336 eV

  energy without entropy =       -6.75117336  energy(sigma->0) =       -6.75117336


--------------------------------------------------------------------------------------------------------




--------------------------------------- Iteration      2(   5)  ---------------------------------------


    POTLOK:  cpu time      2.1910: real time      2.2087
    SETDIJ:  cpu time      0.0086: real time      0.0086
     EDDAV:  cpu time      0.5509: real time      0.5562
       DOS:  cpu time      0.0002: real time      0.0002
    CHARGE:  cpu time      0.4576: real time      0.4614
    MIXING:  cpu time      0.0604: real time      0.0609
    --------------------------------------------
      LOOP:  cpu time      3.2686: real time      3.2961

 eigenvalue-minimisations  :    36
 total energy-change (2. order) :-0.1329308E-04  (-0.2217308E-06)
 number of electron       1.9999992 magnetization       0.0000000
 augmentation part        0.0400010 magnetization      -0.0000001

 Broyden mixing:
  rms(total) = 0.88253E-04    rms(broyden)= 0.88202E-04
  rms(prec ) = 0.17362E-03
  weight for this iteration     100.00

 eigenvalues of (default mixing * dielectric matrix)
  average eigenvalue GAMMA=   1.6672
  2.7223  2.1394  1.0140  0.7933

 Free energy of the ion-electron system (eV)
  ---------------------------------------------------
  alpha Z        PSCENC =         0.00288731
  Ewald energy   TEWEN  =        13.16974385
  -Hartree energ DENC   =       -29.65596660
  -exchange      EXHF   =         0.00000000
  -V(xc)+E(xc)   XCENC  =         5.24360639
  PAW double counting   =        23.02651643      -23.07233345
  entropy T*S    EENTRO =        -0.00000000
  eigenvalues    EBANDS =       -20.42290592
  atomic energy  EATOM  =        24.95726533
  Solvation  Ediel_sol  =         0.00000000
  ---------------------------------------------------
  free energy    TOTEN  =        -6.75118666 eV

  energy without entropy =       -6.75118666  energy(sigma->0) =       -6.75118666


--------------------------------------------------------------------------------------------------------




--------------------------------------- Iteration      2(   6)  ---------------------------------------


    POTLOK:  cpu time      2.1282: real time      2.1457
    SETDIJ:  cpu time      0.0147: real time      0.0149
     EDDAV:  cpu time      0.3783: real time      0.3820
       DOS:  cpu time      0.0001: real time      0.0001
    CHARGE:  cpu time      0.4187: real time      0.4226
    MIXING:  cpu time      0.0573: real time      0.0579
    --------------------------------------------
      LOOP:  cpu time      2.9974: real time      3.0233

 eigenvalue-minimisations  :    30
 total energy-change (2. order) :-0.7042592E-05  (-0.4610235E-07)
 number of electron       1.9999992 magnetization       0.0000000
 augmentation part        0.0400013 magnetization       0.0000001

 Broyden mixing:
  rms(total) = 0.59207E-04    rms(broyden)= 0.59202E-04
  rms(prec ) = 0.12173E-03
  weight for this iteration     100.00

 eigenvalues of (default mixing * dielectric matrix)
  average eigenvalue GAMMA=   1.9170
  3.1116  2.6344  2.1229  1.0026  0.7133

 Free energy of the ion-electron system (eV)
  ---------------------------------------------------
  alpha Z        PSCENC =         0.00288731
  Ewald energy   TEWEN  =        13.16974385
  -Hartree energ DENC   =       -29.65430226
  -exchange      EXHF   =         0.00000000
  -V(xc)+E(xc)   XCENC  =         5.24343704
  PAW double counting   =        23.03068180      -23.07650380
  entropy T*S    EENTRO =        -0.00000000
  eigenvalues    EBANDS =       -20.42440297
  atomic energy  EATOM  =        24.95726533
  Solvation  Ediel_sol  =         0.00000000
  ---------------------------------------------------
  free energy    TOTEN  =        -6.75119370 eV

  energy without entropy =       -6.75119370  energy(sigma->0) =       -6.75119370


--------------------------------------------------------------------------------------------------------




--------------------------------------- Iteration      2(   7)  ---------------------------------------


    POTLOK:  cpu time      1.9851: real time      2.0013
    SETDIJ:  cpu time      0.0160: real time      0.0162
     EDDAV:  cpu time      0.6609: real time      0.6683
       DOS:  cpu time      0.0003: real time      0.0003
    CHARGE:  cpu time      0.4530: real time      0.4568
    MIXING:  cpu time      0.0611: real time      0.0617
    --------------------------------------------
      LOOP:  cpu time      3.1764: real time      3.2046

 eigenvalue-minimisations  :    36
 total energy-change (2. order) :-0.4476590E-05  (-0.8233212E-07)
 number of electron       1.9999992 magnetization       0.0000000
 augmentation part        0.0400021 magnetization       0.0000000

 Broyden mixing:
  rms(total) = 0.30588E-04    rms(broyden)= 0.30581E-04
  rms(prec ) = 0.60152E-04
  weight for this iteration     100.00

 eigenvalues of (default mixing * dielectric matrix)
  average eigenvalue GAMMA=   1.8589
  3.9350  2.6427  2.1152  1.0022  0.7962  0.6623

 Free energy of the ion-electron system (eV)
  ---------------------------------------------------
  alpha Z        PSCENC =         0.00288731
  Ewald energy   TEWEN  =        13.16974385
  -Hartree energ DENC   =       -29.65181687
  -exchange      EXHF   =         0.00000000
  -V(xc)+E(xc)   XCENC  =         5.24319890
  PAW double counting   =        23.03740721      -23.08323764
  entropy T*S    EENTRO =        -0.00000000
  eigenvalues    EBANDS =       -20.42664627
  atomic energy  EATOM  =        24.95726533
  Solvation  Ediel_sol  =         0.00000000
  ---------------------------------------------------
  free energy    TOTEN  =        -6.75119818 eV

  energy without entropy =       -6.75119818  energy(sigma->0) =       -6.75119818


--------------------------------------------------------------------------------------------------------




--------------------------------------- Iteration      2(   8)  ---------------------------------------


    POTLOK:  cpu time      2.2539: real time      2.2729
    SETDIJ:  cpu time      0.0151: real time      0.0153
     EDDAV:  cpu time      0.5002: real time      0.5059
       DOS:  cpu time      0.0003: real time      0.0003
    CHARGE:  cpu time      0.3782: real time      0.3813
    MIXING:  cpu time      0.0393: real time      0.0395
    --------------------------------------------
      LOOP:  cpu time      3.1869: real time      3.2150

 eigenvalue-minimisations  :    24
 total energy-change (2. order) :-0.1224907E-05  (-0.2280951E-08)
 number of electron       1.9999992 magnetization       0.0000000
 augmentation part        0.0400020 magnetization      -0.0000000

 Broyden mixing:
  rms(total) = 0.20500E-04    rms(broyden)= 0.20500E-04
  rms(prec ) = 0.46499E-04
  weight for this iteration     100.00

 eigenvalues of (default mixing * dielectric matrix)
  average eigenvalue GAMMA=   1.9098
  4.1416  2.4987  2.1592  2.1592  1.0055  0.7563  0.6481

 Free energy of the ion-electron system (eV)
  ---------------------------------------------------
  alpha Z        PSCENC =         0.00288731
  Ewald energy   TEWEN  =        13.16974385
  -Hartree energ DENC   =       -29.65175684
  -exchange      EXHF   =         0.00000000
  -V(xc)+E(xc)   XCENC  =         5.24321232
  PAW double counting   =        23.03635868      -23.08218881
  entropy T*S    EENTRO =        -0.00000000
  eigenvalues    EBANDS =       -20.42672125
  atomic energy  EATOM  =        24.95726533
  Solvation  Ediel_sol  =         0.00000000
  ---------------------------------------------------
  free energy    TOTEN  =        -6.75119940 eV

  energy without entropy =       -6.75119940  energy(sigma->0) =       -6.75119940


--------------------------------------------------------------------------------------------------------




--------------------------------------- Iteration      2(   9)  ---------------------------------------


    POTLOK:  cpu time      2.3119: real time      2.3320
    SETDIJ:  cpu time      0.0096: real time      0.0096
     EDDAV:  cpu time      0.6396: real time      0.6460
       DOS:  cpu time      0.0002: real time      0.0002
    CHARGE:  cpu time      0.4580: real time      0.4620
    MIXING:  cpu time      0.0606: real time      0.0611
    --------------------------------------------
      LOOP:  cpu time      3.4799: real time      3.5110

 eigenvalue-minimisations  :    48
 total energy-change (2. order) :-0.2249413E-05  (-0.1720062E-07)
 number of electron       1.9999992 magnetization       0.0000000
 augmentation part        0.0400020 magnetization       0.0000000

 Broyden mixing:
  rms(total) = 0.19134E-04    rms(broyden)= 0.19134E-04
  rms(prec ) = 0.26417E-04
  weight for this iteration     100.00

 eigenvalues of (default mixing * dielectric matrix)
  average eigenvalue GAMMA=   2.1211
  5.6083  3.4269  2.6387  2.1264  0.9997  0.8558  0.6865  0.6262

 Free energy of the ion-electron system (eV)
  ---------------------------------------------------
  alpha Z        PSCENC =         0.00288731
  Ewald energy   TEWEN  =        13.16974385
  -Hartree energ DENC   =       -29.65151575
  -exchange      EXHF   =         0.00000000
  -V(xc)+E(xc)   XCENC  =         5.24322717
  PAW double counting   =        23.03403729      -23.07986473
  entropy T*S    EENTRO =        -0.00000000
  eigenvalues    EBANDS =       -20.42698212
  atomic energy  EATOM  =        24.95726533
  Solvation  Ediel_sol  =         0.00000000
  ---------------------------------------------------
  free energy    TOTEN  =        -6.75120165 eV

  energy without entropy =       -6.75120165  energy(sigma->0) =       -6.75120165


--------------------------------------------------------------------------------------------------------




--------------------------------------- Iteration      2(  10)  ---------------------------------------


    POTLOK:  cpu time      2.2139: real time      2.2325
    SETDIJ:  cpu time      0.0159: real time      0.0161
     EDDAV:  cpu time      0.8286: real time      0.8379
       DOS:  cpu time      0.0017: real time      0.0017
    --------------------------------------------
      LOOP:  cpu time      3.0600: real time      3.0880

 eigenvalue-minimisations  :    48
 total energy-change (2. order) :-0.3379383E-06  (-0.8024781E-09)
 number of electron       1.9999992 magnetization       0.0000000
 augmentation part        0.0400020 magnetization       0.0000000

 Free energy of the ion-electron system (eV)
  ---------------------------------------------------
  alpha Z        PSCENC =         0.00288731
  Ewald energy   TEWEN  =        13.16974385
  -Hartree energ DENC   =       -29.65132965
  -exchange      EXHF   =         0.00000000
  -V(xc)+E(xc)   XCENC  =         5.24320734
  PAW double counting   =        23.03466853      -23.08049585
  entropy T*S    EENTRO =        -0.00000000
  eigenvalues    EBANDS =       -20.42714884
  atomic energy  EATOM  =        24.95726533
  Solvation  Ediel_sol  =         0.00000000
  ---------------------------------------------------
  free energy    TOTEN  =        -6.75120199 eV

  energy without entropy =       -6.75120199  energy(sigma->0) =       -6.75120199


--------------------------------------------------------------------------------------------------------




 average (electrostatic) potential at core
  the test charge radii are     0.5201
  (the norm of the test charge is              1.0000)
       1 -41.4691       2 -41.4691
 
 
 
 E-fermi : -10.1502     XC(G=0):  -0.1314     alpha+bet : -0.0164

 val. band max:      -10.2135738159   @ k =   0.0000   0.0000   0.0000
 cond. band min:      -0.0840472511   @ k =   0.0000   0.0000   0.0000
 fundamental gap:     10.1295265648
 Fermi energy:       -10.1501900684

 spin component 1

 k-point     1 :       0.0000    0.0000    0.0000
  band No.  band energies     occupation 
      1     -10.2136      1.00000
      2      -0.0840      0.00000
      3       0.1421      0.00000
      4       0.4941      0.00000
      5       0.4994      0.00000
      6       0.4994      0.00000
 Fermi energy:       -10.1501900684

 spin component 2

 k-point     1 :       0.0000    0.0000    0.0000
  band No.  band energies     occupation 
      1     -10.2136      1.00000
      2      -0.0840      0.00000
      3       0.1420      0.00000
      4       0.4937      0.00000
      5       0.4993      0.00000
      6       0.4993      0.00000


--------------------------------------------------------------------------------------------------------


 soft charge-density along one line, spin component           1
         0         1         2         3         4         5         6         7         8         9
 total charge-density along one line
 
 soft charge-density along one line, spin component           2
         0         1         2         3         4         5         6         7         8         9
 total charge-density along one line
 
 pseudopotential strength for first ion, spin component:           1
 -2.343  -4.037  -0.000  -0.002   0.000
 -4.037  -6.870  -0.000  -0.005   0.000
 -0.000  -0.000  -0.342   0.000   0.000
 -0.002  -0.005   0.000  -0.337  -0.000
  0.000   0.000   0.000  -0.000  -0.342
 pseudopotential strength for first ion, spin component:           2
 -2.343  -4.037   0.000  -0.002  -0.000
 -4.037  -6.870   0.000  -0.005  -0.000
  0.000   0.000  -0.342  -0.000   0.000
 -0.002  -0.005  -0.000  -0.337   0.000
 -0.000  -0.000   0.000   0.000  -0.342
 total augmentation occupancy for first ion, spin component:           1
  3.077  -0.496   0.000   0.351   0.000
 -0.496   0.080   0.000  -0.057   0.000
  0.000   0.000   0.000   0.000   0.000
  0.351  -0.057   0.000   0.040   0.000
  0.000   0.000  -0.000   0.000   0.000
 total augmentation occupancy for first ion, spin component:           2
 -0.000   0.000   0.000  -0.000   0.000
  0.000  -0.000   0.000   0.000   0.000
  0.000   0.000  -0.000   0.000   0.000
 -0.000   0.000   0.000  -0.000   0.000
  0.000   0.000   0.000   0.000  -0.000


------------------------ aborting loop because EDIFF is reached ----------------------------------------


    CHARGE:  cpu time      0.4132: real time      0.4167
    FORLOC:  cpu time      0.0273: real time      0.0275
    FORNL :  cpu time      0.0806: real time      0.0814
    STRESS:  cpu time      0.2316: real time      0.2333
    FORHAR:  cpu time      0.2973: real time      0.3000
    MIXING:  cpu time      0.0624: real time      0.0630
    OFIELD:  cpu time      0.0000: real time      0.0000

 ---------------------------------------------------------------------------------------------

         DFTD3 V3.0 Rev 1        
 Edisp (eV)   -0.00256

 E6    (eV) :    -0.0020
 E8    (eV) :    -0.0005
 % E8        : 21.27
    FORVDW:  cpu time      0.0074: real time      0.0075

  FORCE on cell =-STRESS in cart. coord.  units (eV):
  Direction    XX          YY          ZZ          XY          YZ          ZX
  --------------------------------------------------------------------------------------
  Alpha Z     0.00289     0.00289     0.00289
  Ewald      -1.81857    -1.81857    16.80689     0.00000    -0.00000    -0.00000
  Hartree     9.11571     9.11571    11.41982    -0.00000    -0.00000    -0.00000
  E(xc)      -5.90964    -5.90964    -5.68707     0.00000     0.00000     0.00000
  Local     -17.05288   -17.05288   -30.70190     0.00000    -0.00000     0.00000
  n-local    -5.25687    -5.25687    -6.12814    -0.00000    -0.00000    -0.00000
  augment     0.26163     0.26163     0.20128     0.00000     0.00000     0.00000
  Kinetic    20.54109    20.54109    13.37778     0.00000    -0.00000     0.00000
  Fock        0.00000     0.00000     0.00000     0.00000     0.00000     0.00000
  vdW        -0.00001    -0.00001     0.00267     0.00000    -0.00000     0.00000
  -------------------------------------------------------------------------------------
  Total      -0.11666    -0.11666    -0.70577     0.00000     0.00000    -0.00000
  in kB      -0.05538    -0.05538    -0.33504     0.00000     0.00000    -0.00000
  external pressure =       -0.15 kB  Pullay stress =        0.00 kB


 VOLUME and BASIS-vectors are now :
 -----------------------------------------------------------------------------
  energy-cutoff  :      400.00
  volume of cell :     3375.00
      direct lattice vectors                 reciprocal lattice vectors
    15.000000000  0.000000000  0.000000000     0.066666667  0.000000000  0.000000000
     0.000000000 15.000000000  0.000000000     0.000000000  0.066666667  0.000000000
     0.000000000  0.000000000 15.000000000     0.000000000  0.000000000  0.066666667

  length of vectors
    15.000000000 15.000000000 15.000000000     0.066666667  0.066666667  0.066666667


 FORCES acting on ions
    electron-ion (+dipol)            ewald-force                    non-local-force                 convergence-correction
 -----------------------------------------------------------------------------------------------
   0.278E-13 0.346E-13 0.200E+02   0.426E-18 -.269E-18 -.240E+02   -.377E-28 -.126E-28 0.474E+01   -.344E-14 -.637E-15 0.258E-05
   0.279E-13 0.120E-13 -.200E+02   0.533E-19 0.818E-19 0.240E+02   -.222E-28 -.221E-28 -.474E+01   -.337E-14 -.678E-15 -.258E-05
 -----------------------------------------------------------------------------------------------
   0.557E-13 0.466E-13 0.675E-13   0.480E-18 -.187E-18 0.000E+00   -.599E-28 -.347E-28 0.000E+00   -.680E-14 -.131E-14 -.331E-14
 
 
 POSITION                                       TOTAL-FORCE (eV/Angst)
 -----------------------------------------------------------------------------------
      7.50000      7.50000      7.11316         0.000000     -0.000000      0.716162
      7.50000      7.50000      7.88684        -0.000000      0.000000     -0.716162
 -----------------------------------------------------------------------------------
    total drift:                                0.000000      0.000000      0.000000


--------------------------------------------------------------------------------------------------------



  FREE ENERGIE OF THE ION-ELECTRON SYSTEM (eV)
  ---------------------------------------------------
  free  energy   TOTEN  =        -6.75376628 eV

  energy  without entropy=       -6.75376628  energy(sigma->0) =       -6.75376628
 d Force =-0.6159235E-02[-0.231E-01, 0.108E-01]  d Energy =-0.6763315E-02 0.604E-03
 d Force = 0.8108183E+00[ 0.776E+00, 0.845E+00]  d Ewald  = 0.8100818E+00 0.736E-03
 


--------------------------------------------------------------------------------------------------------


    POTLOK:  cpu time      2.2880: real time      2.3074


--------------------------------------------------------------------------------------------------------


 Steepest descent step on ions:
 trial-energy change:    0.006763  1 .order    0.006159   -0.010804    0.023123
  (g-gl).g = 0.108E-01      g.g   = 0.108E-01  gl.gl    = 0.000E+00
 g(Force)  = 0.108E-01   g(Stress)= 0.000E+00 ortho     = 0.000E+00
 gamma     =   0.00000
 trial     =   1.00000
 opt step  =   0.29619  (harmonic =   0.31846) maximal distance =0.00478146
 next E    =    -6.762114   (d E  =  -0.00158)


--------------------------------------------------------------------------------------------------------


      MLFF:  cpu time      0.0010: real time      0.0028
    WAVPRE:  cpu time      0.0636: real time      0.0644
    FEWALD:  cpu time      0.0006: real time      0.0007
    ORTHCH:  cpu time      0.0070: real time      0.0070
     LOOP+:  cpu time     36.1804: real time     36.5005


--------------------------------------- Ionic step        3  -------------------------------------------




--------------------------------------- Iteration      3(   1)  ---------------------------------------


    POTLOK:  cpu time      2.2455: real time      2.2642
    SETDIJ:  cpu time      0.0148: real time      0.0149
     EDDAV:  cpu time      0.4536: real time      0.4585
       DOS:  cpu time      0.0007: real time      0.0007
    CHARGE:  cpu time      0.3145: real time      0.3168
    MIXING:  cpu time      0.0350: real time      0.0352
    --------------------------------------------
      LOOP:  cpu time      3.0641: real time      3.0903

 eigenvalue-minimisations  :    24
 total energy-change (2. order) :-0.9085755E-02  (-0.1511749E-01)
 number of electron       1.9999992 magnetization      -0.0000000
 augmentation part        0.0413110 magnetization       0.0000000

 Broyden mixing:
  rms(total) = 0.18643E-01    rms(broyden)= 0.18620E-01
  rms(prec ) = 0.20424E-01
  weight for this iteration     100.00

 Free energy of the ion-electron system (eV)
  ---------------------------------------------------
  alpha Z        PSCENC =         0.00288731
  Ewald energy   TEWEN  =        13.73262507
  -Hartree energ DENC   =       -29.84183805
  -exchange      EXHF   =         0.00000000
  -V(xc)+E(xc)   XCENC  =         5.26663483
  PAW double counting   =        23.03588320      -23.08171176
  entropy T*S    EENTRO =        -0.00000000
  eigenvalues    EBANDS =       -20.83203332
  atomic energy  EATOM  =        24.95726533
  Solvation  Ediel_sol  =         0.00000000
  ---------------------------------------------------
  free energy    TOTEN  =        -6.76028740 eV

  energy without entropy =       -6.76028740  energy(sigma->0) =       -6.76028740


--------------------------------------------------------------------------------------------------------




--------------------------------------- Iteration      3(   2)  ---------------------------------------


    POTLOK:  cpu time      2.1986: real time      2.2170
    SETDIJ:  cpu time      0.0139: real time      0.0141
     EDDAV:  cpu time      0.4919: real time      0.4975
       DOS:  cpu time      0.0001: real time      0.0001
    CHARGE:  cpu time      0.3538: real time      0.3565
    MIXING:  cpu time      0.0356: real time      0.0358
    --------------------------------------------
      LOOP:  cpu time      3.0940: real time      3.1209

 eigenvalue-minimisations  :    24
 total energy-change (2. order) : 0.5399845E-03  (-0.7674415E-04)
 number of electron       1.9999992 magnetization      -0.0000000
 augmentation part        0.0412582 magnetization       0.0000000

 Broyden mixing:
  rms(total) = 0.10352E-01    rms(broyden)= 0.10350E-01
  rms(prec ) = 0.11310E-01
  weight for this iteration     100.00

 eigenvalues of (default mixing * dielectric matrix)
  average eigenvalue GAMMA=   2.2331
  2.2331

 Free energy of the ion-electron system (eV)
  ---------------------------------------------------
  alpha Z        PSCENC =         0.00288731
  Ewald energy   TEWEN  =        13.73262507
  -Hartree energ DENC   =       -29.93956595
  -exchange      EXHF   =         0.00000000
  -V(xc)+E(xc)   XCENC  =         5.28048416
  PAW double counting   =        23.68345610      -23.73055210
  entropy T*S    EENTRO =        -0.00000000
  eigenvalues    EBANDS =       -20.74634734
  atomic energy  EATOM  =        24.95726533
  Solvation  Ediel_sol  =         0.00000000
  ---------------------------------------------------
  free energy    TOTEN  =        -6.75974742 eV

  energy without entropy =       -6.75974742  energy(sigma->0) =       -6.75974742


--------------------------------------------------------------------------------------------------------




--------------------------------------- Iteration      3(   3)  ---------------------------------------


    POTLOK:  cpu time      2.1018: real time      2.1195
    SETDIJ:  cpu time      0.0144: real time      0.0146
     EDDAV:  cpu time      0.7781: real time      0.7871
       DOS:  cpu time      0.0001: real time      0.0001
    CHARGE:  cpu time      0.4006: real time      0.4039
    MIXING:  cpu time      0.0468: real time      0.0472
    --------------------------------------------
      LOOP:  cpu time      3.3419: real time      3.3724

 eigenvalue-minimisations  :    48
 total energy-change (2. order) : 0.1775802E-03  (-0.6681420E-04)
 number of electron       1.9999992 magnetization      -0.0000000
 augmentation part        0.0411568 magnetization      -0.0000000

 Broyden mixing:
  rms(total) = 0.81786E-03    rms(broyden)= 0.81618E-03
  rms(prec ) = 0.91714E-03
  weight for this iteration     100.00

 eigenvalues of (default mixing * dielectric matrix)
  average eigenvalue GAMMA=   1.6468
  1.1936  2.1000

 Free energy of the ion-electron system (eV)
  ---------------------------------------------------
  alpha Z        PSCENC =         0.00288731
  Ewald energy   TEWEN  =        13.73262507
  -Hartree energ DENC   =       -30.05837654
  -exchange      EXHF   =         0.00000000
  -V(xc)+E(xc)   XCENC  =         5.29717731
  PAW double counting   =        24.50818628      -24.55689167
  entropy T*S    EENTRO =        -0.00000000
  eigenvalues    EBANDS =       -20.64244292
  atomic energy  EATOM  =        24.95726533
  Solvation  Ediel_sol  =         0.00000000
  ---------------------------------------------------
  free energy    TOTEN  =        -6.75956984 eV

  energy without entropy =       -6.75956984  energy(sigma->0) =       -6.75956984


--------------------------------------------------------------------------------------------------------




--------------------------------------- Iteration      3(   4)  ---------------------------------------


    POTLOK:  cpu time      1.4725: real time      1.5395
    SETDIJ:  cpu time      0.0081: real time      0.0082
     EDDAV:  cpu time      0.3160: real time      0.3183
       DOS:  cpu time      0.0001: real time      0.0001
    CHARGE:  cpu time      0.2704: real time      0.2721
    MIXING:  cpu time      0.0408: real time      0.0411
    --------------------------------------------
      LOOP:  cpu time      2.1079: real time      2.1792

 eigenvalue-minimisations  :    36
 total energy-change (2. order) :-0.7315429E-05  (-0.2163199E-06)
 number of electron       1.9999992 magnetization      -0.0000000
 augmentation part        0.0411607 magnetization       0.0000000

 Broyden mixing:
  rms(total) = 0.42646E-03    rms(broyden)= 0.42639E-03
  rms(prec ) = 0.49204E-03
  weight for this iteration     100.00

 eigenvalues of (default mixing * dielectric matrix)
  average eigenvalue GAMMA=   1.9577
  1.0001  2.7386  2.1345

 Free energy of the ion-electron system (eV)
  ---------------------------------------------------
  alpha Z        PSCENC =         0.00288731
  Ewald energy   TEWEN  =        13.73262507
  -Hartree energ DENC   =       -30.05339772
  -exchange      EXHF   =         0.00000000
  -V(xc)+E(xc)   XCENC  =         5.29636239
  PAW double counting   =        24.50630888      -24.55496647
  entropy T*S    EENTRO =        -0.00000000
  eigenvalues    EBANDS =       -20.64666194
  atomic energy  EATOM  =        24.95726533
  Solvation  Ediel_sol  =         0.00000000
  ---------------------------------------------------
  free energy    TOTEN  =        -6.75957716 eV

  energy without entropy =       -6.75957716  energy(sigma->0) =       -6.75957716


--------------------------------------------------------------------------------------------------------




--------------------------------------- Iteration      3(   5)  ---------------------------------------


    POTLOK:  cpu time      2.2209: real time      2.2387
    SETDIJ:  cpu time      0.0142: real time      0.0144
     EDDAV:  cpu time      0.8432: real time      0.8516
       DOS:  cpu time      0.0002: real time      0.0002
    CHARGE:  cpu time      0.4590: real time      0.4627
    MIXING:  cpu time      0.0561: real time      0.0565
    --------------------------------------------
      LOOP:  cpu time      3.5936: real time      3.6240

 eigenvalue-minimisations  :    48
 total energy-change (2. order) :-0.7453208E-05  (-0.1213112E-06)
 number of electron       1.9999992 magnetization       0.0000000
 augmentation part        0.0411595 magnetization      -0.0000000

 Broyden mixing:
  rms(total) = 0.61066E-04    rms(broyden)= 0.61026E-04
  rms(prec ) = 0.12150E-03
  weight for this iteration     100.00

 eigenvalues of (default mixing * dielectric matrix)
  average eigenvalue GAMMA=   1.7617
  2.6692  2.1505  1.0403  1.1867

 Free energy of the ion-electron system (eV)
  ---------------------------------------------------
  alpha Z        PSCENC =         0.00288731
  Ewald energy   TEWEN  =        13.73262507
  -Hartree energ DENC   =       -30.05624387
  -exchange      EXHF   =         0.00000000
  -V(xc)+E(xc)   XCENC  =         5.29657740
  PAW double counting   =        24.56179351      -24.61050172
  entropy T*S    EENTRO =        -0.00000000
  eigenvalues    EBANDS =       -20.64398763
  atomic energy  EATOM  =        24.95726533
  Solvation  Ediel_sol  =         0.00000000
  ---------------------------------------------------
  free energy    TOTEN  =        -6.75958461 eV

  energy without entropy =       -6.75958461  energy(sigma->0) =       -6.75958461


--------------------------------------------------------------------------------------------------------




--------------------------------------- Iteration      3(   6)  ---------------------------------------


    POTLOK:  cpu time      2.3970: real time      2.4171
    SETDIJ:  cpu time      0.0155: real time      0.0156
     EDDAV:  cpu time      0.6672: real time      0.6742
       DOS:  cpu time      0.0003: real time      0.0003
    CHARGE:  cpu time      0.4516: real time      0.4561
    MIXING:  cpu time      0.0598: real time      0.0603
    --------------------------------------------
      LOOP:  cpu time      3.5913: real time      3.6236

 eigenvalue-minimisations  :    36
 total energy-change (2. order) :-0.7319019E-05  (-0.4404627E-07)
 number of electron       1.9999992 magnetization       0.0000000
 augmentation part        0.0411589 magnetization       0.0000000

 Broyden mixing:
  rms(total) = 0.38643E-04    rms(broyden)= 0.38636E-04
  rms(prec ) = 0.64224E-04
  weight for this iteration     100.00

 eigenvalues of (default mixing * dielectric matrix)
  average eigenvalue GAMMA=   2.0755
  3.7975  2.7984  2.1115  1.0073  0.6626

 Free energy of the ion-electron system (eV)
  ---------------------------------------------------
  alpha Z        PSCENC =         0.00288731
  Ewald energy   TEWEN  =        13.73262507
  -Hartree energ DENC   =       -30.05835229
  -exchange      EXHF   =         0.00000000
  -V(xc)+E(xc)   XCENC  =         5.29677778
  PAW double counting   =        24.55199863      -24.60069680
  entropy T*S    EENTRO =        -0.00000000
  eigenvalues    EBANDS =       -20.64209695
  atomic energy  EATOM  =        24.95726533
  Solvation  Ediel_sol  =         0.00000000
  ---------------------------------------------------
  free energy    TOTEN  =        -6.75959193 eV

  energy without entropy =       -6.75959193  energy(sigma->0) =       -6.75959193


--------------------------------------------------------------------------------------------------------




--------------------------------------- Iteration      3(   7)  ---------------------------------------


    POTLOK:  cpu time      2.3776: real time      2.3978
    SETDIJ:  cpu time      0.0162: real time      0.0164
     EDDAV:  cpu time      0.6650: real time      0.6717
       DOS:  cpu time      0.0003: real time      0.0002
    CHARGE:  cpu time      0.4481: real time      0.4519
    MIXING:  cpu time      0.0602: real time      0.0607
    --------------------------------------------
      LOOP:  cpu time      3.5673: real time      3.5988

 eigenvalue-minimisations  :    36
 total energy-change (2. order) :-0.2077046E-05  (-0.9867577E-08)
 number of electron       1.9999992 magnetization       0.0000000
 augmentation part        0.0411587 magnetization       0.0000000

 Broyden mixing:
  rms(total) = 0.21937E-04    rms(broyden)= 0.21935E-04
  rms(prec ) = 0.40850E-04
  weight for this iteration     100.00

 eigenvalues of (default mixing * dielectric matrix)
  average eigenvalue GAMMA=   1.8793
  4.0132  2.6542  2.1075  0.9998  0.8589  0.6424

 Free energy of the ion-electron system (eV)
  ---------------------------------------------------
  alpha Z        PSCENC =         0.00288731
  Ewald energy   TEWEN  =        13.73262507
  -Hartree energ DENC   =       -30.05914720
  -exchange      EXHF   =         0.00000000
  -V(xc)+E(xc)   XCENC  =         5.29684208
  PAW double counting   =        24.55288878      -24.60158724
  entropy T*S    EENTRO =        -0.00000000
  eigenvalues    EBANDS =       -20.64136813
  atomic energy  EATOM  =        24.95726533
  Solvation  Ediel_sol  =         0.00000000
  ---------------------------------------------------
  free energy    TOTEN  =        -6.75959400 eV

  energy without entropy =       -6.75959400  energy(sigma->0) =       -6.75959400


--------------------------------------------------------------------------------------------------------




--------------------------------------- Iteration      3(   8)  ---------------------------------------


    POTLOK:  cpu time      2.3949: real time      2.4161
    SETDIJ:  cpu time      0.0160: real time      0.0162
     EDDAV:  cpu time      0.8351: real time      0.8440
       DOS:  cpu time      0.0003: real time      0.0003
    CHARGE:  cpu time      0.4527: real time      0.4566
    MIXING:  cpu time      0.0616: real time      0.0621
    --------------------------------------------
      LOOP:  cpu time      3.7606: real time      3.7953

 eigenvalue-minimisations  :    48
 total energy-change (2. order) :-0.1924045E-05  (-0.1706306E-08)
 number of electron       1.9999992 magnetization       0.0000000
 augmentation part        0.0411587 magnetization      -0.0000000

 Broyden mixing:
  rms(total) = 0.13797E-04    rms(broyden)= 0.13797E-04
  rms(prec ) = 0.31626E-04
  weight for this iteration     100.00

 eigenvalues of (default mixing * dielectric matrix)
  average eigenvalue GAMMA=   2.0575
  4.3280  2.7475  2.7475  2.1234  1.0081  0.8160  0.6318

 Free energy of the ion-electron system (eV)
  ---------------------------------------------------
  alpha Z        PSCENC =         0.00288731
  Ewald energy   TEWEN  =        13.73262507
  -Hartree energ DENC   =       -30.05921149
  -exchange      EXHF   =         0.00000000
  -V(xc)+E(xc)   XCENC  =         5.29683589
  PAW double counting   =        24.55512525      -24.60382574
  entropy T*S    EENTRO =        -0.00000000
  eigenvalues    EBANDS =       -20.64129755
  atomic energy  EATOM  =        24.95726533
  Solvation  Ediel_sol  =         0.00000000
  ---------------------------------------------------
  free energy    TOTEN  =        -6.75959593 eV

  energy without entropy =       -6.75959593  energy(sigma->0) =       -6.75959593


--------------------------------------------------------------------------------------------------------




--------------------------------------- Iteration      3(   9)  ---------------------------------------


    POTLOK:  cpu time      2.3931: real time      2.4141
    SETDIJ:  cpu time      0.0152: real time      0.0154
     EDDAV:  cpu time      0.8261: real time      0.8346
       DOS:  cpu time      0.0002: real time      0.0002
    CHARGE:  cpu time      0.4504: real time      0.4543
    MIXING:  cpu time      0.0632: real time      0.0638
    --------------------------------------------
      LOOP:  cpu time      3.7482: real time      3.7824

 eigenvalue-minimisations  :    48
 total energy-change (2. order) :-0.3517624E-05  (-0.1885358E-07)
 number of electron       1.9999992 magnetization       0.0000000
 augmentation part        0.0411586 magnetization       0.0000000

 Broyden mixing:
  rms(total) = 0.78553E-05    rms(broyden)= 0.78551E-05
  rms(prec ) = 0.13687E-04
  weight for this iteration     100.00

 eigenvalues of (default mixing * dielectric matrix)
  average eigenvalue GAMMA=   2.1442
  5.6148  3.4545  2.6012  2.1152  1.0028  1.0028  0.7330  0.6290

 Free energy of the ion-electron system (eV)
  ---------------------------------------------------
  alpha Z        PSCENC =         0.00288731
  Ewald energy   TEWEN  =        13.73262507
  -Hartree energ DENC   =       -30.05939193
  -exchange      EXHF   =         0.00000000
  -V(xc)+E(xc)   XCENC  =         5.29682506
  PAW double counting   =        24.55610880      -24.60481050
  entropy T*S    EENTRO =        -0.00000000
  eigenvalues    EBANDS =       -20.64110858
  atomic energy  EATOM  =        24.95726533
  Solvation  Ediel_sol  =         0.00000000
  ---------------------------------------------------
  free energy    TOTEN  =        -6.75959945 eV

  energy without entropy =       -6.75959945  energy(sigma->0) =       -6.75959945


--------------------------------------------------------------------------------------------------------




--------------------------------------- Iteration      3(  10)  ---------------------------------------


    POTLOK:  cpu time      2.1477: real time      2.1654
    SETDIJ:  cpu time      0.0145: real time      0.0147
     EDDAV:  cpu time      0.8365: real time      0.8451
       DOS:  cpu time      0.0002: real time      0.0002
    --------------------------------------------
      LOOP:  cpu time      2.9988: real time      3.0253

 eigenvalue-minimisations  :    48
 total energy-change (2. order) :-0.6337141E-06  (-0.4863701E-09)
 number of electron       1.9999992 magnetization       0.0000000
 augmentation part        0.0411586 magnetization       0.0000000

 Free energy of the ion-electron system (eV)
  ---------------------------------------------------
  alpha Z        PSCENC =         0.00288731
  Ewald energy   TEWEN  =        13.73262507
  -Hartree energ DENC   =       -30.05942502
  -exchange      EXHF   =         0.00000000
  -V(xc)+E(xc)   XCENC  =         5.29682445
  PAW double counting   =        24.55564477      -24.60434604
  entropy T*S    EENTRO =        -0.00000000
  eigenvalues    EBANDS =       -20.64107595
  atomic energy  EATOM  =        24.95726533
  Solvation  Ediel_sol  =         0.00000000
  ---------------------------------------------------
  free energy    TOTEN  =        -6.75960008 eV

  energy without entropy =       -6.75960008  energy(sigma->0) =       -6.75960008


--------------------------------------------------------------------------------------------------------




 average (electrostatic) potential at core
  the test charge radii are     0.5201
  (the norm of the test charge is              1.0000)
       1 -41.5997       2 -41.5997
 
 
 
 E-fermi : -10.2564     XC(G=0):  -0.1395     alpha+bet : -0.0164

 val. band max:      -10.3205372057   @ k =   0.0000   0.0000   0.0000
 cond. band min:      -0.0851631581   @ k =   0.0000   0.0000   0.0000
 fundamental gap:     10.2353740476
 Fermi energy:       -10.2564032233

 spin component 1

 k-point     1 :       0.0000    0.0000    0.0000
  band No.  band energies     occupation 
      1     -10.3205      1.00000
      2      -0.0852      0.00000
      3       0.2138      0.00000
      4       0.5149      0.00000
      5       0.5149      0.00000
      6       0.5191      0.00000
 Fermi energy:       -10.2564032233

 spin component 2

 k-point     1 :       0.0000    0.0000    0.0000
  band No.  band energies     occupation 
      1     -10.3205      1.00000
      2      -0.0850      0.00000
      3       0.2140      0.00000
      4       0.5152      0.00000
      5       0.5152      0.00000
      6       0.5193      0.00000


--------------------------------------------------------------------------------------------------------


 soft charge-density along one line, spin component           1
         0         1         2         3         4         5         6         7         8         9
 total charge-density along one line
 
 soft charge-density along one line, spin component           2
         0         1         2         3         4         5         6         7         8         9
 total charge-density along one line
 
 pseudopotential strength for first ion, spin component:           1
 -2.344  -4.039   0.000  -0.002   0.000
 -4.039  -6.874   0.000  -0.005   0.000
  0.000   0.000  -0.341  -0.000   0.000
 -0.002  -0.005  -0.000  -0.335   0.000
  0.000   0.000   0.000   0.000  -0.341
 pseudopotential strength for first ion, spin component:           2
 -2.344  -4.039   0.000  -0.002   0.000
 -4.039  -6.874   0.000  -0.005   0.000
  0.000   0.000  -0.341   0.000   0.000
 -0.002  -0.005   0.000  -0.335   0.000
  0.000   0.000   0.000   0.000  -0.341
 total augmentation occupancy for first ion, spin component:           1
  3.130  -0.497   0.000   0.377   0.000
 -0.497   0.079   0.000  -0.060   0.000
  0.000   0.000   0.000  -0.000  -0.000
  0.377  -0.060  -0.000   0.045   0.000
  0.000  -0.000  -0.000   0.000   0.000
 total augmentation occupancy for first ion, spin component:           2
 -0.000   0.000   0.000  -0.000   0.000
  0.000  -0.000   0.000   0.000   0.000
  0.000   0.000   0.000   0.000   0.000
 -0.000   0.000   0.000  -0.000   0.000
  0.000   0.000   0.000   0.000   0.000


------------------------ aborting loop because EDIFF is reached ----------------------------------------


    CHARGE:  cpu time      0.4509: real time      0.4548
    FORLOC:  cpu time      0.0261: real time      0.0264
    FORNL :  cpu time      0.0805: real time      0.0814
    STRESS:  cpu time      0.3682: real time      0.3721
    FORHAR:  cpu time      0.2970: real time      0.2995
    MIXING:  cpu time      0.0585: real time      0.0590
    OFIELD:  cpu time      0.0001: real time      0.0001

 ---------------------------------------------------------------------------------------------

         DFTD3 V3.0 Rev 1        
 Edisp (eV)   -0.00251

 E6    (eV) :    -0.0020
 E8    (eV) :    -0.0005
 % E8        : 21.27
    FORVDW:  cpu time      0.0052: real time      0.0053

  FORCE on cell =-STRESS in cart. coord.  units (eV):
  Direction    XX          YY          ZZ          XY          YZ          ZX
  --------------------------------------------------------------------------------------
  Alpha Z     0.00289     0.00289     0.00289
  Ewald      -1.81842    -1.81842    17.36946     0.00000    -0.00000    -0.00000
  Hartree     9.27303     9.27303    11.51344    -0.00000    -0.00000    -0.00000
  E(xc)      -5.97045    -5.97045    -5.74991     0.00000     0.00000     0.00000
  Local     -17.33141   -17.33141   -30.89110    -0.00000     0.00000    -0.00000
  n-local    -5.38929    -5.38929    -6.33397    -0.00000    -0.00000    -0.00000
  augment     0.27037     0.27037     0.20032     0.00000     0.00000     0.00000
  Kinetic    20.84475    20.84475    13.73441     0.00000    -0.00000     0.00000
  Fock        0.00000     0.00000     0.00000     0.00000     0.00000     0.00000
  vdW        -0.00001    -0.00001     0.00123    -0.00000    -0.00000    -0.00000
  -------------------------------------------------------------------------------------
  Total      -0.11853    -0.11853    -0.15324     0.00000     0.00000    -0.00000
  in kB      -0.05627    -0.05627    -0.07275     0.00000     0.00000    -0.00000
  external pressure =       -0.06 kB  Pullay stress =        0.00 kB


 VOLUME and BASIS-vectors are now :
 -----------------------------------------------------------------------------
  energy-cutoff  :      400.00
  volume of cell :     3375.00
      direct lattice vectors                 reciprocal lattice vectors
    15.000000000  0.000000000  0.000000000     0.066666667  0.000000000  0.000000000
     0.000000000 15.000000000  0.000000000     0.000000000  0.066666667  0.000000000
     0.000000000  0.000000000 15.000000000     0.000000000  0.000000000  0.066666667

  length of vectors
    15.000000000 15.000000000 15.000000000     0.066666667  0.066666667  0.066666667


 FORCES acting on ions
    electron-ion (+dipol)            ewald-force                    non-local-force                 convergence-correction
 -----------------------------------------------------------------------------------------------
   0.281E-13 -.173E-14 0.205E+02   0.710E-18 0.145E-18 -.255E+02   0.947E-29 -.142E-28 0.504E+01   -.336E-14 -.942E-15 -.510E-05
   0.284E-13 0.173E-13 -.205E+02   -.228E-18 -.330E-18 0.255E+02   0.268E-28 -.233E-28 -.504E+01   -.332E-14 -.936E-15 0.510E-05
 -----------------------------------------------------------------------------------------------
   0.564E-13 0.156E-13 0.284E-13   0.482E-18 -.185E-18 0.000E+00   0.363E-28 -.375E-28 0.000E+00   -.668E-14 -.188E-14 -.360E-14
 
 
 POSITION                                       TOTAL-FORCE (eV/Angst)
 -----------------------------------------------------------------------------------
      7.50000      7.50000      7.12452         0.000000     -0.000000      0.000197
      7.50000      7.50000      7.87548        -0.000000      0.000000     -0.000197
 -----------------------------------------------------------------------------------
    total drift:                                0.000000      0.000000      0.000000


--------------------------------------------------------------------------------------------------------



  FREE ENERGIE OF THE ION-ELECTRON SYSTEM (eV)
  ---------------------------------------------------
  free  energy   TOTEN  =        -6.76210911 eV

  energy  without entropy=       -6.76210911  energy(sigma->0) =       -6.76210911
 d Force = 0.8139276E-02[ 0.448E-05, 0.163E-01]  d Energy = 0.8342829E-02-0.204E-03
 d Force =-0.5631315E+00[-0.580E+00,-0.546E+00]  d Ewald  =-0.5628812E+00-0.250E-03
 


--------------------------------------------------------------------------------------------------------


    POTLOK:  cpu time      2.2198: real time      2.2381


--------------------------------------------------------------------------------------------------------




--------------------------------------------------------------------------------------------------------


  
 reached required accuracy - stopping structural energy minimisation
     LOOP+:  cpu time     36.3940: real time     36.7721
    4ORBIT:  cpu time      0.0000: real time      0.0000

 total amount of memory used by VASP MPI-rank0   161072. kBytes
=======================================================================

   base                                    :      30000. kBytes
   nonl-proj                               :       1106. kBytes
   fftplans                                :      39505. kBytes
   grid                                    :      88984. kBytes
   one-center                              :          2. kBytes
   wavefun                                 :       1475. kBytes
 
  
  
 General timing and accounting informations for this job:
 ========================================================
  
                  Total CPU time used (sec):      138.768
                            User time (sec):      131.214
                          System time (sec):        7.554
                         Elapsed time (sec):      140.514
  
                   Maximum memory used (kb):      437404.
                   Average memory used (kb):          N/A
  
                          Minor page faults:        65019
                          Major page faults:           66
                 Voluntary context switches:         1217
