CrCl3 2x2 + Co | Bands U_all | Site S3 (Top-Cr apical, z=+2.58A)
   1.0000000000000000     
    12.0925489970493256    0.0000000000000000    0.0000000000000000
    -6.0462744985246628   10.4724546279527502    0.0000000000000000
     0.0000000000000000    0.0000000000000000   20.0000000000000000
   Cr   Cl   Co
     8    24     1
Direct
  0.1656659479057912  0.3338128666076137  0.5006792905522648
  0.3271056781079819  0.1650307061984941  0.4987663081143490
  0.6666666666666714  0.3333333333333286  0.4903039192031854
  0.8349692938015062  0.1620749719094879  0.4987663081143490
  0.1681469187018296  0.8343340520942090  0.5006792905522648
  0.3333333333333286  0.6666666666666714  0.5019599405517960
  0.6661871333923862  0.8318530812981704  0.5006792905522648
  0.8379250280905122  0.6728943218920175  0.4987663081143490
  0.1760942241754002  0.5017535626837321  0.4344677438599601
  0.4962982031575655  0.1793465621997710  0.4280675490342635
  0.3234110031133485  0.3269809588597853  0.4334608002807406
  0.3201791350159102  0.4994168104522969  0.5700073950061122
  0.9974340454368207  0.3210499505800974  0.5680182922036968
  0.1744617436164578  0.1778496173965191  0.5689198484948967
  0.6830483590422060  0.5037017968424349  0.4280675490342635
  0.0068222797630074  0.1788362042584897  0.4304863953722913
  0.8206534378002286  0.3169516409577944  0.4280675490342635
  0.8317899760701983  0.4947524085733446  0.5687096547430094
  0.5052475914266553  0.3370375674968465  0.5687096547430094
  0.6629624325031537  0.1682100239298015  0.5687096547430094
  0.1720139244954822  0.9931777202369927  0.4304863953722913
  0.4982464373162676  0.6743406614916677  0.4344677438599601
  0.3256593385083321  0.8239057758245995  0.4344677438599601
  0.3236159051432913  0.0025659545631793  0.5680182922036968
  0.0033878737800757  0.8255382563835426  0.5689198484948967
  0.1792376754363869  0.6798208649840899  0.5700073950061122
  0.6730190411402146  0.9964300442535632  0.4334608002807406
  0.0035699557464367  0.6765889968866516  0.4334608002807406
  0.8211637957415104  0.8279860755045177  0.4304863953722913
  0.8221503826034806  0.9966121262199242  0.5689198484948967
  0.5005831895477029  0.8207623245636129  0.5700073950061122
  0.6789500494198953  0.6763840948567090  0.5680182922036968
  0.6666666666666714  0.3333333333333286  0.6279863072602720

  0.00000000E+00  0.00000000E+00  0.00000000E+00
  0.00000000E+00  0.00000000E+00  0.00000000E+00
  0.00000000E+00  0.00000000E+00  0.00000000E+00
  0.00000000E+00  0.00000000E+00  0.00000000E+00
  0.00000000E+00  0.00000000E+00  0.00000000E+00
  0.00000000E+00  0.00000000E+00  0.00000000E+00
  0.00000000E+00  0.00000000E+00  0.00000000E+00
  0.00000000E+00  0.00000000E+00  0.00000000E+00
  0.00000000E+00  0.00000000E+00  0.00000000E+00
  0.00000000E+00  0.00000000E+00  0.00000000E+00
  0.00000000E+00  0.00000000E+00  0.00000000E+00
  0.00000000E+00  0.00000000E+00  0.00000000E+00
  0.00000000E+00  0.00000000E+00  0.00000000E+00
  0.00000000E+00  0.00000000E+00  0.00000000E+00
  0.00000000E+00  0.00000000E+00  0.00000000E+00
  0.00000000E+00  0.00000000E+00  0.00000000E+00
  0.00000000E+00  0.00000000E+00  0.00000000E+00
  0.00000000E+00  0.00000000E+00  0.00000000E+00
  0.00000000E+00  0.00000000E+00  0.00000000E+00
  0.00000000E+00  0.00000000E+00  0.00000000E+00
  0.00000000E+00  0.00000000E+00  0.00000000E+00
  0.00000000E+00  0.00000000E+00  0.00000000E+00
  0.00000000E+00  0.00000000E+00  0.00000000E+00
  0.00000000E+00  0.00000000E+00  0.00000000E+00
  0.00000000E+00  0.00000000E+00  0.00000000E+00
  0.00000000E+00  0.00000000E+00  0.00000000E+00
  0.00000000E+00  0.00000000E+00  0.00000000E+00
  0.00000000E+00  0.00000000E+00  0.00000000E+00
  0.00000000E+00  0.00000000E+00  0.00000000E+00
  0.00000000E+00  0.00000000E+00  0.00000000E+00
  0.00000000E+00  0.00000000E+00  0.00000000E+00
  0.00000000E+00  0.00000000E+00  0.00000000E+00
  0.00000000E+00  0.00000000E+00  0.00000000E+00
