CrCl3 1x1 + H S3 top-Cr (D3, U=0) (a=6.0
    1.000000000000000     
     6.0462744985246628    0.0000000000000000    0.0000000000000000
    -3.0231372492623314    5.2362273139763751    0.0000000000000000
     0.0000000000000000    0.0000000000000000   20.0000000000000000
   Cr   Cl   H 
     2     6     1
Direct
     0.3333333333333357    0.6666666666666643    0.4975710827020400
     0.6666666666666643    0.3333333333333357    0.5016891144122306
     0.3588749227796462    0.0011803008516769    0.4334860855777495
     0.9988196991483230    0.3576946219279692    0.4334860855777495
     0.6423053780720308    0.6411250772203538    0.4334860855777495
     0.6441465320938247    0.9812876442017648    0.5661692930865235
     0.0187123557982353    0.6628588878920598    0.5661692930865235
     0.3371411121079401    0.3558534679061754    0.5661692930865235
     0.6666666666666643    0.3333333333333357    0.5792736668929110
 
  0.00000000E+00  0.00000000E+00  0.00000000E+00
  0.00000000E+00  0.00000000E+00  0.00000000E+00
  0.00000000E+00  0.00000000E+00  0.00000000E+00
  0.00000000E+00  0.00000000E+00  0.00000000E+00
  0.00000000E+00  0.00000000E+00  0.00000000E+00
  0.00000000E+00  0.00000000E+00  0.00000000E+00
  0.00000000E+00  0.00000000E+00  0.00000000E+00
  0.00000000E+00  0.00000000E+00  0.00000000E+00
  0.00000000E+00  0.00000000E+00  0.00000000E+00
