       N       E                     dE             d eps       ncg     rms          rms(c)
DAV:   1     0.530006108956E+03    0.53001E+03   -0.15652E+04   720   0.921E+02
DAV:   2     0.876842803068E+02   -0.44232E+03   -0.42092E+03   952   0.251E+02
DAV:   3    -0.368722869026E+02   -0.12456E+03   -0.12225E+03  1048   0.134E+02
DAV:   4    -0.445733168373E+02   -0.77010E+01   -0.76196E+01   984   0.477E+01
DAV:   5    -0.448407952144E+02   -0.26748E+00   -0.26669E+00  1044   0.852E+00    0.233E+01
DAV:   6    -0.439354977966E+02    0.90530E+00   -0.49801E+01  1080   0.713E+01    0.237E+01
DAV:   7    -0.406315616071E+02    0.33039E+01   -0.14980E+01  1088   0.895E+01    0.110E+01
DAV:   8    -0.404971691728E+02    0.13439E+00   -0.44624E+00  1108   0.189E+01    0.611E+00
DAV:   9    -0.402557085190E+02    0.24146E+00   -0.11851E+00  1120   0.164E+01    0.401E+00
DAV:  10    -0.402016245178E+02    0.54084E-01   -0.44797E-01  1092   0.835E+00    0.120E+00
DAV:  11    -0.403131489901E+02   -0.11152E+00   -0.50553E-02  1076   0.178E+00    0.552E-01
DAV:  12    -0.404022619724E+02   -0.89113E-01   -0.10890E-02  1036   0.693E-01    0.279E-01
DAV:  13    -0.404470896354E+02   -0.44828E-01   -0.29409E-03  1012   0.403E-01    0.205E-01
DAV:  14    -0.405203630813E+02   -0.73273E-01   -0.70754E-03   912   0.336E-01    0.127E-01
DAV:  15    -0.405482654130E+02   -0.27902E-01   -0.16799E-03   972   0.192E-01    0.102E-01
DAV:  16    -0.405762431575E+02   -0.27978E-01   -0.17174E-03   840   0.146E-01    0.660E-02
DAV:  17    -0.406002072917E+02   -0.23964E-01   -0.23935E-03   884   0.157E-01    0.298E-02
DAV:  18    -0.406025178557E+02   -0.23106E-02   -0.23898E-04   908   0.595E-02    0.187E-02
DAV:  19    -0.406029887293E+02   -0.47087E-03   -0.37348E-05   876   0.264E-02    0.908E-03
DAV:  20    -0.406032173673E+02   -0.22864E-03   -0.24236E-05   788   0.193E-02    0.666E-03
DAV:  21    -0.406032597264E+02   -0.42359E-04   -0.32771E-06   764   0.736E-03    0.378E-03
DAV:  22    -0.406032974109E+02   -0.37684E-04   -0.11229E-06   544   0.458E-03    0.147E-03
DAV:  23    -0.406033448535E+02   -0.47443E-04   -0.18814E-06   584   0.546E-03    0.161E-03
DAV:  24    -0.406033706442E+02   -0.25791E-04   -0.99708E-07   608   0.470E-03    0.130E-03
DAV:  25    -0.406033800023E+02   -0.93581E-05   -0.29244E-07   512   0.271E-03    0.648E-04
DAV:  26    -0.406033884991E+02   -0.84968E-05   -0.28015E-07   500   0.252E-03    0.577E-04
DAV:  27    -0.406033937542E+02   -0.52552E-05   -0.18911E-07   500   0.238E-03    0.361E-04
DAV:  28    -0.406033973817E+02   -0.36275E-05   -0.16516E-07   464   0.184E-03    0.289E-04
DAV:  29    -0.406033994958E+02   -0.21140E-05   -0.10382E-07   456   0.190E-03    0.242E-04
DAV:  30    -0.406034006591E+02   -0.11633E-05   -0.72468E-08   444   0.126E-03    0.142E-04
DAV:  31    -0.406034015792E+02   -0.92007E-06   -0.55637E-08   456   0.111E-03
   1 F= -.41488304E+02 E0= -.41488304E+02  d E =-.414883E+02  mag=     5.0000
       N       E                     dE             d eps       ncg     rms          rms(c)
DAV:   1    -0.406235151513E+02   -0.20114E-01   -0.98763E+00   720   0.130E+01    0.173E+00
DAV:   2    -0.407029503889E+02   -0.79435E-01   -0.83369E-01  1084   0.902E+00    0.170E+00
DAV:   3    -0.406919638278E+02    0.10987E-01   -0.83212E-02  1084   0.494E+00    0.731E-01
DAV:   4    -0.406897389927E+02    0.22248E-02   -0.92968E-03  1104   0.156E+00    0.546E-01
DAV:   5    -0.406888252293E+02    0.91376E-03   -0.46104E-03  1000   0.412E-01    0.329E-01
DAV:   6    -0.406890585530E+02   -0.23332E-03   -0.14622E-03  1080   0.437E-01    0.951E-02
DAV:   7    -0.406891138996E+02   -0.55347E-04   -0.12637E-04  1032   0.879E-02    0.495E-02
DAV:   8    -0.406891299104E+02   -0.16011E-04   -0.16306E-05  1080   0.438E-02    0.446E-02
DAV:   9    -0.406891275104E+02    0.24000E-05   -0.23413E-05   804   0.246E-02    0.219E-02
DAV:  10    -0.406891325961E+02   -0.50857E-05   -0.13366E-05  1112   0.292E-02    0.425E-03
DAV:  11    -0.406891360311E+02   -0.34350E-05   -0.70151E-07   472   0.494E-03    0.168E-03
DAV:  12    -0.406891381749E+02   -0.21437E-05   -0.32098E-07   464   0.501E-03    0.123E-03
DAV:  13    -0.406891403217E+02   -0.21468E-05   -0.18825E-07   456   0.313E-03    0.775E-04
DAV:  14    -0.406891417674E+02   -0.14457E-05   -0.67555E-08   452   0.211E-03    0.467E-04
DAV:  15    -0.406891433416E+02   -0.15742E-05   -0.43430E-08   452   0.134E-03    0.343E-04
DAV:  16    -0.406891440832E+02   -0.74159E-06   -0.23301E-08   480   0.108E-03
   2 F= -.41577302E+02 E0= -.41577302E+02  d E =-.889981E-01  mag=     5.0000
       N       E                     dE             d eps       ncg     rms          rms(c)
DAV:   1    -0.406130586659E+02    0.76085E-01   -0.17240E+01   720   0.172E+01    0.227E+00
DAV:   2    -0.407515360591E+02   -0.13848E+00   -0.14298E+00  1084   0.119E+01    0.224E+00
DAV:   3    -0.407333709722E+02    0.18165E-01   -0.12785E-01  1080   0.629E+00    0.937E-01
DAV:   4    -0.407296447188E+02    0.37263E-02   -0.13306E-02  1092   0.200E+00    0.708E-01
DAV:   5    -0.407280545271E+02    0.15902E-02   -0.71420E-03  1016   0.511E-01    0.439E-01
DAV:   6    -0.407283495831E+02   -0.29506E-03   -0.23499E-03  1108   0.522E-01    0.117E-01
DAV:   7    -0.407284432110E+02   -0.93628E-04   -0.22016E-04  1060   0.113E-01    0.647E-02
DAV:   8    -0.407284666894E+02   -0.23478E-04   -0.43928E-05  1084   0.938E-02    0.598E-02
DAV:   9    -0.407284540640E+02    0.12625E-04   -0.37326E-05  1036   0.422E-02    0.278E-02
DAV:  10    -0.407284578098E+02   -0.37458E-05   -0.17478E-05  1112   0.333E-02    0.592E-03
DAV:  11    -0.407284607339E+02   -0.29242E-05   -0.13977E-06   452   0.831E-03    0.330E-03
DAV:  12    -0.407284628286E+02   -0.20947E-05   -0.94100E-07   448   0.104E-02    0.185E-03
DAV:  13    -0.407284644565E+02   -0.16279E-05   -0.42556E-07   452   0.412E-03    0.157E-03
DAV:  14    -0.407284654452E+02   -0.98870E-06   -0.11084E-07   444   0.343E-03
   3 F= -.41619773E+02 E0= -.41619773E+02  d E =-.131469E+00  mag=     5.0000
       N       E                     dE             d eps       ncg     rms          rms(c)
DAV:   1    -0.406984516430E+02    0.30013E-01   -0.96781E+00   720   0.131E+01    0.163E+00
DAV:   2    -0.407633295272E+02   -0.64878E-01   -0.69143E-01  1104   0.686E+00    0.111E+00
DAV:   3    -0.407608665959E+02    0.24629E-02   -0.57418E-02  1120   0.393E+00    0.781E-01
DAV:   4    -0.407567369850E+02    0.41296E-02   -0.10706E-02  1100   0.189E+00    0.443E-01
DAV:   5    -0.407546294867E+02    0.21075E-02   -0.27462E-03   864   0.248E-01    0.298E-01
DAV:   6    -0.407530511114E+02    0.15784E-02   -0.16864E-03  1096   0.435E-01    0.850E-02
DAV:   7    -0.407536410361E+02   -0.58992E-03   -0.20650E-04  1056   0.118E-01    0.460E-02
DAV:   8    -0.407546880089E+02   -0.10470E-02   -0.45063E-05  1048   0.549E-02    0.328E-02
DAV:   9    -0.407558069031E+02   -0.11189E-02   -0.20836E-05   992   0.289E-02    0.172E-02
DAV:  10    -0.407568863264E+02   -0.10794E-02   -0.18634E-05   912   0.193E-02    0.828E-03
DAV:  11    -0.407577766971E+02   -0.89037E-03   -0.10188E-05   904   0.138E-02    0.539E-03
DAV:  12    -0.407585688357E+02   -0.79214E-03   -0.10096E-05   888   0.129E-02    0.417E-03
DAV:  13    -0.407592405530E+02   -0.67172E-03   -0.13640E-05   872   0.119E-02    0.273E-03
DAV:  14    -0.407596123751E+02   -0.37182E-03   -0.13112E-05   856   0.949E-03    0.112E-03
DAV:  15    -0.407596580145E+02   -0.45639E-04   -0.11726E-06   688   0.400E-03    0.546E-04
DAV:  16    -0.407596694862E+02   -0.11472E-04   -0.43072E-07   552   0.281E-03    0.302E-04
DAV:  17    -0.407596709419E+02   -0.14557E-05   -0.20654E-07   480   0.245E-03    0.203E-04
DAV:  18    -0.407596711856E+02   -0.24367E-06   -0.10119E-07   472   0.168E-03
   4 F= -.41652942E+02 E0= -.41652942E+02  d E =-.331697E-01  mag=     5.0000
       N       E                     dE             d eps       ncg     rms          rms(c)
DAV:   1    -0.407596976863E+02   -0.26744E-04   -0.22347E-02   752   0.627E-01    0.779E-02
DAV:   2    -0.407598237550E+02   -0.12607E-03   -0.15096E-03  1116   0.312E-01    0