 running   16 mpi-ranks, with    1 threads/rank, on    1 nodes
 distrk:  each k-point on   16 cores,    1 groups
 distr:  one band on    4 cores,    4 groups
 vasp.6.5.1 10Mar25 (build Jan 13 2026 20:43:53) complex                         
 POSCAR found type information on POSCAR CrClH 
 POSCAR found :  3 types and       9 ions
 scaLAPACK will be used
 LDA part: xc-table for (Slater+PW92), standard interpolation
 POSCAR, INCAR and KPOINTS ok, starting setup
 FFT: planning ... GRIDC
 FFT: planning ... GRID_SOFT
 FFT: planning ... GRID
 WAVECAR not read
 entering main loop
       N       E                     dE             d eps       ncg     rms          rms(c)
DAV:   1     0.530006108956E+03    0.53001E+03   -0.15652E+04   720   0.921E+02
DAV:   2     0.876842803068E+02   -0.44232E+03   -0.42092E+03   952   0.251E+02
DAV:   3    -0.368722869026E+02   -0.12456E+03   -0.12225E+03  1048   0.134E+02
DAV:   4    -0.445733168373E+02   -0.77010E+01   -0.76196E+01   984   0.477E+01
DAV:   5    -0.448407952144E+02   -0.26748E+00   -0.26669E+00  1044   0.852E+00    0.233E+01
DAV:   6    -0.439354977966E+02    0.90530E+00   -0.49801E+01  1080   0.713E+01    0.237E+01
DAV:   7    -0.406315616071E+02    0.33039E+01   -0.14980E+01  1088   0.895E+01    0.110E+01
DAV:   8    -0.404971691728E+02    0.13439E+00   -0.44624E+00  1108   0.189E+01    0.611E+00
DAV:   9    -0.402557085190E+02    0.24146E+00   -0.11851E+00  1120   0.164E+01    0.401E+00
DAV:  10    -0.402016245178E+02    0.54084E-01   -0.44797E-01  1092   0.835E+00    0.120E+00
DAV:  11    -0.403131489901E+02   -0.11152E+00   -0.50553E-02  1076   0.178E+00    0.552E-01
DAV:  12    -0.404022619724E+02   -0.89113E-01   -0.10890E-02  1036   0.693E-01    0.279E-01
DAV:  13    -0.404470896354E+02   -0.44828E-01   -0.29409E-03  1012   0.403E-01    0.205E-01
DAV:  14    -0.405203630813E+02   -0.73273E-01   -0.70754E-03   912   0.336E-01    0.127E-01
DAV:  15    -0.405482654130E+02   -0.27902E-01   -0.16799E-03   972   0.192E-01    0.102E-01
DAV:  16    -0.405762431575E+02   -0.27978E-01   -0.17174E-03   840   0.146E-01    0.660E-02
DAV:  17    -0.406002072917E+02   -0.23964E-01   -0.23935E-03   884   0.157E-01    0.298E-02
DAV:  18    -0.406025178557E+02   -0.23106E-02   -0.23898E-04   908   0.595E-02    0.187E-02
DAV:  19    -0.406029887293E+02   -0.47087E-03   -0.37348E-05   876   0.264E-02    0.908E-03
DAV:  20    -0.406032173673E+02   -0.22864E-03   -0.24236E-05   788   0.193E-02    0.666E-03
DAV:  21    -0.406032597264E+02   -0.42359E-04   -0.32771E-06   764   0.736E-03    0.378E-03
DAV:  22    -0.406032974109E+02   -0.37684E-04   -0.11229E-06   544   0.458E-03    0.147E-03
DAV:  23    -0.406033448535E+02   -0.47443E-04   -0.18814E-06   584   0.546E-03    0.161E-03
DAV:  24    -0.406033706442E+02   -0.25791E-04   -0.99708E-07   608   0.470E-03    0.130E-03
DAV:  25    -0.406033800023E+02   -0.93581E-05   -0.29244E-07   512   0.271E-03    0.648E-04
DAV:  26    -0.406033884991E+02   -0.84968E-05   -0.28015E-07   500   0.252E-03    0.577E-04
DAV:  27    -0.406033937542E+02   -0.52552E-05   -0.18911E-07   500   0.238E-03    0.361E-04
DAV:  28    -0.406033973817E+02   -0.36275E-05   -0.16516E-07   464   0.184E-03    0.289E-04
DAV:  29    -0.406033994958E+02   -0.21140E-05   -0.10382E-07   456   0.190E-03    0.242E-04
DAV:  30    -0.406034006591E+02   -0.11633E-05   -0.72468E-08   444   0.126E-03    0.142E-04
DAV:  31    -0.406034015792E+02   -0.92007E-06   -0.55637E-08   456   0.111E-03
   1 F= -.41488304E+02 E0= -.41488304E+02  d E =-.414883E+02  mag=     5.0000
 curvature:   0.00 expect dE= 0.000E+00 dE for cont linesearch  0.000E+00
 trial: gam= 0.00000 g(F)=  0.113E+00 g(S)=  0.000E+00 ort = 0.000E+00 (trialstep = 0.100E+01)
 search vector abs. value=  0.113E+00
 bond charge predicted
       N       E                     dE             d eps       ncg     rms          rms(c)
DAV:   1    -0.406235151513E+02   -0.20114E-01   -0.98763E+00   720   0.130E+01    0.173E+00
DAV:   2    -0.407029503889E+02   -0.79435E-01   -0.83369E-01  1084   0.902E+00    0.170E+00
DAV:   3    -0.406919638278E+02    0.10987E-01   -0.83212E-02  1084   0.494E+00    0.731E-01
DAV:   4    -0.406897389927E+02    0.22248E-02   -0.92968E-03  1104   0.156E+00    0.546E-01
DAV:   5    -0.406888252293E+02    0.91376E-03   -0.46104E-03  1000   0.412E-01    0.329E-01
DAV:   6    -0.406890585530E+02   -0.23332E-03   -0.14622E-03  1080   0.437E-01    0.951E-02
DAV:   7    -0.406891138996E+02   -0.55347E-04   -0.12637E-04  1032   0.879E-02    0.495E-02
DAV:   8    -0.406891299104E+02   -0.16011E-04   -0.16306E-05  1080   0.438E-02    0.446E-02
DAV:   9    -0.406891275104E+02    0.24000E-05   -0.23413E-05   804   0.246E-02    0.219E-02
DAV:  10    -0.406891325961E+02   -0.50857E-05   -0.13366E-05  1112   0.292E-02    0.425E-03
DAV:  11    -0.406891360311E+02   -0.34350E-05   -0.70151E-07   472   0.494E-03    0.168E-03
DAV:  12    -0.406891381749E+02   -0.21437E-05   -0.32098E-07   464   0.501E-03    0.123E-03
DAV:  13    -0.406891403217E+02   -0.21468E-05   -0.18825E-07   456   0.313E-03    0.775E-04
DAV:  14    -0.406891417674E+02   -0.14457E-05   -0.67555E-08   452   0.211E-03    0.467E-04
DAV:  15    -0.406891433416E+02   -0.15742E-05   -0.43430E-08   452   0.134E-03    0.343E-04
DAV:  16    -0.406891440832E+02   -0.74159E-06   -0.23301E-08   480   0.108E-03
   2 F= -.41577302E+02 E0= -.41577302E+02  d E =-.889981E-01  mag=     5.0000
 trial-energy change:   -0.088998  1 .order   -0.088966   -0.113399   -0.064533
 step:   2.3206(harm=  2.3206)  dis= 0.08272  next Energy=   -41.619881 (dE=-0.132E+00)
 bond charge predicted
       N       E                     dE             d eps       ncg     rms          rms(c)
DAV:   1    -0.406130586659E+02    0.76085E-01   -0.17240E+01   720   0.172E+01    0.227E+00
DAV:   2    -0.407515360591E+02   -0.13848E+00   -0.14298E+00  1084   0.119E+01    0.224E+00
DAV:   3    -0.407333709722E+02    0.18165E-01   -0.12785E-01  1080   0.629E+00    0.937E-01
DAV:   4    -0.407296447188E+02    0.37263E-02   -0.13306E-02  1092   0.200E+00    0.708E-01
DAV:   5    -0.407280545271E+02    0.15902E-02   -0.71420E-03  1016   0.511E-01    0.439E-01
DAV:   6    -0.407283495831E+02   -0.29506E-03   -0.23499E-03  1108   0.522E-01    0.117E-01
DAV:   7    -0.407284432110E+02   -0.93628E-04   -0.22016E-04  1060   0.113E-01    0.647E-02
DAV:   8    -0.407284666894E+02   -0.23478E-04   -0.43928E-05  1084   0.938E-02    0.598E-02
DAV:   9    -0.407284540640E+02    0.12625E-04   -0.37326E-05  1036   0.422E-02    0.278E-02
DAV:  10    -0.407284578098E+02   -0.37458E-05   -0.17478E-05  1112   0.333E-02    0.592E-03
DAV:  11    -0.407284607339E+02   -0.29242E-05   -0.13977E-06   452   0.831E-03    0.330E-03
DAV:  12    -0.407284628286E+02   -0.20947E-05   -0.94100E-07   448   0.104E-02    0.185E-03
DAV:  13    -0.407284644565E+02   -0.16279E-05   -0.42556E-07   452   0.412E-03    0.157E-03
DAV:  14    -0.407284654452E+02   -0.98870E-06   -0.11084E-07   444   0.343E-03
   3 F= -.41619773E+02 E0= -.41619773E+02  d E =-.131469E+00  mag=     5.0000
 curvature:  -1.16 expect dE=-0.664E-01 dE for cont linesearch -0.772E-06
 trial: gam= 0.50736 g(F)=  0.573E-01 g(S)=  0.000E+00 ort =-0.275E-03 (trialstep = 0.126E+01)
 search vector abs. value=  0.862E-01
 bond charge predicted
       N       E                     dE             d eps       ncg     rms          rms(c)
DAV:   1    -0.406984516430E+02    0.30013E-01   -0.96781E+00   720   0.131E+01    0.163E+00
DAV:   2    -0.407633295272E+02   -0.64878E-01   -0.69143E-01  1104   0.686E+00    0.111E+00
DAV:   3    -0.407608665959E+02    0.24629E-02   -0.57418E-02  1120   0.393E+00    0.781E-01
DAV:   4    -0.407567369850E+02    0.41296E-02   -0.10706E-02  1100   0.189E+00    0.443E-01
DAV:   5    -0.407546294867E+02    0.21075E-02   -0.27462E-03   864   0.248E-01    0.298E-01
DAV:   6    -0.407530511114E+02    0.15784E-02   -0.16864E-03  1096   0.435E-01    0.850E-02
DAV:   7    -0.407536410361E+02   -0.58992E-03   -0.20650E-04  1056   0.118E-01    0.460E-02
DAV:   8    -0.407546880089E+02   -0.10470E-02   -0.45063E-05  1048   0.549E-02    0.328E-02
DAV:   9    -0.407558069031E+02   -0.11189E-02   -0.20836E-05   992   0.289E-02    0.172E-02
DAV:  10    -0.407568863264E+02   -0.10794E-02   -0.18634E-05   912   0.193E-02    0.828E-03
DAV:  11    -0.407577766971E+02   -0.89037E-03   -0.10188E-05   904   0.138E-02    0.539E-03
DAV:  12    -0.407585688357E+02   -0.79214E-03   -0.10096E-05   888   0.129E-02    0.417E-03
DAV:  13    -0.407592405530E+02   -0.67172E-03   -0.13640E-05   872   0.119E-02    0.273E-03
DAV:  14    -0.407596123751E+02   -0.37182E-03   -0.13112E-05   856   0.949E-03    0.112E-03
DAV:  15    -0.407596580145E+02   -0.45639E-04   -0.11726E-06   688   0.400E-03    0.546E-04
DAV:  16    -0.407596694862E+02   -0.11472E-04   -0.43072E-07   552   0.281E-03    0.302E-04
DAV:  17    -0.407596709419E+02   -0.14557E-05   -0.20654E-07   480   0.245E-03    0.203E-04
DAV:  18    -0.407596711856E+02   -0.24367E-06   -0.10119E-07   472   0.168E-03
   4 F= -.41652942E+02 E0= -.41652942E+02  d E =-.331697E-01  mag=     5.0000
 trial-energy change:   -0.033170  1 .order   -0.034470   -0.072208    0.003269
 step:   1.2034(harm=  1.2094)  dis= 0.04242  next Energy=   -41.653021 (dE=-0.332E-01)
 bond charge predicted
       N       E                     dE             d eps       ncg     rms          rms(c)
DAV:   1    -0.407596976863E+02   -0.26744E-04   -0.22347E-02   752   0.627E-01    0.779E-02
DAV:   2    -0.407598237550E+02   -0.12607E-03   -0.15096E-03  1116   0.312E-01    0.475E-02
DAV:   3    -0.407598245078E+02   -0.75279E-06   -0.12244E-04  1120   0.178E-01    0.366E-02
DAV:   4    -0.407598084149E+02    0.16093E-04   -0.23358E-05  1120   0.907E-02    0.197E-02
DAV:   5    -0.407597894136E+02    0.19001E-04   -0.58452E-06   824   0.117E-02    0.134E-02
DAV:   6    -0.407597719095E+02    0.17504E-04   -0.21832E-06   568   0.199E-02    0.380E-03
DAV:   7    -0.407597747767E+02   -0.28672E-05   -0.13897E-06   428   0.120E-02    0.298E-03
DAV:   8    -0.407597796390E+02   -0.48623E-05   -0.99415E-07   444   0.736E-03    0.204E-03
DAV:   9    -0.407597895137E+02   -0.98747E-05   -0.45961E-07   480   0.474E-03    0.175E-03
DAV:  10    -0.407597993355E+02   -0.98218E-05   -0.16313E-07   480   0.326E-03    0.987E-04
DAV:  11    -0.407598084552E+02   -0.91198E-05   -0.13883E-07   480   0.285E-03    0.833E-04
DAV:  12    -0.407598134341E+02   -0.49789E-05   -0.10787E-07   480   0.276E-03    0.523E-04
DAV:  13    -0.407598168917E+02   -0.34576E-05   -0.86880E-08   480   0.163E-03    0.428E-04
DAV:  14    -0.407598238815E+02   -0.69898E-05   -0.11344E-07   508   0.148E-03    0.317E-04
DAV:  15    -0.407598317646E+02   -0.78831E-05   -0.19587E-07   524   0.184E-03    0.365E-04
DAV:  16    -0.407598322591E+02   -0.49444E-06   -0.62354E-08   480   0.180E-03
   5 F= -.41653019E+02 E0= -.41653019E+02  d E =-.332460E-01  mag=     5.0000
 curvature:  -0.90 expect dE=-0.274E-01 dE for cont linesearch -0.158E-08
 trial: gam= 0.55971 g(F)=  0.304E-01 g(S)=  0.000E+00 ort = 0.123E-04 (trialstep = 0.125E+01)
 search vector abs. value=  0.574E-01
 bond charge predicted
       N       E                     dE             d eps       ncg     rms          rms(c)
DAV:   1    -0.407406603766E+02    0.19171E-01   -0.71619E+00   720   0.113E+01    0.135E+00
DAV:   2    -0.407899115825E+02   -0.49251E-01   -0.51366E-01  1096   0.519E+00    0.928E-01
DAV:   3    -0.407888107825E+02    0.11008E-02   -0.19050E-02  1120   0.213E+00    0.541E-01
DAV:   4    -0.407874036517E+02    0.14071E-02   -0.40205E-03  1104   0.103E+00    0.358E-01
DAV:   5    -0.407867711769E+02    0.63247E-03   -0.14470E-03  1100   0.392E-01    0.272E-01
DAV:   6    -0.407862205213E+02    0.55066E-03   -0.18164E-03  1068   0.310E-01    0.847E-02
DAV:   7    -0.407864870454E+02   -0.26652E-03   -0.20452E-04   916   0.988E-02    0.281E-02
DAV:   8    -0.407867247520E+02   -0.23771E-03   -0.15077E-05  1000   0.314E-02    0.186E-02
DAV:   9    -0.407870012590E+02   -0.27651E-03   -0.43381E-06   820   0.180E-02    0.124E-02
DAV:  10    -0.407872943750E+02   -0.29312E-03   -0.62500E-06   932   0.160E-02    0.411E-03
DAV:  11    -0.407875312097E+02   -0.23683E-03   -0.33125E-06   768   0.813E-03    0.275E-03
DAV:  12    -0.407876063929E+02   -0.75183E-04   -0.46164E-07   520   0.463E-03    0.237E-03
DAV:  13    -0.407877540156E+02   -0.14762E-03   -0.18557E-06   676   0.458E-03    0.168E-03
DAV:  14    -0.407879484303E+02   -0.19441E-03   -0.51810E-06   804   0.620E-03    0.110E-03
DAV:  15    -0.407879905908E+02   -0.42161E-04   -0.59811E-07   616   0.313E-03    0.866E-04
DAV:  16    -0.407880069058E+02   -0.16315E-04   -0.44924E-07   520   0.291E-03    0.465E-04
DAV:  17    -0.407880156848E+02   -0.87790E-05   -0.37208E-07   548   0.266E-03    0.264E-04
DAV:  18    -0.407880174322E+02   -0.17474E-05   -0.16904E-07   480   0.231E-03    0.233E-04
DAV:  19    -0.407880178451E+02   -0.41282E-06   -0.90083E-08   472   0.152E-03
   6 F= -.41683302E+02 E0= -.41683302E+02  d E =-.302838E-01  mag=     5.0000
 trial-energy change:   -0.030284  1 .order   -0.030255   -0.038014   -0.022495
 step:   3.0668(harm=  3.0668)  dis= 0.06400  next Energy=   -41.699578 (dE=-0.466E-01)
 bond charge predicted
       N       E                     dE             d eps       ncg     rms          rms(c)
DAV:   1    -0.407009431543E+02    0.87074E-01   -0.15028E+01   720   0.165E+01    0.199E+00
DAV:   2    -0.408070179820E+02   -0.10607E+00   -0.11076E+00  1100   0.780E+00    0.146E+00
DAV:   3    -0.408039669074E+02    0.30511E-02   -0.44538E-02  1112   0.334E+00    0.791E-01
DAV:   4    -0.408008795282E+02    0.30874E-02   -0.91560E-03  1112   0.159E+00    0.530E-01
DAV:   5    -0.407996072375E+02    0.12723E-02   -0.28932E-03  1100   0.577E-01    0.405E-01
DAV:   6    -0.407983336371E+02    0.12736E-02   -0.41189E-03  1044   0.436E-01    0.123E-01
DAV:   7    -0.407988536204E+02   -0.51998E-03   -0.49267E-04   932   0.153E-01    0.437E-02
DAV:   8    -0.407992384612E+02   -0.38484E-03   -0.36282E-05  1068   0.610E-02    0.279E-02
DAV:   9    -0.407997836453E+02   -0.54518E-03   -0.90198E-06   984   0.249E-02    0.188E-02
DAV:  10    -0.408003873772E+02   -0.60373E-03   -0.12129E-05  1036   0.224E-02    0.575E-03
DAV:  11    -0.408007862741E+02   -0.39890E-03   -0.59693E-06   852   0.118E-02    0.411E-03
DAV:  12    -0.408009234454E+02   -0.13717E-03   -0.72495E-07   592   0.567E-03    0.355E-03
DAV:  13    -0.408012500977E+02   -0.32665E-03   -0.55032E-06   756   0.715E-03    0.207E-03
DAV:  14    -0.408015136900E+02   -0.26359E-03   -0.64015E-06   848   0.691E-03    0.205E-03
DAV:  15    -0.408015841187E+02   -0.70429E-04   -0.11072E-06   680   0.353E-03    0.129E-03
DAV:  16    -0.408016202221E+02   -0.36103E-04   -0.11330E-06   652   0.376E-03    0.449E-04
DAV:  17    -0.408016244522E+02   -0.42301E-05   -0.22056E-07   480   0.289E-03    0.273E-04
DAV:  18    -0.408016261105E+02   -0.16584E-05   -0.14180E-07   480   0.169E-03    0.201E-04
DAV:  19    -0.408016267224E+02   -0.61187E-06   -0.72907E-08   472   0.164E-03
   7 F= -.41699282E+02 E0= -.41699282E+02  d E =-.462633E-01  mag=     5.0000
 curvature:  -2.90 expect dE=-0.249E-01 dE for cont linesearch -0.103E-04
 trial: gam= 0.27907 g(F)=  0.859E-02 g(S)=  0.000E+00 ort =-0.451E-03 (trialstep = 0.161E+01)
 search vector abs. value=  0.128E-01
 bond charge predicted
       N       E                     dE             d eps       ncg     rms          rms(c)
DAV:   1    -0.407860032452E+02    0.15623E-01   -0.28561E+00   720   0.719E+00    0.116E+00
DAV:   2    -0.408053423343E+02   -0.19339E-01   -0.16933E-01  1100   0.270E+00    0.572E-01
DAV:   3    -0.408091684618E+02   -0.38261E-02   -0.39367E-03  1008   0.477E-01    0.306E-01
DAV:   4    -0.408088038541E+02    0.36461E-03   -0.57580E-04  1040   0.154E-01    0.221E-01
DAV:   5    -0.408084218076E+02    0.38205E-03   -0.80318E-04  1096   0.244E-01    0.118E-01
DAV:   6    -0.408084417307E+02   -0.19923E-04   -0.32271E-04  1088   0.260E-01    0.498E-02
DAV:   7    -0.408085552889E+02   -0.11356E-03   -0.58105E-05  1096   0.125E-01    0.225E-02
DAV:   8    -0.408087810914E+02   -0.22580E-03   -0.11019E-05  1044   0.365E-02    0.145E-02
DAV:   9    -0.408089762539E+02   -0.19516E-03   -0.33421E-06   752   0.146E-02    0.663E-03
DAV:  10    -0.408091277835E+02   -0.15153E-03   -0.31201E-06   736   0.981E-03    0.304E-03
DAV:  11    -0.408092520536E+02   -0.12427E-03   -0.11283E-06   632   0.679E-03    0.185E-03
DAV:  12    -0.408093181853E+02   -0.66132E-04   -0.57881E-07   528   0.489E-03    0.166E-03
DAV:  13    -0.408094188097E+02   -0.10062E-03   -0.15936E-06   712   0.512E-03    0.133E-03
DAV:  14    -0.408094929221E+02   -0.74112E-04   -0.90161E-07   632   0.382E-03    0.101E-03
DAV:  15    -0.408095538820E+02   -0.60960E-04   -0.13010E-06   684   0.464E-03    0.648E-04
DAV:  16    -0.408095761151E+02   -0.22233E-04   -0.61255E-07   600   0.332E-03    0.330E-04
DAV:  17    -0.408095797681E+02   -0.36529E-05   -0.23398E-07   480   0.277E-03    0.319E-04
DAV:  18    -0.408095812213E+02   -0.14532E-05   -0.14177E-07   480   0.186E-03    0.141E-04
DAV:  19    -0.408095819412E+02   -0.71998E-06   -0.88597E-08   464   0.169E-03
   8 F= -.41706864E+02 E0= -.41706864E+02  d E =-.758208E-02  mag=     5.0000
 trial-energy change:   -0.007582  1 .order   -0.007547   -0.013676   -0.001418
 step:   1.7983(harm=  1.8018)  dis= 0.01509  next Energy=   -41.706944 (dE=-0.766E-02)
 bond charge predicted
       N       E                     dE             d eps       ncg     rms          rms(c)
DAV:   1    -0.408094078049E+02    0.17342E-03   -0.36801E-02   720   0.815E-01    0.128E-01
DAV:   2    -0.408096075403E+02   -0.19974E-03   -0.21675E-03  1068   0.302E-01    0.578E-02
DAV:   3    -0.408096885695E+02   -0.81029E-04   -0.52667E-05   792   0.486E-02    0.329E-02
DAV:   4    -0.408096796725E+02    0.88970E-05   -0.89721E-06   880   0.169E-02    0.242E-02
DAV:   5    -0.408096611412E+02    0.18531E-04   -0.10362E-05   904   0.176E-02    0.109E-02
DAV:   6    -0.408096625952E+02   -0.14540E-05   -0.18753E-06   532   0.153E-02    0.438E-03
DAV:   7    -0.408096678383E+02   -0.52432E-05   -0.65665E-07   424   0.135E-02    0.318E-03
DAV:   8    -0.408096753194E+02   -0.74811E-05   -0.44106E-07   508   0.735E-03    0.191E-03
DAV:   9    -0.408096835291E+02   -0.82097E-05   -0.34699E-07   484   0.407E-03    0.143E-03
DAV:  10    -0.408096865654E+02   -0.30363E-05   -0.13041E-07   480   0.228E-03    0.117E-03
DAV:  11    -0.408096907904E+02   -0.42250E-05   -0.63890E-08   472   0.176E-03    0.926E-04
DAV:  12    -0.408096963323E+02   -0.55419E-05   -0.70623E-08   476   0.175E-03    0.514E-04
DAV:  13    -0.408097018299E+02   -0.54976E-05   -0.95690E-08   480   0.217E-03    0.484E-04
DAV:  14    -0.408097031856E+02   -0.13556E-05   -0.54872E-08   480   0.161E-03    0.186E-04
DAV:  15    -0.408097047014E+02   -0.15158E-05   -0.37071E-08   472   0.954E-04    0.235E-04
DAV:  16    -0.408097067727E+02   -0.20713E-05   -0.33935E-08   472   0.952E-04    0.165E-04
DAV:  17    -0.408097098391E+02   -0.30664E-05   -0.93982E-08   500   0.983E-04    0.137E-04
DAV:  18    -0.408097100404E+02   -0.20133E-06   -0.26611E-08   480   0.114E-03
   9 F= -.41706947E+02 E0= -.41706947E+02  d E =-.766503E-02  mag=     5.0000
 curvature:  -1.36 expect dE=-0.226E-02 dE for cont linesearch -0.928E-08
 trial: gam= 0.16647 g(F)=  0.166E-02 g(S)=  0.000E+00 ort = 0.934E-05 (trialstep = 0.165E+01)
 search vector abs. value=  0.202E-02
 bond charge predicted
       N       E                     dE             d eps       ncg     rms          rms(c)
DAV:   1    -0.408088581369E+02    0.85170E-03   -0.48834E-01   720   0.295E+00    0.433E-01
DAV:   2    -0.408118480210E+02   -0.29899E-02   -0.30514E-02  1048   0.138E+00    0.260E-01
DAV:   3    -0.408118661861E+02   -0.18165E-04   -0.16636E-03  1120   0.653E-01    0.167E-01
DAV:   4    -0.408116821926E+02    0.18399E-03   -0.29865E-04  1116   0.302E-01    0.112E-01
DAV:   5    -0.408114614840E+02    0.22071E-03   -0.16804E-04  1108   0.131E-01    0.795E-02
DAV:   6    -0.408112957132E+02    0.16577E-03   -0.12323E-04  1092   0.102E-01    0.286E-02
DAV:   7    -0.408113574466E+02   -0.61733E-04   -0.14876E-05  1064   0.440E-02    0.129E-02
DAV:   8    -0.408114776908E+02   -0.12024E-03   -0.33179E-06   696   0.110E-02    0.780E-03
DAV:   9    -0.408116110986E+02   -0.13341E-03   -0.24523E-06   712   0.107E-02    0.436E-03
DAV:  10    -0.408117026875E+02   -0.91589E-04   -0.11672E-06   604   0.101E-02    0.239E-03
DAV:  11    -0.408118170004E+02   -0.11431E-03   -0.24007E-06   728   0.721E-03    0.166E-03
DAV:  12    -0.408118667963E+02   -0.49796E-04   -0.42793E-07   504   0.434E-03    0.140E-03
DAV:  13    -0.408119596697E+02   -0.92873E-04   -0.16488E-06   668   0.429E-03    0.124E-03
DAV:  14    -0.408120228841E+02   -0.63214E-04   -0.12878E-06   696   0.476E-03    0.124E-03
DAV:  15    -0.408120372125E+02   -0.14328E-04   -0.24228E-07   504   0.302E-03    0.724E-04
DAV:  16    -0.408120517268E+02   -0.14514E-04   -0.39461E-07   548   0.225E-03    0.428E-04
DAV:  17    -0.408120572589E+02   -0.55320E-05   -0.19766E-07   504   0.246E-03    0.368E-04
DAV:  18    -0.408120579218E+02   -0.66290E-06   -0.90793E-08   480   0.174E-03
  10 F= -.41708503E+02 E0= -.41708503E+02  d E =-.155636E-02  mag=     5.0000
 trial-energy change:   -0.001556  1 .order   -0.001549   -0.002745   -0.000354
 step:   1.8916(harm=  1.8964)  dis= 0.00906  next Energy=   -41.708529 (dE=-0.158E-02)
 bond charge predicted
       N       E                     dE             d eps       ncg     rms          rms(c)
DAV:   1    -0.408121333666E+02   -0.76108E-04   -0.10316E-02   764   0.429E-01    0.623E-02
