CrCl3 2x2 Clean Substrate (D3, U=0) (a_2
    1.000000000000000     
    12.0925489970493256    0.0000000000000000    0.0000000000000000
    -6.0462744985246628   10.4724546279527502    0.0000000000000000
     0.0000000000000000    0.0000000000000000   20.0000000000000000
   Cr   Cl
     8    24
Direct
     0.1666666666666714    0.3333333333333286    0.5000000000000000
     0.3333333333333286    0.1666666666666714    0.5000000000000000
     0.6666666666666714    0.3333333333333286    0.5000000000000000
     0.8333333333333286    0.1666666666666714    0.5000000000000000
     0.1666666666666714    0.8333333333333286    0.5000000000000000
     0.3333333333333286    0.6666666666666714    0.5000000000000000
     0.6666666666666714    0.8333333333333286    0.5000000000000000
     0.8333333333333286    0.6666666666666714    0.5000000000000000
     0.1794970570205638    0.5000000000000000    0.4332190382953673
     0.5000000000000000    0.1794970570205638    0.4332190382953673
     0.3205029429794362    0.3205029429794362    0.4332190382953673
     0.3205029429794362    0.5000000000000000    0.5667809617046327
     1.0000000000000000    0.3205029429794362    0.5667809617046327
     0.1794970570205638    0.1794970570205638    0.5667809617046327
     0.6794970570205638    0.5000000000000000    0.4332190382953673
     1.0000000000000000    0.1794970570205638    0.4332190382953673
     0.8205029429794362    0.3205029429794362    0.4332190382953673
     0.8205029429794362    0.5000000000000000    0.5667809617046327
     0.5000000000000000    0.3205029429794362    0.5667809617046327
     0.6794970570205638    0.1794970570205638    0.5667809617046327
     0.1794970570205638    1.0000000000000000    0.4332190382953673
     0.5000000000000000    0.6794970570205638    0.4332190382953673
     0.3205029429794362    0.8205029429794362    0.4332190382953673
     0.3205029429794362    1.0000000000000000    0.5667809617046327
     1.0000000000000000    0.8205029429794362    0.5667809617046327
     0.1794970570205638    0.6794970570205638    0.5667809617046327
     0.6794970570205638    1.0000000000000000    0.4332190382953673
     1.0000000000000000    0.6794970570205638    0.4332190382953673
     0.8205029429794362    0.8205029429794362    0.4332190382953673
     0.8205029429794362    1.0000000000000000    0.5667809617046327
     0.5000000000000000    0.8205029429794362    0.5667809617046327
     0.6794970570205638    0.6794970570205638    0.5667809617046327
 
  0.00000000E+00  0.00000000E+00  0.00000000E+00
  0.00000000E+00  0.00000000E+00  0.00000000E+00
  0.00000000E+00  0.00000000E+00  0.00000000E+00
  0.00000000E+00  0.00000000E+00  0.00000000E+00
  0.00000000E+00  0.00000000E+00  0.00000000E+00
  0.00000000E+00  0.00000000E+00  0.00000000E+00
  0.00000000E+00  0.00000000E+00  0.00000000E+00
  0.00000000E+00  0.00000000E+00  0.00000000E+00
  0.00000000E+00  0.00000000E+00  0.00000000E+00
  0.00000000E+00  0.00000000E+00  0.00000000E+00
  0.00000000E+00  0.00000000E+00  0.00000000E+00
  0.00000000E+00  0.00000000E+00  0.00000000E+00
  0.00000000E+00  0.00000000E+00  0.00000000E+00
  0.00000000E+00  0.00000000E+00  0.00000000E+00
  0.00000000E+00  0.00000000E+00  0.00000000E+00
  0.00000000E+00  0.00000000E+00  0.00000000E+00
  0.00000000E+00  0.00000000E+00  0.00000000E+00
  0.00000000E+00  0.00000000E+00  0.00000000E+00
  0.00000000E+00  0.00000000E+00  0.00000000E+00
  0.00000000E+00  0.00000000E+00  0.00000000E+00
  0.00000000E+00  0.00000000E+00  0.00000000E+00
  0.00000000E+00  0.00000000E+00  0.00000000E+00
  0.00000000E+00  0.00000000E+00  0.00000000E+00
  0.00000000E+00  0.00000000E+00  0.00000000E+00
  0.00000000E+00  0.00000000E+00  0.00000000E+00
  0.00000000E+00  0.00000000E+00  0.00000000E+00
  0.00000000E+00  0.00000000E+00  0.00000000E+00
  0.00000000E+00  0.00000000E+00  0.00000000E+00
  0.00000000E+00  0.00000000E+00  0.00000000E+00
  0.00000000E+00  0.00000000E+00  0.00000000E+00
  0.00000000E+00  0.00000000E+00  0.00000000E+00
  0.00000000E+00  0.00000000E+00  0.00000000E+00
