       N       E                     dE             d eps       ncg     rms          rms(c)
DAV:   1     0.207344803937E+04    0.20734E+04   -0.61385E+04  2952   0.915E+02
DAV:   2     0.407405778653E+03   -0.16660E+04   -0.15471E+04  3520   0.246E+02
DAV:   3    -0.127803507632E+03   -0.53521E+03   -0.51951E+03  4112   0.139E+02
DAV:   4    -0.172106503442E+03   -0.44303E+02   -0.43626E+02  4432   0.570E+01
DAV:   5    -0.172975832236E+03   -0.86933E+00   -0.85045E+00  4408   0.100E+01    0.408E+01
DAV:   6    -0.162500532061E+03    0.10475E+02   -0.14714E+02  4288   0.622E+01    0.419E+01
DAV:   7    -0.155983295903E+03    0.65172E+01   -0.23097E+01  4200   0.556E+01    0.199E+01
DAV:   8    -0.156470788700E+03   -0.48749E+00   -0.55312E+00  3744   0.559E+00    0.921E+00
DAV:   9    -0.156205378894E+03    0.26541E+00   -0.11208E+00  4304   0.835E+00    0.282E+00
DAV:  10    -0.156211952368E+03   -0.65735E-02   -0.24091E-01  4248   0.243E+00    0.131E+00
DAV:  11    -0.156225257290E+03   -0.13305E-01   -0.15793E-02  4112   0.834E-01    0.538E-01
DAV:  12    -0.156248009054E+03   -0.22752E-01   -0.73787E-03  4080   0.304E-01    0.285E-01
DAV:  13    -0.156260292193E+03   -0.12283E-01   -0.81358E-04  3800   0.110E-01    0.116E-01
DAV:  14    -0.156268223722E+03   -0.79315E-02   -0.24849E-04  3928   0.485E-02    0.791E-02
DAV:  15    -0.156275800907E+03   -0.75772E-02   -0.14860E-04  3272   0.265E-02    0.366E-02
DAV:  16    -0.156281121569E+03   -0.53207E-02   -0.11553E-04  4088   0.448E-02    0.319E-02
DAV:  17    -0.156282615365E+03   -0.14938E-02   -0.18388E-05  3624   0.147E-02    0.207E-02
DAV:  18    -0.156286030176E+03   -0.34148E-02   -0.10946E-04  3024   0.194E-02    0.216E-02
DAV:  19    -0.156286433792E+03   -0.40362E-03   -0.14984E-05  3456   0.116E-02    0.853E-03
DAV:  20    -0.156286498812E+03   -0.65020E-04   -0.50694E-06  2848   0.597E-03    0.454E-03
DAV:  21    -0.156286603186E+03   -0.10437E-03   -0.15615E-06  2176   0.359E-03    0.370E-03
DAV:  22    -0.156286675898E+03   -0.72711E-04   -0.13031E-06  2176   0.224E-03    0.154E-03
DAV:  23    -0.156286708832E+03   -0.32934E-04   -0.46628E-07  1944   0.168E-03    0.129E-03
DAV:  24    -0.156286744235E+03   -0.35403E-04   -0.12871E-06  2144   0.220E-03    0.195E-03
DAV:  25    -0.156286753449E+03   -0.92137E-05   -0.17686E-07  1816   0.200E-03    0.105E-03
DAV:  26    -0.156286759272E+03   -0.58229E-05   -0.85645E-08  1616   0.674E-04    0.397E-04
DAV:  27    -0.156286769222E+03   -0.99506E-05   -0.98719E-08  1696   0.714E-04    0.742E-04
DAV:  28    -0.156286775994E+03   -0.67720E-05   -0.11762E-07  1768   0.685E-04    0.544E-04
DAV:  29    -0.156286779563E+03   -0.35686E-05   -0.83311E-08  1592   0.788E-04    0.463E-04
DAV:  30    -0.156286780623E+03   -0.10597E-05   -0.53600E-08  1608   0.627E-04    0.198E-04
DAV:  31    -0.156286781151E+03   -0.52866E-06   -0.32921E-08  1568   0.503E-04
   1 F= -.15993279E+03 E0= -.15993279E+03  d E =-.159933E+03  mag=    24.0000
       N       E                     dE             d eps       ncg     rms          rms(c)
DAV:   1    -0.156285382563E+03    0.13981E-02   -0.16018E-01  3008   0.794E-01    0.229E-01
DAV:   2    -0.156286329835E+03   -0.94727E-03   -0.11330E-02  4000   0.378E-01    0.137E-01
DAV:   3    -0.156286277118E+03    0.52717E-04   -0.22675E-04  3848   0.102E-01    0.861E-02
DAV:   4    -0.156286265264E+03    0.11854E-04   -0.24820E-05  4128   0.268E-02    0.688E-02
DAV:   5    -0.156286249228E+03    0.16035E-04   -0.53705E-05  3112   0.167E-02    0.389E-02
DAV:   6    -0.156286250578E+03   -0.13498E-05   -0.17840E-05  4104   0.223E-02    0.112E-02
DAV:   7    -0.156286252263E+03   -0.16845E-05   -0.12589E-06  1648   0.364E-03    0.429E-03
DAV:   8    -0.156286253807E+03   -0.15440E-05   -0.37586E-07  1664   0.267E-03    0.511E-03
DAV:   9    -0.156286255397E+03   -0.15906E-05   -0.83580E-08  1616   0.137E-03    0.247E-03
DAV:  10    -0.156286256733E+03   -0.13355E-05   -0.72456E-08  1632   0.945E-04    0.126E-03
DAV:  11    -0.156286257457E+03   -0.72393E-06   -0.59738E-08  1656   0.855E-04
   2 F= -.15993430E+03 E0= -.15993430E+03  d E =-.151209E-02  mag=    24.0000
