CrCl3 2x2 + H S3 top-Cr (no_vdw, U=0) (a
    1.000000000000000     
    12.0925489970493256    0.0000000000000000    0.0000000000000000
    -6.0462744985246628   10.4724546279527502    0.0000000000000000
     0.0000000000000000    0.0000000000000000   20.0000000000000000
   Cr   Cl   H 
     8    24     1
Direct
     0.1665709432525161    0.3333013154339473    0.4997453570520723
     0.3306399439852863    0.1656574785580034    0.4986223634421551
     0.6666666666666714    0.3333333333333286    0.5073345359486929
     0.8343425214419966    0.1649824654272971    0.4986223634421551
     0.1667303721814454    0.8334290567474838    0.4997453570520723
     0.3333333333333286    0.6666666666666714    0.4999157576340612
     0.6666986845660527    0.8332696278185546    0.4997453570520723
     0.8350175345727031    0.6693600560147136    0.4986223634421551
     0.1798230566653338    0.5001609896531497    0.4331414541204701
     0.5020953254279403    0.1824162980079137    0.4360393987481353
     0.3183262436150438    0.3194554022928525    0.4319738120790217
     0.3200093628135923    0.5000695384507265    0.5668777333097206
     0.9994808242846014    0.3193323298799650    0.5664094497035362
     0.1767736774806046    0.1779920586701040    0.5661430195913758
     0.6803209725799736    0.4979046745720600    0.4360393987481353
     0.0020633804254042    0.1801835210991161    0.4320625056702691
     0.8175837019920863    0.3196790274200264    0.4360393987481353
     0.8354279332234087    0.5099113533385539    0.5642302686070141
     0.4900886466614460    0.3255165798848547    0.5642302686070141
     0.6744834201151454    0.1645720667765913    0.5642302686070141
     0.1781201406737120    0.9979366195745959    0.4320625056702691
     0.4998390103468505    0.6796620670121842    0.4331414541204701
     0.3203379329878158    0.8201769433346662    0.4331414541204701
     0.3198515055953636    0.0005191757153987    0.5664094497035362
     0.0012183811894995    0.8232263225193955    0.5661430195913758
     0.1800601756371340    0.6799906371864077    0.5668777333097206
     0.6805445977071474    0.9988708413221914    0.4319738120790217
     0.0011291586778087    0.6816737563849564    0.4319738120790217
     0.8198164789008840    0.8218798593262880    0.4320625056702691
     0.8220079413298959    0.9987816188105005    0.5661430195913758
     0.4999304615492736    0.8199398243628658    0.5668777333097206
     0.6806676701200350    0.6801484944046362    0.5664094497035362
     0.6666666666666714    0.3333333333333286    0.5845136194459353
 
  0.00000000E+00  0.00000000E+00  0.00000000E+00
  0.00000000E+00  0.00000000E+00  0.00000000E+00
  0.00000000E+00  0.00000000E+00  0.00000000E+00
  0.00000000E+00  0.00000000E+00  0.00000000E+00
  0.00000000E+00  0.00000000E+00  0.00000000E+00
  0.00000000E+00  0.00000000E+00  0.00000000E+00
  0.00000000E+00  0.00000000E+00  0.00000000E+00
  0.00000000E+00  0.00000000E+00  0.00000000E+00
  0.00000000E+00  0.00000000E+00  0.00000000E+00
  0.00000000E+00  0.00000000E+00  0.00000000E+00
  0.00000000E+00  0.00000000E+00  0.00000000E+00
  0.00000000E+00  0.00000000E+00  0.00000000E+00
  0.00000000E+00  0.00000000E+00  0.00000000E+00
  0.00000000E+00  0.00000000E+00  0.00000000E+00
  0.00000000E+00  0.00000000E+00  0.00000000E+00
  0.00000000E+00  0.00000000E+00  0.00000000E+00
  0.00000000E+00  0.00000000E+00  0.00000000E+00
  0.00000000E+00  0.00000000E+00  0.00000000E+00
  0.00000000E+00  0.00000000E+00  0.00000000E+00
  0.00000000E+00  0.00000000E+00  0.00000000E+00
  0.00000000E+00  0.00000000E+00  0.00000000E+00
  0.00000000E+00  0.00000000E+00  0.00000000E+00
  0.00000000E+00  0.00000000E+00  0.00000000E+00
  0.00000000E+00  0.00000000E+00  0.00000000E+00
  0.00000000E+00  0.00000000E+00  0.00000000E+00
  0.00000000E+00  0.00000000E+00  0.00000000E+00
  0.00000000E+00  0.00000000E+00  0.00000000E+00
  0.00000000E+00  0.00000000E+00  0.00000000E+00
  0.00000000E+00  0.00000000E+00  0.00000000E+00
  0.00000000E+00  0.00000000E+00  0.00000000E+00
  0.00000000E+00  0.00000000E+00  0.00000000E+00
  0.00000000E+00  0.00000000E+00  0.00000000E+00
  0.00000000E+00  0.00000000E+00  0.00000000E+00
